 <VTKFile type="UnstructuredGrid"  version="0.1"   >
 <UnstructuredGrid>
 <Piece  NumberOfPoints="          1600 "  NumberOfCells="         1024 ">
 <Points>
 <DataArray  type="Float64" NumberOfComponents="3"  format="ascii" >
   0.0000000000000000        0.0000000000000000        0.0000000000000000     
   3.1250000000000000E-002   0.0000000000000000        0.0000000000000000     
   6.2500000000000000E-002   0.0000000000000000        0.0000000000000000     
   9.3750000000000000E-002   0.0000000000000000        0.0000000000000000     
  0.12500000000000000        0.0000000000000000        0.0000000000000000     
   0.0000000000000000        3.1250000000000000E-002   0.0000000000000000     
   3.1250000000000000E-002   3.1250000000000000E-002   0.0000000000000000     
   6.2500000000000000E-002   3.1250000000000000E-002   0.0000000000000000     
   9.3750000000000000E-002   3.1250000000000000E-002   0.0000000000000000     
  0.12500000000000000        3.1250000000000000E-002   0.0000000000000000     
   0.0000000000000000        6.2500000000000000E-002   0.0000000000000000     
   3.1250000000000000E-002   6.2500000000000000E-002   0.0000000000000000     
   6.2500000000000000E-002   6.2500000000000000E-002   0.0000000000000000     
   9.3750000000000000E-002   6.2500000000000000E-002   0.0000000000000000     
  0.12500000000000000        6.2500000000000000E-002   0.0000000000000000     
   0.0000000000000000        9.3750000000000000E-002   0.0000000000000000     
   3.1250000000000000E-002   9.3750000000000000E-002   0.0000000000000000     
   6.2500000000000000E-002   9.3750000000000000E-002   0.0000000000000000     
   9.3750000000000000E-002   9.3750000000000000E-002   0.0000000000000000     
  0.12500000000000000        9.3750000000000000E-002   0.0000000000000000     
   0.0000000000000000       0.12500000000000000        0.0000000000000000     
   3.1250000000000000E-002  0.12500000000000000        0.0000000000000000     
   6.2500000000000000E-002  0.12500000000000000        0.0000000000000000     
   9.3750000000000000E-002  0.12500000000000000        0.0000000000000000     
  0.12500000000000000       0.12500000000000000        0.0000000000000000     
  0.12500000000000000        0.0000000000000000        0.0000000000000000     
  0.15625000000000000        0.0000000000000000        0.0000000000000000     
  0.18750000000000000        0.0000000000000000        0.0000000000000000     
  0.21875000000000000        0.0000000000000000        0.0000000000000000     
  0.25000000000000000        0.0000000000000000        0.0000000000000000     
  0.12500000000000000        3.1250000000000000E-002   0.0000000000000000     
  0.15625000000000000        3.1250000000000000E-002   0.0000000000000000     
  0.18750000000000000        3.1250000000000000E-002   0.0000000000000000     
  0.21875000000000000        3.1250000000000000E-002   0.0000000000000000     
  0.25000000000000000        3.1250000000000000E-002   0.0000000000000000     
  0.12500000000000000        6.2500000000000000E-002   0.0000000000000000     
  0.15625000000000000        6.2500000000000000E-002   0.0000000000000000     
  0.18750000000000000        6.2500000000000000E-002   0.0000000000000000     
  0.21875000000000000        6.2500000000000000E-002   0.0000000000000000     
  0.25000000000000000        6.2500000000000000E-002   0.0000000000000000     
  0.12500000000000000        9.3750000000000000E-002   0.0000000000000000     
  0.15625000000000000        9.3750000000000000E-002   0.0000000000000000     
  0.18750000000000000        9.3750000000000000E-002   0.0000000000000000     
  0.21875000000000000        9.3750000000000000E-002   0.0000000000000000     
  0.25000000000000000        9.3750000000000000E-002   0.0000000000000000     
  0.12500000000000000       0.12500000000000000        0.0000000000000000     
  0.15625000000000000       0.12500000000000000        0.0000000000000000     
  0.18750000000000000       0.12500000000000000        0.0000000000000000     
  0.21875000000000000       0.12500000000000000        0.0000000000000000     
  0.25000000000000000       0.12500000000000000        0.0000000000000000     
  0.25000000000000000        0.0000000000000000        0.0000000000000000     
  0.28125000000000000        0.0000000000000000        0.0000000000000000     
  0.31250000000000000        0.0000000000000000        0.0000000000000000     
  0.34375000000000000        0.0000000000000000        0.0000000000000000     
  0.37500000000000000        0.0000000000000000        0.0000000000000000     
  0.25000000000000000        3.1250000000000000E-002   0.0000000000000000     
  0.28125000000000000        3.1250000000000000E-002   0.0000000000000000     
  0.31250000000000000        3.1250000000000000E-002   0.0000000000000000     
  0.34375000000000000        3.1250000000000000E-002   0.0000000000000000     
  0.37500000000000000        3.1250000000000000E-002   0.0000000000000000     
  0.25000000000000000        6.2500000000000000E-002   0.0000000000000000     
  0.28125000000000000        6.2500000000000000E-002   0.0000000000000000     
  0.31250000000000000        6.2500000000000000E-002   0.0000000000000000     
  0.34375000000000000        6.2500000000000000E-002   0.0000000000000000     
  0.37500000000000000        6.2500000000000000E-002   0.0000000000000000     
  0.25000000000000000        9.3750000000000000E-002   0.0000000000000000     
  0.28125000000000000        9.3750000000000000E-002   0.0000000000000000     
  0.31250000000000000        9.3750000000000000E-002   0.0000000000000000     
  0.34375000000000000        9.3750000000000000E-002   0.0000000000000000     
  0.37500000000000000        9.3750000000000000E-002   0.0000000000000000     
  0.25000000000000000       0.12500000000000000        0.0000000000000000     
  0.28125000000000000       0.12500000000000000        0.0000000000000000     
  0.31250000000000000       0.12500000000000000        0.0000000000000000     
  0.34375000000000000       0.12500000000000000        0.0000000000000000     
  0.37500000000000000       0.12500000000000000        0.0000000000000000     
  0.37500000000000000        0.0000000000000000        0.0000000000000000     
  0.40625000000000000        0.0000000000000000        0.0000000000000000     
  0.43750000000000000        0.0000000000000000        0.0000000000000000     
  0.46875000000000000        0.0000000000000000        0.0000000000000000     
  0.50000000000000000        0.0000000000000000        0.0000000000000000     
  0.37500000000000000        3.1250000000000000E-002   0.0000000000000000     
  0.40625000000000000        3.1250000000000000E-002   0.0000000000000000     
  0.43750000000000000        3.1250000000000000E-002   0.0000000000000000     
  0.46875000000000000        3.1250000000000000E-002   0.0000000000000000     
  0.50000000000000000        3.1250000000000000E-002   0.0000000000000000     
  0.37500000000000000        6.2500000000000000E-002   0.0000000000000000     
  0.40625000000000000        6.2500000000000000E-002   0.0000000000000000     
  0.43750000000000000        6.2500000000000000E-002   0.0000000000000000     
  0.46875000000000000        6.2500000000000000E-002   0.0000000000000000     
  0.50000000000000000        6.2500000000000000E-002   0.0000000000000000     
  0.37500000000000000        9.3750000000000000E-002   0.0000000000000000     
  0.40625000000000000        9.3750000000000000E-002   0.0000000000000000     
  0.43750000000000000        9.3750000000000000E-002   0.0000000000000000     
  0.46875000000000000        9.3750000000000000E-002   0.0000000000000000     
  0.50000000000000000        9.3750000000000000E-002   0.0000000000000000     
  0.37500000000000000       0.12500000000000000        0.0000000000000000     
  0.40625000000000000       0.12500000000000000        0.0000000000000000     
  0.43750000000000000       0.12500000000000000        0.0000000000000000     
  0.46875000000000000       0.12500000000000000        0.0000000000000000     
  0.50000000000000000       0.12500000000000000        0.0000000000000000     
  0.50000000000000000        0.0000000000000000        0.0000000000000000     
  0.53125000000000000        0.0000000000000000        0.0000000000000000     
  0.56250000000000000        0.0000000000000000        0.0000000000000000     
  0.59375000000000000        0.0000000000000000        0.0000000000000000     
  0.62500000000000000        0.0000000000000000        0.0000000000000000     
  0.50000000000000000        3.1250000000000000E-002   0.0000000000000000     
  0.53125000000000000        3.1250000000000000E-002   0.0000000000000000     
  0.56250000000000000        3.1250000000000000E-002   0.0000000000000000     
  0.59375000000000000        3.1250000000000000E-002   0.0000000000000000     
  0.62500000000000000        3.1250000000000000E-002   0.0000000000000000     
  0.50000000000000000        6.2500000000000000E-002   0.0000000000000000     
  0.53125000000000000        6.2500000000000000E-002   0.0000000000000000     
  0.56250000000000000        6.2500000000000000E-002   0.0000000000000000     
  0.59375000000000000        6.2500000000000000E-002   0.0000000000000000     
  0.62500000000000000        6.2500000000000000E-002   0.0000000000000000     
  0.50000000000000000        9.3750000000000000E-002   0.0000000000000000     
  0.53125000000000000        9.3750000000000000E-002   0.0000000000000000     
  0.56250000000000000        9.3750000000000000E-002   0.0000000000000000     
  0.59375000000000000        9.3750000000000000E-002   0.0000000000000000     
  0.62500000000000000        9.3750000000000000E-002   0.0000000000000000     
  0.50000000000000000       0.12500000000000000        0.0000000000000000     
  0.53125000000000000       0.12500000000000000        0.0000000000000000     
  0.56250000000000000       0.12500000000000000        0.0000000000000000     
  0.59375000000000000       0.12500000000000000        0.0000000000000000     
  0.62500000000000000       0.12500000000000000        0.0000000000000000     
  0.62500000000000000        0.0000000000000000        0.0000000000000000     
  0.65625000000000000        0.0000000000000000        0.0000000000000000     
  0.68750000000000000        0.0000000000000000        0.0000000000000000     
  0.71875000000000000        0.0000000000000000        0.0000000000000000     
  0.75000000000000000        0.0000000000000000        0.0000000000000000     
  0.62500000000000000        3.1250000000000000E-002   0.0000000000000000     
  0.65625000000000000        3.1250000000000000E-002   0.0000000000000000     
  0.68750000000000000        3.1250000000000000E-002   0.0000000000000000     
  0.71875000000000000        3.1250000000000000E-002   0.0000000000000000     
  0.75000000000000000        3.1250000000000000E-002   0.0000000000000000     
  0.62500000000000000        6.2500000000000000E-002   0.0000000000000000     
  0.65625000000000000        6.2500000000000000E-002   0.0000000000000000     
  0.68750000000000000        6.2500000000000000E-002   0.0000000000000000     
  0.71875000000000000        6.2500000000000000E-002   0.0000000000000000     
  0.75000000000000000        6.2500000000000000E-002   0.0000000000000000     
  0.62500000000000000        9.3750000000000000E-002   0.0000000000000000     
  0.65625000000000000        9.3750000000000000E-002   0.0000000000000000     
  0.68750000000000000        9.3750000000000000E-002   0.0000000000000000     
  0.71875000000000000        9.3750000000000000E-002   0.0000000000000000     
  0.75000000000000000        9.3750000000000000E-002   0.0000000000000000     
  0.62500000000000000       0.12500000000000000        0.0000000000000000     
  0.65625000000000000       0.12500000000000000        0.0000000000000000     
  0.68750000000000000       0.12500000000000000        0.0000000000000000     
  0.71875000000000000       0.12500000000000000        0.0000000000000000     
  0.75000000000000000       0.12500000000000000        0.0000000000000000     
  0.75000000000000000        0.0000000000000000        0.0000000000000000     
  0.78125000000000000        0.0000000000000000        0.0000000000000000     
  0.81250000000000000        0.0000000000000000        0.0000000000000000     
  0.84375000000000000        0.0000000000000000        0.0000000000000000     
  0.87500000000000000        0.0000000000000000        0.0000000000000000     
  0.75000000000000000        3.1250000000000000E-002   0.0000000000000000     
  0.78125000000000000        3.1250000000000000E-002   0.0000000000000000     
  0.81250000000000000        3.1250000000000000E-002   0.0000000000000000     
  0.84375000000000000        3.1250000000000000E-002   0.0000000000000000     
  0.87500000000000000        3.1250000000000000E-002   0.0000000000000000     
  0.75000000000000000        6.2500000000000000E-002   0.0000000000000000     
  0.78125000000000000        6.2500000000000000E-002   0.0000000000000000     
  0.81250000000000000        6.2500000000000000E-002   0.0000000000000000     
  0.84375000000000000        6.2500000000000000E-002   0.0000000000000000     
  0.87500000000000000        6.2500000000000000E-002   0.0000000000000000     
  0.75000000000000000        9.3750000000000000E-002   0.0000000000000000     
  0.78125000000000000        9.3750000000000000E-002   0.0000000000000000     
  0.81250000000000000        9.3750000000000000E-002   0.0000000000000000     
  0.84375000000000000        9.3750000000000000E-002   0.0000000000000000     
  0.87500000000000000        9.3750000000000000E-002   0.0000000000000000     
  0.75000000000000000       0.12500000000000000        0.0000000000000000     
  0.78125000000000000       0.12500000000000000        0.0000000000000000     
  0.81250000000000000       0.12500000000000000        0.0000000000000000     
  0.84375000000000000       0.12500000000000000        0.0000000000000000     
  0.87500000000000000       0.12500000000000000        0.0000000000000000     
  0.87500000000000000        0.0000000000000000        0.0000000000000000     
  0.90625000000000000        0.0000000000000000        0.0000000000000000     
  0.93750000000000000        0.0000000000000000        0.0000000000000000     
  0.96875000000000000        0.0000000000000000        0.0000000000000000     
   1.0000000000000000        0.0000000000000000        0.0000000000000000     
  0.87500000000000000        3.1250000000000000E-002   0.0000000000000000     
  0.90625000000000000        3.1250000000000000E-002   0.0000000000000000     
  0.93750000000000000        3.1250000000000000E-002   0.0000000000000000     
  0.96875000000000000        3.1250000000000000E-002   0.0000000000000000     
   1.0000000000000000        3.1250000000000000E-002   0.0000000000000000     
  0.87500000000000000        6.2500000000000000E-002   0.0000000000000000     
  0.90625000000000000        6.2500000000000000E-002   0.0000000000000000     
  0.93750000000000000        6.2500000000000000E-002   0.0000000000000000     
  0.96875000000000000        6.2500000000000000E-002   0.0000000000000000     
   1.0000000000000000        6.2500000000000000E-002   0.0000000000000000     
  0.87500000000000000        9.3750000000000000E-002   0.0000000000000000     
  0.90625000000000000        9.3750000000000000E-002   0.0000000000000000     
  0.93750000000000000        9.3750000000000000E-002   0.0000000000000000     
  0.96875000000000000        9.3750000000000000E-002   0.0000000000000000     
   1.0000000000000000        9.3750000000000000E-002   0.0000000000000000     
  0.87500000000000000       0.12500000000000000        0.0000000000000000     
  0.90625000000000000       0.12500000000000000        0.0000000000000000     
  0.93750000000000000       0.12500000000000000        0.0000000000000000     
  0.96875000000000000       0.12500000000000000        0.0000000000000000     
   1.0000000000000000       0.12500000000000000        0.0000000000000000     
   0.0000000000000000       0.12500000000000000        0.0000000000000000     
   3.1250000000000000E-002  0.12500000000000000        0.0000000000000000     
   6.2500000000000000E-002  0.12500000000000000        0.0000000000000000     
   9.3750000000000000E-002  0.12500000000000000        0.0000000000000000     
  0.12500000000000000       0.12500000000000000        0.0000000000000000     
   0.0000000000000000       0.15625000000000000        0.0000000000000000     
   3.1250000000000000E-002  0.15625000000000000        0.0000000000000000     
   6.2500000000000000E-002  0.15625000000000000        0.0000000000000000     
   9.3750000000000000E-002  0.15625000000000000        0.0000000000000000     
  0.12500000000000000       0.15625000000000000        0.0000000000000000     
   0.0000000000000000       0.18750000000000000        0.0000000000000000     
   3.1250000000000000E-002  0.18750000000000000        0.0000000000000000     
   6.2500000000000000E-002  0.18750000000000000        0.0000000000000000     
   9.3750000000000000E-002  0.18750000000000000        0.0000000000000000     
  0.12500000000000000       0.18750000000000000        0.0000000000000000     
   0.0000000000000000       0.21875000000000000        0.0000000000000000     
   3.1250000000000000E-002  0.21875000000000000        0.0000000000000000     
   6.2500000000000000E-002  0.21875000000000000        0.0000000000000000     
   9.3750000000000000E-002  0.21875000000000000        0.0000000000000000     
  0.12500000000000000       0.21875000000000000        0.0000000000000000     
   0.0000000000000000       0.25000000000000000        0.0000000000000000     
   3.1250000000000000E-002  0.25000000000000000        0.0000000000000000     
   6.2500000000000000E-002  0.25000000000000000        0.0000000000000000     
   9.3750000000000000E-002  0.25000000000000000        0.0000000000000000     
  0.12500000000000000       0.25000000000000000        0.0000000000000000     
  0.12500000000000000       0.12500000000000000        0.0000000000000000     
  0.15625000000000000       0.12500000000000000        0.0000000000000000     
  0.18750000000000000       0.12500000000000000        0.0000000000000000     
  0.21875000000000000       0.12500000000000000        0.0000000000000000     
  0.25000000000000000       0.12500000000000000        0.0000000000000000     
  0.12500000000000000       0.15625000000000000        0.0000000000000000     
  0.15625000000000000       0.15625000000000000        0.0000000000000000     
  0.18750000000000000       0.15625000000000000        0.0000000000000000     
  0.21875000000000000       0.15625000000000000        0.0000000000000000     
  0.25000000000000000       0.15625000000000000        0.0000000000000000     
  0.12500000000000000       0.18750000000000000        0.0000000000000000     
  0.15625000000000000       0.18750000000000000        0.0000000000000000     
  0.18750000000000000       0.18750000000000000        0.0000000000000000     
  0.21875000000000000       0.18750000000000000        0.0000000000000000     
  0.25000000000000000       0.18750000000000000        0.0000000000000000     
  0.12500000000000000       0.21875000000000000        0.0000000000000000     
  0.15625000000000000       0.21875000000000000        0.0000000000000000     
  0.18750000000000000       0.21875000000000000        0.0000000000000000     
  0.21875000000000000       0.21875000000000000        0.0000000000000000     
  0.25000000000000000       0.21875000000000000        0.0000000000000000     
  0.12500000000000000       0.25000000000000000        0.0000000000000000     
  0.15625000000000000       0.25000000000000000        0.0000000000000000     
  0.18750000000000000       0.25000000000000000        0.0000000000000000     
  0.21875000000000000       0.25000000000000000        0.0000000000000000     
  0.25000000000000000       0.25000000000000000        0.0000000000000000     
  0.25000000000000000       0.12500000000000000        0.0000000000000000     
  0.28125000000000000       0.12500000000000000        0.0000000000000000     
  0.31250000000000000       0.12500000000000000        0.0000000000000000     
  0.34375000000000000       0.12500000000000000        0.0000000000000000     
  0.37500000000000000       0.12500000000000000        0.0000000000000000     
  0.25000000000000000       0.15625000000000000        0.0000000000000000     
  0.28125000000000000       0.15625000000000000        0.0000000000000000     
  0.31250000000000000       0.15625000000000000        0.0000000000000000     
  0.34375000000000000       0.15625000000000000        0.0000000000000000     
  0.37500000000000000       0.15625000000000000        0.0000000000000000     
  0.25000000000000000       0.18750000000000000        0.0000000000000000     
  0.28125000000000000       0.18750000000000000        0.0000000000000000     
  0.31250000000000000       0.18750000000000000        0.0000000000000000     
  0.34375000000000000       0.18750000000000000        0.0000000000000000     
  0.37500000000000000       0.18750000000000000        0.0000000000000000     
  0.25000000000000000       0.21875000000000000        0.0000000000000000     
  0.28125000000000000       0.21875000000000000        0.0000000000000000     
  0.31250000000000000       0.21875000000000000        0.0000000000000000     
  0.34375000000000000       0.21875000000000000        0.0000000000000000     
  0.37500000000000000       0.21875000000000000        0.0000000000000000     
  0.25000000000000000       0.25000000000000000        0.0000000000000000     
  0.28125000000000000       0.25000000000000000        0.0000000000000000     
  0.31250000000000000       0.25000000000000000        0.0000000000000000     
  0.34375000000000000       0.25000000000000000        0.0000000000000000     
  0.37500000000000000       0.25000000000000000        0.0000000000000000     
  0.37500000000000000       0.12500000000000000        0.0000000000000000     
  0.40625000000000000       0.12500000000000000        0.0000000000000000     
  0.43750000000000000       0.12500000000000000        0.0000000000000000     
  0.46875000000000000       0.12500000000000000        0.0000000000000000     
  0.50000000000000000       0.12500000000000000        0.0000000000000000     
  0.37500000000000000       0.15625000000000000        0.0000000000000000     
  0.40625000000000000       0.15625000000000000        0.0000000000000000     
  0.43750000000000000       0.15625000000000000        0.0000000000000000     
  0.46875000000000000       0.15625000000000000        0.0000000000000000     
  0.50000000000000000       0.15625000000000000        0.0000000000000000     
  0.37500000000000000       0.18750000000000000        0.0000000000000000     
  0.40625000000000000       0.18750000000000000        0.0000000000000000     
  0.43750000000000000       0.18750000000000000        0.0000000000000000     
  0.46875000000000000       0.18750000000000000        0.0000000000000000     
  0.50000000000000000       0.18750000000000000        0.0000000000000000     
  0.37500000000000000       0.21875000000000000        0.0000000000000000     
  0.40625000000000000       0.21875000000000000        0.0000000000000000     
  0.43750000000000000       0.21875000000000000        0.0000000000000000     
  0.46875000000000000       0.21875000000000000        0.0000000000000000     
  0.50000000000000000       0.21875000000000000        0.0000000000000000     
  0.37500000000000000       0.25000000000000000        0.0000000000000000     
  0.40625000000000000       0.25000000000000000        0.0000000000000000     
  0.43750000000000000       0.25000000000000000        0.0000000000000000     
  0.46875000000000000       0.25000000000000000        0.0000000000000000     
  0.50000000000000000       0.25000000000000000        0.0000000000000000     
  0.50000000000000000       0.12500000000000000        0.0000000000000000     
  0.53125000000000000       0.12500000000000000        0.0000000000000000     
  0.56250000000000000       0.12500000000000000        0.0000000000000000     
  0.59375000000000000       0.12500000000000000        0.0000000000000000     
  0.62500000000000000       0.12500000000000000        0.0000000000000000     
  0.50000000000000000       0.15625000000000000        0.0000000000000000     
  0.53125000000000000       0.15625000000000000        0.0000000000000000     
  0.56250000000000000       0.15625000000000000        0.0000000000000000     
  0.59375000000000000       0.15625000000000000        0.0000000000000000     
  0.62500000000000000       0.15625000000000000        0.0000000000000000     
  0.50000000000000000       0.18750000000000000        0.0000000000000000     
  0.53125000000000000       0.18750000000000000        0.0000000000000000     
  0.56250000000000000       0.18750000000000000        0.0000000000000000     
  0.59375000000000000       0.18750000000000000        0.0000000000000000     
  0.62500000000000000       0.18750000000000000        0.0000000000000000     
  0.50000000000000000       0.21875000000000000        0.0000000000000000     
  0.53125000000000000       0.21875000000000000        0.0000000000000000     
  0.56250000000000000       0.21875000000000000        0.0000000000000000     
  0.59375000000000000       0.21875000000000000        0.0000000000000000     
  0.62500000000000000       0.21875000000000000        0.0000000000000000     
  0.50000000000000000       0.25000000000000000        0.0000000000000000     
  0.53125000000000000       0.25000000000000000        0.0000000000000000     
  0.56250000000000000       0.25000000000000000        0.0000000000000000     
  0.59375000000000000       0.25000000000000000        0.0000000000000000     
  0.62500000000000000       0.25000000000000000        0.0000000000000000     
  0.62500000000000000       0.12500000000000000        0.0000000000000000     
  0.65625000000000000       0.12500000000000000        0.0000000000000000     
  0.68750000000000000       0.12500000000000000        0.0000000000000000     
  0.71875000000000000       0.12500000000000000        0.0000000000000000     
  0.75000000000000000       0.12500000000000000        0.0000000000000000     
  0.62500000000000000       0.15625000000000000        0.0000000000000000     
  0.65625000000000000       0.15625000000000000        0.0000000000000000     
  0.68750000000000000       0.15625000000000000        0.0000000000000000     
  0.71875000000000000       0.15625000000000000        0.0000000000000000     
  0.75000000000000000       0.15625000000000000        0.0000000000000000     
  0.62500000000000000       0.18750000000000000        0.0000000000000000     
  0.65625000000000000       0.18750000000000000        0.0000000000000000     
  0.68750000000000000       0.18750000000000000        0.0000000000000000     
  0.71875000000000000       0.18750000000000000        0.0000000000000000     
  0.75000000000000000       0.18750000000000000        0.0000000000000000     
  0.62500000000000000       0.21875000000000000        0.0000000000000000     
  0.65625000000000000       0.21875000000000000        0.0000000000000000     
  0.68750000000000000       0.21875000000000000        0.0000000000000000     
  0.71875000000000000       0.21875000000000000        0.0000000000000000     
  0.75000000000000000       0.21875000000000000        0.0000000000000000     
  0.62500000000000000       0.25000000000000000        0.0000000000000000     
  0.65625000000000000       0.25000000000000000        0.0000000000000000     
  0.68750000000000000       0.25000000000000000        0.0000000000000000     
  0.71875000000000000       0.25000000000000000        0.0000000000000000     
  0.75000000000000000       0.25000000000000000        0.0000000000000000     
  0.75000000000000000       0.12500000000000000        0.0000000000000000     
  0.78125000000000000       0.12500000000000000        0.0000000000000000     
  0.81250000000000000       0.12500000000000000        0.0000000000000000     
  0.84375000000000000       0.12500000000000000        0.0000000000000000     
  0.87500000000000000       0.12500000000000000        0.0000000000000000     
  0.75000000000000000       0.15625000000000000        0.0000000000000000     
  0.78125000000000000       0.15625000000000000        0.0000000000000000     
  0.81250000000000000       0.15625000000000000        0.0000000000000000     
  0.84375000000000000       0.15625000000000000        0.0000000000000000     
  0.87500000000000000       0.15625000000000000        0.0000000000000000     
  0.75000000000000000       0.18750000000000000        0.0000000000000000     
  0.78125000000000000       0.18750000000000000        0.0000000000000000     
  0.81250000000000000       0.18750000000000000        0.0000000000000000     
  0.84375000000000000       0.18750000000000000        0.0000000000000000     
  0.87500000000000000       0.18750000000000000        0.0000000000000000     
  0.75000000000000000       0.21875000000000000        0.0000000000000000     
  0.78125000000000000       0.21875000000000000        0.0000000000000000     
  0.81250000000000000       0.21875000000000000        0.0000000000000000     
  0.84375000000000000       0.21875000000000000        0.0000000000000000     
  0.87500000000000000       0.21875000000000000        0.0000000000000000     
  0.75000000000000000       0.25000000000000000        0.0000000000000000     
  0.78125000000000000       0.25000000000000000        0.0000000000000000     
  0.81250000000000000       0.25000000000000000        0.0000000000000000     
  0.84375000000000000       0.25000000000000000        0.0000000000000000     
  0.87500000000000000       0.25000000000000000        0.0000000000000000     
  0.87500000000000000       0.12500000000000000        0.0000000000000000     
  0.90625000000000000       0.12500000000000000        0.0000000000000000     
  0.93750000000000000       0.12500000000000000        0.0000000000000000     
  0.96875000000000000       0.12500000000000000        0.0000000000000000     
   1.0000000000000000       0.12500000000000000        0.0000000000000000     
  0.87500000000000000       0.15625000000000000        0.0000000000000000     
  0.90625000000000000       0.15625000000000000        0.0000000000000000     
  0.93750000000000000       0.15625000000000000        0.0000000000000000     
  0.96875000000000000       0.15625000000000000        0.0000000000000000     
   1.0000000000000000       0.15625000000000000        0.0000000000000000     
  0.87500000000000000       0.18750000000000000        0.0000000000000000     
  0.90625000000000000       0.18750000000000000        0.0000000000000000     
  0.93750000000000000       0.18750000000000000        0.0000000000000000     
  0.96875000000000000       0.18750000000000000        0.0000000000000000     
   1.0000000000000000       0.18750000000000000        0.0000000000000000     
  0.87500000000000000       0.21875000000000000        0.0000000000000000     
  0.90625000000000000       0.21875000000000000        0.0000000000000000     
  0.93750000000000000       0.21875000000000000        0.0000000000000000     
  0.96875000000000000       0.21875000000000000        0.0000000000000000     
   1.0000000000000000       0.21875000000000000        0.0000000000000000     
  0.87500000000000000       0.25000000000000000        0.0000000000000000     
  0.90625000000000000       0.25000000000000000        0.0000000000000000     
  0.93750000000000000       0.25000000000000000        0.0000000000000000     
  0.96875000000000000       0.25000000000000000        0.0000000000000000     
   1.0000000000000000       0.25000000000000000        0.0000000000000000     
   0.0000000000000000       0.25000000000000000        0.0000000000000000     
   3.1250000000000000E-002  0.25000000000000000        0.0000000000000000     
   6.2500000000000000E-002  0.25000000000000000        0.0000000000000000     
   9.3750000000000000E-002  0.25000000000000000        0.0000000000000000     
  0.12500000000000000       0.25000000000000000        0.0000000000000000     
   0.0000000000000000       0.28125000000000000        0.0000000000000000     
   3.1250000000000000E-002  0.28125000000000000        0.0000000000000000     
   6.2500000000000000E-002  0.28125000000000000        0.0000000000000000     
   9.3750000000000000E-002  0.28125000000000000        0.0000000000000000     
  0.12500000000000000       0.28125000000000000        0.0000000000000000     
   0.0000000000000000       0.31250000000000000        0.0000000000000000     
   3.1250000000000000E-002  0.31250000000000000        0.0000000000000000     
   6.2500000000000000E-002  0.31250000000000000        0.0000000000000000     
   9.3750000000000000E-002  0.31250000000000000        0.0000000000000000     
  0.12500000000000000       0.31250000000000000        0.0000000000000000     
   0.0000000000000000       0.34375000000000000        0.0000000000000000     
   3.1250000000000000E-002  0.34375000000000000        0.0000000000000000     
   6.2500000000000000E-002  0.34375000000000000        0.0000000000000000     
   9.3750000000000000E-002  0.34375000000000000        0.0000000000000000     
  0.12500000000000000       0.34375000000000000        0.0000000000000000     
   0.0000000000000000       0.37500000000000000        0.0000000000000000     
   3.1250000000000000E-002  0.37500000000000000        0.0000000000000000     
   6.2500000000000000E-002  0.37500000000000000        0.0000000000000000     
   9.3750000000000000E-002  0.37500000000000000        0.0000000000000000     
  0.12500000000000000       0.37500000000000000        0.0000000000000000     
  0.12500000000000000       0.25000000000000000        0.0000000000000000     
  0.15625000000000000       0.25000000000000000        0.0000000000000000     
  0.18750000000000000       0.25000000000000000        0.0000000000000000     
  0.21875000000000000       0.25000000000000000        0.0000000000000000     
  0.25000000000000000       0.25000000000000000        0.0000000000000000     
  0.12500000000000000       0.28125000000000000        0.0000000000000000     
  0.15625000000000000       0.28125000000000000        0.0000000000000000     
  0.18750000000000000       0.28125000000000000        0.0000000000000000     
  0.21875000000000000       0.28125000000000000        0.0000000000000000     
  0.25000000000000000       0.28125000000000000        0.0000000000000000     
  0.12500000000000000       0.31250000000000000        0.0000000000000000     
  0.15625000000000000       0.31250000000000000        0.0000000000000000     
  0.18750000000000000       0.31250000000000000        0.0000000000000000     
  0.21875000000000000       0.31250000000000000        0.0000000000000000     
  0.25000000000000000       0.31250000000000000        0.0000000000000000     
  0.12500000000000000       0.34375000000000000        0.0000000000000000     
  0.15625000000000000       0.34375000000000000        0.0000000000000000     
  0.18750000000000000       0.34375000000000000        0.0000000000000000     
  0.21875000000000000       0.34375000000000000        0.0000000000000000     
  0.25000000000000000       0.34375000000000000        0.0000000000000000     
  0.12500000000000000       0.37500000000000000        0.0000000000000000     
  0.15625000000000000       0.37500000000000000        0.0000000000000000     
  0.18750000000000000       0.37500000000000000        0.0000000000000000     
  0.21875000000000000       0.37500000000000000        0.0000000000000000     
  0.25000000000000000       0.37500000000000000        0.0000000000000000     
  0.25000000000000000       0.25000000000000000        0.0000000000000000     
  0.28125000000000000       0.25000000000000000        0.0000000000000000     
  0.31250000000000000       0.25000000000000000        0.0000000000000000     
  0.34375000000000000       0.25000000000000000        0.0000000000000000     
  0.37500000000000000       0.25000000000000000        0.0000000000000000     
  0.25000000000000000       0.28125000000000000        0.0000000000000000     
  0.28125000000000000       0.28125000000000000        0.0000000000000000     
  0.31250000000000000       0.28125000000000000        0.0000000000000000     
  0.34375000000000000       0.28125000000000000        0.0000000000000000     
  0.37500000000000000       0.28125000000000000        0.0000000000000000     
  0.25000000000000000       0.31250000000000000        0.0000000000000000     
  0.28125000000000000       0.31250000000000000        0.0000000000000000     
  0.31250000000000000       0.31250000000000000        0.0000000000000000     
  0.34375000000000000       0.31250000000000000        0.0000000000000000     
  0.37500000000000000       0.31250000000000000        0.0000000000000000     
  0.25000000000000000       0.34375000000000000        0.0000000000000000     
  0.28125000000000000       0.34375000000000000        0.0000000000000000     
  0.31250000000000000       0.34375000000000000        0.0000000000000000     
  0.34375000000000000       0.34375000000000000        0.0000000000000000     
  0.37500000000000000       0.34375000000000000        0.0000000000000000     
  0.25000000000000000       0.37500000000000000        0.0000000000000000     
  0.28125000000000000       0.37500000000000000        0.0000000000000000     
  0.31250000000000000       0.37500000000000000        0.0000000000000000     
  0.34375000000000000       0.37500000000000000        0.0000000000000000     
  0.37500000000000000       0.37500000000000000        0.0000000000000000     
  0.37500000000000000       0.25000000000000000        0.0000000000000000     
  0.40625000000000000       0.25000000000000000        0.0000000000000000     
  0.43750000000000000       0.25000000000000000        0.0000000000000000     
  0.46875000000000000       0.25000000000000000        0.0000000000000000     
  0.50000000000000000       0.25000000000000000        0.0000000000000000     
  0.37500000000000000       0.28125000000000000        0.0000000000000000     
  0.40625000000000000       0.28125000000000000        0.0000000000000000     
  0.43750000000000000       0.28125000000000000        0.0000000000000000     
  0.46875000000000000       0.28125000000000000        0.0000000000000000     
  0.50000000000000000       0.28125000000000000        0.0000000000000000     
  0.37500000000000000       0.31250000000000000        0.0000000000000000     
  0.40625000000000000       0.31250000000000000        0.0000000000000000     
  0.43750000000000000       0.31250000000000000        0.0000000000000000     
  0.46875000000000000       0.31250000000000000        0.0000000000000000     
  0.50000000000000000       0.31250000000000000        0.0000000000000000     
  0.37500000000000000       0.34375000000000000        0.0000000000000000     
  0.40625000000000000       0.34375000000000000        0.0000000000000000     
  0.43750000000000000       0.34375000000000000        0.0000000000000000     
  0.46875000000000000       0.34375000000000000        0.0000000000000000     
  0.50000000000000000       0.34375000000000000        0.0000000000000000     
  0.37500000000000000       0.37500000000000000        0.0000000000000000     
  0.40625000000000000       0.37500000000000000        0.0000000000000000     
  0.43750000000000000       0.37500000000000000        0.0000000000000000     
  0.46875000000000000       0.37500000000000000        0.0000000000000000     
  0.50000000000000000       0.37500000000000000        0.0000000000000000     
  0.50000000000000000       0.25000000000000000        0.0000000000000000     
  0.53125000000000000       0.25000000000000000        0.0000000000000000     
  0.56250000000000000       0.25000000000000000        0.0000000000000000     
  0.59375000000000000       0.25000000000000000        0.0000000000000000     
  0.62500000000000000       0.25000000000000000        0.0000000000000000     
  0.50000000000000000       0.28125000000000000        0.0000000000000000     
  0.53125000000000000       0.28125000000000000        0.0000000000000000     
  0.56250000000000000       0.28125000000000000        0.0000000000000000     
  0.59375000000000000       0.28125000000000000        0.0000000000000000     
  0.62500000000000000       0.28125000000000000        0.0000000000000000     
  0.50000000000000000       0.31250000000000000        0.0000000000000000     
  0.53125000000000000       0.31250000000000000        0.0000000000000000     
  0.56250000000000000       0.31250000000000000        0.0000000000000000     
  0.59375000000000000       0.31250000000000000        0.0000000000000000     
  0.62500000000000000       0.31250000000000000        0.0000000000000000     
  0.50000000000000000       0.34375000000000000        0.0000000000000000     
  0.53125000000000000       0.34375000000000000        0.0000000000000000     
  0.56250000000000000       0.34375000000000000        0.0000000000000000     
  0.59375000000000000       0.34375000000000000        0.0000000000000000     
  0.62500000000000000       0.34375000000000000        0.0000000000000000     
  0.50000000000000000       0.37500000000000000        0.0000000000000000     
  0.53125000000000000       0.37500000000000000        0.0000000000000000     
  0.56250000000000000       0.37500000000000000        0.0000000000000000     
  0.59375000000000000       0.37500000000000000        0.0000000000000000     
  0.62500000000000000       0.37500000000000000        0.0000000000000000     
  0.62500000000000000       0.25000000000000000        0.0000000000000000     
  0.65625000000000000       0.25000000000000000        0.0000000000000000     
  0.68750000000000000       0.25000000000000000        0.0000000000000000     
  0.71875000000000000       0.25000000000000000        0.0000000000000000     
  0.75000000000000000       0.25000000000000000        0.0000000000000000     
  0.62500000000000000       0.28125000000000000        0.0000000000000000     
  0.65625000000000000       0.28125000000000000        0.0000000000000000     
  0.68750000000000000       0.28125000000000000        0.0000000000000000     
  0.71875000000000000       0.28125000000000000        0.0000000000000000     
  0.75000000000000000       0.28125000000000000        0.0000000000000000     
  0.62500000000000000       0.31250000000000000        0.0000000000000000     
  0.65625000000000000       0.31250000000000000        0.0000000000000000     
  0.68750000000000000       0.31250000000000000        0.0000000000000000     
  0.71875000000000000       0.31250000000000000        0.0000000000000000     
  0.75000000000000000       0.31250000000000000        0.0000000000000000     
  0.62500000000000000       0.34375000000000000        0.0000000000000000     
  0.65625000000000000       0.34375000000000000        0.0000000000000000     
  0.68750000000000000       0.34375000000000000        0.0000000000000000     
  0.71875000000000000       0.34375000000000000        0.0000000000000000     
  0.75000000000000000       0.34375000000000000        0.0000000000000000     
  0.62500000000000000       0.37500000000000000        0.0000000000000000     
  0.65625000000000000       0.37500000000000000        0.0000000000000000     
  0.68750000000000000       0.37500000000000000        0.0000000000000000     
  0.71875000000000000       0.37500000000000000        0.0000000000000000     
  0.75000000000000000       0.37500000000000000        0.0000000000000000     
  0.75000000000000000       0.25000000000000000        0.0000000000000000     
  0.78125000000000000       0.25000000000000000        0.0000000000000000     
  0.81250000000000000       0.25000000000000000        0.0000000000000000     
  0.84375000000000000       0.25000000000000000        0.0000000000000000     
  0.87500000000000000       0.25000000000000000        0.0000000000000000     
  0.75000000000000000       0.28125000000000000        0.0000000000000000     
  0.78125000000000000       0.28125000000000000        0.0000000000000000     
  0.81250000000000000       0.28125000000000000        0.0000000000000000     
  0.84375000000000000       0.28125000000000000        0.0000000000000000     
  0.87500000000000000       0.28125000000000000        0.0000000000000000     
  0.75000000000000000       0.31250000000000000        0.0000000000000000     
  0.78125000000000000       0.31250000000000000        0.0000000000000000     
  0.81250000000000000       0.31250000000000000        0.0000000000000000     
  0.84375000000000000       0.31250000000000000        0.0000000000000000     
  0.87500000000000000       0.31250000000000000        0.0000000000000000     
  0.75000000000000000       0.34375000000000000        0.0000000000000000     
  0.78125000000000000       0.34375000000000000        0.0000000000000000     
  0.81250000000000000       0.34375000000000000        0.0000000000000000     
  0.84375000000000000       0.34375000000000000        0.0000000000000000     
  0.87500000000000000       0.34375000000000000        0.0000000000000000     
  0.75000000000000000       0.37500000000000000        0.0000000000000000     
  0.78125000000000000       0.37500000000000000        0.0000000000000000     
  0.81250000000000000       0.37500000000000000        0.0000000000000000     
  0.84375000000000000       0.37500000000000000        0.0000000000000000     
  0.87500000000000000       0.37500000000000000        0.0000000000000000     
  0.87500000000000000       0.25000000000000000        0.0000000000000000     
  0.90625000000000000       0.25000000000000000        0.0000000000000000     
  0.93750000000000000       0.25000000000000000        0.0000000000000000     
  0.96875000000000000       0.25000000000000000        0.0000000000000000     
   1.0000000000000000       0.25000000000000000        0.0000000000000000     
  0.87500000000000000       0.28125000000000000        0.0000000000000000     
  0.90625000000000000       0.28125000000000000        0.0000000000000000     
  0.93750000000000000       0.28125000000000000        0.0000000000000000     
  0.96875000000000000       0.28125000000000000        0.0000000000000000     
   1.0000000000000000       0.28125000000000000        0.0000000000000000     
  0.87500000000000000       0.31250000000000000        0.0000000000000000     
  0.90625000000000000       0.31250000000000000        0.0000000000000000     
  0.93750000000000000       0.31250000000000000        0.0000000000000000     
  0.96875000000000000       0.31250000000000000        0.0000000000000000     
   1.0000000000000000       0.31250000000000000        0.0000000000000000     
  0.87500000000000000       0.34375000000000000        0.0000000000000000     
  0.90625000000000000       0.34375000000000000        0.0000000000000000     
  0.93750000000000000       0.34375000000000000        0.0000000000000000     
  0.96875000000000000       0.34375000000000000        0.0000000000000000     
   1.0000000000000000       0.34375000000000000        0.0000000000000000     
  0.87500000000000000       0.37500000000000000        0.0000000000000000     
  0.90625000000000000       0.37500000000000000        0.0000000000000000     
  0.93750000000000000       0.37500000000000000        0.0000000000000000     
  0.96875000000000000       0.37500000000000000        0.0000000000000000     
   1.0000000000000000       0.37500000000000000        0.0000000000000000     
   0.0000000000000000       0.37500000000000000        0.0000000000000000     
   3.1250000000000000E-002  0.37500000000000000        0.0000000000000000     
   6.2500000000000000E-002  0.37500000000000000        0.0000000000000000     
   9.3750000000000000E-002  0.37500000000000000        0.0000000000000000     
  0.12500000000000000       0.37500000000000000        0.0000000000000000     
   0.0000000000000000       0.40625000000000000        0.0000000000000000     
   3.1250000000000000E-002  0.40625000000000000        0.0000000000000000     
   6.2500000000000000E-002  0.40625000000000000        0.0000000000000000     
   9.3750000000000000E-002  0.40625000000000000        0.0000000000000000     
  0.12500000000000000       0.40625000000000000        0.0000000000000000     
   0.0000000000000000       0.43750000000000000        0.0000000000000000     
   3.1250000000000000E-002  0.43750000000000000        0.0000000000000000     
   6.2500000000000000E-002  0.43750000000000000        0.0000000000000000     
   9.3750000000000000E-002  0.43750000000000000        0.0000000000000000     
  0.12500000000000000       0.43750000000000000        0.0000000000000000     
   0.0000000000000000       0.46875000000000000        0.0000000000000000     
   3.1250000000000000E-002  0.46875000000000000        0.0000000000000000     
   6.2500000000000000E-002  0.46875000000000000        0.0000000000000000     
   9.3750000000000000E-002  0.46875000000000000        0.0000000000000000     
  0.12500000000000000       0.46875000000000000        0.0000000000000000     
   0.0000000000000000       0.50000000000000000        0.0000000000000000     
   3.1250000000000000E-002  0.50000000000000000        0.0000000000000000     
   6.2500000000000000E-002  0.50000000000000000        0.0000000000000000     
   9.3750000000000000E-002  0.50000000000000000        0.0000000000000000     
  0.12500000000000000       0.50000000000000000        0.0000000000000000     
  0.12500000000000000       0.37500000000000000        0.0000000000000000     
  0.15625000000000000       0.37500000000000000        0.0000000000000000     
  0.18750000000000000       0.37500000000000000        0.0000000000000000     
  0.21875000000000000       0.37500000000000000        0.0000000000000000     
  0.25000000000000000       0.37500000000000000        0.0000000000000000     
  0.12500000000000000       0.40625000000000000        0.0000000000000000     
  0.15625000000000000       0.40625000000000000        0.0000000000000000     
  0.18750000000000000       0.40625000000000000        0.0000000000000000     
  0.21875000000000000       0.40625000000000000        0.0000000000000000     
  0.25000000000000000       0.40625000000000000        0.0000000000000000     
  0.12500000000000000       0.43750000000000000        0.0000000000000000     
  0.15625000000000000       0.43750000000000000        0.0000000000000000     
  0.18750000000000000       0.43750000000000000        0.0000000000000000     
  0.21875000000000000       0.43750000000000000        0.0000000000000000     
  0.25000000000000000       0.43750000000000000        0.0000000000000000     
  0.12500000000000000       0.46875000000000000        0.0000000000000000     
  0.15625000000000000       0.46875000000000000        0.0000000000000000     
  0.18750000000000000       0.46875000000000000        0.0000000000000000     
  0.21875000000000000       0.46875000000000000        0.0000000000000000     
  0.25000000000000000       0.46875000000000000        0.0000000000000000     
  0.12500000000000000       0.50000000000000000        0.0000000000000000     
  0.15625000000000000       0.50000000000000000        0.0000000000000000     
  0.18750000000000000       0.50000000000000000        0.0000000000000000     
  0.21875000000000000       0.50000000000000000        0.0000000000000000     
  0.25000000000000000       0.50000000000000000        0.0000000000000000     
  0.25000000000000000       0.37500000000000000        0.0000000000000000     
  0.28125000000000000       0.37500000000000000        0.0000000000000000     
  0.31250000000000000       0.37500000000000000        0.0000000000000000     
  0.34375000000000000       0.37500000000000000        0.0000000000000000     
  0.37500000000000000       0.37500000000000000        0.0000000000000000     
  0.25000000000000000       0.40625000000000000        0.0000000000000000     
  0.28125000000000000       0.40625000000000000        0.0000000000000000     
  0.31250000000000000       0.40625000000000000        0.0000000000000000     
  0.34375000000000000       0.40625000000000000        0.0000000000000000     
  0.37500000000000000       0.40625000000000000        0.0000000000000000     
  0.25000000000000000       0.43750000000000000        0.0000000000000000     
  0.28125000000000000       0.43750000000000000        0.0000000000000000     
  0.31250000000000000       0.43750000000000000        0.0000000000000000     
  0.34375000000000000       0.43750000000000000        0.0000000000000000     
  0.37500000000000000       0.43750000000000000        0.0000000000000000     
  0.25000000000000000       0.46875000000000000        0.0000000000000000     
  0.28125000000000000       0.46875000000000000        0.0000000000000000     
  0.31250000000000000       0.46875000000000000        0.0000000000000000     
  0.34375000000000000       0.46875000000000000        0.0000000000000000     
  0.37500000000000000       0.46875000000000000        0.0000000000000000     
  0.25000000000000000       0.50000000000000000        0.0000000000000000     
  0.28125000000000000       0.50000000000000000        0.0000000000000000     
  0.31250000000000000       0.50000000000000000        0.0000000000000000     
  0.34375000000000000       0.50000000000000000        0.0000000000000000     
  0.37500000000000000       0.50000000000000000        0.0000000000000000     
  0.37500000000000000       0.37500000000000000        0.0000000000000000     
  0.40625000000000000       0.37500000000000000        0.0000000000000000     
  0.43750000000000000       0.37500000000000000        0.0000000000000000     
  0.46875000000000000       0.37500000000000000        0.0000000000000000     
  0.50000000000000000       0.37500000000000000        0.0000000000000000     
  0.37500000000000000       0.40625000000000000        0.0000000000000000     
  0.40625000000000000       0.40625000000000000        0.0000000000000000     
  0.43750000000000000       0.40625000000000000        0.0000000000000000     
  0.46875000000000000       0.40625000000000000        0.0000000000000000     
  0.50000000000000000       0.40625000000000000        0.0000000000000000     
  0.37500000000000000       0.43750000000000000        0.0000000000000000     
  0.40625000000000000       0.43750000000000000        0.0000000000000000     
  0.43750000000000000       0.43750000000000000        0.0000000000000000     
  0.46875000000000000       0.43750000000000000        0.0000000000000000     
  0.50000000000000000       0.43750000000000000        0.0000000000000000     
  0.37500000000000000       0.46875000000000000        0.0000000000000000     
  0.40625000000000000       0.46875000000000000        0.0000000000000000     
  0.43750000000000000       0.46875000000000000        0.0000000000000000     
  0.46875000000000000       0.46875000000000000        0.0000000000000000     
  0.50000000000000000       0.46875000000000000        0.0000000000000000     
  0.37500000000000000       0.50000000000000000        0.0000000000000000     
  0.40625000000000000       0.50000000000000000        0.0000000000000000     
  0.43750000000000000       0.50000000000000000        0.0000000000000000     
  0.46875000000000000       0.50000000000000000        0.0000000000000000     
  0.50000000000000000       0.50000000000000000        0.0000000000000000     
  0.50000000000000000       0.37500000000000000        0.0000000000000000     
  0.53125000000000000       0.37500000000000000        0.0000000000000000     
  0.56250000000000000       0.37500000000000000        0.0000000000000000     
  0.59375000000000000       0.37500000000000000        0.0000000000000000     
  0.62500000000000000       0.37500000000000000        0.0000000000000000     
  0.50000000000000000       0.40625000000000000        0.0000000000000000     
  0.53125000000000000       0.40625000000000000        0.0000000000000000     
  0.56250000000000000       0.40625000000000000        0.0000000000000000     
  0.59375000000000000       0.40625000000000000        0.0000000000000000     
  0.62500000000000000       0.40625000000000000        0.0000000000000000     
  0.50000000000000000       0.43750000000000000        0.0000000000000000     
  0.53125000000000000       0.43750000000000000        0.0000000000000000     
  0.56250000000000000       0.43750000000000000        0.0000000000000000     
  0.59375000000000000       0.43750000000000000        0.0000000000000000     
  0.62500000000000000       0.43750000000000000        0.0000000000000000     
  0.50000000000000000       0.46875000000000000        0.0000000000000000     
  0.53125000000000000       0.46875000000000000        0.0000000000000000     
  0.56250000000000000       0.46875000000000000        0.0000000000000000     
  0.59375000000000000       0.46875000000000000        0.0000000000000000     
  0.62500000000000000       0.46875000000000000        0.0000000000000000     
  0.50000000000000000       0.50000000000000000        0.0000000000000000     
  0.53125000000000000       0.50000000000000000        0.0000000000000000     
  0.56250000000000000       0.50000000000000000        0.0000000000000000     
  0.59375000000000000       0.50000000000000000        0.0000000000000000     
  0.62500000000000000       0.50000000000000000        0.0000000000000000     
  0.62500000000000000       0.37500000000000000        0.0000000000000000     
  0.65625000000000000       0.37500000000000000        0.0000000000000000     
  0.68750000000000000       0.37500000000000000        0.0000000000000000     
  0.71875000000000000       0.37500000000000000        0.0000000000000000     
  0.75000000000000000       0.37500000000000000        0.0000000000000000     
  0.62500000000000000       0.40625000000000000        0.0000000000000000     
  0.65625000000000000       0.40625000000000000        0.0000000000000000     
  0.68750000000000000       0.40625000000000000        0.0000000000000000     
  0.71875000000000000       0.40625000000000000        0.0000000000000000     
  0.75000000000000000       0.40625000000000000        0.0000000000000000     
  0.62500000000000000       0.43750000000000000        0.0000000000000000     
  0.65625000000000000       0.43750000000000000        0.0000000000000000     
  0.68750000000000000       0.43750000000000000        0.0000000000000000     
  0.71875000000000000       0.43750000000000000        0.0000000000000000     
  0.75000000000000000       0.43750000000000000        0.0000000000000000     
  0.62500000000000000       0.46875000000000000        0.0000000000000000     
  0.65625000000000000       0.46875000000000000        0.0000000000000000     
  0.68750000000000000       0.46875000000000000        0.0000000000000000     
  0.71875000000000000       0.46875000000000000        0.0000000000000000     
  0.75000000000000000       0.46875000000000000        0.0000000000000000     
  0.62500000000000000       0.50000000000000000        0.0000000000000000     
  0.65625000000000000       0.50000000000000000        0.0000000000000000     
  0.68750000000000000       0.50000000000000000        0.0000000000000000     
  0.71875000000000000       0.50000000000000000        0.0000000000000000     
  0.75000000000000000       0.50000000000000000        0.0000000000000000     
  0.75000000000000000       0.37500000000000000        0.0000000000000000     
  0.78125000000000000       0.37500000000000000        0.0000000000000000     
  0.81250000000000000       0.37500000000000000        0.0000000000000000     
  0.84375000000000000       0.37500000000000000        0.0000000000000000     
  0.87500000000000000       0.37500000000000000        0.0000000000000000     
  0.75000000000000000       0.40625000000000000        0.0000000000000000     
  0.78125000000000000       0.40625000000000000        0.0000000000000000     
  0.81250000000000000       0.40625000000000000        0.0000000000000000     
  0.84375000000000000       0.40625000000000000        0.0000000000000000     
  0.87500000000000000       0.40625000000000000        0.0000000000000000     
  0.75000000000000000       0.43750000000000000        0.0000000000000000     
  0.78125000000000000       0.43750000000000000        0.0000000000000000     
  0.81250000000000000       0.43750000000000000        0.0000000000000000     
  0.84375000000000000       0.43750000000000000        0.0000000000000000     
  0.87500000000000000       0.43750000000000000        0.0000000000000000     
  0.75000000000000000       0.46875000000000000        0.0000000000000000     
  0.78125000000000000       0.46875000000000000        0.0000000000000000     
  0.81250000000000000       0.46875000000000000        0.0000000000000000     
  0.84375000000000000       0.46875000000000000        0.0000000000000000     
  0.87500000000000000       0.46875000000000000        0.0000000000000000     
  0.75000000000000000       0.50000000000000000        0.0000000000000000     
  0.78125000000000000       0.50000000000000000        0.0000000000000000     
  0.81250000000000000       0.50000000000000000        0.0000000000000000     
  0.84375000000000000       0.50000000000000000        0.0000000000000000     
  0.87500000000000000       0.50000000000000000        0.0000000000000000     
  0.87500000000000000       0.37500000000000000        0.0000000000000000     
  0.90625000000000000       0.37500000000000000        0.0000000000000000     
  0.93750000000000000       0.37500000000000000        0.0000000000000000     
  0.96875000000000000       0.37500000000000000        0.0000000000000000     
   1.0000000000000000       0.37500000000000000        0.0000000000000000     
  0.87500000000000000       0.40625000000000000        0.0000000000000000     
  0.90625000000000000       0.40625000000000000        0.0000000000000000     
  0.93750000000000000       0.40625000000000000        0.0000000000000000     
  0.96875000000000000       0.40625000000000000        0.0000000000000000     
   1.0000000000000000       0.40625000000000000        0.0000000000000000     
  0.87500000000000000       0.43750000000000000        0.0000000000000000     
  0.90625000000000000       0.43750000000000000        0.0000000000000000     
  0.93750000000000000       0.43750000000000000        0.0000000000000000     
  0.96875000000000000       0.43750000000000000        0.0000000000000000     
   1.0000000000000000       0.43750000000000000        0.0000000000000000     
  0.87500000000000000       0.46875000000000000        0.0000000000000000     
  0.90625000000000000       0.46875000000000000        0.0000000000000000     
  0.93750000000000000       0.46875000000000000        0.0000000000000000     
  0.96875000000000000       0.46875000000000000        0.0000000000000000     
   1.0000000000000000       0.46875000000000000        0.0000000000000000     
  0.87500000000000000       0.50000000000000000        0.0000000000000000     
  0.90625000000000000       0.50000000000000000        0.0000000000000000     
  0.93750000000000000       0.50000000000000000        0.0000000000000000     
  0.96875000000000000       0.50000000000000000        0.0000000000000000     
   1.0000000000000000       0.50000000000000000        0.0000000000000000     
   0.0000000000000000       0.50000000000000000        0.0000000000000000     
   3.1250000000000000E-002  0.50000000000000000        0.0000000000000000     
   6.2500000000000000E-002  0.50000000000000000        0.0000000000000000     
   9.3750000000000000E-002  0.50000000000000000        0.0000000000000000     
  0.12500000000000000       0.50000000000000000        0.0000000000000000     
   0.0000000000000000       0.53125000000000000        0.0000000000000000     
   3.1250000000000000E-002  0.53125000000000000        0.0000000000000000     
   6.2500000000000000E-002  0.53125000000000000        0.0000000000000000     
   9.3750000000000000E-002  0.53125000000000000        0.0000000000000000     
  0.12500000000000000       0.53125000000000000        0.0000000000000000     
   0.0000000000000000       0.56250000000000000        0.0000000000000000     
   3.1250000000000000E-002  0.56250000000000000        0.0000000000000000     
   6.2500000000000000E-002  0.56250000000000000        0.0000000000000000     
   9.3750000000000000E-002  0.56250000000000000        0.0000000000000000     
  0.12500000000000000       0.56250000000000000        0.0000000000000000     
   0.0000000000000000       0.59375000000000000        0.0000000000000000     
   3.1250000000000000E-002  0.59375000000000000        0.0000000000000000     
   6.2500000000000000E-002  0.59375000000000000        0.0000000000000000     
   9.3750000000000000E-002  0.59375000000000000        0.0000000000000000     
  0.12500000000000000       0.59375000000000000        0.0000000000000000     
   0.0000000000000000       0.62500000000000000        0.0000000000000000     
   3.1250000000000000E-002  0.62500000000000000        0.0000000000000000     
   6.2500000000000000E-002  0.62500000000000000        0.0000000000000000     
   9.3750000000000000E-002  0.62500000000000000        0.0000000000000000     
  0.12500000000000000       0.62500000000000000        0.0000000000000000     
  0.12500000000000000       0.50000000000000000        0.0000000000000000     
  0.15625000000000000       0.50000000000000000        0.0000000000000000     
  0.18750000000000000       0.50000000000000000        0.0000000000000000     
  0.21875000000000000       0.50000000000000000        0.0000000000000000     
  0.25000000000000000       0.50000000000000000        0.0000000000000000     
  0.12500000000000000       0.53125000000000000        0.0000000000000000     
  0.15625000000000000       0.53125000000000000        0.0000000000000000     
  0.18750000000000000       0.53125000000000000        0.0000000000000000     
  0.21875000000000000       0.53125000000000000        0.0000000000000000     
  0.25000000000000000       0.53125000000000000        0.0000000000000000     
  0.12500000000000000       0.56250000000000000        0.0000000000000000     
  0.15625000000000000       0.56250000000000000        0.0000000000000000     
  0.18750000000000000       0.56250000000000000        0.0000000000000000     
  0.21875000000000000       0.56250000000000000        0.0000000000000000     
  0.25000000000000000       0.56250000000000000        0.0000000000000000     
  0.12500000000000000       0.59375000000000000        0.0000000000000000     
  0.15625000000000000       0.59375000000000000        0.0000000000000000     
  0.18750000000000000       0.59375000000000000        0.0000000000000000     
  0.21875000000000000       0.59375000000000000        0.0000000000000000     
  0.25000000000000000       0.59375000000000000        0.0000000000000000     
  0.12500000000000000       0.62500000000000000        0.0000000000000000     
  0.15625000000000000       0.62500000000000000        0.0000000000000000     
  0.18750000000000000       0.62500000000000000        0.0000000000000000     
  0.21875000000000000       0.62500000000000000        0.0000000000000000     
  0.25000000000000000       0.62500000000000000        0.0000000000000000     
  0.25000000000000000       0.50000000000000000        0.0000000000000000     
  0.28125000000000000       0.50000000000000000        0.0000000000000000     
  0.31250000000000000       0.50000000000000000        0.0000000000000000     
  0.34375000000000000       0.50000000000000000        0.0000000000000000     
  0.37500000000000000       0.50000000000000000        0.0000000000000000     
  0.25000000000000000       0.53125000000000000        0.0000000000000000     
  0.28125000000000000       0.53125000000000000        0.0000000000000000     
  0.31250000000000000       0.53125000000000000        0.0000000000000000     
  0.34375000000000000       0.53125000000000000        0.0000000000000000     
  0.37500000000000000       0.53125000000000000        0.0000000000000000     
  0.25000000000000000       0.56250000000000000        0.0000000000000000     
  0.28125000000000000       0.56250000000000000        0.0000000000000000     
  0.31250000000000000       0.56250000000000000        0.0000000000000000     
  0.34375000000000000       0.56250000000000000        0.0000000000000000     
  0.37500000000000000       0.56250000000000000        0.0000000000000000     
  0.25000000000000000       0.59375000000000000        0.0000000000000000     
  0.28125000000000000       0.59375000000000000        0.0000000000000000     
  0.31250000000000000       0.59375000000000000        0.0000000000000000     
  0.34375000000000000       0.59375000000000000        0.0000000000000000     
  0.37500000000000000       0.59375000000000000        0.0000000000000000     
  0.25000000000000000       0.62500000000000000        0.0000000000000000     
  0.28125000000000000       0.62500000000000000        0.0000000000000000     
  0.31250000000000000       0.62500000000000000        0.0000000000000000     
  0.34375000000000000       0.62500000000000000        0.0000000000000000     
  0.37500000000000000       0.62500000000000000        0.0000000000000000     
  0.37500000000000000       0.50000000000000000        0.0000000000000000     
  0.40625000000000000       0.50000000000000000        0.0000000000000000     
  0.43750000000000000       0.50000000000000000        0.0000000000000000     
  0.46875000000000000       0.50000000000000000        0.0000000000000000     
  0.50000000000000000       0.50000000000000000        0.0000000000000000     
  0.37500000000000000       0.53125000000000000        0.0000000000000000     
  0.40625000000000000       0.53125000000000000        0.0000000000000000     
  0.43750000000000000       0.53125000000000000        0.0000000000000000     
  0.46875000000000000       0.53125000000000000        0.0000000000000000     
  0.50000000000000000       0.53125000000000000        0.0000000000000000     
  0.37500000000000000       0.56250000000000000        0.0000000000000000     
  0.40625000000000000       0.56250000000000000        0.0000000000000000     
  0.43750000000000000       0.56250000000000000        0.0000000000000000     
  0.46875000000000000       0.56250000000000000        0.0000000000000000     
  0.50000000000000000       0.56250000000000000        0.0000000000000000     
  0.37500000000000000       0.59375000000000000        0.0000000000000000     
  0.40625000000000000       0.59375000000000000        0.0000000000000000     
  0.43750000000000000       0.59375000000000000        0.0000000000000000     
  0.46875000000000000       0.59375000000000000        0.0000000000000000     
  0.50000000000000000       0.59375000000000000        0.0000000000000000     
  0.37500000000000000       0.62500000000000000        0.0000000000000000     
  0.40625000000000000       0.62500000000000000        0.0000000000000000     
  0.43750000000000000       0.62500000000000000        0.0000000000000000     
  0.46875000000000000       0.62500000000000000        0.0000000000000000     
  0.50000000000000000       0.62500000000000000        0.0000000000000000     
  0.50000000000000000       0.50000000000000000        0.0000000000000000     
  0.53125000000000000       0.50000000000000000        0.0000000000000000     
  0.56250000000000000       0.50000000000000000        0.0000000000000000     
  0.59375000000000000       0.50000000000000000        0.0000000000000000     
  0.62500000000000000       0.50000000000000000        0.0000000000000000     
  0.50000000000000000       0.53125000000000000        0.0000000000000000     
  0.53125000000000000       0.53125000000000000        0.0000000000000000     
  0.56250000000000000       0.53125000000000000        0.0000000000000000     
  0.59375000000000000       0.53125000000000000        0.0000000000000000     
  0.62500000000000000       0.53125000000000000        0.0000000000000000     
  0.50000000000000000       0.56250000000000000        0.0000000000000000     
  0.53125000000000000       0.56250000000000000        0.0000000000000000     
  0.56250000000000000       0.56250000000000000        0.0000000000000000     
  0.59375000000000000       0.56250000000000000        0.0000000000000000     
  0.62500000000000000       0.56250000000000000        0.0000000000000000     
  0.50000000000000000       0.59375000000000000        0.0000000000000000     
  0.53125000000000000       0.59375000000000000        0.0000000000000000     
  0.56250000000000000       0.59375000000000000        0.0000000000000000     
  0.59375000000000000       0.59375000000000000        0.0000000000000000     
  0.62500000000000000       0.59375000000000000        0.0000000000000000     
  0.50000000000000000       0.62500000000000000        0.0000000000000000     
  0.53125000000000000       0.62500000000000000        0.0000000000000000     
  0.56250000000000000       0.62500000000000000        0.0000000000000000     
  0.59375000000000000       0.62500000000000000        0.0000000000000000     
  0.62500000000000000       0.62500000000000000        0.0000000000000000     
  0.62500000000000000       0.50000000000000000        0.0000000000000000     
  0.65625000000000000       0.50000000000000000        0.0000000000000000     
  0.68750000000000000       0.50000000000000000        0.0000000000000000     
  0.71875000000000000       0.50000000000000000        0.0000000000000000     
  0.75000000000000000       0.50000000000000000        0.0000000000000000     
  0.62500000000000000       0.53125000000000000        0.0000000000000000     
  0.65625000000000000       0.53125000000000000        0.0000000000000000     
  0.68750000000000000       0.53125000000000000        0.0000000000000000     
  0.71875000000000000       0.53125000000000000        0.0000000000000000     
  0.75000000000000000       0.53125000000000000        0.0000000000000000     
  0.62500000000000000       0.56250000000000000        0.0000000000000000     
  0.65625000000000000       0.56250000000000000        0.0000000000000000     
  0.68750000000000000       0.56250000000000000        0.0000000000000000     
  0.71875000000000000       0.56250000000000000        0.0000000000000000     
  0.75000000000000000       0.56250000000000000        0.0000000000000000     
  0.62500000000000000       0.59375000000000000        0.0000000000000000     
  0.65625000000000000       0.59375000000000000        0.0000000000000000     
  0.68750000000000000       0.59375000000000000        0.0000000000000000     
  0.71875000000000000       0.59375000000000000        0.0000000000000000     
  0.75000000000000000       0.59375000000000000        0.0000000000000000     
  0.62500000000000000       0.62500000000000000        0.0000000000000000     
  0.65625000000000000       0.62500000000000000        0.0000000000000000     
  0.68750000000000000       0.62500000000000000        0.0000000000000000     
  0.71875000000000000       0.62500000000000000        0.0000000000000000     
  0.75000000000000000       0.62500000000000000        0.0000000000000000     
  0.75000000000000000       0.50000000000000000        0.0000000000000000     
  0.78125000000000000       0.50000000000000000        0.0000000000000000     
  0.81250000000000000       0.50000000000000000        0.0000000000000000     
  0.84375000000000000       0.50000000000000000        0.0000000000000000     
  0.87500000000000000       0.50000000000000000        0.0000000000000000     
  0.75000000000000000       0.53125000000000000        0.0000000000000000     
  0.78125000000000000       0.53125000000000000        0.0000000000000000     
  0.81250000000000000       0.53125000000000000        0.0000000000000000     
  0.84375000000000000       0.53125000000000000        0.0000000000000000     
  0.87500000000000000       0.53125000000000000        0.0000000000000000     
  0.75000000000000000       0.56250000000000000        0.0000000000000000     
  0.78125000000000000       0.56250000000000000        0.0000000000000000     
  0.81250000000000000       0.56250000000000000        0.0000000000000000     
  0.84375000000000000       0.56250000000000000        0.0000000000000000     
  0.87500000000000000       0.56250000000000000        0.0000000000000000     
  0.75000000000000000       0.59375000000000000        0.0000000000000000     
  0.78125000000000000       0.59375000000000000        0.0000000000000000     
  0.81250000000000000       0.59375000000000000        0.0000000000000000     
  0.84375000000000000       0.59375000000000000        0.0000000000000000     
  0.87500000000000000       0.59375000000000000        0.0000000000000000     
  0.75000000000000000       0.62500000000000000        0.0000000000000000     
  0.78125000000000000       0.62500000000000000        0.0000000000000000     
  0.81250000000000000       0.62500000000000000        0.0000000000000000     
  0.84375000000000000       0.62500000000000000        0.0000000000000000     
  0.87500000000000000       0.62500000000000000        0.0000000000000000     
  0.87500000000000000       0.50000000000000000        0.0000000000000000     
  0.90625000000000000       0.50000000000000000        0.0000000000000000     
  0.93750000000000000       0.50000000000000000        0.0000000000000000     
  0.96875000000000000       0.50000000000000000        0.0000000000000000     
   1.0000000000000000       0.50000000000000000        0.0000000000000000     
  0.87500000000000000       0.53125000000000000        0.0000000000000000     
  0.90625000000000000       0.53125000000000000        0.0000000000000000     
  0.93750000000000000       0.53125000000000000        0.0000000000000000     
  0.96875000000000000       0.53125000000000000        0.0000000000000000     
   1.0000000000000000       0.53125000000000000        0.0000000000000000     
  0.87500000000000000       0.56250000000000000        0.0000000000000000     
  0.90625000000000000       0.56250000000000000        0.0000000000000000     
  0.93750000000000000       0.56250000000000000        0.0000000000000000     
  0.96875000000000000       0.56250000000000000        0.0000000000000000     
   1.0000000000000000       0.56250000000000000        0.0000000000000000     
  0.87500000000000000       0.59375000000000000        0.0000000000000000     
  0.90625000000000000       0.59375000000000000        0.0000000000000000     
  0.93750000000000000       0.59375000000000000        0.0000000000000000     
  0.96875000000000000       0.59375000000000000        0.0000000000000000     
   1.0000000000000000       0.59375000000000000        0.0000000000000000     
  0.87500000000000000       0.62500000000000000        0.0000000000000000     
  0.90625000000000000       0.62500000000000000        0.0000000000000000     
  0.93750000000000000       0.62500000000000000        0.0000000000000000     
  0.96875000000000000       0.62500000000000000        0.0000000000000000     
   1.0000000000000000       0.62500000000000000        0.0000000000000000     
   0.0000000000000000       0.62500000000000000        0.0000000000000000     
   3.1250000000000000E-002  0.62500000000000000        0.0000000000000000     
   6.2500000000000000E-002  0.62500000000000000        0.0000000000000000     
   9.3750000000000000E-002  0.62500000000000000        0.0000000000000000     
  0.12500000000000000       0.62500000000000000        0.0000000000000000     
   0.0000000000000000       0.65625000000000000        0.0000000000000000     
   3.1250000000000000E-002  0.65625000000000000        0.0000000000000000     
   6.2500000000000000E-002  0.65625000000000000        0.0000000000000000     
   9.3750000000000000E-002  0.65625000000000000        0.0000000000000000     
  0.12500000000000000       0.65625000000000000        0.0000000000000000     
   0.0000000000000000       0.68750000000000000        0.0000000000000000     
   3.1250000000000000E-002  0.68750000000000000        0.0000000000000000     
   6.2500000000000000E-002  0.68750000000000000        0.0000000000000000     
   9.3750000000000000E-002  0.68750000000000000        0.0000000000000000     
  0.12500000000000000       0.68750000000000000        0.0000000000000000     
   0.0000000000000000       0.71875000000000000        0.0000000000000000     
   3.1250000000000000E-002  0.71875000000000000        0.0000000000000000     
   6.2500000000000000E-002  0.71875000000000000        0.0000000000000000     
   9.3750000000000000E-002  0.71875000000000000        0.0000000000000000     
  0.12500000000000000       0.71875000000000000        0.0000000000000000     
   0.0000000000000000       0.75000000000000000        0.0000000000000000     
   3.1250000000000000E-002  0.75000000000000000        0.0000000000000000     
   6.2500000000000000E-002  0.75000000000000000        0.0000000000000000     
   9.3750000000000000E-002  0.75000000000000000        0.0000000000000000     
  0.12500000000000000       0.75000000000000000        0.0000000000000000     
  0.12500000000000000       0.62500000000000000        0.0000000000000000     
  0.15625000000000000       0.62500000000000000        0.0000000000000000     
  0.18750000000000000       0.62500000000000000        0.0000000000000000     
  0.21875000000000000       0.62500000000000000        0.0000000000000000     
  0.25000000000000000       0.62500000000000000        0.0000000000000000     
  0.12500000000000000       0.65625000000000000        0.0000000000000000     
  0.15625000000000000       0.65625000000000000        0.0000000000000000     
  0.18750000000000000       0.65625000000000000        0.0000000000000000     
  0.21875000000000000       0.65625000000000000        0.0000000000000000     
  0.25000000000000000       0.65625000000000000        0.0000000000000000     
  0.12500000000000000       0.68750000000000000        0.0000000000000000     
  0.15625000000000000       0.68750000000000000        0.0000000000000000     
  0.18750000000000000       0.68750000000000000        0.0000000000000000     
  0.21875000000000000       0.68750000000000000        0.0000000000000000     
  0.25000000000000000       0.68750000000000000        0.0000000000000000     
  0.12500000000000000       0.71875000000000000        0.0000000000000000     
  0.15625000000000000       0.71875000000000000        0.0000000000000000     
  0.18750000000000000       0.71875000000000000        0.0000000000000000     
  0.21875000000000000       0.71875000000000000        0.0000000000000000     
  0.25000000000000000       0.71875000000000000        0.0000000000000000     
  0.12500000000000000       0.75000000000000000        0.0000000000000000     
  0.15625000000000000       0.75000000000000000        0.0000000000000000     
  0.18750000000000000       0.75000000000000000        0.0000000000000000     
  0.21875000000000000       0.75000000000000000        0.0000000000000000     
  0.25000000000000000       0.75000000000000000        0.0000000000000000     
  0.25000000000000000       0.62500000000000000        0.0000000000000000     
  0.28125000000000000       0.62500000000000000        0.0000000000000000     
  0.31250000000000000       0.62500000000000000        0.0000000000000000     
  0.34375000000000000       0.62500000000000000        0.0000000000000000     
  0.37500000000000000       0.62500000000000000        0.0000000000000000     
  0.25000000000000000       0.65625000000000000        0.0000000000000000     
  0.28125000000000000       0.65625000000000000        0.0000000000000000     
  0.31250000000000000       0.65625000000000000        0.0000000000000000     
  0.34375000000000000       0.65625000000000000        0.0000000000000000     
  0.37500000000000000       0.65625000000000000        0.0000000000000000     
  0.25000000000000000       0.68750000000000000        0.0000000000000000     
  0.28125000000000000       0.68750000000000000        0.0000000000000000     
  0.31250000000000000       0.68750000000000000        0.0000000000000000     
  0.34375000000000000       0.68750000000000000        0.0000000000000000     
  0.37500000000000000       0.68750000000000000        0.0000000000000000     
  0.25000000000000000       0.71875000000000000        0.0000000000000000     
  0.28125000000000000       0.71875000000000000        0.0000000000000000     
  0.31250000000000000       0.71875000000000000        0.0000000000000000     
  0.34375000000000000       0.71875000000000000        0.0000000000000000     
  0.37500000000000000       0.71875000000000000        0.0000000000000000     
  0.25000000000000000       0.75000000000000000        0.0000000000000000     
  0.28125000000000000       0.75000000000000000        0.0000000000000000     
  0.31250000000000000       0.75000000000000000        0.0000000000000000     
  0.34375000000000000       0.75000000000000000        0.0000000000000000     
  0.37500000000000000       0.75000000000000000        0.0000000000000000     
  0.37500000000000000       0.62500000000000000        0.0000000000000000     
  0.40625000000000000       0.62500000000000000        0.0000000000000000     
  0.43750000000000000       0.62500000000000000        0.0000000000000000     
  0.46875000000000000       0.62500000000000000        0.0000000000000000     
  0.50000000000000000       0.62500000000000000        0.0000000000000000     
  0.37500000000000000       0.65625000000000000        0.0000000000000000     
  0.40625000000000000       0.65625000000000000        0.0000000000000000     
  0.43750000000000000       0.65625000000000000        0.0000000000000000     
  0.46875000000000000       0.65625000000000000        0.0000000000000000     
  0.50000000000000000       0.65625000000000000        0.0000000000000000     
  0.37500000000000000       0.68750000000000000        0.0000000000000000     
  0.40625000000000000       0.68750000000000000        0.0000000000000000     
  0.43750000000000000       0.68750000000000000        0.0000000000000000     
  0.46875000000000000       0.68750000000000000        0.0000000000000000     
  0.50000000000000000       0.68750000000000000        0.0000000000000000     
  0.37500000000000000       0.71875000000000000        0.0000000000000000     
  0.40625000000000000       0.71875000000000000        0.0000000000000000     
  0.43750000000000000       0.71875000000000000        0.0000000000000000     
  0.46875000000000000       0.71875000000000000        0.0000000000000000     
  0.50000000000000000       0.71875000000000000        0.0000000000000000     
  0.37500000000000000       0.75000000000000000        0.0000000000000000     
  0.40625000000000000       0.75000000000000000        0.0000000000000000     
  0.43750000000000000       0.75000000000000000        0.0000000000000000     
  0.46875000000000000       0.75000000000000000        0.0000000000000000     
  0.50000000000000000       0.75000000000000000        0.0000000000000000     
  0.50000000000000000       0.62500000000000000        0.0000000000000000     
  0.53125000000000000       0.62500000000000000        0.0000000000000000     
  0.56250000000000000       0.62500000000000000        0.0000000000000000     
  0.59375000000000000       0.62500000000000000        0.0000000000000000     
  0.62500000000000000       0.62500000000000000        0.0000000000000000     
  0.50000000000000000       0.65625000000000000        0.0000000000000000     
  0.53125000000000000       0.65625000000000000        0.0000000000000000     
  0.56250000000000000       0.65625000000000000        0.0000000000000000     
  0.59375000000000000       0.65625000000000000        0.0000000000000000     
  0.62500000000000000       0.65625000000000000        0.0000000000000000     
  0.50000000000000000       0.68750000000000000        0.0000000000000000     
  0.53125000000000000       0.68750000000000000        0.0000000000000000     
  0.56250000000000000       0.68750000000000000        0.0000000000000000     
  0.59375000000000000       0.68750000000000000        0.0000000000000000     
  0.62500000000000000       0.68750000000000000        0.0000000000000000     
  0.50000000000000000       0.71875000000000000        0.0000000000000000     
  0.53125000000000000       0.71875000000000000        0.0000000000000000     
  0.56250000000000000       0.71875000000000000        0.0000000000000000     
  0.59375000000000000       0.71875000000000000        0.0000000000000000     
  0.62500000000000000       0.71875000000000000        0.0000000000000000     
  0.50000000000000000       0.75000000000000000        0.0000000000000000     
  0.53125000000000000       0.75000000000000000        0.0000000000000000     
  0.56250000000000000       0.75000000000000000        0.0000000000000000     
  0.59375000000000000       0.75000000000000000        0.0000000000000000     
  0.62500000000000000       0.75000000000000000        0.0000000000000000     
  0.62500000000000000       0.62500000000000000        0.0000000000000000     
  0.65625000000000000       0.62500000000000000        0.0000000000000000     
  0.68750000000000000       0.62500000000000000        0.0000000000000000     
  0.71875000000000000       0.62500000000000000        0.0000000000000000     
  0.75000000000000000       0.62500000000000000        0.0000000000000000     
  0.62500000000000000       0.65625000000000000        0.0000000000000000     
  0.65625000000000000       0.65625000000000000        0.0000000000000000     
  0.68750000000000000       0.65625000000000000        0.0000000000000000     
  0.71875000000000000       0.65625000000000000        0.0000000000000000     
  0.75000000000000000       0.65625000000000000        0.0000000000000000     
  0.62500000000000000       0.68750000000000000        0.0000000000000000     
  0.65625000000000000       0.68750000000000000        0.0000000000000000     
  0.68750000000000000       0.68750000000000000        0.0000000000000000     
  0.71875000000000000       0.68750000000000000        0.0000000000000000     
  0.75000000000000000       0.68750000000000000        0.0000000000000000     
  0.62500000000000000       0.71875000000000000        0.0000000000000000     
  0.65625000000000000       0.71875000000000000        0.0000000000000000     
  0.68750000000000000       0.71875000000000000        0.0000000000000000     
  0.71875000000000000       0.71875000000000000        0.0000000000000000     
  0.75000000000000000       0.71875000000000000        0.0000000000000000     
  0.62500000000000000       0.75000000000000000        0.0000000000000000     
  0.65625000000000000       0.75000000000000000        0.0000000000000000     
  0.68750000000000000       0.75000000000000000        0.0000000000000000     
  0.71875000000000000       0.75000000000000000        0.0000000000000000     
  0.75000000000000000       0.75000000000000000        0.0000000000000000     
  0.75000000000000000       0.62500000000000000        0.0000000000000000     
  0.78125000000000000       0.62500000000000000        0.0000000000000000     
  0.81250000000000000       0.62500000000000000        0.0000000000000000     
  0.84375000000000000       0.62500000000000000        0.0000000000000000     
  0.87500000000000000       0.62500000000000000        0.0000000000000000     
  0.75000000000000000       0.65625000000000000        0.0000000000000000     
  0.78125000000000000       0.65625000000000000        0.0000000000000000     
  0.81250000000000000       0.65625000000000000        0.0000000000000000     
  0.84375000000000000       0.65625000000000000        0.0000000000000000     
  0.87500000000000000       0.65625000000000000        0.0000000000000000     
  0.75000000000000000       0.68750000000000000        0.0000000000000000     
  0.78125000000000000       0.68750000000000000        0.0000000000000000     
  0.81250000000000000       0.68750000000000000        0.0000000000000000     
  0.84375000000000000       0.68750000000000000        0.0000000000000000     
  0.87500000000000000       0.68750000000000000        0.0000000000000000     
  0.75000000000000000       0.71875000000000000        0.0000000000000000     
  0.78125000000000000       0.71875000000000000        0.0000000000000000     
  0.81250000000000000       0.71875000000000000        0.0000000000000000     
  0.84375000000000000       0.71875000000000000        0.0000000000000000     
  0.87500000000000000       0.71875000000000000        0.0000000000000000     
  0.75000000000000000       0.75000000000000000        0.0000000000000000     
  0.78125000000000000       0.75000000000000000        0.0000000000000000     
  0.81250000000000000       0.75000000000000000        0.0000000000000000     
  0.84375000000000000       0.75000000000000000        0.0000000000000000     
  0.87500000000000000       0.75000000000000000        0.0000000000000000     
  0.87500000000000000       0.62500000000000000        0.0000000000000000     
  0.90625000000000000       0.62500000000000000        0.0000000000000000     
  0.93750000000000000       0.62500000000000000        0.0000000000000000     
  0.96875000000000000       0.62500000000000000        0.0000000000000000     
   1.0000000000000000       0.62500000000000000        0.0000000000000000     
  0.87500000000000000       0.65625000000000000        0.0000000000000000     
  0.90625000000000000       0.65625000000000000        0.0000000000000000     
  0.93750000000000000       0.65625000000000000        0.0000000000000000     
  0.96875000000000000       0.65625000000000000        0.0000000000000000     
   1.0000000000000000       0.65625000000000000        0.0000000000000000     
  0.87500000000000000       0.68750000000000000        0.0000000000000000     
  0.90625000000000000       0.68750000000000000        0.0000000000000000     
  0.93750000000000000       0.68750000000000000        0.0000000000000000     
  0.96875000000000000       0.68750000000000000        0.0000000000000000     
   1.0000000000000000       0.68750000000000000        0.0000000000000000     
  0.87500000000000000       0.71875000000000000        0.0000000000000000     
  0.90625000000000000       0.71875000000000000        0.0000000000000000     
  0.93750000000000000       0.71875000000000000        0.0000000000000000     
  0.96875000000000000       0.71875000000000000        0.0000000000000000     
   1.0000000000000000       0.71875000000000000        0.0000000000000000     
  0.87500000000000000       0.75000000000000000        0.0000000000000000     
  0.90625000000000000       0.75000000000000000        0.0000000000000000     
  0.93750000000000000       0.75000000000000000        0.0000000000000000     
  0.96875000000000000       0.75000000000000000        0.0000000000000000     
   1.0000000000000000       0.75000000000000000        0.0000000000000000     
   0.0000000000000000       0.75000000000000000        0.0000000000000000     
   3.1250000000000000E-002  0.75000000000000000        0.0000000000000000     
   6.2500000000000000E-002  0.75000000000000000        0.0000000000000000     
   9.3750000000000000E-002  0.75000000000000000        0.0000000000000000     
  0.12500000000000000       0.75000000000000000        0.0000000000000000     
   0.0000000000000000       0.78125000000000000        0.0000000000000000     
   3.1250000000000000E-002  0.78125000000000000        0.0000000000000000     
   6.2500000000000000E-002  0.78125000000000000        0.0000000000000000     
   9.3750000000000000E-002  0.78125000000000000        0.0000000000000000     
  0.12500000000000000       0.78125000000000000        0.0000000000000000     
   0.0000000000000000       0.81250000000000000        0.0000000000000000     
   3.1250000000000000E-002  0.81250000000000000        0.0000000000000000     
   6.2500000000000000E-002  0.81250000000000000        0.0000000000000000     
   9.3750000000000000E-002  0.81250000000000000        0.0000000000000000     
  0.12500000000000000       0.81250000000000000        0.0000000000000000     
   0.0000000000000000       0.84375000000000000        0.0000000000000000     
   3.1250000000000000E-002  0.84375000000000000        0.0000000000000000     
   6.2500000000000000E-002  0.84375000000000000        0.0000000000000000     
   9.3750000000000000E-002  0.84375000000000000        0.0000000000000000     
  0.12500000000000000       0.84375000000000000        0.0000000000000000     
   0.0000000000000000       0.87500000000000000        0.0000000000000000     
   3.1250000000000000E-002  0.87500000000000000        0.0000000000000000     
   6.2500000000000000E-002  0.87500000000000000        0.0000000000000000     
   9.3750000000000000E-002  0.87500000000000000        0.0000000000000000     
  0.12500000000000000       0.87500000000000000        0.0000000000000000     
  0.12500000000000000       0.75000000000000000        0.0000000000000000     
  0.15625000000000000       0.75000000000000000        0.0000000000000000     
  0.18750000000000000       0.75000000000000000        0.0000000000000000     
  0.21875000000000000       0.75000000000000000        0.0000000000000000     
  0.25000000000000000       0.75000000000000000        0.0000000000000000     
  0.12500000000000000       0.78125000000000000        0.0000000000000000     
  0.15625000000000000       0.78125000000000000        0.0000000000000000     
  0.18750000000000000       0.78125000000000000        0.0000000000000000     
  0.21875000000000000       0.78125000000000000        0.0000000000000000     
  0.25000000000000000       0.78125000000000000        0.0000000000000000     
  0.12500000000000000       0.81250000000000000        0.0000000000000000     
  0.15625000000000000       0.81250000000000000        0.0000000000000000     
  0.18750000000000000       0.81250000000000000        0.0000000000000000     
  0.21875000000000000       0.81250000000000000        0.0000000000000000     
  0.25000000000000000       0.81250000000000000        0.0000000000000000     
  0.12500000000000000       0.84375000000000000        0.0000000000000000     
  0.15625000000000000       0.84375000000000000        0.0000000000000000     
  0.18750000000000000       0.84375000000000000        0.0000000000000000     
  0.21875000000000000       0.84375000000000000        0.0000000000000000     
  0.25000000000000000       0.84375000000000000        0.0000000000000000     
  0.12500000000000000       0.87500000000000000        0.0000000000000000     
  0.15625000000000000       0.87500000000000000        0.0000000000000000     
  0.18750000000000000       0.87500000000000000        0.0000000000000000     
  0.21875000000000000       0.87500000000000000        0.0000000000000000     
  0.25000000000000000       0.87500000000000000        0.0000000000000000     
  0.25000000000000000       0.75000000000000000        0.0000000000000000     
  0.28125000000000000       0.75000000000000000        0.0000000000000000     
  0.31250000000000000       0.75000000000000000        0.0000000000000000     
  0.34375000000000000       0.75000000000000000        0.0000000000000000     
  0.37500000000000000       0.75000000000000000        0.0000000000000000     
  0.25000000000000000       0.78125000000000000        0.0000000000000000     
  0.28125000000000000       0.78125000000000000        0.0000000000000000     
  0.31250000000000000       0.78125000000000000        0.0000000000000000     
  0.34375000000000000       0.78125000000000000        0.0000000000000000     
  0.37500000000000000       0.78125000000000000        0.0000000000000000     
  0.25000000000000000       0.81250000000000000        0.0000000000000000     
  0.28125000000000000       0.81250000000000000        0.0000000000000000     
  0.31250000000000000       0.81250000000000000        0.0000000000000000     
  0.34375000000000000       0.81250000000000000        0.0000000000000000     
  0.37500000000000000       0.81250000000000000        0.0000000000000000     
  0.25000000000000000       0.84375000000000000        0.0000000000000000     
  0.28125000000000000       0.84375000000000000        0.0000000000000000     
  0.31250000000000000       0.84375000000000000        0.0000000000000000     
  0.34375000000000000       0.84375000000000000        0.0000000000000000     
  0.37500000000000000       0.84375000000000000        0.0000000000000000     
  0.25000000000000000       0.87500000000000000        0.0000000000000000     
  0.28125000000000000       0.87500000000000000        0.0000000000000000     
  0.31250000000000000       0.87500000000000000        0.0000000000000000     
  0.34375000000000000       0.87500000000000000        0.0000000000000000     
  0.37500000000000000       0.87500000000000000        0.0000000000000000     
  0.37500000000000000       0.75000000000000000        0.0000000000000000     
  0.40625000000000000       0.75000000000000000        0.0000000000000000     
  0.43750000000000000       0.75000000000000000        0.0000000000000000     
  0.46875000000000000       0.75000000000000000        0.0000000000000000     
  0.50000000000000000       0.75000000000000000        0.0000000000000000     
  0.37500000000000000       0.78125000000000000        0.0000000000000000     
  0.40625000000000000       0.78125000000000000        0.0000000000000000     
  0.43750000000000000       0.78125000000000000        0.0000000000000000     
  0.46875000000000000       0.78125000000000000        0.0000000000000000     
  0.50000000000000000       0.78125000000000000        0.0000000000000000     
  0.37500000000000000       0.81250000000000000        0.0000000000000000     
  0.40625000000000000       0.81250000000000000        0.0000000000000000     
  0.43750000000000000       0.81250000000000000        0.0000000000000000     
  0.46875000000000000       0.81250000000000000        0.0000000000000000     
  0.50000000000000000       0.81250000000000000        0.0000000000000000     
  0.37500000000000000       0.84375000000000000        0.0000000000000000     
  0.40625000000000000       0.84375000000000000        0.0000000000000000     
  0.43750000000000000       0.84375000000000000        0.0000000000000000     
  0.46875000000000000       0.84375000000000000        0.0000000000000000     
  0.50000000000000000       0.84375000000000000        0.0000000000000000     
  0.37500000000000000       0.87500000000000000        0.0000000000000000     
  0.40625000000000000       0.87500000000000000        0.0000000000000000     
  0.43750000000000000       0.87500000000000000        0.0000000000000000     
  0.46875000000000000       0.87500000000000000        0.0000000000000000     
  0.50000000000000000       0.87500000000000000        0.0000000000000000     
  0.50000000000000000       0.75000000000000000        0.0000000000000000     
  0.53125000000000000       0.75000000000000000        0.0000000000000000     
  0.56250000000000000       0.75000000000000000        0.0000000000000000     
  0.59375000000000000       0.75000000000000000        0.0000000000000000     
  0.62500000000000000       0.75000000000000000        0.0000000000000000     
  0.50000000000000000       0.78125000000000000        0.0000000000000000     
  0.53125000000000000       0.78125000000000000        0.0000000000000000     
  0.56250000000000000       0.78125000000000000        0.0000000000000000     
  0.59375000000000000       0.78125000000000000        0.0000000000000000     
  0.62500000000000000       0.78125000000000000        0.0000000000000000     
  0.50000000000000000       0.81250000000000000        0.0000000000000000     
  0.53125000000000000       0.81250000000000000        0.0000000000000000     
  0.56250000000000000       0.81250000000000000        0.0000000000000000     
  0.59375000000000000       0.81250000000000000        0.0000000000000000     
  0.62500000000000000       0.81250000000000000        0.0000000000000000     
  0.50000000000000000       0.84375000000000000        0.0000000000000000     
  0.53125000000000000       0.84375000000000000        0.0000000000000000     
  0.56250000000000000       0.84375000000000000        0.0000000000000000     
  0.59375000000000000       0.84375000000000000        0.0000000000000000     
  0.62500000000000000       0.84375000000000000        0.0000000000000000     
  0.50000000000000000       0.87500000000000000        0.0000000000000000     
  0.53125000000000000       0.87500000000000000        0.0000000000000000     
  0.56250000000000000       0.87500000000000000        0.0000000000000000     
  0.59375000000000000       0.87500000000000000        0.0000000000000000     
  0.62500000000000000       0.87500000000000000        0.0000000000000000     
  0.62500000000000000       0.75000000000000000        0.0000000000000000     
  0.65625000000000000       0.75000000000000000        0.0000000000000000     
  0.68750000000000000       0.75000000000000000        0.0000000000000000     
  0.71875000000000000       0.75000000000000000        0.0000000000000000     
  0.75000000000000000       0.75000000000000000        0.0000000000000000     
  0.62500000000000000       0.78125000000000000        0.0000000000000000     
  0.65625000000000000       0.78125000000000000        0.0000000000000000     
  0.68750000000000000       0.78125000000000000        0.0000000000000000     
  0.71875000000000000       0.78125000000000000        0.0000000000000000     
  0.75000000000000000       0.78125000000000000        0.0000000000000000     
  0.62500000000000000       0.81250000000000000        0.0000000000000000     
  0.65625000000000000       0.81250000000000000        0.0000000000000000     
  0.68750000000000000       0.81250000000000000        0.0000000000000000     
  0.71875000000000000       0.81250000000000000        0.0000000000000000     
  0.75000000000000000       0.81250000000000000        0.0000000000000000     
  0.62500000000000000       0.84375000000000000        0.0000000000000000     
  0.65625000000000000       0.84375000000000000        0.0000000000000000     
  0.68750000000000000       0.84375000000000000        0.0000000000000000     
  0.71875000000000000       0.84375000000000000        0.0000000000000000     
  0.75000000000000000       0.84375000000000000        0.0000000000000000     
  0.62500000000000000       0.87500000000000000        0.0000000000000000     
  0.65625000000000000       0.87500000000000000        0.0000000000000000     
  0.68750000000000000       0.87500000000000000        0.0000000000000000     
  0.71875000000000000       0.87500000000000000        0.0000000000000000     
  0.75000000000000000       0.87500000000000000        0.0000000000000000     
  0.75000000000000000       0.75000000000000000        0.0000000000000000     
  0.78125000000000000       0.75000000000000000        0.0000000000000000     
  0.81250000000000000       0.75000000000000000        0.0000000000000000     
  0.84375000000000000       0.75000000000000000        0.0000000000000000     
  0.87500000000000000       0.75000000000000000        0.0000000000000000     
  0.75000000000000000       0.78125000000000000        0.0000000000000000     
  0.78125000000000000       0.78125000000000000        0.0000000000000000     
  0.81250000000000000       0.78125000000000000        0.0000000000000000     
  0.84375000000000000       0.78125000000000000        0.0000000000000000     
  0.87500000000000000       0.78125000000000000        0.0000000000000000     
  0.75000000000000000       0.81250000000000000        0.0000000000000000     
  0.78125000000000000       0.81250000000000000        0.0000000000000000     
  0.81250000000000000       0.81250000000000000        0.0000000000000000     
  0.84375000000000000       0.81250000000000000        0.0000000000000000     
  0.87500000000000000       0.81250000000000000        0.0000000000000000     
  0.75000000000000000       0.84375000000000000        0.0000000000000000     
  0.78125000000000000       0.84375000000000000        0.0000000000000000     
  0.81250000000000000       0.84375000000000000        0.0000000000000000     
  0.84375000000000000       0.84375000000000000        0.0000000000000000     
  0.87500000000000000       0.84375000000000000        0.0000000000000000     
  0.75000000000000000       0.87500000000000000        0.0000000000000000     
  0.78125000000000000       0.87500000000000000        0.0000000000000000     
  0.81250000000000000       0.87500000000000000        0.0000000000000000     
  0.84375000000000000       0.87500000000000000        0.0000000000000000     
  0.87500000000000000       0.87500000000000000        0.0000000000000000     
  0.87500000000000000       0.75000000000000000        0.0000000000000000     
  0.90625000000000000       0.75000000000000000        0.0000000000000000     
  0.93750000000000000       0.75000000000000000        0.0000000000000000     
  0.96875000000000000       0.75000000000000000        0.0000000000000000     
   1.0000000000000000       0.75000000000000000        0.0000000000000000     
  0.87500000000000000       0.78125000000000000        0.0000000000000000     
  0.90625000000000000       0.78125000000000000        0.0000000000000000     
  0.93750000000000000       0.78125000000000000        0.0000000000000000     
  0.96875000000000000       0.78125000000000000        0.0000000000000000     
   1.0000000000000000       0.78125000000000000        0.0000000000000000     
  0.87500000000000000       0.81250000000000000        0.0000000000000000     
  0.90625000000000000       0.81250000000000000        0.0000000000000000     
  0.93750000000000000       0.81250000000000000        0.0000000000000000     
  0.96875000000000000       0.81250000000000000        0.0000000000000000     
   1.0000000000000000       0.81250000000000000        0.0000000000000000     
  0.87500000000000000       0.84375000000000000        0.0000000000000000     
  0.90625000000000000       0.84375000000000000        0.0000000000000000     
  0.93750000000000000       0.84375000000000000        0.0000000000000000     
  0.96875000000000000       0.84375000000000000        0.0000000000000000     
   1.0000000000000000       0.84375000000000000        0.0000000000000000     
  0.87500000000000000       0.87500000000000000        0.0000000000000000     
  0.90625000000000000       0.87500000000000000        0.0000000000000000     
  0.93750000000000000       0.87500000000000000        0.0000000000000000     
  0.96875000000000000       0.87500000000000000        0.0000000000000000     
   1.0000000000000000       0.87500000000000000        0.0000000000000000     
   0.0000000000000000       0.87500000000000000        0.0000000000000000     
   3.1250000000000000E-002  0.87500000000000000        0.0000000000000000     
   6.2500000000000000E-002  0.87500000000000000        0.0000000000000000     
   9.3750000000000000E-002  0.87500000000000000        0.0000000000000000     
  0.12500000000000000       0.87500000000000000        0.0000000000000000     
   0.0000000000000000       0.90625000000000000        0.0000000000000000     
   3.1250000000000000E-002  0.90625000000000000        0.0000000000000000     
   6.2500000000000000E-002  0.90625000000000000        0.0000000000000000     
   9.3750000000000000E-002  0.90625000000000000        0.0000000000000000     
  0.12500000000000000       0.90625000000000000        0.0000000000000000     
   0.0000000000000000       0.93750000000000000        0.0000000000000000     
   3.1250000000000000E-002  0.93750000000000000        0.0000000000000000     
   6.2500000000000000E-002  0.93750000000000000        0.0000000000000000     
   9.3750000000000000E-002  0.93750000000000000        0.0000000000000000     
  0.12500000000000000       0.93750000000000000        0.0000000000000000     
   0.0000000000000000       0.96875000000000000        0.0000000000000000     
   3.1250000000000000E-002  0.96875000000000000        0.0000000000000000     
   6.2500000000000000E-002  0.96875000000000000        0.0000000000000000     
   9.3750000000000000E-002  0.96875000000000000        0.0000000000000000     
  0.12500000000000000       0.96875000000000000        0.0000000000000000     
   0.0000000000000000        1.0000000000000000        0.0000000000000000     
   3.1250000000000000E-002   1.0000000000000000        0.0000000000000000     
   6.2500000000000000E-002   1.0000000000000000        0.0000000000000000     
   9.3750000000000000E-002   1.0000000000000000        0.0000000000000000     
  0.12500000000000000        1.0000000000000000        0.0000000000000000     
  0.12500000000000000       0.87500000000000000        0.0000000000000000     
  0.15625000000000000       0.87500000000000000        0.0000000000000000     
  0.18750000000000000       0.87500000000000000        0.0000000000000000     
  0.21875000000000000       0.87500000000000000        0.0000000000000000     
  0.25000000000000000       0.87500000000000000        0.0000000000000000     
  0.12500000000000000       0.90625000000000000        0.0000000000000000     
  0.15625000000000000       0.90625000000000000        0.0000000000000000     
  0.18750000000000000       0.90625000000000000        0.0000000000000000     
  0.21875000000000000       0.90625000000000000        0.0000000000000000     
  0.25000000000000000       0.90625000000000000        0.0000000000000000     
  0.12500000000000000       0.93750000000000000        0.0000000000000000     
  0.15625000000000000       0.93750000000000000        0.0000000000000000     
  0.18750000000000000       0.93750000000000000        0.0000000000000000     
  0.21875000000000000       0.93750000000000000        0.0000000000000000     
  0.25000000000000000       0.93750000000000000        0.0000000000000000     
  0.12500000000000000       0.96875000000000000        0.0000000000000000     
  0.15625000000000000       0.96875000000000000        0.0000000000000000     
  0.18750000000000000       0.96875000000000000        0.0000000000000000     
  0.21875000000000000       0.96875000000000000        0.0000000000000000     
  0.25000000000000000       0.96875000000000000        0.0000000000000000     
  0.12500000000000000        1.0000000000000000        0.0000000000000000     
  0.15625000000000000        1.0000000000000000        0.0000000000000000     
  0.18750000000000000        1.0000000000000000        0.0000000000000000     
  0.21875000000000000        1.0000000000000000        0.0000000000000000     
  0.25000000000000000        1.0000000000000000        0.0000000000000000     
  0.25000000000000000       0.87500000000000000        0.0000000000000000     
  0.28125000000000000       0.87500000000000000        0.0000000000000000     
  0.31250000000000000       0.87500000000000000        0.0000000000000000     
  0.34375000000000000       0.87500000000000000        0.0000000000000000     
  0.37500000000000000       0.87500000000000000        0.0000000000000000     
  0.25000000000000000       0.90625000000000000        0.0000000000000000     
  0.28125000000000000       0.90625000000000000        0.0000000000000000     
  0.31250000000000000       0.90625000000000000        0.0000000000000000     
  0.34375000000000000       0.90625000000000000        0.0000000000000000     
  0.37500000000000000       0.90625000000000000        0.0000000000000000     
  0.25000000000000000       0.93750000000000000        0.0000000000000000     
  0.28125000000000000       0.93750000000000000        0.0000000000000000     
  0.31250000000000000       0.93750000000000000        0.0000000000000000     
  0.34375000000000000       0.93750000000000000        0.0000000000000000     
  0.37500000000000000       0.93750000000000000        0.0000000000000000     
  0.25000000000000000       0.96875000000000000        0.0000000000000000     
  0.28125000000000000       0.96875000000000000        0.0000000000000000     
  0.31250000000000000       0.96875000000000000        0.0000000000000000     
  0.34375000000000000       0.96875000000000000        0.0000000000000000     
  0.37500000000000000       0.96875000000000000        0.0000000000000000     
  0.25000000000000000        1.0000000000000000        0.0000000000000000     
  0.28125000000000000        1.0000000000000000        0.0000000000000000     
  0.31250000000000000        1.0000000000000000        0.0000000000000000     
  0.34375000000000000        1.0000000000000000        0.0000000000000000     
  0.37500000000000000        1.0000000000000000        0.0000000000000000     
  0.37500000000000000       0.87500000000000000        0.0000000000000000     
  0.40625000000000000       0.87500000000000000        0.0000000000000000     
  0.43750000000000000       0.87500000000000000        0.0000000000000000     
  0.46875000000000000       0.87500000000000000        0.0000000000000000     
  0.50000000000000000       0.87500000000000000        0.0000000000000000     
  0.37500000000000000       0.90625000000000000        0.0000000000000000     
  0.40625000000000000       0.90625000000000000        0.0000000000000000     
  0.43750000000000000       0.90625000000000000        0.0000000000000000     
  0.46875000000000000       0.90625000000000000        0.0000000000000000     
  0.50000000000000000       0.90625000000000000        0.0000000000000000     
  0.37500000000000000       0.93750000000000000        0.0000000000000000     
  0.40625000000000000       0.93750000000000000        0.0000000000000000     
  0.43750000000000000       0.93750000000000000        0.0000000000000000     
  0.46875000000000000       0.93750000000000000        0.0000000000000000     
  0.50000000000000000       0.93750000000000000        0.0000000000000000     
  0.37500000000000000       0.96875000000000000        0.0000000000000000     
  0.40625000000000000       0.96875000000000000        0.0000000000000000     
  0.43750000000000000       0.96875000000000000        0.0000000000000000     
  0.46875000000000000       0.96875000000000000        0.0000000000000000     
  0.50000000000000000       0.96875000000000000        0.0000000000000000     
  0.37500000000000000        1.0000000000000000        0.0000000000000000     
  0.40625000000000000        1.0000000000000000        0.0000000000000000     
  0.43750000000000000        1.0000000000000000        0.0000000000000000     
  0.46875000000000000        1.0000000000000000        0.0000000000000000     
  0.50000000000000000        1.0000000000000000        0.0000000000000000     
  0.50000000000000000       0.87500000000000000        0.0000000000000000     
  0.53125000000000000       0.87500000000000000        0.0000000000000000     
  0.56250000000000000       0.87500000000000000        0.0000000000000000     
  0.59375000000000000       0.87500000000000000        0.0000000000000000     
  0.62500000000000000       0.87500000000000000        0.0000000000000000     
  0.50000000000000000       0.90625000000000000        0.0000000000000000     
  0.53125000000000000       0.90625000000000000        0.0000000000000000     
  0.56250000000000000       0.90625000000000000        0.0000000000000000     
  0.59375000000000000       0.90625000000000000        0.0000000000000000     
  0.62500000000000000       0.90625000000000000        0.0000000000000000     
  0.50000000000000000       0.93750000000000000        0.0000000000000000     
  0.53125000000000000       0.93750000000000000        0.0000000000000000     
  0.56250000000000000       0.93750000000000000        0.0000000000000000     
  0.59375000000000000       0.93750000000000000        0.0000000000000000     
  0.62500000000000000       0.93750000000000000        0.0000000000000000     
  0.50000000000000000       0.96875000000000000        0.0000000000000000     
  0.53125000000000000       0.96875000000000000        0.0000000000000000     
  0.56250000000000000       0.96875000000000000        0.0000000000000000     
  0.59375000000000000       0.96875000000000000        0.0000000000000000     
  0.62500000000000000       0.96875000000000000        0.0000000000000000     
  0.50000000000000000        1.0000000000000000        0.0000000000000000     
  0.53125000000000000        1.0000000000000000        0.0000000000000000     
  0.56250000000000000        1.0000000000000000        0.0000000000000000     
  0.59375000000000000        1.0000000000000000        0.0000000000000000     
  0.62500000000000000        1.0000000000000000        0.0000000000000000     
  0.62500000000000000       0.87500000000000000        0.0000000000000000     
  0.65625000000000000       0.87500000000000000        0.0000000000000000     
  0.68750000000000000       0.87500000000000000        0.0000000000000000     
  0.71875000000000000       0.87500000000000000        0.0000000000000000     
  0.75000000000000000       0.87500000000000000        0.0000000000000000     
  0.62500000000000000       0.90625000000000000        0.0000000000000000     
  0.65625000000000000       0.90625000000000000        0.0000000000000000     
  0.68750000000000000       0.90625000000000000        0.0000000000000000     
  0.71875000000000000       0.90625000000000000        0.0000000000000000     
  0.75000000000000000       0.90625000000000000        0.0000000000000000     
  0.62500000000000000       0.93750000000000000        0.0000000000000000     
  0.65625000000000000       0.93750000000000000        0.0000000000000000     
  0.68750000000000000       0.93750000000000000        0.0000000000000000     
  0.71875000000000000       0.93750000000000000        0.0000000000000000     
  0.75000000000000000       0.93750000000000000        0.0000000000000000     
  0.62500000000000000       0.96875000000000000        0.0000000000000000     
  0.65625000000000000       0.96875000000000000        0.0000000000000000     
  0.68750000000000000       0.96875000000000000        0.0000000000000000     
  0.71875000000000000       0.96875000000000000        0.0000000000000000     
  0.75000000000000000       0.96875000000000000        0.0000000000000000     
  0.62500000000000000        1.0000000000000000        0.0000000000000000     
  0.65625000000000000        1.0000000000000000        0.0000000000000000     
  0.68750000000000000        1.0000000000000000        0.0000000000000000     
  0.71875000000000000        1.0000000000000000        0.0000000000000000     
  0.75000000000000000        1.0000000000000000        0.0000000000000000     
  0.75000000000000000       0.87500000000000000        0.0000000000000000     
  0.78125000000000000       0.87500000000000000        0.0000000000000000     
  0.81250000000000000       0.87500000000000000        0.0000000000000000     
  0.84375000000000000       0.87500000000000000        0.0000000000000000     
  0.87500000000000000       0.87500000000000000        0.0000000000000000     
  0.75000000000000000       0.90625000000000000        0.0000000000000000     
  0.78125000000000000       0.90625000000000000        0.0000000000000000     
  0.81250000000000000       0.90625000000000000        0.0000000000000000     
  0.84375000000000000       0.90625000000000000        0.0000000000000000     
  0.87500000000000000       0.90625000000000000        0.0000000000000000     
  0.75000000000000000       0.93750000000000000        0.0000000000000000     
  0.78125000000000000       0.93750000000000000        0.0000000000000000     
  0.81250000000000000       0.93750000000000000        0.0000000000000000     
  0.84375000000000000       0.93750000000000000        0.0000000000000000     
  0.87500000000000000       0.93750000000000000        0.0000000000000000     
  0.75000000000000000       0.96875000000000000        0.0000000000000000     
  0.78125000000000000       0.96875000000000000        0.0000000000000000     
  0.81250000000000000       0.96875000000000000        0.0000000000000000     
  0.84375000000000000       0.96875000000000000        0.0000000000000000     
  0.87500000000000000       0.96875000000000000        0.0000000000000000     
  0.75000000000000000        1.0000000000000000        0.0000000000000000     
  0.78125000000000000        1.0000000000000000        0.0000000000000000     
  0.81250000000000000        1.0000000000000000        0.0000000000000000     
  0.84375000000000000        1.0000000000000000        0.0000000000000000     
  0.87500000000000000        1.0000000000000000        0.0000000000000000     
  0.87500000000000000       0.87500000000000000        0.0000000000000000     
  0.90625000000000000       0.87500000000000000        0.0000000000000000     
  0.93750000000000000       0.87500000000000000        0.0000000000000000     
  0.96875000000000000       0.87500000000000000        0.0000000000000000     
   1.0000000000000000       0.87500000000000000        0.0000000000000000     
  0.87500000000000000       0.90625000000000000        0.0000000000000000     
  0.90625000000000000       0.90625000000000000        0.0000000000000000     
  0.93750000000000000       0.90625000000000000        0.0000000000000000     
  0.96875000000000000       0.90625000000000000        0.0000000000000000     
   1.0000000000000000       0.90625000000000000        0.0000000000000000     
  0.87500000000000000       0.93750000000000000        0.0000000000000000     
  0.90625000000000000       0.93750000000000000        0.0000000000000000     
  0.93750000000000000       0.93750000000000000        0.0000000000000000     
  0.96875000000000000       0.93750000000000000        0.0000000000000000     
   1.0000000000000000       0.93750000000000000        0.0000000000000000     
  0.87500000000000000       0.96875000000000000        0.0000000000000000     
  0.90625000000000000       0.96875000000000000        0.0000000000000000     
  0.93750000000000000       0.96875000000000000        0.0000000000000000     
  0.96875000000000000       0.96875000000000000        0.0000000000000000     
   1.0000000000000000       0.96875000000000000        0.0000000000000000     
  0.87500000000000000        1.0000000000000000        0.0000000000000000     
  0.90625000000000000        1.0000000000000000        0.0000000000000000     
  0.93750000000000000        1.0000000000000000        0.0000000000000000     
  0.96875000000000000        1.0000000000000000        0.0000000000000000     
   1.0000000000000000        1.0000000000000000        0.0000000000000000     
 </DataArray>
 </Points>
 <Cells>
 <DataArray  type="Int32"  Name="connectivity"  format="ascii">
           0           1           6           5
           1           2           7           6
           2           3           8           7
           3           4           9           8
           5           6          11          10
           6           7          12          11
           7           8          13          12
           8           9          14          13
          10          11          16          15
          11          12          17          16
          12          13          18          17
          13          14          19          18
          15          16          21          20
          16          17          22          21
          17          18          23          22
          18          19          24          23
          25          26          31          30
          26          27          32          31
          27          28          33          32
          28          29          34          33
          30          31          36          35
          31          32          37          36
          32          33          38          37
          33          34          39          38
          35          36          41          40
          36          37          42          41
          37          38          43          42
          38          39          44          43
          40          41          46          45
          41          42          47          46
          42          43          48          47
          43          44          49          48
          50          51          56          55
          51          52          57          56
          52          53          58          57
          53          54          59          58
          55          56          61          60
          56          57          62          61
          57          58          63          62
          58          59          64          63
          60          61          66          65
          61          62          67          66
          62          63          68          67
          63          64          69          68
          65          66          71          70
          66          67          72          71
          67          68          73          72
          68          69          74          73
          75          76          81          80
          76          77          82          81
          77          78          83          82
          78          79          84          83
          80          81          86          85
          81          82          87          86
          82          83          88          87
          83          84          89          88
          85          86          91          90
          86          87          92          91
          87          88          93          92
          88          89          94          93
          90          91          96          95
          91          92          97          96
          92          93          98          97
          93          94          99          98
         100         101         106         105
         101         102         107         106
         102         103         108         107
         103         104         109         108
         105         106         111         110
         106         107         112         111
         107         108         113         112
         108         109         114         113
         110         111         116         115
         111         112         117         116
         112         113         118         117
         113         114         119         118
         115         116         121         120
         116         117         122         121
         117         118         123         122
         118         119         124         123
         125         126         131         130
         126         127         132         131
         127         128         133         132
         128         129         134         133
         130         131         136         135
         131         132         137         136
         132         133         138         137
         133         134         139         138
         135         136         141         140
         136         137         142         141
         137         138         143         142
         138         139         144         143
         140         141         146         145
         141         142         147         146
         142         143         148         147
         143         144         149         148
         150         151         156         155
         151         152         157         156
         152         153         158         157
         153         154         159         158
         155         156         161         160
         156         157         162         161
         157         158         163         162
         158         159         164         163
         160         161         166         165
         161         162         167         166
         162         163         168         167
         163         164         169         168
         165         166         171         170
         166         167         172         171
         167         168         173         172
         168         169         174         173
         175         176         181         180
         176         177         182         181
         177         178         183         182
         178         179         184         183
         180         181         186         185
         181         182         187         186
         182         183         188         187
         183         184         189         188
         185         186         191         190
         186         187         192         191
         187         188         193         192
         188         189         194         193
         190         191         196         195
         191         192         197         196
         192         193         198         197
         193         194         199         198
         200         201         206         205
         201         202         207         206
         202         203         208         207
         203         204         209         208
         205         206         211         210
         206         207         212         211
         207         208         213         212
         208         209         214         213
         210         211         216         215
         211         212         217         216
         212         213         218         217
         213         214         219         218
         215         216         221         220
         216         217         222         221
         217         218         223         222
         218         219         224         223
         225         226         231         230
         226         227         232         231
         227         228         233         232
         228         229         234         233
         230         231         236         235
         231         232         237         236
         232         233         238         237
         233         234         239         238
         235         236         241         240
         236         237         242         241
         237         238         243         242
         238         239         244         243
         240         241         246         245
         241         242         247         246
         242         243         248         247
         243         244         249         248
         250         251         256         255
         251         252         257         256
         252         253         258         257
         253         254         259         258
         255         256         261         260
         256         257         262         261
         257         258         263         262
         258         259         264         263
         260         261         266         265
         261         262         267         266
         262         263         268         267
         263         264         269         268
         265         266         271         270
         266         267         272         271
         267         268         273         272
         268         269         274         273
         275         276         281         280
         276         277         282         281
         277         278         283         282
         278         279         284         283
         280         281         286         285
         281         282         287         286
         282         283         288         287
         283         284         289         288
         285         286         291         290
         286         287         292         291
         287         288         293         292
         288         289         294         293
         290         291         296         295
         291         292         297         296
         292         293         298         297
         293         294         299         298
         300         301         306         305
         301         302         307         306
         302         303         308         307
         303         304         309         308
         305         306         311         310
         306         307         312         311
         307         308         313         312
         308         309         314         313
         310         311         316         315
         311         312         317         316
         312         313         318         317
         313         314         319         318
         315         316         321         320
         316         317         322         321
         317         318         323         322
         318         319         324         323
         325         326         331         330
         326         327         332         331
         327         328         333         332
         328         329         334         333
         330         331         336         335
         331         332         337         336
         332         333         338         337
         333         334         339         338
         335         336         341         340
         336         337         342         341
         337         338         343         342
         338         339         344         343
         340         341         346         345
         341         342         347         346
         342         343         348         347
         343         344         349         348
         350         351         356         355
         351         352         357         356
         352         353         358         357
         353         354         359         358
         355         356         361         360
         356         357         362         361
         357         358         363         362
         358         359         364         363
         360         361         366         365
         361         362         367         366
         362         363         368         367
         363         364         369         368
         365         366         371         370
         366         367         372         371
         367         368         373         372
         368         369         374         373
         375         376         381         380
         376         377         382         381
         377         378         383         382
         378         379         384         383
         380         381         386         385
         381         382         387         386
         382         383         388         387
         383         384         389         388
         385         386         391         390
         386         387         392         391
         387         388         393         392
         388         389         394         393
         390         391         396         395
         391         392         397         396
         392         393         398         397
         393         394         399         398
         400         401         406         405
         401         402         407         406
         402         403         408         407
         403         404         409         408
         405         406         411         410
         406         407         412         411
         407         408         413         412
         408         409         414         413
         410         411         416         415
         411         412         417         416
         412         413         418         417
         413         414         419         418
         415         416         421         420
         416         417         422         421
         417         418         423         422
         418         419         424         423
         425         426         431         430
         426         427         432         431
         427         428         433         432
         428         429         434         433
         430         431         436         435
         431         432         437         436
         432         433         438         437
         433         434         439         438
         435         436         441         440
         436         437         442         441
         437         438         443         442
         438         439         444         443
         440         441         446         445
         441         442         447         446
         442         443         448         447
         443         444         449         448
         450         451         456         455
         451         452         457         456
         452         453         458         457
         453         454         459         458
         455         456         461         460
         456         457         462         461
         457         458         463         462
         458         459         464         463
         460         461         466         465
         461         462         467         466
         462         463         468         467
         463         464         469         468
         465         466         471         470
         466         467         472         471
         467         468         473         472
         468         469         474         473
         475         476         481         480
         476         477         482         481
         477         478         483         482
         478         479         484         483
         480         481         486         485
         481         482         487         486
         482         483         488         487
         483         484         489         488
         485         486         491         490
         486         487         492         491
         487         488         493         492
         488         489         494         493
         490         491         496         495
         491         492         497         496
         492         493         498         497
         493         494         499         498
         500         501         506         505
         501         502         507         506
         502         503         508         507
         503         504         509         508
         505         506         511         510
         506         507         512         511
         507         508         513         512
         508         509         514         513
         510         511         516         515
         511         512         517         516
         512         513         518         517
         513         514         519         518
         515         516         521         520
         516         517         522         521
         517         518         523         522
         518         519         524         523
         525         526         531         530
         526         527         532         531
         527         528         533         532
         528         529         534         533
         530         531         536         535
         531         532         537         536
         532         533         538         537
         533         534         539         538
         535         536         541         540
         536         537         542         541
         537         538         543         542
         538         539         544         543
         540         541         546         545
         541         542         547         546
         542         543         548         547
         543         544         549         548
         550         551         556         555
         551         552         557         556
         552         553         558         557
         553         554         559         558
         555         556         561         560
         556         557         562         561
         557         558         563         562
         558         559         564         563
         560         561         566         565
         561         562         567         566
         562         563         568         567
         563         564         569         568
         565         566         571         570
         566         567         572         571
         567         568         573         572
         568         569         574         573
         575         576         581         580
         576         577         582         581
         577         578         583         582
         578         579         584         583
         580         581         586         585
         581         582         587         586
         582         583         588         587
         583         584         589         588
         585         586         591         590
         586         587         592         591
         587         588         593         592
         588         589         594         593
         590         591         596         595
         591         592         597         596
         592         593         598         597
         593         594         599         598
         600         601         606         605
         601         602         607         606
         602         603         608         607
         603         604         609         608
         605         606         611         610
         606         607         612         611
         607         608         613         612
         608         609         614         613
         610         611         616         615
         611         612         617         616
         612         613         618         617
         613         614         619         618
         615         616         621         620
         616         617         622         621
         617         618         623         622
         618         619         624         623
         625         626         631         630
         626         627         632         631
         627         628         633         632
         628         629         634         633
         630         631         636         635
         631         632         637         636
         632         633         638         637
         633         634         639         638
         635         636         641         640
         636         637         642         641
         637         638         643         642
         638         639         644         643
         640         641         646         645
         641         642         647         646
         642         643         648         647
         643         644         649         648
         650         651         656         655
         651         652         657         656
         652         653         658         657
         653         654         659         658
         655         656         661         660
         656         657         662         661
         657         658         663         662
         658         659         664         663
         660         661         666         665
         661         662         667         666
         662         663         668         667
         663         664         669         668
         665         666         671         670
         666         667         672         671
         667         668         673         672
         668         669         674         673
         675         676         681         680
         676         677         682         681
         677         678         683         682
         678         679         684         683
         680         681         686         685
         681         682         687         686
         682         683         688         687
         683         684         689         688
         685         686         691         690
         686         687         692         691
         687         688         693         692
         688         689         694         693
         690         691         696         695
         691         692         697         696
         692         693         698         697
         693         694         699         698
         700         701         706         705
         701         702         707         706
         702         703         708         707
         703         704         709         708
         705         706         711         710
         706         707         712         711
         707         708         713         712
         708         709         714         713
         710         711         716         715
         711         712         717         716
         712         713         718         717
         713         714         719         718
         715         716         721         720
         716         717         722         721
         717         718         723         722
         718         719         724         723
         725         726         731         730
         726         727         732         731
         727         728         733         732
         728         729         734         733
         730         731         736         735
         731         732         737         736
         732         733         738         737
         733         734         739         738
         735         736         741         740
         736         737         742         741
         737         738         743         742
         738         739         744         743
         740         741         746         745
         741         742         747         746
         742         743         748         747
         743         744         749         748
         750         751         756         755
         751         752         757         756
         752         753         758         757
         753         754         759         758
         755         756         761         760
         756         757         762         761
         757         758         763         762
         758         759         764         763
         760         761         766         765
         761         762         767         766
         762         763         768         767
         763         764         769         768
         765         766         771         770
         766         767         772         771
         767         768         773         772
         768         769         774         773
         775         776         781         780
         776         777         782         781
         777         778         783         782
         778         779         784         783
         780         781         786         785
         781         782         787         786
         782         783         788         787
         783         784         789         788
         785         786         791         790
         786         787         792         791
         787         788         793         792
         788         789         794         793
         790         791         796         795
         791         792         797         796
         792         793         798         797
         793         794         799         798
         800         801         806         805
         801         802         807         806
         802         803         808         807
         803         804         809         808
         805         806         811         810
         806         807         812         811
         807         808         813         812
         808         809         814         813
         810         811         816         815
         811         812         817         816
         812         813         818         817
         813         814         819         818
         815         816         821         820
         816         817         822         821
         817         818         823         822
         818         819         824         823
         825         826         831         830
         826         827         832         831
         827         828         833         832
         828         829         834         833
         830         831         836         835
         831         832         837         836
         832         833         838         837
         833         834         839         838
         835         836         841         840
         836         837         842         841
         837         838         843         842
         838         839         844         843
         840         841         846         845
         841         842         847         846
         842         843         848         847
         843         844         849         848
         850         851         856         855
         851         852         857         856
         852         853         858         857
         853         854         859         858
         855         856         861         860
         856         857         862         861
         857         858         863         862
         858         859         864         863
         860         861         866         865
         861         862         867         866
         862         863         868         867
         863         864         869         868
         865         866         871         870
         866         867         872         871
         867         868         873         872
         868         869         874         873
         875         876         881         880
         876         877         882         881
         877         878         883         882
         878         879         884         883
         880         881         886         885
         881         882         887         886
         882         883         888         887
         883         884         889         888
         885         886         891         890
         886         887         892         891
         887         888         893         892
         888         889         894         893
         890         891         896         895
         891         892         897         896
         892         893         898         897
         893         894         899         898
         900         901         906         905
         901         902         907         906
         902         903         908         907
         903         904         909         908
         905         906         911         910
         906         907         912         911
         907         908         913         912
         908         909         914         913
         910         911         916         915
         911         912         917         916
         912         913         918         917
         913         914         919         918
         915         916         921         920
         916         917         922         921
         917         918         923         922
         918         919         924         923
         925         926         931         930
         926         927         932         931
         927         928         933         932
         928         929         934         933
         930         931         936         935
         931         932         937         936
         932         933         938         937
         933         934         939         938
         935         936         941         940
         936         937         942         941
         937         938         943         942
         938         939         944         943
         940         941         946         945
         941         942         947         946
         942         943         948         947
         943         944         949         948
         950         951         956         955
         951         952         957         956
         952         953         958         957
         953         954         959         958
         955         956         961         960
         956         957         962         961
         957         958         963         962
         958         959         964         963
         960         961         966         965
         961         962         967         966
         962         963         968         967
         963         964         969         968
         965         966         971         970
         966         967         972         971
         967         968         973         972
         968         969         974         973
         975         976         981         980
         976         977         982         981
         977         978         983         982
         978         979         984         983
         980         981         986         985
         981         982         987         986
         982         983         988         987
         983         984         989         988
         985         986         991         990
         986         987         992         991
         987         988         993         992
         988         989         994         993
         990         991         996         995
         991         992         997         996
         992         993         998         997
         993         994         999         998
        1000        1001        1006        1005
        1001        1002        1007        1006
        1002        1003        1008        1007
        1003        1004        1009        1008
        1005        1006        1011        1010
        1006        1007        1012        1011
        1007        1008        1013        1012
        1008        1009        1014        1013
        1010        1011        1016        1015
        1011        1012        1017        1016
        1012        1013        1018        1017
        1013        1014        1019        1018
        1015        1016        1021        1020
        1016        1017        1022        1021
        1017        1018        1023        1022
        1018        1019        1024        1023
        1025        1026        1031        1030
        1026        1027        1032        1031
        1027        1028        1033        1032
        1028        1029        1034        1033
        1030        1031        1036        1035
        1031        1032        1037        1036
        1032        1033        1038        1037
        1033        1034        1039        1038
        1035        1036        1041        1040
        1036        1037        1042        1041
        1037        1038        1043        1042
        1038        1039        1044        1043
        1040        1041        1046        1045
        1041        1042        1047        1046
        1042        1043        1048        1047
        1043        1044        1049        1048
        1050        1051        1056        1055
        1051        1052        1057        1056
        1052        1053        1058        1057
        1053        1054        1059        1058
        1055        1056        1061        1060
        1056        1057        1062        1061
        1057        1058        1063        1062
        1058        1059        1064        1063
        1060        1061        1066        1065
        1061        1062        1067        1066
        1062        1063        1068        1067
        1063        1064        1069        1068
        1065        1066        1071        1070
        1066        1067        1072        1071
        1067        1068        1073        1072
        1068        1069        1074        1073
        1075        1076        1081        1080
        1076        1077        1082        1081
        1077        1078        1083        1082
        1078        1079        1084        1083
        1080        1081        1086        1085
        1081        1082        1087        1086
        1082        1083        1088        1087
        1083        1084        1089        1088
        1085        1086        1091        1090
        1086        1087        1092        1091
        1087        1088        1093        1092
        1088        1089        1094        1093
        1090        1091        1096        1095
        1091        1092        1097        1096
        1092        1093        1098        1097
        1093        1094        1099        1098
        1100        1101        1106        1105
        1101        1102        1107        1106
        1102        1103        1108        1107
        1103        1104        1109        1108
        1105        1106        1111        1110
        1106        1107        1112        1111
        1107        1108        1113        1112
        1108        1109        1114        1113
        1110        1111        1116        1115
        1111        1112        1117        1116
        1112        1113        1118        1117
        1113        1114        1119        1118
        1115        1116        1121        1120
        1116        1117        1122        1121
        1117        1118        1123        1122
        1118        1119        1124        1123
        1125        1126        1131        1130
        1126        1127        1132        1131
        1127        1128        1133        1132
        1128        1129        1134        1133
        1130        1131        1136        1135
        1131        1132        1137        1136
        1132        1133        1138        1137
        1133        1134        1139        1138
        1135        1136        1141        1140
        1136        1137        1142        1141
        1137        1138        1143        1142
        1138        1139        1144        1143
        1140        1141        1146        1145
        1141        1142        1147        1146
        1142        1143        1148        1147
        1143        1144        1149        1148
        1150        1151        1156        1155
        1151        1152        1157        1156
        1152        1153        1158        1157
        1153        1154        1159        1158
        1155        1156        1161        1160
        1156        1157        1162        1161
        1157        1158        1163        1162
        1158        1159        1164        1163
        1160        1161        1166        1165
        1161        1162        1167        1166
        1162        1163        1168        1167
        1163        1164        1169        1168
        1165        1166        1171        1170
        1166        1167        1172        1171
        1167        1168        1173        1172
        1168        1169        1174        1173
        1175        1176        1181        1180
        1176        1177        1182        1181
        1177        1178        1183        1182
        1178        1179        1184        1183
        1180        1181        1186        1185
        1181        1182        1187        1186
        1182        1183        1188        1187
        1183        1184        1189        1188
        1185        1186        1191        1190
        1186        1187        1192        1191
        1187        1188        1193        1192
        1188        1189        1194        1193
        1190        1191        1196        1195
        1191        1192        1197        1196
        1192        1193        1198        1197
        1193        1194        1199        1198
        1200        1201        1206        1205
        1201        1202        1207        1206
        1202        1203        1208        1207
        1203        1204        1209        1208
        1205        1206        1211        1210
        1206        1207        1212        1211
        1207        1208        1213        1212
        1208        1209        1214        1213
        1210        1211        1216        1215
        1211        1212        1217        1216
        1212        1213        1218        1217
        1213        1214        1219        1218
        1215        1216        1221        1220
        1216        1217        1222        1221
        1217        1218        1223        1222
        1218        1219        1224        1223
        1225        1226        1231        1230
        1226        1227        1232        1231
        1227        1228        1233        1232
        1228        1229        1234        1233
        1230        1231        1236        1235
        1231        1232        1237        1236
        1232        1233        1238        1237
        1233        1234        1239        1238
        1235        1236        1241        1240
        1236        1237        1242        1241
        1237        1238        1243        1242
        1238        1239        1244        1243
        1240        1241        1246        1245
        1241        1242        1247        1246
        1242        1243        1248        1247
        1243        1244        1249        1248
        1250        1251        1256        1255
        1251        1252        1257        1256
        1252        1253        1258        1257
        1253        1254        1259        1258
        1255        1256        1261        1260
        1256        1257        1262        1261
        1257        1258        1263        1262
        1258        1259        1264        1263
        1260        1261        1266        1265
        1261        1262        1267        1266
        1262        1263        1268        1267
        1263        1264        1269        1268
        1265        1266        1271        1270
        1266        1267        1272        1271
        1267        1268        1273        1272
        1268        1269        1274        1273
        1275        1276        1281        1280
        1276        1277        1282        1281
        1277        1278        1283        1282
        1278        1279        1284        1283
        1280        1281        1286        1285
        1281        1282        1287        1286
        1282        1283        1288        1287
        1283        1284        1289        1288
        1285        1286        1291        1290
        1286        1287        1292        1291
        1287        1288        1293        1292
        1288        1289        1294        1293
        1290        1291        1296        1295
        1291        1292        1297        1296
        1292        1293        1298        1297
        1293        1294        1299        1298
        1300        1301        1306        1305
        1301        1302        1307        1306
        1302        1303        1308        1307
        1303        1304        1309        1308
        1305        1306        1311        1310
        1306        1307        1312        1311
        1307        1308        1313        1312
        1308        1309        1314        1313
        1310        1311        1316        1315
        1311        1312        1317        1316
        1312        1313        1318        1317
        1313        1314        1319        1318
        1315        1316        1321        1320
        1316        1317        1322        1321
        1317        1318        1323        1322
        1318        1319        1324        1323
        1325        1326        1331        1330
        1326        1327        1332        1331
        1327        1328        1333        1332
        1328        1329        1334        1333
        1330        1331        1336        1335
        1331        1332        1337        1336
        1332        1333        1338        1337
        1333        1334        1339        1338
        1335        1336        1341        1340
        1336        1337        1342        1341
        1337        1338        1343        1342
        1338        1339        1344        1343
        1340        1341        1346        1345
        1341        1342        1347        1346
        1342        1343        1348        1347
        1343        1344        1349        1348
        1350        1351        1356        1355
        1351        1352        1357        1356
        1352        1353        1358        1357
        1353        1354        1359        1358
        1355        1356        1361        1360
        1356        1357        1362        1361
        1357        1358        1363        1362
        1358        1359        1364        1363
        1360        1361        1366        1365
        1361        1362        1367        1366
        1362        1363        1368        1367
        1363        1364        1369        1368
        1365        1366        1371        1370
        1366        1367        1372        1371
        1367        1368        1373        1372
        1368        1369        1374        1373
        1375        1376        1381        1380
        1376        1377        1382        1381
        1377        1378        1383        1382
        1378        1379        1384        1383
        1380        1381        1386        1385
        1381        1382        1387        1386
        1382        1383        1388        1387
        1383        1384        1389        1388
        1385        1386        1391        1390
        1386        1387        1392        1391
        1387        1388        1393        1392
        1388        1389        1394        1393
        1390        1391        1396        1395
        1391        1392        1397        1396
        1392        1393        1398        1397
        1393        1394        1399        1398
        1400        1401        1406        1405
        1401        1402        1407        1406
        1402        1403        1408        1407
        1403        1404        1409        1408
        1405        1406        1411        1410
        1406        1407        1412        1411
        1407        1408        1413        1412
        1408        1409        1414        1413
        1410        1411        1416        1415
        1411        1412        1417        1416
        1412        1413        1418        1417
        1413        1414        1419        1418
        1415        1416        1421        1420
        1416        1417        1422        1421
        1417        1418        1423        1422
        1418        1419        1424        1423
        1425        1426        1431        1430
        1426        1427        1432        1431
        1427        1428        1433        1432
        1428        1429        1434        1433
        1430        1431        1436        1435
        1431        1432        1437        1436
        1432        1433        1438        1437
        1433        1434        1439        1438
        1435        1436        1441        1440
        1436        1437        1442        1441
        1437        1438        1443        1442
        1438        1439        1444        1443
        1440        1441        1446        1445
        1441        1442        1447        1446
        1442        1443        1448        1447
        1443        1444        1449        1448
        1450        1451        1456        1455
        1451        1452        1457        1456
        1452        1453        1458        1457
        1453        1454        1459        1458
        1455        1456        1461        1460
        1456        1457        1462        1461
        1457        1458        1463        1462
        1458        1459        1464        1463
        1460        1461        1466        1465
        1461        1462        1467        1466
        1462        1463        1468        1467
        1463        1464        1469        1468
        1465        1466        1471        1470
        1466        1467        1472        1471
        1467        1468        1473        1472
        1468        1469        1474        1473
        1475        1476        1481        1480
        1476        1477        1482        1481
        1477        1478        1483        1482
        1478        1479        1484        1483
        1480        1481        1486        1485
        1481        1482        1487        1486
        1482        1483        1488        1487
        1483        1484        1489        1488
        1485        1486        1491        1490
        1486        1487        1492        1491
        1487        1488        1493        1492
        1488        1489        1494        1493
        1490        1491        1496        1495
        1491        1492        1497        1496
        1492        1493        1498        1497
        1493        1494        1499        1498
        1500        1501        1506        1505
        1501        1502        1507        1506
        1502        1503        1508        1507
        1503        1504        1509        1508
        1505        1506        1511        1510
        1506        1507        1512        1511
        1507        1508        1513        1512
        1508        1509        1514        1513
        1510        1511        1516        1515
        1511        1512        1517        1516
        1512        1513        1518        1517
        1513        1514        1519        1518
        1515        1516        1521        1520
        1516        1517        1522        1521
        1517        1518        1523        1522
        1518        1519        1524        1523
        1525        1526        1531        1530
        1526        1527        1532        1531
        1527        1528        1533        1532
        1528        1529        1534        1533
        1530        1531        1536        1535
        1531        1532        1537        1536
        1532        1533        1538        1537
        1533        1534        1539        1538
        1535        1536        1541        1540
        1536        1537        1542        1541
        1537        1538        1543        1542
        1538        1539        1544        1543
        1540        1541        1546        1545
        1541        1542        1547        1546
        1542        1543        1548        1547
        1543        1544        1549        1548
        1550        1551        1556        1555
        1551        1552        1557        1556
        1552        1553        1558        1557
        1553        1554        1559        1558
        1555        1556        1561        1560
        1556        1557        1562        1561
        1557        1558        1563        1562
        1558        1559        1564        1563
        1560        1561        1566        1565
        1561        1562        1567        1566
        1562        1563        1568        1567
        1563        1564        1569        1568
        1565        1566        1571        1570
        1566        1567        1572        1571
        1567        1568        1573        1572
        1568        1569        1574        1573
        1575        1576        1581        1580
        1576        1577        1582        1581
        1577        1578        1583        1582
        1578        1579        1584        1583
        1580        1581        1586        1585
        1581        1582        1587        1586
        1582        1583        1588        1587
        1583        1584        1589        1588
        1585        1586        1591        1590
        1586        1587        1592        1591
        1587        1588        1593        1592
        1588        1589        1594        1593
        1590        1591        1596        1595
        1591        1592        1597        1596
        1592        1593        1598        1597
        1593        1594        1599        1598
 </DataArray>
 <DataArray  type="Int32"  Name="offsets"  format="ascii"> 
           4
           8
          12
          16
          20
          24
          28
          32
          36
          40
          44
          48
          52
          56
          60
          64
          68
          72
          76
          80
          84
          88
          92
          96
         100
         104
         108
         112
         116
         120
         124
         128
         132
         136
         140
         144
         148
         152
         156
         160
         164
         168
         172
         176
         180
         184
         188
         192
         196
         200
         204
         208
         212
         216
         220
         224
         228
         232
         236
         240
         244
         248
         252
         256
         260
         264
         268
         272
         276
         280
         284
         288
         292
         296
         300
         304
         308
         312
         316
         320
         324
         328
         332
         336
         340
         344
         348
         352
         356
         360
         364
         368
         372
         376
         380
         384
         388
         392
         396
         400
         404
         408
         412
         416
         420
         424
         428
         432
         436
         440
         444
         448
         452
         456
         460
         464
         468
         472
         476
         480
         484
         488
         492
         496
         500
         504
         508
         512
         516
         520
         524
         528
         532
         536
         540
         544
         548
         552
         556
         560
         564
         568
         572
         576
         580
         584
         588
         592
         596
         600
         604
         608
         612
         616
         620
         624
         628
         632
         636
         640
         644
         648
         652
         656
         660
         664
         668
         672
         676
         680
         684
         688
         692
         696
         700
         704
         708
         712
         716
         720
         724
         728
         732
         736
         740
         744
         748
         752
         756
         760
         764
         768
         772
         776
         780
         784
         788
         792
         796
         800
         804
         808
         812
         816
         820
         824
         828
         832
         836
         840
         844
         848
         852
         856
         860
         864
         868
         872
         876
         880
         884
         888
         892
         896
         900
         904
         908
         912
         916
         920
         924
         928
         932
         936
         940
         944
         948
         952
         956
         960
         964
         968
         972
         976
         980
         984
         988
         992
         996
        1000
        1004
        1008
        1012
        1016
        1020
        1024
        1028
        1032
        1036
        1040
        1044
        1048
        1052
        1056
        1060
        1064
        1068
        1072
        1076
        1080
        1084
        1088
        1092
        1096
        1100
        1104
        1108
        1112
        1116
        1120
        1124
        1128
        1132
        1136
        1140
        1144
        1148
        1152
        1156
        1160
        1164
        1168
        1172
        1176
        1180
        1184
        1188
        1192
        1196
        1200
        1204
        1208
        1212
        1216
        1220
        1224
        1228
        1232
        1236
        1240
        1244
        1248
        1252
        1256
        1260
        1264
        1268
        1272
        1276
        1280
        1284
        1288
        1292
        1296
        1300
        1304
        1308
        1312
        1316
        1320
        1324
        1328
        1332
        1336
        1340
        1344
        1348
        1352
        1356
        1360
        1364
        1368
        1372
        1376
        1380
        1384
        1388
        1392
        1396
        1400
        1404
        1408
        1412
        1416
        1420
        1424
        1428
        1432
        1436
        1440
        1444
        1448
        1452
        1456
        1460
        1464
        1468
        1472
        1476
        1480
        1484
        1488
        1492
        1496
        1500
        1504
        1508
        1512
        1516
        1520
        1524
        1528
        1532
        1536
        1540
        1544
        1548
        1552
        1556
        1560
        1564
        1568
        1572
        1576
        1580
        1584
        1588
        1592
        1596
        1600
        1604
        1608
        1612
        1616
        1620
        1624
        1628
        1632
        1636
        1640
        1644
        1648
        1652
        1656
        1660
        1664
        1668
        1672
        1676
        1680
        1684
        1688
        1692
        1696
        1700
        1704
        1708
        1712
        1716
        1720
        1724
        1728
        1732
        1736
        1740
        1744
        1748
        1752
        1756
        1760
        1764
        1768
        1772
        1776
        1780
        1784
        1788
        1792
        1796
        1800
        1804
        1808
        1812
        1816
        1820
        1824
        1828
        1832
        1836
        1840
        1844
        1848
        1852
        1856
        1860
        1864
        1868
        1872
        1876
        1880
        1884
        1888
        1892
        1896
        1900
        1904
        1908
        1912
        1916
        1920
        1924
        1928
        1932
        1936
        1940
        1944
        1948
        1952
        1956
        1960
        1964
        1968
        1972
        1976
        1980
        1984
        1988
        1992
        1996
        2000
        2004
        2008
        2012
        2016
        2020
        2024
        2028
        2032
        2036
        2040
        2044
        2048
        2052
        2056
        2060
        2064
        2068
        2072
        2076
        2080
        2084
        2088
        2092
        2096
        2100
        2104
        2108
        2112
        2116
        2120
        2124
        2128
        2132
        2136
        2140
        2144
        2148
        2152
        2156
        2160
        2164
        2168
        2172
        2176
        2180
        2184
        2188
        2192
        2196
        2200
        2204
        2208
        2212
        2216
        2220
        2224
        2228
        2232
        2236
        2240
        2244
        2248
        2252
        2256
        2260
        2264
        2268
        2272
        2276
        2280
        2284
        2288
        2292
        2296
        2300
        2304
        2308
        2312
        2316
        2320
        2324
        2328
        2332
        2336
        2340
        2344
        2348
        2352
        2356
        2360
        2364
        2368
        2372
        2376
        2380
        2384
        2388
        2392
        2396
        2400
        2404
        2408
        2412
        2416
        2420
        2424
        2428
        2432
        2436
        2440
        2444
        2448
        2452
        2456
        2460
        2464
        2468
        2472
        2476
        2480
        2484
        2488
        2492
        2496
        2500
        2504
        2508
        2512
        2516
        2520
        2524
        2528
        2532
        2536
        2540
        2544
        2548
        2552
        2556
        2560
        2564
        2568
        2572
        2576
        2580
        2584
        2588
        2592
        2596
        2600
        2604
        2608
        2612
        2616
        2620
        2624
        2628
        2632
        2636
        2640
        2644
        2648
        2652
        2656
        2660
        2664
        2668
        2672
        2676
        2680
        2684
        2688
        2692
        2696
        2700
        2704
        2708
        2712
        2716
        2720
        2724
        2728
        2732
        2736
        2740
        2744
        2748
        2752
        2756
        2760
        2764
        2768
        2772
        2776
        2780
        2784
        2788
        2792
        2796
        2800
        2804
        2808
        2812
        2816
        2820
        2824
        2828
        2832
        2836
        2840
        2844
        2848
        2852
        2856
        2860
        2864
        2868
        2872
        2876
        2880
        2884
        2888
        2892
        2896
        2900
        2904
        2908
        2912
        2916
        2920
        2924
        2928
        2932
        2936
        2940
        2944
        2948
        2952
        2956
        2960
        2964
        2968
        2972
        2976
        2980
        2984
        2988
        2992
        2996
        3000
        3004
        3008
        3012
        3016
        3020
        3024
        3028
        3032
        3036
        3040
        3044
        3048
        3052
        3056
        3060
        3064
        3068
        3072
        3076
        3080
        3084
        3088
        3092
        3096
        3100
        3104
        3108
        3112
        3116
        3120
        3124
        3128
        3132
        3136
        3140
        3144
        3148
        3152
        3156
        3160
        3164
        3168
        3172
        3176
        3180
        3184
        3188
        3192
        3196
        3200
        3204
        3208
        3212
        3216
        3220
        3224
        3228
        3232
        3236
        3240
        3244
        3248
        3252
        3256
        3260
        3264
        3268
        3272
        3276
        3280
        3284
        3288
        3292
        3296
        3300
        3304
        3308
        3312
        3316
        3320
        3324
        3328
        3332
        3336
        3340
        3344
        3348
        3352
        3356
        3360
        3364
        3368
        3372
        3376
        3380
        3384
        3388
        3392
        3396
        3400
        3404
        3408
        3412
        3416
        3420
        3424
        3428
        3432
        3436
        3440
        3444
        3448
        3452
        3456
        3460
        3464
        3468
        3472
        3476
        3480
        3484
        3488
        3492
        3496
        3500
        3504
        3508
        3512
        3516
        3520
        3524
        3528
        3532
        3536
        3540
        3544
        3548
        3552
        3556
        3560
        3564
        3568
        3572
        3576
        3580
        3584
        3588
        3592
        3596
        3600
        3604
        3608
        3612
        3616
        3620
        3624
        3628
        3632
        3636
        3640
        3644
        3648
        3652
        3656
        3660
        3664
        3668
        3672
        3676
        3680
        3684
        3688
        3692
        3696
        3700
        3704
        3708
        3712
        3716
        3720
        3724
        3728
        3732
        3736
        3740
        3744
        3748
        3752
        3756
        3760
        3764
        3768
        3772
        3776
        3780
        3784
        3788
        3792
        3796
        3800
        3804
        3808
        3812
        3816
        3820
        3824
        3828
        3832
        3836
        3840
        3844
        3848
        3852
        3856
        3860
        3864
        3868
        3872
        3876
        3880
        3884
        3888
        3892
        3896
        3900
        3904
        3908
        3912
        3916
        3920
        3924
        3928
        3932
        3936
        3940
        3944
        3948
        3952
        3956
        3960
        3964
        3968
        3972
        3976
        3980
        3984
        3988
        3992
        3996
        4000
        4004
        4008
        4012
        4016
        4020
        4024
        4028
        4032
        4036
        4040
        4044
        4048
        4052
        4056
        4060
        4064
        4068
        4072
        4076
        4080
        4084
        4088
        4092
        4096
 </DataArray>
 <DataArray  type="UInt8"  Name="types"  format="ascii">
 9
 9
 9
 9
 9
 9
 9
 9
 9
 9
 9
 9
 9
 9
 9
 9
 9
 9
 9
 9
 9
 9
 9
 9
 9
 9
 9
 9
 9
 9
 9
 9
 9
 9
 9
 9
 9
 9
 9
 9
 9
 9
 9
 9
 9
 9
 9
 9
 9
 9
 9
 9
 9
 9
 9
 9
 9
 9
 9
 9
 9
 9
 9
 9
 9
 9
 9
 9
 9
 9
 9
 9
 9
 9
 9
 9
 9
 9
 9
 9
 9
 9
 9
 9
 9
 9
 9
 9
 9
 9
 9
 9
 9
 9
 9
 9
 9
 9
 9
 9
 9
 9
 9
 9
 9
 9
 9
 9
 9
 9
 9
 9
 9
 9
 9
 9
 9
 9
 9
 9
 9
 9
 9
 9
 9
 9
 9
 9
 9
 9
 9
 9
 9
 9
 9
 9
 9
 9
 9
 9
 9
 9
 9
 9
 9
 9
 9
 9
 9
 9
 9
 9
 9
 9
 9
 9
 9
 9
 9
 9
 9
 9
 9
 9
 9
 9
 9
 9
 9
 9
 9
 9
 9
 9
 9
 9
 9
 9
 9
 9
 9
 9
 9
 9
 9
 9
 9
 9
 9
 9
 9
 9
 9
 9
 9
 9
 9
 9
 9
 9
 9
 9
 9
 9
 9
 9
 9
 9
 9
 9
 9
 9
 9
 9
 9
 9
 9
 9
 9
 9
 9
 9
 9
 9
 9
 9
 9
 9
 9
 9
 9
 9
 9
 9
 9
 9
 9
 9
 9
 9
 9
 9
 9
 9
 9
 9
 9
 9
 9
 9
 9
 9
 9
 9
 9
 9
 9
 9
 9
 9
 9
 9
 9
 9
 9
 9
 9
 9
 9
 9
 9
 9
 9
 9
 9
 9
 9
 9
 9
 9
 9
 9
 9
 9
 9
 9
 9
 9
 9
 9
 9
 9
 9
 9
 9
 9
 9
 9
 9
 9
 9
 9
 9
 9
 9
 9
 9
 9
 9
 9
 9
 9
 9
 9
 9
 9
 9
 9
 9
 9
 9
 9
 9
 9
 9
 9
 9
 9
 9
 9
 9
 9
 9
 9
 9
 9
 9
 9
 9
 9
 9
 9
 9
 9
 9
 9
 9
 9
 9
 9
 9
 9
 9
 9
 9
 9
 9
 9
 9
 9
 9
 9
 9
 9
 9
 9
 9
 9
 9
 9
 9
 9
 9
 9
 9
 9
 9
 9
 9
 9
 9
 9
 9
 9
 9
 9
 9
 9
 9
 9
 9
 9
 9
 9
 9
 9
 9
 9
 9
 9
 9
 9
 9
 9
 9
 9
 9
 9
 9
 9
 9
 9
 9
 9
 9
 9
 9
 9
 9
 9
 9
 9
 9
 9
 9
 9
 9
 9
 9
 9
 9
 9
 9
 9
 9
 9
 9
 9
 9
 9
 9
 9
 9
 9
 9
 9
 9
 9
 9
 9
 9
 9
 9
 9
 9
 9
 9
 9
 9
 9
 9
 9
 9
 9
 9
 9
 9
 9
 9
 9
 9
 9
 9
 9
 9
 9
 9
 9
 9
 9
 9
 9
 9
 9
 9
 9
 9
 9
 9
 9
 9
 9
 9
 9
 9
 9
 9
 9
 9
 9
 9
 9
 9
 9
 9
 9
 9
 9
 9
 9
 9
 9
 9
 9
 9
 9
 9
 9
 9
 9
 9
 9
 9
 9
 9
 9
 9
 9
 9
 9
 9
 9
 9
 9
 9
 9
 9
 9
 9
 9
 9
 9
 9
 9
 9
 9
 9
 9
 9
 9
 9
 9
 9
 9
 9
 9
 9
 9
 9
 9
 9
 9
 9
 9
 9
 9
 9
 9
 9
 9
 9
 9
 9
 9
 9
 9
 9
 9
 9
 9
 9
 9
 9
 9
 9
 9
 9
 9
 9
 9
 9
 9
 9
 9
 9
 9
 9
 9
 9
 9
 9
 9
 9
 9
 9
 9
 9
 9
 9
 9
 9
 9
 9
 9
 9
 9
 9
 9
 9
 9
 9
 9
 9
 9
 9
 9
 9
 9
 9
 9
 9
 9
 9
 9
 9
 9
 9
 9
 9
 9
 9
 9
 9
 9
 9
 9
 9
 9
 9
 9
 9
 9
 9
 9
 9
 9
 9
 9
 9
 9
 9
 9
 9
 9
 9
 9
 9
 9
 9
 9
 9
 9
 9
 9
 9
 9
 9
 9
 9
 9
 9
 9
 9
 9
 9
 9
 9
 9
 9
 9
 9
 9
 9
 9
 9
 9
 9
 9
 9
 9
 9
 9
 9
 9
 9
 9
 9
 9
 9
 9
 9
 9
 9
 9
 9
 9
 9
 9
 9
 9
 9
 9
 9
 9
 9
 9
 9
 9
 9
 9
 9
 9
 9
 9
 9
 9
 9
 9
 9
 9
 9
 9
 9
 9
 9
 9
 9
 9
 9
 9
 9
 9
 9
 9
 9
 9
 9
 9
 9
 9
 9
 9
 9
 9
 9
 9
 9
 9
 9
 9
 9
 9
 9
 9
 9
 9
 9
 9
 9
 9
 9
 9
 9
 9
 9
 9
 9
 9
 9
 9
 9
 9
 9
 9
 9
 9
 9
 9
 9
 9
 9
 9
 9
 9
 9
 9
 9
 9
 9
 9
 9
 9
 9
 9
 9
 9
 9
 9
 9
 9
 9
 9
 9
 9
 9
 9
 9
 9
 9
 9
 9
 9
 9
 9
 9
 9
 9
 9
 9
 9
 9
 9
 9
 9
 9
 9
 9
 9
 9
 9
 9
 9
 9
 9
 9
 9
 9
 9
 9
 9
 9
 9
 9
 9
 9
 9
 9
 9
 9
 9
 9
 9
 9
 9
 9
 9
 9
 9
 9
 9
 9
 9
 9
 9
 9
 9
 9
 9
 9
 9
 9
 9
 9
 9
 9
 9
 9
 9
 9
 9
 9
 9
 9
 9
 9
 9
 9
 9
 9
 9
 9
 9
 9
 9
 9
 9
 9
 9
 9
 9
 9
 9
 9
 9
 9
 9
 9
 9
 9
 9
 9
 9
 9
 9
 9
 9
 9
 9
 9
 9
 9
 9
 9
 9
 9
 9
 9
 9
 9
 9
 9
 9
 9
 9
 9
 9
 9
 9
 9
 9
 9
 9
 9
 9
 9
 9
 9
 9
 9
 9
 9
 9
 9
 9
 9
 9
 9
 9
 9
 9
 9
 9
 9
 9
 9
 9
 9
 9
 9
 9
 9
 9
 9
 9
 9
 9
 9
 9
 9
 9
 9
 9
 9
 9
 9
 9
 9
 9
 9
 9
 9
 9
 9
 9
 9
 9
 9
 9
 9
 9
 9
 9
 9
 9
 </DataArray>
 </Cells> 
 <PointData>
 <DataArray  type="Float64" Name="disp" NumberOfComponents="3" format="ascii">
   0.0000000000000000        0.0000000000000000        0.0000000000000000     
   6.0953381501573367E-003   3.7918754835278377E-003   0.0000000000000000     
   1.1665552868752559E-002   7.3253907546722199E-003   0.0000000000000000     
   1.6710644155785666E-002   1.0600545813433147E-002   0.0000000000000000     
   2.1230612011256655E-002   1.3617340659810618E-002   0.0000000000000000     
   0.0000000000000000        0.0000000000000000        0.0000000000000000     
   4.8910310562595618E-003   3.0227194697837936E-003   0.0000000000000000     
   9.5737874381378943E-003   6.0610759533353421E-003   0.0000000000000000     
   1.4048269145634999E-002   9.1150694506546472E-003   0.0000000000000000     
   1.8314476178750875E-002   1.2184699961741707E-002   0.0000000000000000     
   0.0000000000000000        0.0000000000000000        0.0000000000000000     
   3.9537357684151847E-003   2.4250579371735350E-003   0.0000000000000000     
   7.9110952613182517E-003   5.0627269147229944E-003   0.0000000000000000     
   1.1872078478709198E-002   7.9130069326483823E-003   0.0000000000000000     
   1.5836685420588029E-002   1.0975897990949692E-002   0.0000000000000000     
   0.0000000000000000        0.0000000000000000        0.0000000000000000     
   3.2834522866242062E-003   1.9988908856970614E-003   0.0000000000000000     
   6.6774763382936274E-003   4.3303436388351779E-003   0.0000000000000000     
   1.0182072155008264E-002   6.9943582594143494E-003   0.0000000000000000     
   1.3797239736768116E-002   9.9909347474345725E-003   0.0000000000000000     
   0.0000000000000000        0.0000000000000000        0.0000000000000000     
   2.8801806108866256E-003   1.7442183153543733E-003   0.0000000000000000     
   5.8729306690640240E-003   3.8639261256718897E-003   0.0000000000000000     
   8.9782501745321926E-003   6.3591234309525492E-003   0.0000000000000000     
   1.2196139127291134E-002   9.2298102311963517E-003   0.0000000000000000     
   2.1230612011256655E-002   1.3617340659810618E-002   0.0000000000000000     
   2.5437045455200671E-002   1.6608442781715468E-002   0.0000000000000000     
   2.9541533507652849E-002   1.9806519667058542E-002   0.0000000000000000     
   3.3544076168613199E-002   2.3211571315839827E-002   0.0000000000000000     
   3.7444673438081715E-002   2.6823597728059333E-002   0.0000000000000000     
   1.8314476178750875E-002   1.2184699961741707E-002   0.0000000000000000     
   2.2409736239789774E-002   1.5339382115603359E-002   0.0000000000000000     
   2.6371377031055958E-002   1.8648530541246447E-002   0.0000000000000000     
   3.0199398552549415E-002   2.2112145238670965E-002   0.0000000000000000     
   3.3893800804270152E-002   2.5730226207876912E-002   0.0000000000000000     
   1.5836685420588029E-002   1.0975897990949692E-002   0.0000000000000000     
   1.9732532933817860E-002   1.4210482208724860E-002   0.0000000000000000     
   2.3487237865261794E-002   1.7575841705071815E-002   0.0000000000000000     
   2.7100800214919851E-002   2.1071976479990567E-002   0.0000000000000000     
   3.0573219982792017E-002   2.4698886533481103E-002   0.0000000000000000     
   1.3797239736768116E-002   9.9909347474345725E-003   0.0000000000000000     
   1.7405435537284911E-002   1.3221743061079972E-002   0.0000000000000000     
   2.0889116010270378E-002   1.6588453158534657E-002   0.0000000000000000     
   2.4248281155724510E-002   2.0091065039798628E-002   0.0000000000000000     
   2.7482930973647315E-002   2.3729578704871888E-002   0.0000000000000000     
   1.2196139127291134E-002   9.2298102311963517E-003   0.0000000000000000     
   1.5428444050190938E-002   1.2373164672668689E-002   0.0000000000000000     
   1.8577011466081688E-002   1.5686364901634955E-002   0.0000000000000000     
   2.1641841374963389E-002   1.9169410918095153E-002   0.0000000000000000     
   2.4622933776836033E-002   2.2822302722049274E-002   0.0000000000000000     
   3.7444673438081715E-002   2.6823597728059333E-002   0.0000000000000000     
   4.1251075016915703E-002   3.0634203949293649E-002   0.0000000000000000     
   4.4971030605972469E-002   3.4634995025119374E-002   0.0000000000000000     
   4.8604540205252011E-002   3.8825970955536512E-002   0.0000000000000000     
   5.2151603814754324E-002   4.3207131740545052E-002   0.0000000000000000     
   3.3893800804270152E-002   2.5730226207876912E-002   0.0000000000000000     
   3.7481183613766955E-002   2.9529673210567028E-002   0.0000000000000000     
   4.0988146808588595E-002   3.3537386008444046E-002   0.0000000000000000     
   4.4414690388735072E-002   3.7753364601507952E-002   0.0000000000000000     
   4.7760814354206406E-002   4.2177608989758753E-002   0.0000000000000000     
   3.0573219982792017E-002   2.4698886533481103E-002   0.0000000000000000     
   3.3937250357813580E-002   2.8500748778932911E-002   0.0000000000000000     
   3.7225644528919799E-002   3.2521740129735487E-002   0.0000000000000000     
   4.0438402496110686E-002   3.6761860585888831E-002   0.0000000000000000     
   4.3575524259386239E-002   4.1221110147392936E-002   0.0000000000000000     
   2.7482930973647315E-002   2.3729578704871888E-002   0.0000000000000000     
   3.0619275249055576E-002   2.7547430654391299E-002   0.0000000000000000     
   3.3683523766966074E-002   3.1588057388993715E-002   0.0000000000000000     
   3.6675676527378832E-002   3.5851458908679162E-002   0.0000000000000000     
   3.9595733530293838E-002   4.0337635213447603E-002   0.0000000000000000     
   2.4622933776836033E-002   2.2822302722049274E-002   0.0000000000000000     
   2.7527258287492945E-002   2.6669718836942177E-002   0.0000000000000000     
   3.0361784522727440E-002   3.0736337786218731E-002   0.0000000000000000     
   3.3126512482539519E-002   3.5022159569878926E-002   0.0000000000000000     
   3.5821442166929188E-002   3.9527184187922761E-002   0.0000000000000000     
   5.2151603814754324E-002   4.3207131740545052E-002   0.0000000000000000     
   5.5594752981157326E-002   4.7786629113740361E-002   0.0000000000000000     
   5.8916519251138923E-002   5.2572614808717763E-002   0.0000000000000000     
   6.2116902624699113E-002   5.7565088825477284E-002   0.0000000000000000     
   6.5195903101837899E-002   6.2764051164018911E-002   0.0000000000000000     
   4.7760814354206406E-002   4.2177608989758753E-002   0.0000000000000000     
   5.1007797349478967E-002   4.6804575725585350E-002   0.0000000000000000     
   5.4136918019029173E-002   5.1628721361376625E-002   0.0000000000000000     
   5.7148176362857024E-002   5.6650045897132566E-002   0.0000000000000000     
   6.0041572380962499E-002   6.1868549332853191E-002   0.0000000000000000     
   4.3575524259386239E-002   4.1221110147392936E-002   0.0000000000000000     
   4.6618769246028272E-002   4.5885380473690576E-002   0.0000000000000000     
   4.9549896883318595E-002   5.0740563224224489E-002   0.0000000000000000     
   5.2368907171257188E-002   5.5786658398994701E-002   0.0000000000000000     
   5.5075800109844072E-002   6.1023665998001207E-002   0.0000000000000000     
   3.9595733530293838E-002   4.0337635213447603E-002   0.0000000000000000     
   4.2427668670805233E-002   4.5029043358056027E-002   0.0000000000000000     
   4.5155455844007153E-002   4.9908140397261401E-002   0.0000000000000000     
   4.7779095049899620E-002   5.4974926331063691E-002   0.0000000000000000     
   5.0298586288482619E-002   6.0229401159462917E-002   0.0000000000000000     
   3.5821442166929188E-002   3.9527184187922761E-002   0.0000000000000000     
   3.8434495623809836E-002   4.4235564378681716E-002   0.0000000000000000     
   4.0953594901094875E-002   4.9131452880487321E-002   0.0000000000000000     
   4.3378739998784319E-002   5.4214849693339527E-002   0.0000000000000000     
   4.5709930916878132E-002   5.9485754817238355E-002   0.0000000000000000     
   6.5195903101837899E-002   6.2764051164018911E-002   0.0000000000000000     
   6.8196729380636117E-002   6.8164831062567890E-002   0.0000000000000000     
   7.1162590159174574E-002   7.3762757759349484E-002   0.0000000000000000     
   7.4093485437453310E-002   7.9557831254363678E-002   0.0000000000000000     
   7.6989415215472284E-002   8.5550051547610487E-002   0.0000000000000000     
   6.0041572380962499E-002   6.1868549332853191E-002   0.0000000000000000     
   6.2860493680684484E-002   6.7284259887473441E-002   0.0000000000000000     
   6.5648327869361825E-002   7.2897205779928240E-002   0.0000000000000000     
   6.8405074946994521E-002   7.8707387010217594E-002   0.0000000000000000     
   7.1130734913582572E-002   8.4714803578341491E-002   0.0000000000000000     
   5.5075800109844072E-002   6.1023665998001207E-002   0.0000000000000000     
   5.7712389877544179E-002   6.6455460222653528E-002   0.0000000000000000     
   6.0320490652822405E-002   7.2085915274361242E-002   0.0000000000000000     
   6.2900102435678770E-002   7.7915031153124342E-002   0.0000000000000000     
   6.5451225226113255E-002   8.3942807858942800E-002   0.0000000000000000     
   5.0298586288482619E-002   6.0229401159462917E-002   0.0000000000000000     
   5.2752417971215174E-002   6.5678432068108181E-002   0.0000000000000000     
   5.5179078509556320E-002   7.1328886242648493E-002   0.0000000000000000     
   5.7578567903506052E-002   7.7180763683083936E-002   0.0000000000000000     
   5.9950886153064369E-002   8.3234064389414442E-002   0.0000000000000000     
   4.5709930916878132E-002   5.9485754817238355E-002   0.0000000000000000     
   4.7980577961697503E-002   6.4953175423837356E-002   0.0000000000000000     
   5.0224091439563592E-002   7.0626118684790004E-002   0.0000000000000000     
   5.2440471350476379E-002   7.6504584600096362E-002   0.0000000000000000     
   5.4629717694435892E-002   8.2588573169756374E-002   0.0000000000000000     
   7.6989415215472284E-002   8.5550051547610487E-002   0.0000000000000000     
   7.9798641114110863E-002   9.1709038348008462E-002   0.0000000000000000     
   8.2469424754248330E-002   9.8004411364476185E-002   0.0000000000000000     
   8.5001766135884740E-002  0.10443617059701366        0.0000000000000000     
   8.7395665259020039E-002  0.11100431604562086        0.0000000000000000     
   7.1130734913582572E-002   8.4714803578341491E-002   0.0000000000000000     
   7.3778903522125794E-002   9.0895047141921093E-002   0.0000000000000000     
   7.6303176525624045E-002   9.7223709358577520E-002   0.0000000000000000     
   7.8703553924077241E-002  0.10370079022831077        0.0000000000000000     
   8.0980035717485466E-002  0.11032628975112088        0.0000000000000000     
   6.5451225226113255E-002   8.3942807858942800E-002   0.0000000000000000     
   6.7932220406710389E-002   9.0147759652813464E-002   0.0000000000000000     
   7.0301449360054613E-002   9.6508400795733112E-002   0.0000000000000000     
   7.2558912086145969E-002  0.10302473128770177        0.0000000000000000     
   7.4704608584984428E-002  0.10969675112871939        0.0000000000000000     
   5.9950886153064369E-002   8.3234064389414442E-002   0.0000000000000000     
   6.2258591767864621E-002   8.9467175880685604E-002   0.0000000000000000     
   6.4464243257540119E-002   9.5858485675942989E-002   0.0000000000000000     
   6.6567840622090896E-002  0.10240799377518660        0.0000000000000000     
   6.8569383861516911E-002  0.10911570017841643        0.0000000000000000     
   5.4629717694435892E-002   8.2588573169756374E-002   0.0000000000000000     
   5.6758017605588483E-002   8.8853295825537498E-002   0.0000000000000000     
   5.8791558218080520E-002   9.5273963999207123E-002   0.0000000000000000     
   6.0730339531912009E-002  0.10185057769076530        0.0000000000000000     
   6.2574361547082943E-002  0.10858313690021199        0.0000000000000000     
   8.7395665259020039E-002  0.11100431604562086        0.0000000000000000     
   8.9622911562161303E-002  0.11768891642965987        0.0000000000000000     
   9.1655294483815583E-002  0.12447004046849278        0.0000000000000000     
   9.3492814023982865E-002  0.13134768816211956        0.0000000000000000     
   9.5135470182663162E-002  0.13832185951054021        0.0000000000000000     
   8.0980035717485466E-002  0.11032628975112088        0.0000000000000000     
   8.3093851471123054E-002  0.11706760922167789        0.0000000000000000     
   8.5006230750264422E-002  0.12389214993465193        0.0000000000000000     
   8.6717173554909474E-002  0.13079991189004303        0.0000000000000000     
   8.8226679885058293E-002  0.13779089508785111        0.0000000000000000     
   7.4704608584984428E-002  0.10969675112871939        0.0000000000000000     
   7.6694580715665539E-002  0.11648236286552850        0.0000000000000000     
   7.8484870337284782E-002  0.12333946904487161        0.0000000000000000     
   8.0075477449842183E-002  0.13026806966674873        0.0000000000000000     
   8.1466402053337744E-002  0.13726816473115980        0.0000000000000000     
   6.8569383861516911E-002  0.10911570017841643        0.0000000000000000     
   7.0425099295788690E-002  0.11593317736121175        0.0000000000000000     
   7.2091213244876731E-002  0.12281199779915181        0.0000000000000000     
   7.3567725708780993E-002  0.12975216149223662        0.0000000000000000     
   7.4854636687501502E-002  0.13675366844046624        0.0000000000000000     
   6.2574361547082943E-002  0.10858313690021199        0.0000000000000000     
   6.4285407211492604E-002  0.11542005270872760        0.0000000000000000     
   6.5825259473040257E-002  0.12230973619749254        0.0000000000000000     
   6.7193918331725930E-002  0.12925218736650684        0.0000000000000000     
   6.8391383787549581E-002  0.13624740621577044        0.0000000000000000     
   9.5135470182663162E-002  0.13832185951054021        0.0000000000000000     
   9.6830869187993995E-002  0.14554158374384582        0.0000000000000000     
   9.8826617268112954E-002  0.15315589009212749        0.0000000000000000     
  0.10112271442302002       0.16116477855538525        0.0000000000000000     
  0.10371916065271521       0.16956824913361904        0.0000000000000000     
   8.8226679885058293E-002  0.13779089508785111        0.0000000000000000     
   8.9799912506626112E-002  0.14499290804656259        0.0000000000000000     
   9.1702034185528261E-002  0.15253375928466389        0.0000000000000000     
   9.3933044921764672E-002  0.16041344880215494        0.0000000000000000     
   9.6492944715335371E-002  0.16863197659903575        0.0000000000000000     
   8.1466402053337744E-002  0.13726816473115980        0.0000000000000000     
   8.2924806424880218E-002  0.14446123289005550        0.0000000000000000     
   8.4717852841578400E-002  0.15196875279538649        0.0000000000000000     
   8.6845541303432278E-002  0.15979072444715267        0.0000000000000000     
   8.9307871810441850E-002  0.16792714784535417        0.0000000000000000     
   7.4854636687501502E-002  0.13675366844046624        0.0000000000000000     
   7.6205550942756300E-002  0.14394655827432445        0.0000000000000000     
   7.7874073236263427E-002  0.15146087062429522        0.0000000000000000     
   7.9860203568022883E-002  0.15929660549037852        0.0000000000000000     
   8.2163941938034696E-002  0.16745376287257432        0.0000000000000000     
   6.8391383787549581E-002  0.13624740621577044        0.0000000000000000     
   6.9642146060254345E-002  0.14344888419936952        0.0000000000000000     
   7.1170695369583314E-002  0.15101011277139018        0.0000000000000000     
   7.2977031715536489E-002  0.15893109193183241        0.0000000000000000     
   7.5061155098113841E-002  0.16721182168069620        0.0000000000000000     
   0.0000000000000000        0.0000000000000000        0.0000000000000000     
   2.8801806108866256E-003   1.7442183153543733E-003   0.0000000000000000     
   5.8729306690640240E-003   3.8639261256718897E-003   0.0000000000000000     
   8.9782501745321926E-003   6.3591234309525492E-003   0.0000000000000000     
   1.2196139127291134E-002   9.2298102311963517E-003   0.0000000000000000     
   0.0000000000000000        0.0000000000000000        0.0000000000000000     
   2.6102195165816204E-003   1.5882732527669598E-003   0.0000000000000000     
   5.2896725887067904E-003   3.5560178297362756E-003   0.0000000000000000     
   8.0383592163755097E-003   5.9032337309079469E-003   0.0000000000000000     
   1.0856279399587783E-002   8.6299209562819747E-003   0.0000000000000000     
   0.0000000000000000        0.0000000000000000        0.0000000000000000     
   2.3398677790883657E-003   1.4582887245563102E-003   0.0000000000000000     
   4.7199164322992808E-003   3.2991622055314794E-003   0.0000000000000000     
   7.1401459596327427E-003   5.5226204429255068E-003   0.0000000000000000     
   9.6005563610887541E-003   8.1286634367383932E-003   0.0000000000000000     
   0.0000000000000000        0.0000000000000000        0.0000000000000000     
   2.0691253984068624E-003   1.3542647307224248E-003   0.0000000000000000     
   4.1636621998414908E-003   3.0933592530575011E-003   0.0000000000000000     
   6.2836104043038883E-003   5.2172835670052280E-003   0.0000000000000000     
   8.4289700117940510E-003   7.7260376725656055E-003   0.0000000000000000     
   0.0000000000000000        0.0000000000000000        0.0000000000000000     
   1.7979923745371105E-003   1.2762012712653034E-003   0.0000000000000000     
   3.6209098913334258E-003   2.9386089723143403E-003   0.0000000000000000     
   5.4687525503889457E-003   4.9872231031471096E-003   0.0000000000000000     
   7.3415203517036695E-003   7.4220436637636132E-003   0.0000000000000000     
   1.2196139127291134E-002   9.2298102311963517E-003   0.0000000000000000     
   1.5428444050190938E-002   1.2373164672668689E-002   0.0000000000000000     
   1.8577011466081688E-002   1.5686364901634955E-002   0.0000000000000000     
   2.1641841374963389E-002   1.9169410918095153E-002   0.0000000000000000     
   2.4622933776836033E-002   2.2822302722049274E-002   0.0000000000000000     
   1.0856279399587783E-002   8.6299209562819747E-003   0.0000000000000000     
   1.3689654366206587E-002   1.1652800138820878E-002   0.0000000000000000     
   1.6484705344094908E-002   1.4888591911487177E-002   0.0000000000000000     
   1.9241432333252744E-002   1.8337296274280868E-002   0.0000000000000000     
   2.1959835333680094E-002   2.1998913227201954E-002   0.0000000000000000     
   9.6005563610887541E-003   8.1286634367383932E-003   0.0000000000000000     
   1.2077162379002512E-002   1.1048702554866398E-002   0.0000000000000000     
   1.4545978755709203E-002   1.4214149165205766E-002   0.0000000000000000     
   1.7007005491208836E-002   1.7625003267756512E-002   0.0000000000000000     
   1.9460242585501414E-002   2.1281264862518624E-002   0.0000000000000000     
   8.4289700117940510E-003   7.7260376725656055E-003   0.0000000000000000     
   1.0590968088578706E-002   1.0560871920805239E-002   0.0000000000000000     
   1.2760831700924583E-002   1.3663036662790728E-002   0.0000000000000000     
   1.4938560848831677E-002   1.7032531898522073E-002   0.0000000000000000     
   1.7124155532299991E-002   2.0669357627999277E-002   0.0000000000000000     
   7.3415203517036695E-003   7.4220436637636132E-003   0.0000000000000000     
   9.2310714949351749E-003   1.0189308236637410E-002   0.0000000000000000     
   1.1129264179741036E-002   1.3235254404242060E-002   0.0000000000000000     
   1.3036098406121254E-002   1.6559882166577562E-002   0.0000000000000000     
   1.4951574174075829E-002   2.0163191523643920E-002   0.0000000000000000     
   2.4622933776836033E-002   2.2822302722049274E-002   0.0000000000000000     
   2.7527258287492945E-002   2.6669718836942177E-002   0.0000000000000000     
   3.0361784522727440E-002   3.0736337786218731E-002   0.0000000000000000     
   3.3126512482539519E-002   3.5022159569878926E-002   0.0000000000000000     
   3.5821442166929188E-002   3.9527184187922761E-002   0.0000000000000000     
   2.1959835333680094E-002   2.1998913227201954E-002   0.0000000000000000     
   2.4625782628454891E-002   2.5874221655885116E-002   0.0000000000000000     
   2.7225142500655060E-002   2.9964000445965047E-002   0.0000000000000000     
   2.9757914950280594E-002   3.4268249597441736E-002   0.0000000000000000     
   3.2224099977331506E-002   3.8786969110315185E-002   0.0000000000000000     
   1.9460242585501414E-002   2.1281264862518624E-002   0.0000000000000000     
   2.1879431427270613E-002   2.5167547440519668E-002   0.0000000000000000     
   2.4238313405200104E-002   2.9268464492787184E-002   0.0000000000000000     
   2.6536888519289901E-002   3.3584016019321199E-002   0.0000000000000000     
   2.8775156769539994E-002   3.8114202020121689E-002   0.0000000000000000     
   1.7124155532299991E-002   2.0669357627999277E-002   0.0000000000000000     
   1.9288204683940099E-002   2.4549696190845814E-002   0.0000000000000000     
   2.1401297236362582E-002   2.8649729926685158E-002   0.0000000000000000     
   2.3463433189567427E-002   3.2969458835517308E-002   0.0000000000000000     
   2.5474612543554653E-002   3.7508882917342258E-002   0.0000000000000000     
   1.4951574174075829E-002   2.0163191523643920E-002   0.0000000000000000     
   1.6852102398463371E-002   2.4020667906863569E-002   0.0000000000000000     
   1.8714093994142495E-002   2.8107796747658953E-002   0.0000000000000000     
   2.0537548961113199E-002   3.2424578046030057E-002   0.0000000000000000     
   2.2322467299375485E-002   3.6971011801976900E-002   0.0000000000000000     
   3.5821442166929188E-002   3.9527184187922761E-002   0.0000000000000000     
   3.8434495623809836E-002   4.4235564378681716E-002   0.0000000000000000     
   4.0953594901094875E-002   4.9131452880487321E-002   0.0000000000000000     
   4.3378739998784319E-002   5.4214849693339527E-002   0.0000000000000000     
   4.5709930916878132E-002   5.9485754817238355E-002   0.0000000000000000     
   3.2224099977331506E-002   3.8786969110315185E-002   0.0000000000000000     
   3.4615339157933529E-002   4.3507153597829071E-002   0.0000000000000000     
   3.6923274068212393E-002   4.8415797673227075E-002   0.0000000000000000     
   3.9147904708168112E-002   5.3512901336509197E-002   0.0000000000000000     
   4.1289231077800678E-002   5.8798464587675431E-002   0.0000000000000000     
   2.8775156769539994E-002   3.8114202020121689E-002   0.0000000000000000     
   3.0946288326067693E-002   4.2846021077759505E-002   0.0000000000000000     
   3.3043453358990317E-002   4.7766471774805495E-002   0.0000000000000000     
   3.5066651868307853E-002   5.2875554111259659E-002   0.0000000000000000     
   3.7015883854020312E-002   5.8173268087122011E-002   0.0000000000000000     
   2.5474612543554653E-002   3.7508882917342258E-002   0.0000000000000000     
   2.7427343128212361E-002   4.2252166818473012E-002   0.0000000000000000     
   2.9314132773428654E-002   4.7183475185222576E-002   0.0000000000000000     
   3.1134981479203554E-002   5.2302808017590949E-002   0.0000000000000000     
   3.2889889245537048E-002   5.7610165315578131E-002   0.0000000000000000     
   2.2322467299375485E-002   3.6971011801976900E-002   0.0000000000000000     
   2.4058503564367506E-002   4.1725590819969599E-002   0.0000000000000000     
   2.5735312311527408E-002   4.6666807904478316E-002   0.0000000000000000     
   2.7352893540855194E-002   5.1794663055503037E-002   0.0000000000000000     
   2.8911247252350870E-002   5.7109156273043762E-002   0.0000000000000000     
   4.5709930916878132E-002   5.9485754817238355E-002   0.0000000000000000     
   4.7980577961697503E-002   6.4953175423837356E-002   0.0000000000000000     
   5.0224091439563592E-002   7.0626118684790004E-002   0.0000000000000000     
   5.2440471350476379E-002   7.6504584600096362E-002   0.0000000000000000     
   5.4629717694435892E-002   8.2588573169756374E-002   0.0000000000000000     
   4.1289231077800678E-002   5.8798464587675431E-002   0.0000000000000000     
   4.3375338575953236E-002   6.4283353399399820E-002   0.0000000000000000     
   4.5434312601468949E-002   6.9978433744356458E-002   0.0000000000000000     
   4.7466153154347775E-002   7.5883705622545303E-002   0.0000000000000000     
   4.9470860234589777E-002   8.1999169033966410E-002   0.0000000000000000     
   3.7015883854020312E-002   5.8173268087122011E-002   0.0000000000000000     
   3.8915168540944484E-002   6.3672629104354339E-002   0.0000000000000000     
   4.0788525153897137E-002   6.9386652564918536E-002   0.0000000000000000     
   4.2635953692878301E-002   7.5315338468814524E-002   0.0000000000000000     
   4.4457454157887932E-002   8.1458686816042319E-002   0.0000000000000000     
   3.2889889245537048E-002   5.7610165315578131E-002   0.0000000000000000     
   3.4600067856671218E-002   6.3121002538700940E-002   0.0000000000000000     
   3.6286729096848179E-002   6.8850775146476195E-002   0.0000000000000000     
   3.7949872966067902E-002   7.4799483138903958E-002   0.0000000000000000     
   3.9589499464330394E-002   8.0967126515984172E-002   0.0000000000000000     
   2.8911247252350870E-002   5.7109156273043762E-002   0.0000000000000000     
   3.0430036523133478E-002   6.2628473702439569E-002   0.0000000000000000     
   3.1928924430322053E-002   6.8370801489029520E-002   0.0000000000000000     
   3.3407910973916613E-002   7.4336139632813630E-002   0.0000000000000000     
   3.4866996153917154E-002   8.0524488133791886E-002   0.0000000000000000     
   5.4629717694435892E-002   8.2588573169756374E-002   0.0000000000000000     
   5.6758017605588483E-002   8.8853295825537498E-002   0.0000000000000000     
   5.8791558218080520E-002   9.5273963999207123E-002   0.0000000000000000     
   6.0730339531912009E-002  0.10185057769076530        0.0000000000000000     
   6.2574361547082943E-002  0.10858313690021199        0.0000000000000000     
   4.9470860234589777E-002   8.1999169033966410E-002   0.0000000000000000     
   5.1417785441008917E-002   8.8295690820940659E-002   0.0000000000000000     
   5.3276280372419250E-002   9.4744137825789082E-002   0.0000000000000000     
   5.5046345028820769E-002  0.10134451004851160        0.0000000000000000     
   5.6727979410213472E-002  0.10809680748910830        0.0000000000000000     
   4.4457454157887932E-002   8.1458686816042319E-002   0.0000000000000000     
   4.6225182795252825E-002   8.7783932200466722E-002   0.0000000000000000     
   4.7911295851299725E-002   9.4258309215952379E-002   0.0000000000000000     
   4.9515793326028616E-002  0.10088181786249932        0.0000000000000000     
   5.1038675219439514E-002  0.10765445814010753        0.0000000000000000     
   3.9589499464330394E-002   8.0967126515984172E-002   0.0000000000000000     
   4.1180209668320228E-002   8.7318019964115590E-002   0.0000000000000000     
   4.2696604654721942E-002   9.3816478169697001E-002   0.0000000000000000     
   4.4138684423535551E-002  0.10046250113272839        0.0000000000000000     
   4.5506448974761048E-002  0.10725608885320978        0.0000000000000000     
   3.4866996153917154E-002   8.0524488133791886E-002   0.0000000000000000     
   3.6282866060211097E-002   8.6897954111887346E-002   0.0000000000000000     
   3.7632206782685897E-002   9.3418644687023003E-002   0.0000000000000000     
   3.8915018321341560E-002  0.10008655985919887        0.0000000000000000     
   4.0131300676178080E-002  0.10690169962841495        0.0000000000000000     
   6.2574361547082943E-002  0.10858313690021199        0.0000000000000000     
   6.4285407211492604E-002  0.11542005270872760        0.0000000000000000     
   6.5825259473040257E-002  0.12230973619749254        0.0000000000000000     
   6.7193918331725930E-002  0.12925218736650684        0.0000000000000000     
   6.8391383787549581E-002  0.13624740621577044        0.0000000000000000     
   5.6727979410213472E-002  0.10809680748910830        0.0000000000000000     
   5.8290278951201119E-002  0.11494740054228589        0.0000000000000000     
   5.9702339086387453E-002  0.12184265960275122        0.0000000000000000     
   6.0964159815772474E-002  0.12878258467050424        0.0000000000000000     
   6.2075741139356176E-002  0.13576717574554503        0.0000000000000000     
   5.1038675219439514E-002  0.10765445814010753        0.0000000000000000     
   5.2454489003338184E-002  0.11451963249609640        0.0000000000000000     
   5.3737782149530393E-002  0.12142074337778518        0.0000000000000000     
   5.4888554658016155E-002  0.12835779078517393        0.0000000000000000     
   5.5906806528795469E-002  0.13533077471826258        0.0000000000000000     
   4.5506448974761048E-002  0.10725608885320978        0.0000000000000000     
   4.6778037367903785E-002  0.11413674857015910        0.0000000000000000     
   4.7931588662469091E-002  0.12104398752259446        0.0000000000000000     
   4.8967102858456985E-002  0.12797780571051576        0.0000000000000000     
   4.9884579955867453E-002  0.13493820313392307        0.0000000000000000     
   4.0131300676178080E-002  0.10690169962841495        0.0000000000000000     
   4.1260924044897923E-002  0.11379874876447406        0.0000000000000000     
   4.2283758625203546E-002  0.12071239203717903        0.0000000000000000     
   4.3199804417094943E-002  0.12764262944652988        0.0000000000000000     
   4.4009061420572135E-002  0.13458946099252656        0.0000000000000000     
   6.8391383787549581E-002  0.13624740621577044        0.0000000000000000     
   6.9642146060254345E-002  0.14344888419936952        0.0000000000000000     
   7.1170695369583314E-002  0.15101011277139018        0.0000000000000000     
   7.2977031715536489E-002  0.15893109193183241        0.0000000000000000     
   7.5061155098113841E-002  0.16721182168069620        0.0000000000000000     
   6.2075741139356176E-002  0.13576717574554503        0.0000000000000000     
   6.3228032804454895E-002  0.14297950035726895        0.0000000000000000     
   6.4611984558384919E-002  0.15060262603507138        0.0000000000000000     
   6.6227596401146296E-002  0.15863655277895244        0.0000000000000000     
   6.8074868332738972E-002  0.16708128058891203        0.0000000000000000     
   5.5906806528795469E-002  0.13533077471826258        0.0000000000000000     
   5.6956652202438410E-002  0.14254969644010101        0.0000000000000000     
   5.8202206119515099E-002  0.15022455721373909        0.0000000000000000     
   5.9643468280025529E-002  0.15835535703917669        0.0000000000000000     
   6.1280438683969693E-002  0.16694209591641399        0.0000000000000000     
   4.9884579955867453E-002  0.13493820313392307        0.0000000000000000     
   5.0828004254204931E-002  0.14215947244786575        0.0000000000000000     
   5.1941360052973840E-002  0.14987590630739311        0.0000000000000000     
   5.3224647352174213E-002  0.15808750471250524        0.0000000000000000     
   5.4677866151806011E-002  0.16679426766320213        0.0000000000000000     
   4.4009061420572135E-002  0.13458946099252656        0.0000000000000000     
   4.4842088959754445E-002  0.14180882838056313        0.0000000000000000     
   4.5829446358761169E-002  0.14955667331603362        0.0000000000000000     
   4.6971133617592337E-002  0.15783299579893806        0.0000000000000000     
   4.8267150736247932E-002  0.16663779582927640        0.0000000000000000     
   0.0000000000000000        0.0000000000000000        0.0000000000000000     
   1.7979923745371105E-003   1.2762012712653034E-003   0.0000000000000000     
   3.6209098913334258E-003   2.9386089723143403E-003   0.0000000000000000     
   5.4687525503889457E-003   4.9872231031471096E-003   0.0000000000000000     
   7.3415203517036695E-003   7.4220436637636132E-003   0.0000000000000000     
   0.0000000000000000        0.0000000000000000        0.0000000000000000     
   1.5347147388287067E-003   1.2169649634978911E-003   0.0000000000000000     
   3.0989683963576578E-003   2.8203871431192289E-003   0.0000000000000000     
   4.6927609725868529E-003   4.8102665388640130E-003   0.0000000000000000     
   6.3160924675162919E-003   7.1866031507322441E-003   0.0000000000000000     
   0.0000000000000000        0.0000000000000000        0.0000000000000000     
   1.2875385226312484E-003   1.1694224247331335E-003   0.0000000000000000     
   2.6051466044967634E-003   2.7241695452893994E-003   0.0000000000000000     
   3.9528242455965463E-003   4.6642413616687986E-003   0.0000000000000000     
   5.3305714459305981E-003   6.9896378738713294E-003   0.0000000000000000     
   0.0000000000000000        0.0000000000000000        0.0000000000000000     
   1.0564637259447350E-003   1.1335736549710305E-003   0.0000000000000000     
   2.1394445157507437E-003   2.6499561788248518E-003   0.0000000000000000     
   3.2489423694180264E-003   4.5491475715614639E-003   0.0000000000000000     
   4.3849572869465829E-003   6.8311478331808673E-003   0.0000000000000000     
   0.0000000000000000        0.0000000000000000        0.0000000000000000     
   8.4149034876916727E-004   1.1094186542115821E-003   0.0000000000000000     
   1.7018621301195980E-003   2.5977470437255857E-003   0.0000000000000000     
   2.5811153440512924E-003   4.4649851685420114E-003   0.0000000000000000     
   3.4792499905642506E-003   6.7111330286608586E-003   0.0000000000000000     
   7.3415203517036695E-003   7.4220436637636132E-003   0.0000000000000000     
   9.2310714949351749E-003   1.0189308236637410E-002   0.0000000000000000     
   1.1129264179741036E-002   1.3235254404242060E-002   0.0000000000000000     
   1.3036098406121254E-002   1.6559882166577562E-002   0.0000000000000000     
   1.4951574174075829E-002   2.0163191523643920E-002   0.0000000000000000     
   6.3160924675162919E-003   7.1866031507322441E-003   0.0000000000000000     
   7.9558024433411673E-003   9.8984911009993379E-003   0.0000000000000000     
   9.5987304622566737E-003   1.2895024511940707E-002   0.0000000000000000     
   1.1244876524262802E-002   1.6176203383556353E-002   0.0000000000000000     
   1.2894240629359562E-002   1.9742027715846277E-002   0.0000000000000000     
   5.3305714459305981E-003   6.9896378738713294E-003   0.0000000000000000     
   6.7234907790659371E-003   9.6529001125274481E-003   0.0000000000000000     
   8.1166848185695913E-003   1.2606569108267610E-002   0.0000000000000000     
   9.5101535644415598E-003   1.5850644861091813E-002   0.0000000000000000     
   1.0903897016681841E-002   1.9385127371000063E-002   0.0000000000000000     
   4.3849572869465829E-003   6.8311478331808673E-003   0.0000000000000000     
   5.5341365021094819E-003   9.4525352712217427E-003   0.0000000000000000     
   6.6831272486797943E-003   1.2369888193222770E-002   0.0000000000000000     
   7.8319295266575210E-003   1.5583206599183948E-002   0.0000000000000000     
   8.9805433360426578E-003   1.9092490489105281E-002   0.0000000000000000     
   3.4792499905642506E-003   6.7111330286608586E-003   0.0000000000000000     
   4.3877396124718023E-003   9.2973965770822200E-003   0.0000000000000000     
   5.2980577525872817E-003   1.2184981766806185E-002   0.0000000000000000     
   6.2102044109106878E-003   1.5373888597832756E-002   0.0000000000000000     
   7.1241795874420182E-003   1.8864117070161932E-002   0.0000000000000000     
   1.4951574174075829E-002   2.0163191523643920E-002   0.0000000000000000     
   1.6852102398463371E-002   2.4020667906863569E-002   0.0000000000000000     
   1.8714093994142495E-002   2.8107796747658953E-002   0.0000000000000000     
   2.0537548961113199E-002   3.2424578046030057E-002   0.0000000000000000     
   2.2322467299375485E-002   3.6971011801976900E-002   0.0000000000000000     
   1.2894240629359562E-002   1.9742027715846277E-002   0.0000000000000000     
   1.4532091779932888E-002   2.3570566333194865E-002   0.0000000000000000     
   1.6143698978368710E-002   2.7639888059986510E-002   0.0000000000000000     
   1.7729062224667039E-002   3.1949992896221212E-002   0.0000000000000000     
   1.9288181518827871E-002   3.6500880841898974E-002   0.0000000000000000     
   1.0903897016681841E-002   1.9385127371000063E-002   0.0000000000000000     
   1.2289140037441125E-002   2.3189495214461620E-002   0.0000000000000000     
   1.3657107488870113E-002   2.7243226967945778E-002   0.0000000000000000     
   1.5007799370968801E-002   3.1546322631452510E-002   0.0000000000000000     
   1.6341215683737184E-002   3.6098782204981840E-002   0.0000000000000000     
   8.9805433360426578E-003   1.9092490489105281E-002   0.0000000000000000     
   1.0123247170988092E-002   2.2877454550663850E-002   0.0000000000000000     
   1.1254319525646699E-002   2.6917813471536739E-002   0.0000000000000000     
   1.2373760400018481E-002   3.1213567251723959E-002   0.0000000000000000     
   1.3481569794103436E-002   3.5764715891225492E-002   0.0000000000000000     
   7.1241795874420182E-003   1.8864117070161932E-002   0.0000000000000000     
   8.0344131805737771E-003   2.2634444341801542E-002   0.0000000000000000     
   8.9353350886984644E-003   2.6663647570759411E-002   0.0000000000000000     
   9.8269453118160766E-003   3.0951726757035548E-002   0.0000000000000000     
   1.0709243849926622E-002   3.5498681900629943E-002   0.0000000000000000     
   2.2322467299375485E-002   3.6971011801976900E-002   0.0000000000000000     
   2.4058503564367506E-002   4.1725590819969599E-002   0.0000000000000000     
   2.5735312311527408E-002   4.6666807904478316E-002   0.0000000000000000     
   2.7352893540855194E-002   5.1794663055503037E-002   0.0000000000000000     
   2.8911247252350870E-002   5.7109156273043762E-002   0.0000000000000000     
   1.9288181518827871E-002   3.6500880841898974E-002   0.0000000000000000     
   2.0807789588143027E-002   4.1264828821566304E-002   0.0000000000000000     
   2.2274619159904342E-002   4.6214113759769714E-002   0.0000000000000000     
   2.3688670234111812E-002   5.1348735656509222E-002   0.0000000000000000     
   2.5049942810765436E-002   5.6668694511784815E-002   0.0000000000000000     
   1.6341215683737184E-002   3.6098782204981840E-002   0.0000000000000000     
   1.7643221153148814E-002   4.0868416562580140E-002   0.0000000000000000     
   1.8899680505177225E-002   4.5823036578293785E-002   0.0000000000000000     
   2.0110593739822418E-002   5.0962642252122797E-002   0.0000000000000000     
   2.1275960857084393E-002   5.6287233584067162E-002   0.0000000000000000     
   1.3481569794103436E-002   3.5764715891225492E-002   0.0000000000000000     
   1.4564798259384865E-002   4.0536354043011105E-002   0.0000000000000000     
   1.5610496347346060E-002   4.5493576360050525E-002   0.0000000000000000     
   1.6618664057987020E-002   5.0636382842343751E-002   0.0000000000000000     
   1.7589301391307752E-002   5.5964773489890797E-002   0.0000000000000000     
   1.0709243849926622E-002   3.5498681900629943E-002   0.0000000000000000     
   1.1572520906851182E-002   4.0268641262859201E-002   0.0000000000000000     
   1.2407066686410848E-002   4.5225733105039918E-002   0.0000000000000000     
   1.3212881188605618E-002   5.0369957427172096E-002   0.0000000000000000     
   1.3989964413435498E-002   5.5701314229255727E-002   0.0000000000000000     
   2.8911247252350870E-002   5.7109156273043762E-002   0.0000000000000000     
   3.0430036523133478E-002   6.2628473702439569E-002   0.0000000000000000     
   3.1928924430322053E-002   6.8370801489029520E-002   0.0000000000000000     
   3.3407910973916613E-002   7.4336139632813630E-002   0.0000000000000000     
   3.4866996153917154E-002   8.0524488133791886E-002   0.0000000000000000     
   2.5049942810765436E-002   5.6668694511784815E-002   0.0000000000000000     
   2.6376799527091762E-002   6.2194672021704304E-002   0.0000000000000000     
   2.7687603020317329E-002   6.7947349882375566E-002   0.0000000000000000     
   2.8982353290442128E-002   7.3926728093798535E-002   0.0000000000000000     
   3.0261050337466167E-002   8.0132806655973277E-002   0.0000000000000000     
   2.1275960857084393E-002   5.6287233584067162E-002   0.0000000000000000     
   2.2412081855306614E-002   6.1819226922629249E-002   0.0000000000000000     
   2.3535256732832525E-002   6.7581038616311429E-002   0.0000000000000000     
   2.4645485489662135E-002   7.3572668665113694E-002   0.0000000000000000     
   2.5742768125795432E-002   7.9794117069036052E-002   0.0000000000000000     
   1.7589301391307752E-002   5.5964773489890797E-002   0.0000000000000000     
   1.8535883507778038E-002   6.1502138405214346E-002   0.0000000000000000     
   1.9471885567867667E-002   6.7271867690837095E-002   0.0000000000000000     
   2.0397307571576633E-002   7.3273961346759051E-002   0.0000000000000000     
   2.1312149518904953E-002   7.9508419372980227E-002   0.0000000000000000     
   1.3989964413435498E-002   5.5701314229255727E-002   0.0000000000000000     
   1.4748204484506025E-002   6.1243406469459638E-002   0.0000000000000000     
   1.5497489525422735E-002   6.7019837105952620E-002   0.0000000000000000     
   1.6237819536185628E-002   7.3030606138734661E-002   0.0000000000000000     
   1.6969194516794711E-002   7.9275713567805786E-002   0.0000000000000000     
   3.4866996153917154E-002   8.0524488133791886E-002   0.0000000000000000     
   3.6282866060211097E-002   8.6897954111887346E-002   0.0000000000000000     
   3.7632206782685897E-002   9.3418644687023003E-002   0.0000000000000000     
   3.8915018321341560E-002  0.10008655985919887        0.0000000000000000     
   4.0131300676178080E-002  0.10690169962841495        0.0000000000000000     
   3.0261050337466167E-002   8.0132806655973277E-002   0.0000000000000000     
   3.1502498634655561E-002   8.6525969557264118E-002   0.0000000000000000     
   3.2685502655276415E-002   9.3066600786035486E-002   0.0000000000000000     
   3.3810062399328725E-002   9.9754700342287325E-002   0.0000000000000000     
   3.4876177866812491E-002  0.10659026822601965        0.0000000000000000     
   2.5742768125795432E-002   7.9794117069036052E-002   0.0000000000000000     
   2.6808454055383717E-002   8.6204301213728129E-002   0.0000000000000000     
   2.7823892692578265E-002   9.2762138484839551E-002   0.0000000000000000     
   2.8789084037379079E-002   9.9467628882370346E-002   0.0000000000000000     
   2.9704028089786155E-002  0.10632077240632047        0.0000000000000000     
   2.1312149518904953E-002   7.9508419372980227E-002   0.0000000000000000     
   2.2200732322395569E-002   8.5932949081279353E-002   0.0000000000000000     
   2.3047376894591465E-002   9.2505257783435282E-002   0.0000000000000000     
   2.3852083235492632E-002   9.9225345479447946E-002   0.0000000000000000     
   2.4614851345099064E-002  0.10609321216931739        0.0000000000000000     
   1.6969194516794711E-002   7.9275713567805786E-002   0.0000000000000000     
   1.7679333435691121E-002   8.5711913159917816E-002   0.0000000000000000     
   1.8355955261316011E-002   9.2295958681822582E-002   0.0000000000000000     
   1.8999059993669382E-002   9.9027850133520112E-002   0.0000000000000000     
   1.9608647632751226E-002  0.10590758751501038        0.0000000000000000     
   4.0131300676178080E-002  0.10690169962841495        0.0000000000000000     
   4.1260924044897923E-002  0.11379874876447406        0.0000000000000000     
   4.2283758625203546E-002  0.12071239203717903        0.0000000000000000     
   4.3199804417094943E-002  0.12764262944652988        0.0000000000000000     
   4.4009061420572135E-002  0.13458946099252656        0.0000000000000000     
   3.4876177866812491E-002  0.10659026822601965        0.0000000000000000     
   3.5864859868167107E-002  0.11350304023480905        0.0000000000000000     
   3.6757119213831971E-002  0.12042275216623206        0.0000000000000000     
   3.7552955903807070E-002  0.12734940402028871        0.0000000000000000     
   3.8252369938092404E-002  0.13428299579697897        0.0000000000000000     
   2.9704028089786155E-002  0.10632077240632047        0.0000000000000000     
   3.0551555671557876E-002  0.11324703013693194        0.0000000000000000     
   3.1314497604452610E-002  0.12017186315444674        0.0000000000000000     
   3.1992853888470368E-002  0.12709527145886482        0.0000000000000000     
   3.2586624523611135E-002  0.13401725505018633        0.0000000000000000     
   2.4614851345099064E-002  0.10609321216931739        0.0000000000000000     
   2.5321011455070194E-002  0.11303071847084269        0.0000000000000000     
   2.5955893797065453E-002  0.11995972500182299        0.0000000000000000     
   2.6519498371084825E-002  0.12688023176225829        0.0000000000000000     
   2.7011825177128322E-002  0.13379223875214860        0.0000000000000000     
   1.9608647632751226E-002  0.10590758751501038        0.0000000000000000     
   2.0173227218704085E-002  0.11285410523654132        0.0000000000000000     
   2.0681307791670499E-002  0.11978633770836088        0.0000000000000000     
   2.1132889351650457E-002  0.12670428493046904        0.0000000000000000     
   2.1527971898643972E-002  0.13360794690286582        0.0000000000000000     
   4.4009061420572135E-002  0.13458946099252656        0.0000000000000000     
   4.4842088959754445E-002  0.14180882838056313        0.0000000000000000     
   4.5829446358761169E-002  0.14955667331603362        0.0000000000000000     
   4.6971133617592337E-002  0.15783299579893806        0.0000000000000000     
   4.8267150736247932E-002  0.16663779582927640        0.0000000000000000     
   3.8252369938092404E-002  0.13428299579697897        0.0000000000000000     
   3.8974545363669982E-002  0.14149879336395596        0.0000000000000000     
   3.9838666227521767E-002  0.14927206258887277        0.0000000000000000     
   4.0844732529647793E-002  0.15760280347172939        0.0000000000000000     
   4.1992744270048045E-002  0.16649101601252583        0.0000000000000000     
   3.2586624523611135E-002  0.13401725505018633        0.0000000000000000     
   3.3201012510534582E-002  0.14123039652380698        0.0000000000000000     
   3.3941220849900366E-002  0.14902727847512273        0.0000000000000000     
   3.4807249541708482E-002  0.15740790090413356        0.0000000000000000     
   3.5799098585958936E-002  0.16637226381083947        0.0000000000000000     
   2.7011825177128322E-002  0.13379223875214860        0.0000000000000000     
   2.7521490400348264E-002  0.14100363786011624        0.0000000000000000     
   2.8137110225896954E-002  0.14882232097478360        0.0000000000000000     
   2.8858684653774405E-002  0.15724828809615057        0.0000000000000000     
   2.9686213683980611E-002  0.16628153922421729        0.0000000000000000     
   2.1527971898643972E-002  0.13360794690286582        0.0000000000000000     
   2.1935979033111005E-002  0.14081851737288373        0.0000000000000000     
   2.2426334355511533E-002  0.14865719008785527        0.0000000000000000     
   2.2999037865845555E-002  0.15712396504778045        0.0000000000000000     
   2.3654089564113065E-002  0.16621884225265926        0.0000000000000000     
   0.0000000000000000        0.0000000000000000        0.0000000000000000     
   8.4149034876916727E-004   1.1094186542115821E-003   0.0000000000000000     
   1.7018621301195980E-003   2.5977470437255857E-003   0.0000000000000000     
   2.5811153440512924E-003   4.4649851685420114E-003   0.0000000000000000     
   3.4792499905642506E-003   6.7111330286608586E-003   0.0000000000000000     
   0.0000000000000000        0.0000000000000000        0.0000000000000000     
   6.3370520140569651E-004   1.0933990524858803E-003   0.0000000000000000     
   1.2778538464311893E-003   2.5616909017364699E-003   0.0000000000000000     
   1.9324459350764775E-003   4.4048755477517710E-003   0.0000000000000000     
   2.5974814673415617E-003   6.6229529905317804E-003   0.0000000000000000     
   0.0000000000000000        0.0000000000000000        0.0000000000000000     
   4.2419509415547480E-004   1.0819564798250174E-003   0.0000000000000000     
   8.5287406351337966E-004   2.5359365146023745E-003   0.0000000000000000     
   1.2860369080737147E-003   4.3619401043320707E-003   0.0000000000000000     
   1.7236836278364796E-003   6.5599672490141061E-003   0.0000000000000000     
   0.0000000000000000        0.0000000000000000        0.0000000000000000     
   2.1296002701850215E-004   1.0750909362289931E-003   0.0000000000000000     
   4.2692278136617016E-004   2.5204838823232978E-003   0.0000000000000000     
   6.4188826304300390E-004   4.3361788382829131E-003   0.0000000000000000     
   8.5785647204900378E-004   6.5221758041078401E-003   0.0000000000000000     
   0.0000000000000000        0.0000000000000000        0.0000000000000000     
  -5.2215989778531258E-015   1.0728024216978078E-003   0.0000000000000000     
  -1.0439728508754298E-014   2.5153330048992401E-003   0.0000000000000000     
  -1.5654524117975077E-014   4.3275917496042966E-003   0.0000000000000000     
  -2.0865850280243903E-014   6.5095786558129779E-003   0.0000000000000000     
   3.4792499905642506E-003   6.7111330286608586E-003   0.0000000000000000     
   4.3877396124718023E-003   9.2973965770822200E-003   0.0000000000000000     
   5.2980577525872817E-003   1.2184981766806185E-002   0.0000000000000000     
   6.2102044109106878E-003   1.5373888597832756E-002   0.0000000000000000     
   7.1241795874420182E-003   1.8864117070161932E-002   0.0000000000000000     
   2.5974814673415617E-003   6.6229529905317804E-003   0.0000000000000000     
   3.2698172397068030E-003   9.1814366590970350E-003   0.0000000000000000     
   3.9463100486525618E-003   1.2045839982468073E-002   0.0000000000000000     
   4.6269598941788394E-003   1.5216162960644894E-002   0.0000000000000000     
   5.3117667762856346E-003   1.8692405593627497E-002   0.0000000000000000     
   1.7236836278364796E-003   6.5599672490141061E-003   0.0000000000000000     
   2.1658865133683857E-003   9.0986081462543448E-003   0.0000000000000000     
   2.6127178552361441E-003   1.1946452993658648E-002   0.0000000000000000     
   3.0641776534397545E-003   1.5103501791227016E-002   0.0000000000000000     
   3.5202659079792181E-003   1.8569754538959451E-002   0.0000000000000000     
   8.5785647204900378E-004   6.5221758041078401E-003   0.0000000000000000     
   1.0759474334565511E-003   9.0489110385541492E-003   0.0000000000000000     
   1.2972811723380281E-003   1.1886820800377911E-002   0.0000000000000000     
   1.5218576886934347E-003   1.5035905089579124E-002   0.0000000000000000     
   1.7496769825227707E-003   1.8496163906157794E-002   0.0000000000000000     
  -2.0865850280243903E-014   6.5095786558129779E-003   0.0000000000000000     
  -2.8700620439275903E-014   9.0323453359964449E-003   0.0000000000000000     
  -4.1786357902508231E-014   1.1866943402625859E-002   0.0000000000000000     
  -6.0121859883155784E-014   1.5013372855701220E-002   0.0000000000000000     
  -8.3708105551305589E-014   1.8471633695222530E-002   0.0000000000000000     
   7.1241795874420182E-003   1.8864117070161932E-002   0.0000000000000000     
   8.0344131805737771E-003   2.2634444341801542E-002   0.0000000000000000     
   8.9353350886984644E-003   2.6663647570759411E-002   0.0000000000000000     
   9.8269453118160766E-003   3.0951726757035548E-002   0.0000000000000000     
   1.0709243849926622E-002   3.5498681900629943E-002   0.0000000000000000     
   5.3117667762856346E-003   1.8692405593627497E-002   0.0000000000000000     
   5.9945339424858695E-003   2.2452011233080101E-002   0.0000000000000000     
   6.6690646402924681E-003   2.6472423230666918E-002   0.0000000000000000     
   7.3353588697054311E-003   3.0753641586387957E-002   0.0000000000000000     
   7.9934166307247569E-003   3.5295666300243209E-002   0.0000000000000000     
   3.5202659079792181E-003   1.8569754538959451E-002   0.0000000000000000     
   3.9755053330120501E-003   2.2321701869704919E-002   0.0000000000000000     
   4.4244186426957675E-003   2.6335834416312386E-002   0.0000000000000000     
   4.8670058370303701E-003   3.0612152178781854E-002   0.0000000000000000     
   5.3032669160158596E-003   3.5150655157113325E-002   0.0000000000000000     
   1.7496769825227707E-003   1.8496163906157794E-002   0.0000000000000000     
   1.9773273521523187E-003   2.2243516251675997E-002   0.0000000000000000     
   2.2013970959083619E-003   2.6253881127695812E-002   0.0000000000000000     
   2.4218862137908993E-003   3.0527258534217238E-002   0.0000000000000000     
   2.6387947057999314E-003   3.5063648471240279E-002   0.0000000000000000     
  -8.3708105551305589E-014   1.8471633695222530E-002   0.0000000000000000     
  -9.3324165669622650E-014   2.2217454378993338E-002   0.0000000000000000     
  -6.9749354946260778E-014   2.6226563364817202E-002   0.0000000000000000     
  -1.2984737254601725E-014   3.0498960652694113E-002   0.0000000000000000     
   7.6971632193001405E-014   3.5034646242624083E-002   0.0000000000000000     
   1.0709243849926622E-002   3.5498681900629943E-002   0.0000000000000000     
   1.1572520906851182E-002   4.0268641262859201E-002   0.0000000000000000     
   1.2407066686410848E-002   4.5225733105039918E-002   0.0000000000000000     
   1.3212881188605618E-002   5.0369957427172096E-002   0.0000000000000000     
   1.3989964413435498E-002   5.5701314229255727E-002   0.0000000000000000     
   7.9934166307247569E-003   3.5295666300243209E-002   0.0000000000000000     
   8.6373349137424220E-003   4.0062545591226503E-002   0.0000000000000000     
   9.2612107091504040E-003   4.5018327678331679E-002   0.0000000000000000     
   9.8650440169487045E-003   5.0163012561558716E-002   0.0000000000000000     
   1.0448834837137320E-002   5.5496600240907634E-002   0.0000000000000000     
   5.3032669160158596E-003   3.5150655157113325E-002   0.0000000000000000     
   5.7301860982532475E-003   3.9915334397215098E-002   0.0000000000000000     
   6.1447476023435499E-003   4.4870180944995501E-002   0.0000000000000000     
   6.5469514282867668E-003   5.0015194800454514E-002   0.0000000000000000     
   6.9367975760828982E-003   5.5350375963592165E-002   0.0000000000000000     
   2.6387947057999314E-003   3.5063648471240279E-002   0.0000000000000000     
   2.8510744603836595E-003   3.9827007680824970E-002   0.0000000000000000     
   3.0576773659902854E-003   4.4781292905031383E-002   0.0000000000000000     
   3.2586034226198086E-003   4.9926504143859483E-002   0.0000000000000000     
   3.4538526302722301E-003   5.5262641397309305E-002   0.0000000000000000     
   7.6971632193001405E-014   3.5034646242624083E-002   0.0000000000000000     
   1.3365675753662654E-013   3.9797565442056142E-002   0.0000000000000000     
   9.0609865530805189E-014   4.4751663558439327E-002   0.0000000000000000     
  -5.2170385524651086E-014   4.9896940591773638E-002   0.0000000000000000     
  -2.9468289787504265E-013   5.5233396542059082E-002   0.0000000000000000     
   1.3989964413435498E-002   5.5701314229255727E-002   0.0000000000000000     
   1.4748204484506025E-002   6.1243406469459638E-002   0.0000000000000000     
   1.5497489525422735E-002   6.7019837105952620E-002   0.0000000000000000     
   1.6237819536185628E-002   7.3030606138734661E-002   0.0000000000000000     
   1.6969194516794711E-002   7.9275713567805786E-002   0.0000000000000000     
   1.0448834837137320E-002   5.5496600240907634E-002   0.0000000000000000     
   1.1018877183311262E-002   6.1042547030194488E-002   0.0000000000000000     
   1.1581465069065534E-002   6.6824309243235361E-002   0.0000000000000000     
   1.2136598494400139E-002   7.2841886880030238E-002   0.0000000000000000     
   1.2684277459315073E-002   7.9095279940579161E-002   0.0000000000000000     
   6.9367975760828982E-003   5.5350375963592165E-002   0.0000000000000000     
   7.3177340020144314E-003   6.0899076002248281E-002   0.0000000000000000     
   7.6932086623638617E-003   6.6684646484262769E-002   0.0000000000000000     
   8.0632215571311838E-003   7.2707087409635607E-002   0.0000000000000000     
   8.4277726863163996E-003   7.8966398778366781E-002   0.0000000000000000     
   3.4538526302722301E-003   5.5262641397309305E-002   0.0000000000000000     
   3.6447749406155359E-003   6.0812993385621017E-002   0.0000000000000000     
   3.8327203053177142E-003   6.6600848829034803E-002   0.0000000000000000     
   4.0176887243787637E-003   7.2626207727550698E-002   0.0000000000000000     
   4.1996801977986862E-003   7.8889070081168661E-002   0.0000000000000000     
  -2.9468289787504265E-013   5.5233396542059082E-002   0.0000000000000000     
  -8.8542790720874676E-013   6.0784299180312695E-002   0.0000000000000000     
  -2.0729059744747924E-012   6.6572916277551505E-002   0.0000000000000000     
  -3.8571182651905150E-012   7.2599247833775540E-002   0.0000000000000000     
  -6.2380636680486878E-012   7.8863293848984786E-002   0.0000000000000000     
   1.6969194516794711E-002   7.9275713567805786E-002   0.0000000000000000     
   1.7679333435691121E-002   8.5711913159917816E-002   0.0000000000000000     
   1.8355955261316011E-002   9.2295958681822582E-002   0.0000000000000000     
   1.8999059993669382E-002   9.9027850133520112E-002   0.0000000000000000     
   1.9608647632751226E-002  0.10590758751501038        0.0000000000000000     
   1.2684277459315073E-002   7.9095279940579161E-002   0.0000000000000000     
   1.3215696997751020E-002   8.5540520071104728E-002   0.0000000000000000     
   1.3722052143648661E-002   9.2133638917829552E-002   0.0000000000000000     
   1.4203342897007989E-002   9.8874636480753661E-002   0.0000000000000000     
   1.4659569257829014E-002  0.10576351275987701        0.0000000000000000     
   8.4277726863163996E-003   7.8966398778366781E-002   0.0000000000000000     
   8.7812626110559226E-003   8.5418096436301327E-002   0.0000000000000000     
   9.1180918924861649E-003   9.2017696229284171E-002   0.0000000000000000     
   9.4382605306071298E-003   9.8765198157315326E-002   0.0000000000000000     
   9.7417685254188140E-003  0.10566060222039479        0.0000000000000000     
   4.1996801977986862E-003   7.8889070081168661E-002   0.0000000000000000     
   4.3760302756058267E-003   8.5344642255507627E-002   0.0000000000000000     
   4.5440745078285296E-003   9.1948130616186466E-002   0.0000000000000000     
   4.7038128944667957E-003   9.8699535163205135E-002   0.0000000000000000     
   4.8552454355206241E-003  0.10559885589656372        0.0000000000000000     
  -6.2380636680486878E-012   7.8863293848984786E-002   0.0000000000000000     
  -8.5992664811823660E-012   8.5320157528723600E-002   0.0000000000000000     
  -1.0324249213791020E-011   9.1924942078536381E-002   0.0000000000000000     
  -1.1413012773893970E-011   9.8677647498423102E-002   0.0000000000000000     
  -1.1865557581619557E-011  0.10557827378838380        0.0000000000000000     
   1.9608647632751226E-002  0.10590758751501038        0.0000000000000000     
   2.0173227218704085E-002  0.11285410523654132        0.0000000000000000     
   2.0681307791670499E-002  0.11978633770836088        0.0000000000000000     
   2.1132889351650457E-002  0.12670428493046904        0.0000000000000000     
   2.1527971898643972E-002  0.13360794690286582        0.0000000000000000     
   1.4659569257829014E-002  0.10576351275987701        0.0000000000000000     
   1.5082597332100154E-002  0.11271693672035990        0.0000000000000000     
   1.5464293225809835E-002  0.11965157732736258        0.0000000000000000     
   1.5804656938958054E-002  0.12656743458088501        0.0000000000000000     
   1.6103688471544815E-002  0.13346450848092722        0.0000000000000000     
   9.7417685254188140E-003  0.10566060222039479        0.0000000000000000     
   1.0023516164899021E-002  0.11261895920863046        0.0000000000000000     
   1.0278403737025550E-002  0.11955531991213023        0.0000000000000000     
   1.0506431241798404E-002  0.12646968433089406        0.0000000000000000     
   1.0707598679217580E-002  0.13336205246492200        0.0000000000000000     
   4.8552454355206241E-003  0.10559885589656372        0.0000000000000000     
   4.9959837171006851E-003  0.11256017270135300        0.0000000000000000     
   5.1236393253176454E-003  0.11949756546266384        0.0000000000000000     
   5.2382122601715084E-003  0.12641103418049623        0.0000000000000000     
   5.3397025216622707E-003  0.13330057885485017        0.0000000000000000     
  -1.1865557581619557E-011  0.10557827378838380        0.0000000000000000     
  -1.1294855892587941E-011  0.11254057719852753        0.0000000000000000     
  -9.3138810466214528E-012  0.11947831397896343        0.0000000000000000     
  -5.9226340737121574E-012  0.12639148412969151        0.0000000000000000     
  -1.1211131849264699E-012  0.13328008765071173        0.0000000000000000     
   2.1527971898643972E-002  0.13360794690286582        0.0000000000000000     
   2.1935979033111005E-002  0.14081851737288373        0.0000000000000000     
   2.2426334355511533E-002  0.14865719008785527        0.0000000000000000     
   2.2999037865845555E-002  0.15712396504778045        0.0000000000000000     
   2.3654089564113065E-002  0.16621884225265926        0.0000000000000000     
   1.6103688471544815E-002  0.13346450848092722        0.0000000000000000     
   1.6411100847130461E-002  0.14067475364848572        0.0000000000000000     
   1.6776607089275333E-002  0.14853012470455706        0.0000000000000000     
   1.7200207197979434E-002  0.15703062164914125        0.0000000000000000     
   1.7681901173242767E-002  0.16617624448223822        0.0000000000000000     
   1.0707598679217580E-002  0.13336205246492200        0.0000000000000000     
   1.0913478280714244E-002  0.14057206527329857        0.0000000000000000     
   1.1155642277719566E-002  0.14843936371510824        0.0000000000000000     
   1.1434090670233540E-002  0.15696394779035103        0.0000000000000000     
   1.1748823458256171E-002  0.16614581749902704        0.0000000000000000     
   5.3397025216622707E-003  0.13330057885485017        0.0000000000000000     
   5.4431113338623697E-003  0.14051045224732217        0.0000000000000000     
   5.5634399208442376E-003  0.14838490711950875        0.0000000000000000     
   5.7006882826078761E-003  0.15692394347140992        0.0000000000000000     
   5.8548564191532827E-003  0.16612756130302564        0.0000000000000000     
  -1.1211131849264699E-012  0.13328008765071173        0.0000000000000000     
   6.5748296564083208E-012  0.14048991457055662        0.0000000000000000     
   1.8649347365874702E-011  0.14836675491775864        0.0000000000000000     
   3.5102435091667952E-011  0.15691060869231779        0.0000000000000000     
   5.5934098498744422E-011  0.16612147589423409        0.0000000000000000     
   0.0000000000000000        0.0000000000000000        0.0000000000000000     
  -5.2215989778531258E-015   1.0728024216978078E-003   0.0000000000000000     
  -1.0439728508754298E-014   2.5153330048992401E-003   0.0000000000000000     
  -1.5654524117975077E-014   4.3275917496042966E-003   0.0000000000000000     
  -2.0865850280243903E-014   6.5095786558129779E-003   0.0000000000000000     
   0.0000000000000000        0.0000000000000000        0.0000000000000000     
  -2.1296002702908068E-004   1.0750909362321457E-003   0.0000000000000000     
  -4.2692278138734425E-004   2.5204838823311804E-003   0.0000000000000000     
  -6.4188826307479076E-004   4.3361788382971040E-003   0.0000000000000000     
  -8.5785647209142015E-004   6.5221758041299153E-003   0.0000000000000000     
   0.0000000000000000        0.0000000000000000        0.0000000000000000     
  -4.2419509416645928E-004   1.0819564798326916E-003   0.0000000000000000     
  -8.5287406353543721E-004   2.5359365146200960E-003   0.0000000000000000     
  -1.2860369081069342E-003   4.3619401043622141E-003   0.0000000000000000     
  -1.7236836278809503E-003   6.5599672490590441E-003   0.0000000000000000     
   0.0000000000000000        0.0000000000000000        0.0000000000000000     
  -6.3370520141735743E-004   1.0933990524994454E-003   0.0000000000000000     
  -1.2778538464547193E-003   2.5616909017659880E-003   0.0000000000000000     
  -1.9324459351120853E-003   4.4048755477996276E-003   0.0000000000000000     
  -2.5974814673894566E-003   6.6229529906003627E-003   0.0000000000000000     
   0.0000000000000000        0.0000000000000000        0.0000000000000000     
  -8.4149034878177535E-004   1.1094186542324070E-003   0.0000000000000000     
  -1.7018621301451899E-003   2.5977470437688549E-003   0.0000000000000000     
  -2.5811153440902439E-003   4.4649851686093447E-003   0.0000000000000000     
  -3.4792499906169377E-003   6.7111330287538754E-003   0.0000000000000000     
  -2.0865850280243903E-014   6.5095786558129779E-003   0.0000000000000000     
  -2.8700620439275903E-014   9.0323453359964449E-003   0.0000000000000000     
  -4.1786357902508231E-014   1.1866943402625859E-002   0.0000000000000000     
  -6.0121859883155784E-014   1.5013372855701220E-002   0.0000000000000000     
  -8.3708105551305589E-014   1.8471633695222530E-002   0.0000000000000000     
  -8.5785647209142015E-004   6.5221758041299153E-003   0.0000000000000000     
  -1.0759474335150683E-003   9.0489110385815804E-003   0.0000000000000000     
  -1.2972811724235710E-003   1.1886820800404067E-002   0.0000000000000000     
  -1.5218576888169297E-003   1.5035905089597372E-002   0.0000000000000000     
  -1.7496769826951426E-003   1.8496163906161493E-002   0.0000000000000000     
  -1.7236836278809503E-003   6.5599672490590441E-003   0.0000000000000000     
  -2.1658865134302507E-003   9.0986081463099010E-003   0.0000000000000000     
  -2.6127178553276022E-003   1.1946452993714102E-002   0.0000000000000000     
  -3.0641776535730043E-003   1.5103501791271646E-002   0.0000000000000000     
  -3.5202659081664568E-003   1.8569754538982526E-002   0.0000000000000000     
  -2.5974814673894566E-003   6.6229529906003627E-003   0.0000000000000000     
  -3.2698172397742477E-003   9.1814366591814068E-003   0.0000000000000000     
  -3.9463100487538774E-003   1.2045839982555965E-002   0.0000000000000000     
  -4.6269598943283448E-003   1.5216162960724037E-002   0.0000000000000000     
  -5.3117667764976490E-003   1.8692405593685627E-002   0.0000000000000000     
  -3.4792499906169377E-003   6.7111330287538754E-003   0.0000000000000000     
  -4.3877396125470590E-003   9.2973965771960976E-003   0.0000000000000000     
  -5.2980577527023971E-003   1.2184981766929656E-002   0.0000000000000000     
  -6.2102044110829502E-003   1.5373888597954558E-002   0.0000000000000000     
  -7.1241795876887219E-003   1.8864117070270799E-002   0.0000000000000000     
  -8.3708105551305589E-014   1.8471633695222530E-002   0.0000000000000000     
  -9.3324165669622650E-014   2.2217454378993338E-002   0.0000000000000000     
  -6.9749354946260778E-014   2.6226563364817202E-002   0.0000000000000000     
  -1.2984737254601725E-014   3.0498960652694113E-002   0.0000000000000000     
   7.6971632193001405E-014   3.5034646242624083E-002   0.0000000000000000     
  -1.7496769826951426E-003   1.8496163906161493E-002   0.0000000000000000     
  -1.9773273523469434E-003   2.2243516251667896E-002   0.0000000000000000     
  -2.2013970960610653E-003   2.6253881127688034E-002   0.0000000000000000     
  -2.4218862138375083E-003   3.0527258534221904E-002   0.0000000000000000     
  -2.6387947056762716E-003   3.5063648471269519E-002   0.0000000000000000     
  -3.5202659081664568E-003   1.8569754538982526E-002   0.0000000000000000     
  -3.9755053332306018E-003   2.2321701869710615E-002   0.0000000000000000     
  -4.4244186428880825E-003   2.6335834416319790E-002   0.0000000000000000     
  -4.8670058371388988E-003   3.0612152178810040E-002   0.0000000000000000     
  -5.3032669159830490E-003   3.5150655157181368E-002   0.0000000000000000     
  -5.3117667764976490E-003   1.8692405593685627E-002   0.0000000000000000     
  -5.9945339427443008E-003   2.2452011233121513E-002   0.0000000000000000     
  -6.6690646405508040E-003   2.6472423230712475E-002   0.0000000000000000     
  -7.3353588699171558E-003   3.0753641586458512E-002   0.0000000000000000     
  -7.9934166308433634E-003   3.5295666300359629E-002   0.0000000000000000     
  -7.1241795876887219E-003   1.8864117070270799E-002   0.0000000000000000     
  -8.0344131808880379E-003   2.2634444341900574E-002   0.0000000000000000     
  -8.9353350890492237E-003   2.6663647570866086E-002   0.0000000000000000     
  -9.8269453121722829E-003   3.0951726757167335E-002   0.0000000000000000     
  -1.0709243850257212E-002   3.5498681900804310E-002   0.0000000000000000     
   7.6971632193001405E-014   3.5034646242624083E-002   0.0000000000000000     
   1.3365675753662654E-013   3.9797565442056142E-002   0.0000000000000000     
   9.0609865530805189E-014   4.4751663558439327E-002   0.0000000000000000     
  -5.2170385524651086E-014   4.9896940591773638E-002   0.0000000000000000     
  -2.9468289787504265E-013   5.5233396542059082E-002   0.0000000000000000     
  -2.6387947056762716E-003   3.5063648471269519E-002   0.0000000000000000     
  -2.8510744601559440E-003   3.9827007680904219E-002   0.0000000000000000     
  -3.0576773658551131E-003   4.4781292905199346E-002   0.0000000000000000     
  -3.2586034227737788E-003   4.9926504144154928E-002   0.0000000000000000     
  -3.4538526309119380E-003   5.5262641397770929E-002   0.0000000000000000     
  -5.3032669159830490E-003   3.5150655157181368E-002   0.0000000000000000     
  -5.7301860981443260E-003   3.9915334397364818E-002   0.0000000000000000     
  -6.1447476023465154E-003   4.4870180945291459E-002   0.0000000000000000     
  -6.5469514285896200E-003   5.0015194800961268E-002   0.0000000000000000     
  -6.9367975768736354E-003   5.5350375964374275E-002   0.0000000000000000     
  -7.9934166308433634E-003   3.5295666300359629E-002   0.0000000000000000     
  -8.6373349138314896E-003   4.0062545591437959E-002   0.0000000000000000     
  -9.2612107093835994E-003   4.5018327678715657E-002   0.0000000000000000     
  -9.8650440174996943E-003   5.0163012562192716E-002   0.0000000000000000     
  -1.0448834838179776E-002   5.5496600241869129E-002   0.0000000000000000     
  -1.0709243850257212E-002   3.5498681900804310E-002   0.0000000000000000     
  -1.1572520907217434E-002   4.0268641263123649E-002   0.0000000000000000     
  -1.2407066686966365E-002   4.5225733105471955E-002   0.0000000000000000     
  -1.3212881189504007E-002   5.0369957427849228E-002   0.0000000000000000     
  -1.3989964414830356E-002   5.5701314230255476E-002   0.0000000000000000     
  -2.9468289787504265E-013   5.5233396542059082E-002   0.0000000000000000     
  -8.8542790720874676E-013   6.0784299180312695E-002   0.0000000000000000     
  -2.0729059744747924E-012   6.6572916277551505E-002   0.0000000000000000     
  -3.8571182651905150E-012   7.2599247833775540E-002   0.0000000000000000     
  -6.2380636680486878E-012   7.8863293848984786E-002   0.0000000000000000     
  -3.4538526309119380E-003   5.5262641397770929E-002   0.0000000000000000     
  -3.6447749424329203E-003   6.0812993386229114E-002   0.0000000000000000     
  -3.8327203095000488E-003   6.6600848829711221E-002   0.0000000000000000     
  -4.0176887321133233E-003   7.2626207728217249E-002   0.0000000000000000     
  -4.1996802102727436E-003   7.8889070081747170E-002   0.0000000000000000     
  -6.9367975768736354E-003   5.5350375964374275E-002   0.0000000000000000     
  -7.3177340039714050E-003   6.0899076003276070E-002   0.0000000000000000     
  -7.6932086666557627E-003   6.6684646485412266E-002   0.0000000000000000     
  -8.0632215649267085E-003   7.2707087410782884E-002   0.0000000000000000     
  -8.4277726987842423E-003   7.8966398779387881E-002   0.0000000000000000     
  -1.0448834838179776E-002   5.5496600241869129E-002   0.0000000000000000     
  -1.1018877185500880E-002   6.1042547031453551E-002   0.0000000000000000     
  -1.1581465073540046E-002   6.6824309244654656E-002   0.0000000000000000     
  -1.2136598502297273E-002   7.2841886881472459E-002   0.0000000000000000     
  -1.2684277471772563E-002   7.9095279941906918E-002   0.0000000000000000     
  -1.3989964414830356E-002   5.5701314230255476E-002   0.0000000000000000     
  -1.4748204487021348E-002   6.1243406470761576E-002   0.0000000000000000     
  -1.5497489530152902E-002   6.7019837107438404E-002   0.0000000000000000     
  -1.6237819544225016E-002   7.3030606140285975E-002   0.0000000000000000     
  -1.6969194529237702E-002   7.9275713569304268E-002   0.0000000000000000     
  -6.2380636680486878E-012   7.8863293848984786E-002   0.0000000000000000     
  -8.5992664811823660E-012   8.5320157528723600E-002   0.0000000000000000     
  -1.0324249213791020E-011   9.1924942078536381E-002   0.0000000000000000     
  -1.1413012773893970E-011   9.8677647498423102E-002   0.0000000000000000     
  -1.1865557581619557E-011  0.10557827378838380        0.0000000000000000     
  -4.1996802102727436E-003   7.8889070081747170E-002   0.0000000000000000     
  -4.3760302927818530E-003   8.5344642255912248E-002   0.0000000000000000     
  -4.5440745284441924E-003   9.1948130616323620E-002   0.0000000000000000     
  -4.7038129172597637E-003   9.8699535162981300E-002   0.0000000000000000     
  -4.8552454592285651E-003  0.10559885589588532        0.0000000000000000     
  -8.4277726987842423E-003   7.8966398779387881E-002   0.0000000000000000     
  -8.7812626281644265E-003   8.5418096437036489E-002   0.0000000000000000     
  -9.1180919130033188E-003   9.2017696229537801E-002   0.0000000000000000     
  -9.4382605533009228E-003   9.8765198156891859E-002   0.0000000000000000     
  -9.7417685490572316E-003  0.10566060221909862        0.0000000000000000     
  -1.2684277471772563E-002   7.9095279941906918E-002   0.0000000000000000     
  -1.3215697014746989E-002   8.5540520072096296E-002   0.0000000000000000     
  -1.3722052164001632E-002   9.2133638918178939E-002   0.0000000000000000     
  -1.4203342919536489E-002   9.8874636480154710E-002   0.0000000000000000     
  -1.4659569281351564E-002  0.10576351275802370        0.0000000000000000     
  -1.6969194529237702E-002   7.9275713569304268E-002   0.0000000000000000     
  -1.7679333452529547E-002   8.5711913161091766E-002   0.0000000000000000     
  -1.8355955281439133E-002   9.2295958682246992E-002   0.0000000000000000     
  -1.8999060015966469E-002   9.9027850132769907E-002   0.0000000000000000     
  -1.9608647656111557E-002  0.10590758751266052        0.0000000000000000     
  -1.1865557581619557E-011  0.10557827378838380        0.0000000000000000     
  -1.1294855892587941E-011  0.11254057719852753        0.0000000000000000     
  -9.3138810466214528E-012  0.11947831397896343        0.0000000000000000     
  -5.9226340737121574E-012  0.12639148412969151        0.0000000000000000     
  -1.1211131849264699E-012  0.13328008765071173        0.0000000000000000     
  -4.8552454592285651E-003  0.10559885589588532        0.0000000000000000     
  -4.9959837396773904E-003  0.11256017270020537        0.0000000000000000     
  -5.1236393439330298E-003  0.11949756546111114        0.0000000000000000     
  -5.2382122719954833E-003  0.12641103417860267        0.0000000000000000     
  -5.3397025238647554E-003  0.13330057885267993        0.0000000000000000     
  -9.7417685490572316E-003  0.10566060221909862        0.0000000000000000     
  -1.0023516187436710E-002  0.11261895920643782        0.0000000000000000     
  -1.0278403755603800E-002  0.11955531990918909        0.0000000000000000     
  -1.0506431253558508E-002  0.12646968432735245        0.0000000000000000     
  -1.0707598681300832E-002  0.13336205246092797        0.0000000000000000     
  -1.4659569281351564E-002  0.10576351275802370        0.0000000000000000     
  -1.5082597354572810E-002  0.11271693671722489        0.0000000000000000     
  -1.5464293244326192E-002  0.11965157732319731        0.0000000000000000     
  -1.5804656950611701E-002  0.12656743457594094        0.0000000000000000     
  -1.6103688473429349E-002  0.13346450847545580        0.0000000000000000     
  -1.9608647656111557E-002  0.10590758751266052        0.0000000000000000     
  -2.0173227241085702E-002  0.11285410523256656        0.0000000000000000     
  -2.0681307810100202E-002  0.11978633770313575        0.0000000000000000     
  -2.1132889363155074E-002  0.12670428492436808        0.0000000000000000     
  -2.1527971900250298E-002  0.13360794689626357        0.0000000000000000     
  -1.1211131849264699E-012  0.13328008765071173        0.0000000000000000     
   6.5748296564083208E-012  0.14048991457055662        0.0000000000000000     
   1.8649347365874702E-011  0.14836675491775864        0.0000000000000000     
   3.5102435091667952E-011  0.15691060869231779        0.0000000000000000     
   5.5934098498744422E-011  0.16612147589423409        0.0000000000000000     
  -5.3397025238647554E-003  0.13330057885267993        0.0000000000000000     
  -5.4431113207348801E-003  0.14051045224354181        0.0000000000000000     
  -5.5634398837999038E-003  0.14838490711138716        0.0000000000000000     
  -5.7006882130598282E-003  0.15692394345621599        0.0000000000000000     
  -5.8548563085146482E-003  0.16612756127802836        0.0000000000000000     
  -1.0707598681300832E-002  0.13336205246092797        0.0000000000000000     
  -1.0913478267653267E-002  0.14057206526681765        0.0000000000000000     
  -1.1155642241438314E-002  0.14843936370192362        0.0000000000000000     
  -1.1434090602655969E-002  0.15696394776624592        0.0000000000000000     
  -1.1748823351306233E-002  0.16614581745978452        0.0000000000000000     
  -1.6103688473429349E-002  0.13346450847545580        0.0000000000000000     
  -1.6411100834180337E-002  0.14067475364038412        0.0000000000000000     
  -1.6776607054265882E-002  0.14853012468936802        0.0000000000000000     
  -1.7200207133685985E-002  0.15703062162240747        0.0000000000000000     
  -1.7681901072440647E-002  0.16617624443950255        0.0000000000000000     
  -2.1527971900250298E-002  0.13360794689626357        0.0000000000000000     
  -2.1935979020316080E-002  0.14081851736424128        0.0000000000000000     
  -2.2426334322282606E-002  0.14865719007372030        0.0000000000000000     
  -2.2999037806149883E-002  0.15712396502470069        0.0000000000000000     
  -2.3654089471917897E-002  0.16621884221718242        0.0000000000000000     
   0.0000000000000000        0.0000000000000000        0.0000000000000000     
  -8.4149034878177535E-004   1.1094186542324070E-003   0.0000000000000000     
  -1.7018621301451899E-003   2.5977470437688549E-003   0.0000000000000000     
  -2.5811153440902439E-003   4.4649851686093447E-003   0.0000000000000000     
  -3.4792499906169377E-003   6.7111330287538754E-003   0.0000000000000000     
   0.0000000000000000        0.0000000000000000        0.0000000000000000     
  -1.0564637259576782E-003   1.1335736549998607E-003   0.0000000000000000     
  -2.1394445157771492E-003   2.6499561788829004E-003   0.0000000000000000     
  -3.2489423694584143E-003   4.5491475716491203E-003   0.0000000000000000     
  -4.3849572870014722E-003   6.8311478332985171E-003   0.0000000000000000     
   0.0000000000000000        0.0000000000000000        0.0000000000000000     
  -1.2875385226430317E-003   1.1694224247700911E-003   0.0000000000000000     
  -2.6051466045208982E-003   2.7241695453623267E-003   0.0000000000000000     
  -3.9528242456335991E-003   4.6642413617767071E-003   0.0000000000000000     
  -5.3305714459811349E-003   6.9896378740132306E-003   0.0000000000000000     
   0.0000000000000000        0.0000000000000000        0.0000000000000000     
  -1.5347147388378361E-003   1.2169649635430976E-003   0.0000000000000000     
  -3.0989683963764366E-003   2.8203871432071325E-003   0.0000000000000000     
  -4.6927609726158011E-003   4.8102665389921058E-003   0.0000000000000000     
  -6.3160924675559286E-003   7.1866031508980152E-003   0.0000000000000000     
   0.0000000000000000        0.0000000000000000        0.0000000000000000     
  -1.7979923745420913E-003   1.2762012713188808E-003   0.0000000000000000     
  -3.6209098913437638E-003   2.9386089724173199E-003   0.0000000000000000     
  -5.4687525504050170E-003   4.9872231032953166E-003   0.0000000000000000     
  -7.3415203517258523E-003   7.4220436639528715E-003   0.0000000000000000     
  -3.4792499906169377E-003   6.7111330287538754E-003   0.0000000000000000     
  -4.3877396125470590E-003   9.2973965771960976E-003   0.0000000000000000     
  -5.2980577527023971E-003   1.2184981766929656E-002   0.0000000000000000     
  -6.2102044110829502E-003   1.5373888597954558E-002   0.0000000000000000     
  -7.1241795876887219E-003   1.8864117070270799E-002   0.0000000000000000     
  -4.3849572870014722E-003   6.8311478332985171E-003   0.0000000000000000     
  -5.5341365021890953E-003   9.4525352713652686E-003   0.0000000000000000     
  -6.6831272488040499E-003   1.2369888193383544E-002   0.0000000000000000     
  -7.8319295268463422E-003   1.5583206599353347E-002   0.0000000000000000     
  -8.9805433363159669E-003   1.9092490489274673E-002   0.0000000000000000     
  -5.3305714459811349E-003   6.9896378740132306E-003   0.0000000000000000     
  -6.7234907791407601E-003   9.6529001127002197E-003   0.0000000000000000     
  -8.1166848186897261E-003   1.2606569108465989E-002   0.0000000000000000     
  -9.5101535646280322E-003   1.5850644861310548E-002   0.0000000000000000     
  -1.0903897016955681E-002   1.9385127371233882E-002   0.0000000000000000     
  -6.3160924675559286E-003   7.1866031508980152E-003   0.0000000000000000     
  -7.9558024434020561E-003   9.8984911012009510E-003   0.0000000000000000     
  -9.5987304623594213E-003   1.2895024512176998E-002   0.0000000000000000     
  -1.1244876524428019E-002   1.6176203383826158E-002   0.0000000000000000     
  -1.2894240629607857E-002   1.9742027716148434E-002   0.0000000000000000     
  -7.3415203517258523E-003   7.4220436639528715E-003   0.0000000000000000     
  -9.2310714949729866E-003   1.0189308236867461E-002   0.0000000000000000     
  -1.1129264179813138E-002   1.3235254404516568E-002   0.0000000000000000     
  -1.3036098406246312E-002   1.6559882166900186E-002   0.0000000000000000     
  -1.4951574174272498E-002   2.0163191524018319E-002   0.0000000000000000     
  -7.1241795876887219E-003   1.8864117070270799E-002   0.0000000000000000     
  -8.0344131808880379E-003   2.2634444341900574E-002   0.0000000000000000     
  -8.9353350890492237E-003   2.6663647570866086E-002   0.0000000000000000     
  -9.8269453121722829E-003   3.0951726757167335E-002   0.0000000000000000     
  -1.0709243850257212E-002   3.5498681900804310E-002   0.0000000000000000     
  -8.9805433363159669E-003   1.9092490489274673E-002   0.0000000000000000     
  -1.0123247171347603E-002   2.2877454550834449E-002   0.0000000000000000     
  -1.1254319526075918E-002   2.6917813471719596E-002   0.0000000000000000     
  -1.2373760400500918E-002   3.1213567251930124E-002   0.0000000000000000     
  -1.3481569794622599E-002   3.5764715891466022E-002   0.0000000000000000     
  -1.0903897016955681E-002   1.9385127371233882E-002   0.0000000000000000     
  -1.2289140037808784E-002   2.3189495214709775E-002   0.0000000000000000     
  -1.3657107489323458E-002   2.7243226968211985E-002   0.0000000000000000     
  -1.5007799371499705E-002   3.1546322631740516E-002   0.0000000000000000     
  -1.6341215684337520E-002   3.6098782205295374E-002   0.0000000000000000     
  -1.2894240629607857E-002   1.9742027716148434E-002   0.0000000000000000     
  -1.4532091780271580E-002   2.3570566333526555E-002   0.0000000000000000     
  -1.6143698978791837E-002   2.7639888060343242E-002   0.0000000000000000     
  -1.7729062225168641E-002   3.1949992896598528E-002   0.0000000000000000     
  -1.9288181519401988E-002   3.6500880842292374E-002   0.0000000000000000     
  -1.4951574174272498E-002   2.0163191524018319E-002   0.0000000000000000     
  -1.6852102398735989E-002   2.4020667907284778E-002   0.0000000000000000     
  -1.8714093994481068E-002   2.8107796748113381E-002   0.0000000000000000     
  -2.0537548961507734E-002   3.2424578046504123E-002   0.0000000000000000     
  -2.2322467299815983E-002   3.6971011802457009E-002   0.0000000000000000     
  -1.0709243850257212E-002   3.5498681900804310E-002   0.0000000000000000     
  -1.1572520907217434E-002   4.0268641263123649E-002   0.0000000000000000     
  -1.2407066686966365E-002   4.5225733105471955E-002   0.0000000000000000     
  -1.3212881189504007E-002   5.0369957427849228E-002   0.0000000000000000     
  -1.3989964414830356E-002   5.5701314230255476E-002   0.0000000000000000     
  -1.3481569794622599E-002   3.5764715891466022E-002   0.0000000000000000     
  -1.4564798259999946E-002   4.0536354043325590E-002   0.0000000000000000     
  -1.5610496348191947E-002   4.5493576360507111E-002   0.0000000000000000     
  -1.6618664059198603E-002   5.0636382843010593E-002   0.0000000000000000     
  -1.7589301393019906E-002   5.5964773490836034E-002   0.0000000000000000     
  -1.6341215684337520E-002   3.6098782205295374E-002   0.0000000000000000     
  -1.7643221153876811E-002   4.0868416562947520E-002   0.0000000000000000     
  -1.8899680506157483E-002   4.5823036578767927E-002   0.0000000000000000     
  -2.0110593741179517E-002   5.0962642252756589E-002   0.0000000000000000     
  -2.1275960858942938E-002   5.6287233584913512E-002   0.0000000000000000     
  -1.9288181519401988E-002   3.6500880842292374E-002   0.0000000000000000     
  -2.0807789588848033E-002   4.1264828821989452E-002   0.0000000000000000     
  -2.2274619160862961E-002   4.6214113760254381E-002   0.0000000000000000     
  -2.3688670235446768E-002   5.1348735657087211E-002   0.0000000000000000     
  -2.5049942812599462E-002   5.6668694512487898E-002   0.0000000000000000     
  -2.2322467299815983E-002   3.6971011802457009E-002   0.0000000000000000     
  -2.4058503564913611E-002   4.1725590820451360E-002   0.0000000000000000     
  -2.5735312312308398E-002   4.6666807904966509E-002   0.0000000000000000     
  -2.7352893542000354E-002   5.1794663056002450E-002   0.0000000000000000     
  -2.8911247253989469E-002   5.7109156273559204E-002   0.0000000000000000     
  -1.3989964414830356E-002   5.5701314230255476E-002   0.0000000000000000     
  -1.4748204487021348E-002   6.1243406470761576E-002   0.0000000000000000     
  -1.5497489530152902E-002   6.7019837107438404E-002   0.0000000000000000     
  -1.6237819544225016E-002   7.3030606140285975E-002   0.0000000000000000     
  -1.6969194529237702E-002   7.9275713569304268E-002   0.0000000000000000     
  -1.7589301393019906E-002   5.5964773490836034E-002   0.0000000000000000     
  -1.8535883510582215E-002   6.1502138406433933E-002   0.0000000000000000     
  -1.9471885572811879E-002   6.7271867692254794E-002   0.0000000000000000     
  -2.0397307579708913E-002   7.3273961348298597E-002   0.0000000000000000     
  -2.1312149531273306E-002   7.9508419374565376E-002   0.0000000000000000     
  -2.1275960858942938E-002   5.6287233584913512E-002   0.0000000000000000     
  -2.2412081858232895E-002   6.1819226923704430E-002   0.0000000000000000     
  -2.3535256737834562E-002   6.7581038617595110E-002   0.0000000000000000     
  -2.4645485497747928E-002   7.3572668666585558E-002   0.0000000000000000     
  -2.5742768137973011E-002   7.9794117070675713E-002   0.0000000000000000     
  -2.5049942812599462E-002   5.6668694512487898E-002   0.0000000000000000     
  -2.6376799529973391E-002   6.2194672022573082E-002   0.0000000000000000     
  -2.7687603025220924E-002   6.7947349883459379E-002   0.0000000000000000     
  -2.8982353298342069E-002   7.3926728095146763E-002   0.0000000000000000     
  -3.0261050349336814E-002   8.0132806657635267E-002   0.0000000000000000     
  -2.8911247253989469E-002   5.7109156273559204E-002   0.0000000000000000     
  -3.0430036525803700E-002   6.2628473703039853E-002   0.0000000000000000     
  -3.1928924434970980E-002   6.8370801489847560E-002   0.0000000000000000     
  -3.3407910981491318E-002   7.4336139633982293E-002   0.0000000000000000     
  -3.4866996165364719E-002   8.0524488135444050E-002   0.0000000000000000     
  -1.6969194529237702E-002   7.9275713569304268E-002   0.0000000000000000     
  -1.7679333452529547E-002   8.5711913161091766E-002   0.0000000000000000     
  -1.8355955281439133E-002   9.2295958682246992E-002   0.0000000000000000     
  -1.8999060015966469E-002   9.9027850132769907E-002   0.0000000000000000     
  -1.9608647656111557E-002  0.10590758751266052        0.0000000000000000     
  -2.1312149531273306E-002   7.9508419374565376E-002   0.0000000000000000     
  -2.2200732339005928E-002   8.5932949082598173E-002   0.0000000000000000     
  -2.3047376914407652E-002   9.2505257783940059E-002   0.0000000000000000     
  -2.3852083257478490E-002   9.9225345478591048E-002   0.0000000000000000     
  -2.4614851368218428E-002  0.10609321216655114        0.0000000000000000     
  -2.5742768137973011E-002   7.9794117070675713E-002   0.0000000000000000     
  -2.6808454071669978E-002   8.6204301215190876E-002   0.0000000000000000     
  -2.7823892711999032E-002   9.2762138485456239E-002   0.0000000000000000     
  -2.8789084058960173E-002   9.9467628881471773E-002   0.0000000000000000     
  -2.9704028112553398E-002  0.10632077240323758        0.0000000000000000     
  -3.0261050349336814E-002   8.0132806657635267E-002   0.0000000000000000     
  -3.1502498650521710E-002   8.6525969558869847E-002   0.0000000000000000     
  -3.2685502674213274E-002   9.3066600786795448E-002   0.0000000000000000     
  -3.3810062420411534E-002   9.9754700341412095E-002   0.0000000000000000     
  -3.4876177889116462E-002  0.10659026822271980        0.0000000000000000     
  -3.4866996165364719E-002   8.0524488135444050E-002   0.0000000000000000     
  -3.6282866075561096E-002   8.6897954113635129E-002   0.0000000000000000     
  -3.7632206801050366E-002   9.3418644687957769E-002   0.0000000000000000     
  -3.8915018341832544E-002  0.10008655985841201        0.0000000000000000     
  -4.0131300697907629E-002  0.10690169962499782        0.0000000000000000     
  -1.9608647656111557E-002  0.10590758751266052        0.0000000000000000     
  -2.0173227241085702E-002  0.11285410523256656        0.0000000000000000     
  -2.0681307810100202E-002  0.11978633770313575        0.0000000000000000     
  -2.1132889363155074E-002  0.12670428492436808        0.0000000000000000     
  -2.1527971900250298E-002  0.13360794689626357        0.0000000000000000     
  -2.4614851368218428E-002  0.10609321216655114        0.0000000000000000     
  -2.5321011477301088E-002  0.11303071846614972        0.0000000000000000     
  -2.5955893815400078E-002  0.11995972499571610        0.0000000000000000     
  -2.6519498382515397E-002  0.12688023175525029        0.0000000000000000     
  -2.7011825178647041E-002  0.13379223874475235        0.0000000000000000     
  -2.9704028112553398E-002  0.10632077240323758        0.0000000000000000     
  -3.0551555693544688E-002  0.11324703013166111        0.0000000000000000     
  -3.1314497622700041E-002  0.12017186314764997        0.0000000000000000     
  -3.1992853900019450E-002  0.12709527145120408        0.0000000000000000     
  -3.2586624525502927E-002  0.13401725504232354        0.0000000000000000     
  -3.4876177889116462E-002  0.10659026822271980        0.0000000000000000     
  -3.5864859889816511E-002  0.11350304022910078        0.0000000000000000     
  -3.6757119232000104E-002  0.12042275215893732        0.0000000000000000     
  -3.7552955915667249E-002  0.12734940401222941        0.0000000000000000     
  -3.8252369940817946E-002  0.13428299578897707        0.0000000000000000     
  -4.0131300697907629E-002  0.10690169962499782        0.0000000000000000     
  -4.1260924066116540E-002  0.11379874875846874        0.0000000000000000     
  -4.2283758643300272E-002  0.12071239202957822        0.0000000000000000     
  -4.3199804429458789E-002  0.12764262943832630        0.0000000000000000     
  -4.4009061424592114E-002  0.13458946098471297        0.0000000000000000     
  -2.1527971900250298E-002  0.13360794689626357        0.0000000000000000     
  -2.1935979020316080E-002  0.14081851736424128        0.0000000000000000     
  -2.2426334322282606E-002  0.14865719007372030        0.0000000000000000     
  -2.2999037806149883E-002  0.15712396502470069        0.0000000000000000     
  -2.3654089471917897E-002  0.16621884221718242        0.0000000000000000     
  -2.7011825178647041E-002  0.13379223874475235        0.0000000000000000     
  -2.7521490388024858E-002  0.14100363785175346        0.0000000000000000     
  -2.8137110194878676E-002  0.14882232096378475        0.0000000000000000     
  -2.8858684599208508E-002  0.15724828808084623        0.0000000000000000     
  -2.9686213601014338E-002  0.16628153920293798        0.0000000000000000     
  -3.2586624525502927E-002  0.13401725504232354        0.0000000000000000     
  -3.3201012499271008E-002  0.14123039651628508        0.0000000000000000     
  -3.3941220821444282E-002  0.14902727846836550        0.0000000000000000     
  -3.4807249492022720E-002  0.15740790089856480        0.0000000000000000     
  -3.5799098511006329E-002  0.16637226380688294        0.0000000000000000     
  -3.8252369940817946E-002  0.13428299578897707        0.0000000000000000     
  -3.8974545354054549E-002  0.14149879335783619        0.0000000000000000     
  -3.9838666201979400E-002  0.14927206258746259        0.0000000000000000     
  -4.0844732484592507E-002  0.15760280347785630        0.0000000000000000     
  -4.1992744201893875E-002  0.16649101602901734        0.0000000000000000     
  -4.4009061424592114E-002  0.13458946098471297        0.0000000000000000     
  -4.4842088952375452E-002  0.14180882837640668        0.0000000000000000     
  -4.5829446336484045E-002  0.14955667332107597        0.0000000000000000     
  -4.6971133576917887E-002  0.15783299581872079        0.0000000000000000     
  -4.8267150673676963E-002  0.16663779586934119        0.0000000000000000     
   0.0000000000000000        0.0000000000000000        0.0000000000000000     
  -1.7979923745420913E-003   1.2762012713188808E-003   0.0000000000000000     
  -3.6209098913437638E-003   2.9386089724173199E-003   0.0000000000000000     
  -5.4687525504050170E-003   4.9872231032953166E-003   0.0000000000000000     
  -7.3415203517258523E-003   7.4220436639528715E-003   0.0000000000000000     
   0.0000000000000000        0.0000000000000000        0.0000000000000000     
  -2.0691253984070459E-003   1.3542647307826811E-003   0.0000000000000000     
  -4.1636621998418152E-003   3.0933592531728130E-003   0.0000000000000000     
  -6.2836104043043082E-003   5.2172835671703954E-003   0.0000000000000000     
  -8.4289700117945246E-003   7.7260376727754290E-003   0.0000000000000000     
   0.0000000000000000        0.0000000000000000        0.0000000000000000     
  -2.3398677790839508E-003   1.4582887246197395E-003   0.0000000000000000     
  -4.7199164322895282E-003   3.2991622056535394E-003   0.0000000000000000     
  -7.1401459596167347E-003   5.5226204431013982E-003   0.0000000000000000     
  -9.6005563610655677E-003   8.1286634369633192E-003   0.0000000000000000     
   0.0000000000000000        0.0000000000000000        0.0000000000000000     
  -2.6102195165728036E-003   1.5882732528300556E-003   0.0000000000000000     
  -5.2896725886869018E-003   3.5560178298594987E-003   0.0000000000000000     
  -8.0383592163422949E-003   5.9032337310883278E-003   0.0000000000000000     
  -1.0856279399538983E-002   8.6299209565165440E-003   0.0000000000000000     
   0.0000000000000000        0.0000000000000000        0.0000000000000000     
  -2.8801806108736065E-003   1.7442183154136302E-003   0.0000000000000000     
  -5.8729306690339361E-003   3.8639261257906897E-003   0.0000000000000000     
  -8.9782501744809905E-003   6.3591234311311815E-003   0.0000000000000000     
  -1.2196139127214766E-002   9.2298102314351000E-003   0.0000000000000000     
  -7.3415203517258523E-003   7.4220436639528715E-003   0.0000000000000000     
  -9.2310714949729866E-003   1.0189308236867461E-002   0.0000000000000000     
  -1.1129264179813138E-002   1.3235254404516568E-002   0.0000000000000000     
  -1.3036098406246312E-002   1.6559882166900186E-002   0.0000000000000000     
  -1.4951574174272498E-002   2.0163191524018319E-002   0.0000000000000000     
  -8.4289700117945246E-003   7.7260376727754290E-003   0.0000000000000000     
  -1.0590968088587248E-002   1.0560871921060928E-002   0.0000000000000000     
  -1.2760831700957256E-002   1.3663036663099920E-002   0.0000000000000000     
  -1.4938560848904554E-002   1.7032531898892398E-002   0.0000000000000000     
  -1.7124155532429138E-002   2.0669357628438356E-002   0.0000000000000000     
  -9.6005563610655677E-003   8.1286634369633192E-003   0.0000000000000000     
  -1.2077162378978538E-002   1.1048702555142535E-002   0.0000000000000000     
  -1.4545978755698153E-002   1.4214149165542278E-002   0.0000000000000000     
  -1.7007005491224404E-002   1.7625003268162548E-002   0.0000000000000000     
  -1.9460242585557307E-002   2.1281264863003354E-002   0.0000000000000000     
  -1.0856279399538983E-002   8.6299209565165440E-003   0.0000000000000000     
  -1.3689654366146858E-002   1.1652800139112272E-002   0.0000000000000000     
  -1.6484705344035819E-002   1.4888591911843644E-002   0.0000000000000000     
  -1.9241432333205872E-002   1.8337296274710660E-002   0.0000000000000000     
  -2.1959835333657009E-002   2.1998913227713308E-002   0.0000000000000000     
  -1.2196139127214766E-002   9.2298102314351000E-003   0.0000000000000000     
  -1.5428444050092211E-002   1.2373164672970147E-002   0.0000000000000000     
  -1.8577011465970274E-002   1.5686364902004018E-002   0.0000000000000000     
  -2.1641841374848945E-002   1.9169410918536710E-002   0.0000000000000000     
  -2.4622933776728233E-002   2.2822302722568227E-002   0.0000000000000000     
  -1.4951574174272498E-002   2.0163191524018319E-002   0.0000000000000000     
  -1.6852102398735989E-002   2.4020667907284778E-002   0.0000000000000000     
  -1.8714093994481068E-002   2.8107796748113381E-002   0.0000000000000000     
  -2.0537548961507734E-002   3.2424578046504123E-002   0.0000000000000000     
  -2.2322467299815983E-002   3.6971011802457009E-002   0.0000000000000000     
  -1.7124155532429138E-002   2.0669357628438356E-002   0.0000000000000000     
  -1.9288204684124451E-002   2.4549696191346403E-002   0.0000000000000000     
  -2.1401297236583926E-002   2.8649729927225143E-002   0.0000000000000000     
  -2.3463433189807564E-002   3.2969458836074585E-002   0.0000000000000000     
  -2.5474612543795367E-002   3.7508882917894698E-002   0.0000000000000000     
  -1.9460242585557307E-002   2.1281264863003354E-002   0.0000000000000000     
  -2.1879431427359396E-002   2.5167547441073371E-002   0.0000000000000000     
  -2.4238313405293206E-002   2.9268464493381299E-002   0.0000000000000000     
  -2.6536888519358731E-002   3.3584016019927124E-002   0.0000000000000000     
  -2.8775156769555985E-002   3.8114202020710850E-002   0.0000000000000000     
  -2.1959835333657009E-002   2.1998913227713308E-002   0.0000000000000000     
  -2.4625782628440819E-002   2.5874221656465680E-002   0.0000000000000000     
  -2.7225142500608895E-002   2.9964000446581828E-002   0.0000000000000000     
  -2.9757914950161231E-002   3.4268249598061754E-002   0.0000000000000000     
  -3.2224099977097832E-002   3.8786969110905470E-002   0.0000000000000000     
  -2.4622933776728233E-002   2.2822302722568227E-002   0.0000000000000000     
  -2.7527258287368725E-002   2.6669718837523317E-002   0.0000000000000000     
  -3.0361784522531004E-002   3.0736337786826738E-002   0.0000000000000000     
  -3.3126512482215063E-002   3.5022159570478488E-002   0.0000000000000000     
  -3.5821442166420914E-002   3.9527184188478552E-002   0.0000000000000000     
  -2.2322467299815983E-002   3.6971011802457009E-002   0.0000000000000000     
  -2.4058503564913611E-002   4.1725590820451360E-002   0.0000000000000000     
  -2.5735312312308398E-002   4.6666807904966509E-002   0.0000000000000000     
  -2.7352893542000354E-002   5.1794663056002450E-002   0.0000000000000000     
  -2.8911247253989469E-002   5.7109156273559204E-002   0.0000000000000000     
  -2.5474612543795367E-002   3.7508882917894698E-002   0.0000000000000000     
  -2.7427343128512749E-002   4.2252166819002214E-002   0.0000000000000000     
  -2.9314132773925115E-002   4.7183475185713822E-002   0.0000000000000000     
  -3.1134981480032471E-002   5.2302808018029535E-002   0.0000000000000000     
  -3.2889889246834808E-002   5.7610165315949341E-002   0.0000000000000000     
  -2.8775156769555985E-002   3.8114202020710850E-002   0.0000000000000000     
  -3.0946288326084655E-002   4.2846021078310953E-002   0.0000000000000000     
  -3.3043453359144437E-002   4.7766471775305901E-002   0.0000000000000000     
  -3.5066651868735317E-002   5.2875554111695665E-002   0.0000000000000000     
  -3.7015883854857316E-002   5.8173268087480287E-002   0.0000000000000000     
  -3.2224099977097832E-002   3.8786969110905470E-002   0.0000000000000000     
  -3.4615339157629335E-002   4.3507153598377576E-002   0.0000000000000000     
  -3.6923274067966361E-002   4.8415797673742704E-002   0.0000000000000000     
  -3.9147904708108923E-002   5.3512901337000859E-002   0.0000000000000000     
  -4.1289231078057015E-002   5.8798464588152008E-002   0.0000000000000000     
  -3.5821442166420914E-002   3.9527184188478552E-002   0.0000000000000000     
  -3.8434495623146783E-002   4.4235564379202105E-002   0.0000000000000000     
  -4.0953594900390897E-002   4.9131452881024280E-002   0.0000000000000000     
  -4.3378739998153268E-002   5.4214849693945084E-002   0.0000000000000000     
  -4.5709930916433890E-002   5.9485754817964510E-002   0.0000000000000000     
  -2.8911247253989469E-002   5.7109156273559204E-002   0.0000000000000000     
  -3.0430036525803700E-002   6.2628473703039853E-002   0.0000000000000000     
  -3.1928924434970980E-002   6.8370801489847560E-002   0.0000000000000000     
  -3.3407910981491318E-002   7.4336139633982293E-002   0.0000000000000000     
  -3.4866996165364719E-002   8.0524488135444050E-002   0.0000000000000000     
  -3.2889889246834808E-002   5.7610165315949341E-002   0.0000000000000000     
  -3.4600067858967916E-002   6.3121002539100773E-002   0.0000000000000000     
  -3.6286729101067575E-002   6.8850775147111340E-002   0.0000000000000000     
  -3.7949872973133764E-002   7.4799483139981041E-002   0.0000000000000000     
  -3.9589499475166511E-002   8.0967126517709861E-002   0.0000000000000000     
  -3.7015883854857316E-002   5.8173268087480287E-002   0.0000000000000000     
  -3.8915168542710162E-002   6.3672629104751827E-002   0.0000000000000000     
  -4.0788525157493531E-002   6.9386652565602377E-002   0.0000000000000000     
  -4.2635953699207467E-002   7.5315338470031926E-002   0.0000000000000000     
  -4.4457454167851941E-002   8.1458686818040485E-002   0.0000000000000000     
  -4.1289231078057015E-002   5.8798464588152008E-002   0.0000000000000000     
  -4.3375338577030416E-002   6.4283353399992998E-002   0.0000000000000000     
  -4.5434312604248878E-002   6.9978433745320659E-002   0.0000000000000000     
  -4.7466153159712428E-002   7.5883705624134976E-002   0.0000000000000000     
  -4.9470860243421039E-002   8.1999169036435948E-002   0.0000000000000000     
  -4.5709930916433890E-002   5.9485754817964510E-002   0.0000000000000000     
  -4.7980577961928686E-002   6.4953175424824303E-002   0.0000000000000000     
  -5.0224091441333600E-002   7.0626118686266171E-002   0.0000000000000000     
  -5.2440471354648625E-002   7.6504584602290163E-002   0.0000000000000000     
  -5.4629717701873790E-002   8.2588573172896224E-002   0.0000000000000000     
  -3.4866996165364719E-002   8.0524488135444050E-002   0.0000000000000000     
  -3.6282866075561096E-002   8.6897954113635129E-002   0.0000000000000000     
  -3.7632206801050366E-002   9.3418644687957769E-002   0.0000000000000000     
  -3.8915018341832544E-002  0.10008655985841201        0.0000000000000000     
  -4.0131300697907629E-002  0.10690169962499782        0.0000000000000000     
  -3.9589499475166511E-002   8.0967126517709861E-002   0.0000000000000000     
  -4.1180209682957790E-002   8.7318019966079324E-002   0.0000000000000000     
  -4.2696604672299632E-002   9.3816478170870896E-002   0.0000000000000000     
  -4.4138684443192015E-002  0.10046250113208462        0.0000000000000000     
  -4.5506448995634961E-002  0.10725608884972042        0.0000000000000000     
  -4.4457454167851941E-002   8.1458686818040485E-002   0.0000000000000000     
  -4.6225182808881424E-002   8.7783932202795026E-002   0.0000000000000000     
  -4.7911295867750364E-002   9.4258309217462505E-002   0.0000000000000000     
  -4.9515793344458735E-002  0.10088181786204294        0.0000000000000000     
  -5.1038675239006563E-002  0.10765445813653632        0.0000000000000000     
  -4.9470860243421039E-002   8.1999169036435948E-002   0.0000000000000000     
  -5.1417785453331984E-002   8.8295690823782289E-002   0.0000000000000000     
  -5.3276280387402536E-002   9.4744137827732652E-002   0.0000000000000000     
  -5.5046345045632668E-002  0.10134451004828708        0.0000000000000000     
  -5.6727979428022407E-002  0.10809680748544556        0.0000000000000000     
  -5.4629717701873790E-002   8.2588573172896224E-002   0.0000000000000000     
  -5.6758017616309490E-002   8.8853295829041043E-002   0.0000000000000000     
  -5.8791558231256182E-002   9.5273964001681311E-002   0.0000000000000000     
  -6.0730339546713856E-002  0.10185057769081700        0.0000000000000000     
  -6.2574361562682521E-002  0.10858313689644812        0.0000000000000000     
  -4.0131300697907629E-002  0.10690169962499782        0.0000000000000000     
  -4.1260924066116540E-002  0.11379874875846874        0.0000000000000000     
  -4.2283758643300272E-002  0.12071239202957822        0.0000000000000000     
  -4.3199804429458789E-002  0.12764262943832630        0.0000000000000000     
  -4.4009061424592114E-002  0.13458946098471297        0.0000000000000000     
  -4.5506448995634961E-002  0.10725608884972042        0.0000000000000000     
  -4.6778037388374681E-002  0.11413674856388650        0.0000000000000000     
  -4.7931588680157428E-002  0.12104398751469098        0.0000000000000000     
  -4.8967102870983180E-002  0.12797780570213382        0.0000000000000000     
  -4.9884579960851952E-002  0.13493820312621513        0.0000000000000000     
  -5.1038675239006563E-002  0.10765445813653632        0.0000000000000000     
  -5.2454489022520819E-002  0.11451963248947566        0.0000000000000000     
  -5.3737782166128484E-002  0.12142074336939393        0.0000000000000000     
  -5.4888554669829552E-002  0.12835779077629120        0.0000000000000000     
  -5.5906806533624030E-002  0.13533077471016747        0.0000000000000000     
  -5.6727979428022407E-002  0.10809680748544556        0.0000000000000000     
  -5.8290278968554925E-002  0.11494740053523622        0.0000000000000000     
  -5.9702339101213420E-002  0.12184265959368716        0.0000000000000000     
  -6.0964159825997885E-002  0.12878258466079842        0.0000000000000000     
  -6.2075741142908321E-002  0.13576717573656999        0.0000000000000000     
  -6.2574361562682521E-002  0.10858313689644812        0.0000000000000000     
  -6.4285407226477034E-002  0.11542005270116817        0.0000000000000000     
  -6.5825259485412277E-002  0.12230973618757060        0.0000000000000000     
  -6.7193918339488193E-002  0.12925218735565547        0.0000000000000000     
  -6.8391383788704838E-002  0.13624740620542269        0.0000000000000000     
  -4.4009061424592114E-002  0.13458946098471297        0.0000000000000000     
  -4.4842088952375452E-002  0.14180882837640668        0.0000000000000000     
  -4.5829446336484045E-002  0.14955667332107597        0.0000000000000000     
  -4.6971133576917887E-002  0.15783299581872079        0.0000000000000000     
  -4.8267150673676963E-002  0.16663779586934119        0.0000000000000000     
  -4.9884579960851952E-002  0.13493820312621513        0.0000000000000000     
  -5.0828004248602399E-002  0.14215947244526853        0.0000000000000000     
  -5.1941360033073140E-002  0.14987590631762784        0.0000000000000000     
  -5.3224647314264205E-002  0.15808750474329308        0.0000000000000000     
  -5.4677866092175564E-002  0.16679426772226419        0.0000000000000000     
  -5.5906806533624030E-002  0.13533077471016747        0.0000000000000000     
  -5.6956652197104010E-002  0.14254969643769355        0.0000000000000000     
  -5.8202206099861618E-002  0.15022455722554034        0.0000000000000000     
  -5.9643468241896820E-002  0.15835535707370788        0.0000000000000000     
  -6.1280438623209629E-002  0.16694209598219614        0.0000000000000000     
  -6.2075741142908321E-002  0.13576717573656999        0.0000000000000000     
  -6.3228032797880335E-002  0.14297950035368173        0.0000000000000000     
  -6.4611984536849465E-002  0.15060262604481345        0.0000000000000000     
  -6.6227596359815760E-002  0.15863655280996522        0.0000000000000000     
  -6.8074868266779179E-002  0.16708128064913708        0.0000000000000000     
  -6.8391383788704838E-002  0.13624740620542269        0.0000000000000000     
  -6.9642146050931303E-002  0.14344888419323304        0.0000000000000000     
  -7.1170695344036680E-002  0.15101011277544721        0.0000000000000000     
  -7.2977031668020970E-002  0.15893109195206515        0.0000000000000000     
  -7.5061155022884185E-002  0.16721182172308696        0.0000000000000000     
   0.0000000000000000        0.0000000000000000        0.0000000000000000     
  -2.8801806108736065E-003   1.7442183154136302E-003   0.0000000000000000     
  -5.8729306690339361E-003   3.8639261257906897E-003   0.0000000000000000     
  -8.9782501744809905E-003   6.3591234311311815E-003   0.0000000000000000     
  -1.2196139127214766E-002   9.2298102314351000E-003   0.0000000000000000     
   0.0000000000000000        0.0000000000000000        0.0000000000000000     
  -3.2834522866101571E-003   1.9988908857510573E-003   0.0000000000000000     
  -6.6774763382592452E-003   4.3303436389468698E-003   0.0000000000000000     
  -1.0182072154947265E-002   6.9943582595874401E-003   0.0000000000000000     
  -1.3797239736674216E-002   9.9909347476727674E-003   0.0000000000000000     
   0.0000000000000000        0.0000000000000000        0.0000000000000000     
  -3.9537357684062534E-003   2.4250579372229312E-003   0.0000000000000000     
  -7.9110952612914433E-003   5.0627269148277943E-003   0.0000000000000000     
  -1.1872078478655566E-002   7.9130069328145897E-003   0.0000000000000000     
  -1.5836685420498625E-002   1.0975897991183320E-002   0.0000000000000000     
   0.0000000000000000        0.0000000000000000        0.0000000000000000     
  -4.8910310562618967E-003   3.0227194698292516E-003   0.0000000000000000     
  -9.5737874381305269E-003   6.0610759534334606E-003   0.0000000000000000     
  -1.4048269145605894E-002   9.1150694508126285E-003   0.0000000000000000     
  -1.8314476178687995E-002   1.2184699961966756E-002   0.0000000000000000     
   0.0000000000000000        0.0000000000000000        0.0000000000000000     
  -6.0953381501770857E-003   3.7918754835700201E-003   0.0000000000000000     
  -1.1665552868776501E-002   7.3253907547638731E-003   0.0000000000000000     
  -1.6710644155798246E-002   1.0600545813581559E-002   0.0000000000000000     
  -2.1230612011242322E-002   1.3617340660023080E-002   0.0000000000000000     
  -1.2196139127214766E-002   9.2298102314351000E-003   0.0000000000000000     
  -1.5428444050092211E-002   1.2373164672970147E-002   0.0000000000000000     
  -1.8577011465970274E-002   1.5686364902004018E-002   0.0000000000000000     
  -2.1641841374848945E-002   1.9169410918536710E-002   0.0000000000000000     
  -2.4622933776728233E-002   2.2822302722568227E-002   0.0000000000000000     
  -1.3797239736674216E-002   9.9909347476727674E-003   0.0000000000000000     
  -1.7405435537158363E-002   1.3221743061385590E-002   0.0000000000000000     
  -2.0889116010117965E-002   1.6588453158908646E-002   0.0000000000000000     
  -2.4248281155553025E-002   2.0091065040241943E-002   0.0000000000000000     
  -2.7482930973463549E-002   2.3729578705385473E-002   0.0000000000000000     
  -1.5836685420498625E-002   1.0975897991183320E-002   0.0000000000000000     
  -1.9732532933689078E-002   1.4210482209028033E-002   0.0000000000000000     
  -2.3487237865095375E-002   1.7575841705442786E-002   0.0000000000000000     
  -2.7100800214717512E-002   2.1071976480427579E-002   0.0000000000000000     
  -3.0573219982555501E-002   2.4698886533982407E-002   0.0000000000000000     
  -1.8314476178687995E-002   1.2184699961966756E-002   0.0000000000000000     
  -2.2409736239684352E-002   1.5339382115897479E-002   0.0000000000000000     
  -2.6371377030902480E-002   1.8648530541606437E-002   0.0000000000000000     
  -3.0199398552342396E-002   2.2112145239093627E-002   0.0000000000000000     
  -3.3893800804004080E-002   2.5730226208359044E-002   0.0000000000000000     
  -2.1230612011242322E-002   1.3617340660023080E-002   0.0000000000000000     
  -2.5437045455144192E-002   1.6608442781993926E-002   0.0000000000000000     
  -2.9541533507539314E-002   1.9806519667399589E-002   0.0000000000000000     
  -3.3544076168427681E-002   2.3211571316240076E-002   0.0000000000000000     
  -3.7444673437809314E-002   2.6823597728515378E-002   0.0000000000000000     
  -2.4622933776728233E-002   2.2822302722568227E-002   0.0000000000000000     
  -2.7527258287368725E-002   2.6669718837523317E-002   0.0000000000000000     
  -3.0361784522531004E-002   3.0736337786826738E-002   0.0000000000000000     
  -3.3126512482215063E-002   3.5022159570478488E-002   0.0000000000000000     
  -3.5821442166420914E-002   3.9527184188478552E-002   0.0000000000000000     
  -2.7482930973463549E-002   2.3729578705385473E-002   0.0000000000000000     
  -3.0619275248829871E-002   2.7547430654956906E-002   0.0000000000000000     
  -3.3683523766632348E-002   3.1588057389573918E-002   0.0000000000000000     
  -3.6675676526870961E-002   3.5851458909236522E-002   0.0000000000000000     
  -3.9595733529545728E-002   4.0337635213944692E-002   0.0000000000000000     
  -3.0573219982555501E-002   2.4698886533982407E-002   0.0000000000000000     
  -3.3937250357511016E-002   2.8500748779477055E-002   0.0000000000000000     
  -3.7225644528485723E-002   3.2521740130281279E-002   0.0000000000000000     
  -4.0438402495479656E-002   3.6761860586395086E-002   0.0000000000000000     
  -4.3575524258492787E-002   4.1221110147818478E-002   0.0000000000000000     
  -3.3893800804004080E-002   2.5730226208359044E-002   0.0000000000000000     
  -3.7481183613412142E-002   2.9529673211083754E-002   0.0000000000000000     
  -4.0988146808091167E-002   3.3537386008948795E-002   0.0000000000000000     
  -4.4414690388041148E-002   3.7753364601954192E-002   0.0000000000000000     
  -4.7760814353262078E-002   4.2177608990099917E-002   0.0000000000000000     
  -3.7444673437809314E-002   2.6823597728515378E-002   0.0000000000000000     
  -4.1251075016533266E-002   3.0634203949777013E-002   0.0000000000000000     
  -4.4971030605448638E-002   3.4634995025576494E-002   0.0000000000000000     
  -4.8604540204555423E-002   3.8825970955913829E-002   0.0000000000000000     
  -5.2151603813853614E-002   4.3207131740789002E-002   0.0000000000000000     
  -3.5821442166420914E-002   3.9527184188478552E-002   0.0000000000000000     
  -3.8434495623146783E-002   4.4235564379202105E-002   0.0000000000000000     
  -4.0953594900390897E-002   4.9131452881024280E-002   0.0000000000000000     
  -4.3378739998153268E-002   5.4214849693945084E-002   0.0000000000000000     
  -4.5709930916433890E-002   5.9485754817964510E-002   0.0000000000000000     
  -3.9595733529545728E-002   4.0337635213944692E-002   0.0000000000000000     
  -4.2427668669835848E-002   4.5029043358526435E-002   0.0000000000000000     
  -4.5155455842920487E-002   4.9908140397809726E-002   0.0000000000000000     
  -4.7779095048799652E-002   5.4974926331794599E-002   0.0000000000000000     
  -5.0298586287473350E-002   6.0229401160480998E-002   0.0000000000000000     
  -4.3575524258492787E-002   4.1221110147818478E-002   0.0000000000000000     
  -4.6618769244895344E-002   4.5885380474092505E-002   0.0000000000000000     
  -4.9549896882057534E-002   5.0740563224758208E-002   0.0000000000000000     
  -5.2368907169979377E-002   5.5786658399815586E-002   0.0000000000000000     
  -5.5075800108660845E-002   6.1023665999264655E-002   0.0000000000000000     
  -4.7760814353262078E-002   4.2177608990099917E-002   0.0000000000000000     
  -5.1007797348325293E-002   4.6804575725900313E-002   0.0000000000000000     
  -5.4136918017802078E-002   5.1628721361869696E-002   0.0000000000000000     
  -5.7148176361692442E-002   5.6650045898008088E-002   0.0000000000000000     
  -6.0041572379996369E-002   6.1868549334315473E-002   0.0000000000000000     
  -5.2151603813853614E-002   4.3207131740789002E-002   0.0000000000000000     
  -5.5594752980125686E-002   4.7786629113949861E-002   0.0000000000000000     
  -5.8916519250154092E-002   5.2572614809144214E-002   0.0000000000000000     
  -6.2116902623938833E-002   5.7565088826372089E-002   0.0000000000000000     
  -6.5195903101479907E-002   6.2764051165633467E-002   0.0000000000000000     
  -4.5709930916433890E-002   5.9485754817964510E-002   0.0000000000000000     
  -4.7980577961928686E-002   6.4953175424824303E-002   0.0000000000000000     
  -5.0224091441333600E-002   7.0626118686266171E-002   0.0000000000000000     
  -5.2440471354648625E-002   7.6504584602290163E-002   0.0000000000000000     
  -5.4629717701873790E-002   8.2588573172896224E-002   0.0000000000000000     
  -5.0298586287473350E-002   6.0229401160480998E-002   0.0000000000000000     
  -5.2752417970753876E-002   6.5678432069558090E-002   0.0000000000000000     
  -5.5179078510453526E-002   7.1328886244714979E-002   0.0000000000000000     
  -5.7578567906572287E-002   7.7180763685951642E-002   0.0000000000000000     
  -5.9950886159110178E-002   8.3234064393268109E-002   0.0000000000000000     
  -5.5075800108660845E-002   6.1023665999264655E-002   0.0000000000000000     
  -5.7712389876854897E-002   6.6455460224506699E-002   0.0000000000000000     
  -6.0320490653314483E-002   7.2085915276942997E-002   0.0000000000000000     
  -6.2900102438039576E-002   7.7915031156573528E-002   0.0000000000000000     
  -6.5451225231030211E-002   8.3942807863398375E-002   0.0000000000000000     
  -6.0041572379996369E-002   6.1868549334315473E-002   0.0000000000000000     
  -6.2860493680231749E-002   6.7284259889670114E-002   0.0000000000000000     
  -6.5648327869916451E-002   7.2897205782950239E-002   0.0000000000000000     
  -6.8405074949050529E-002   7.8707387014155875E-002   0.0000000000000000     
  -7.1130734917633887E-002   8.4714803583287035E-002   0.0000000000000000     
  -6.5195903101479907E-002   6.2764051165633467E-002   0.0000000000000000     
  -6.8196729380884433E-002   6.8164831065048351E-002   0.0000000000000000     
  -7.1162590160259498E-002   7.3762757762736747E-002   0.0000000000000000     
  -7.4093485439605075E-002   7.9557831258698655E-002   0.0000000000000000     
  -7.6989415218921192E-002   8.5550051552934075E-002   0.0000000000000000     
  -5.4629717701873790E-002   8.2588573172896224E-002   0.0000000000000000     
  -5.6758017616309490E-002   8.8853295829041043E-002   0.0000000000000000     
  -5.8791558231256182E-002   9.5273964001681311E-002   0.0000000000000000     
  -6.0730339546713856E-002  0.10185057769081700        0.0000000000000000     
  -6.2574361562682521E-002  0.10858313689644812        0.0000000000000000     
  -5.9950886159110178E-002   8.3234064393268109E-002   0.0000000000000000     
  -6.2258591776886599E-002   8.9467175884864913E-002   0.0000000000000000     
  -6.4464243268720980E-002   9.5858485678942632E-002   0.0000000000000000     
  -6.6567840634613282E-002  0.10240799377550124        0.0000000000000000     
  -6.8569383874563558E-002  0.10911570017454073        0.0000000000000000     
  -6.5451225231030211E-002   8.3942807863398375E-002   0.0000000000000000     
  -6.7932220414135991E-002   9.0147759657547469E-002   0.0000000000000000     
  -7.0301449369206584E-002   9.6508400799150781E-002   0.0000000000000000     
  -7.2558912096241990E-002  0.10302473128820834        0.0000000000000000     
  -7.4704608595242181E-002  0.10969675112472013        0.0000000000000000     
  -7.1130734917633887E-002   8.4714803583287035E-002   0.0000000000000000     
  -7.3778903528057688E-002   9.0895047147088653E-002   0.0000000000000000     
  -7.6303176532713041E-002   9.7223709362305746E-002   0.0000000000000000     
  -7.8703553931599946E-002  0.10370079022893829        0.0000000000000000     
  -8.0980035724718374E-002  0.11032628974698631        0.0000000000000000     
  -7.6989415218921192E-002   8.5550051552934075E-002   0.0000000000000000     
  -7.9798641118651675E-002   9.1709038353488523E-002   0.0000000000000000     
  -8.2469424759240337E-002   9.8004411368407540E-002   0.0000000000000000     
  -8.5001766140687163E-002  0.10443617059769113        0.0000000000000000     
  -8.7395665262992167E-002  0.11100431604133927        0.0000000000000000     
  -6.2574361562682521E-002  0.10858313689644812        0.0000000000000000     
  -6.4285407226477034E-002  0.11542005270116817        0.0000000000000000     
  -6.5825259485412277E-002  0.12230973618757060        0.0000000000000000     
  -6.7193918339488193E-002  0.12925218735565547        0.0000000000000000     
  -6.8391383788704838E-002  0.13624740620542269        0.0000000000000000     
  -6.8569383874563558E-002  0.10911570017454073        0.0000000000000000     
  -7.0425099307993649E-002  0.11593317735310973        0.0000000000000000     
  -7.2091213254325437E-002  0.12281199778825681        0.0000000000000000     
  -7.3567725713558935E-002  0.12975216147998198        0.0000000000000000     
  -7.4854636685694129E-002  0.13675366842828529        0.0000000000000000     
  -7.4704608595242181E-002  0.10969675112472013        0.0000000000000000     
  -7.6694580724811279E-002  0.11648236285689914        0.0000000000000000     
  -7.8484870343553406E-002  0.12333946903295839        0.0000000000000000     
  -8.0075477451468563E-002  0.13026806965289783        0.0000000000000000     
  -8.1466402048556735E-002  0.13726816471671752        0.0000000000000000     
  -8.0980035724718374E-002  0.11032628974698631        0.0000000000000000     
  -8.3093851476929936E-002  0.11706760921253642        0.0000000000000000     
  -8.5006230753096171E-002  0.12389214992167530        0.0000000000000000     
  -8.6717173553217064E-002  0.13079991187440293        0.0000000000000000     
  -8.8226679877292685E-002  0.13779089507071932        0.0000000000000000     
  -8.7395665262992167E-002  0.11100431604133927        0.0000000000000000     
  -8.9622911564349594E-002  0.11768891642002156        0.0000000000000000     
  -9.1655294482953689E-002  0.12447004045440756        0.0000000000000000     
  -9.3492814018804465E-002  0.13134768814449729        0.0000000000000000     
  -9.5135470171901937E-002  0.13832185949029072        0.0000000000000000     
  -6.8391383788704838E-002  0.13624740620542269        0.0000000000000000     
  -6.9642146050931303E-002  0.14344888419323304        0.0000000000000000     
  -7.1170695344036680E-002  0.15101011277544721        0.0000000000000000     
  -7.2977031668020970E-002  0.15893109195206515        0.0000000000000000     
  -7.5061155022884185E-002  0.16721182172308696        0.0000000000000000     
  -7.4854636685694129E-002  0.13675366842828529        0.0000000000000000     
  -7.6205550930148358E-002  0.14394655826482206        0.0000000000000000     
  -7.7874073206338934E-002  0.15146087062124777        0.0000000000000000     
  -7.9860203514265884E-002  0.15929660549756239        0.0000000000000000     
  -8.2163941853929168E-002  0.16745376289376590        0.0000000000000000     
  -8.1466402048556735E-002  0.13726816471671752        0.0000000000000000     
  -8.2924806409422888E-002  0.14446123287692333        0.0000000000000000     
  -8.4717852808671917E-002  0.15196875278602140        0.0000000000000000     
  -8.6845541246303851E-002  0.15979072444401163        0.0000000000000000     
  -8.9307871722318646E-002  0.16792714785089405        0.0000000000000000     
  -8.8226679877292685E-002  0.13779089507071932        0.0000000000000000     
  -8.9799912488754893E-002  0.14499290802953685        0.0000000000000000     
  -9.1702034151035630E-002  0.15253375926976809        0.0000000000000000     
  -9.3933044864134854E-002  0.16041344879141292        0.0000000000000000     
  -9.6492944628052621E-002  0.16863197659447141        0.0000000000000000     
  -9.5135470171901937E-002  0.13832185949029072        0.0000000000000000     
  -9.6830869168144373E-002  0.14554158372266263        0.0000000000000000     
  -9.8826617233430031E-002  0.15315589007248784        0.0000000000000000     
 -0.10112271436775894       0.16116477853976627        0.0000000000000000     
 -0.10371916057113108       0.16956824912449797        0.0000000000000000     
 </DataArray>
 <DataArray  type="Float64" Name="stress" NumberOfComponents="3" format="ascii">
   13414470046.815075        4024341014.0445223        2895548743.1775250     
   11765391735.735556        1888203272.4436684        1716836219.3808999     
   10314121208.976360        411424811.91055489        810855217.80220151     
   9060658466.5374851       -405994367.55481768        177605738.44142920     
   8005003508.4189329       -564054265.95244884       -182912218.70141661     
   10539256390.576197        3161776917.1728587        2226388403.3722453     
   9667244491.4970760        1588028502.9489923        1447190241.8190243     
   8944287230.6538925        511128882.84491205        863221799.42272472     
   8370384608.0466461       -68921943.139380455        474483076.18334746     
   7945536623.6753340       -152123975.00388813        280974072.10089314     
   8338125164.6689987        2501437549.4006996        1712309477.1585765     
   8021745954.5588379        1423648345.6443887        1275747007.4169743     
   7805668236.6002264        680197449.05990982        956912453.77129042     
   7689892010.7931652        271084859.64726305        755805816.22152495     
   7674417277.1376534        196310577.40644836        672427094.76767576     
   6811076369.0934830        2043322910.7280450        1353311964.5365174     
   6828896124.9208393        1395062800.5298567        1202506516.1747510     
   6898264226.8153591        918630510.55554700        1091927180.8478987     
   7019180674.7770433        614026040.80511522        1021573958.5559599     
   7191645468.8058901        481249391.27856040        991446849.29893386     
   5958110003.8496485        1787433001.1548944        1149395865.5060689     
   6088695002.5830822        1502271867.6053977        1227468768.0923545     
   6222075201.2992907        1226428067.3318238        1268265980.6525493     
   6358250599.9982796        959901600.33417404        1271787503.1866531     
   6497221198.6800442        702692466.61244726        1238033335.6946654     
   8005003508.4189329       -564054265.95244884       -182912218.70141661     
   7919933400.2203245       -195170787.73341846       -79585969.112432793     
   7792506884.6073351        32524665.771014690       -8566792.5681838877     
   7622723961.5799646        119032094.56085300        30145310.931323916     
   7410584631.1382160        64351498.636085033        36550341.386096463     
   7945536623.6753340       -152123975.00388813        280974072.10089314     
   7740672717.7929497        20159665.266898155        280363590.69117302     
   7511692930.9857988        112057035.78848696        265280300.55749625     
   7258597263.2538929        123568136.56087732        235724201.69985971     
   6981385714.5972252        54692967.584066868        191695294.11826590     
   7674417277.1376534        196310577.40644836        672427094.76767576     
   7400714614.4880009        187280892.00394630        589160496.59714067     
   7121136597.4032068        158666691.81764174        509255354.02342963     
   6835683225.8832760        110467976.84753966        432711667.04653853     
   6544354499.9281998        42684747.093632698        359529435.66646725     
   7191645468.8058901        481249391.27856040        991446849.29893386     
   6900059090.3054848        306192892.47772384        846804748.60547423     
   6620837883.8595572        172353633.85848045        723358367.82961714     
   6353981849.4681101        79731615.420837879        621107706.97135830     
   6099490987.1311426        28326837.164789677        540052766.03070128     
   6497221198.6800442        702692466.61244726        1238033335.6946654     
   6238706145.2453976        376895666.68822694        1053296346.7161710     
   6010796790.3548489        153117861.91099977        907589341.97605729     
   5813493134.0084038        31359052.280772924        800912321.47432315     
   5646795176.2060528        11619237.797538280        733265285.21096790     
   7410584631.1382160        64351498.636085033        36550341.386096463     
   7216833581.5669737       -28230998.693822861        16857726.855570853     
   7036811432.3773909       -75050494.751536369        2074299.2344744713     
   6870518183.5694618       -76106989.537063599       -7799941.4771878775     
   6717953835.1431913       -31400483.050403595       -12764995.279422278     
   6981385714.5972252        54692967.584066868        191695294.11826590     
   6808941840.7492418       -5434411.3215351105        182154513.77169117     
   6645658345.1635618       -35027196.019463062        176605038.97412518     
   6491535227.8401852       -34085386.509716988        175046869.72555974     
   6346572488.7791071       -2608982.7922985554        177480006.02600527     
   6544354499.9281998        42684747.093632698        359529435.66646725     
   6390595283.6308336        14225731.160543680        354810547.03126556     
   6241427923.4764118        1072902.3706142902        353165082.58464473     
   6096852419.4649391        3226260.7238409519        354593042.32660151     
   5956868771.5964088        20685806.220221281        359094426.25713736     
   6099490987.1311426        28326837.164789677        540052766.03070128     
   5961793910.2117462        30749428.752423048        534825826.63429022     
   5824120167.3159389        33249800.418694735        531754430.06603158     
   5686469758.4437294        35827952.163606644        530838576.32592845     
   5548842683.5951033        38483883.987156153        532078265.41398013     
   5646795176.2060528        11619237.797538280        733265285.21096790     
   5522537720.4919834        44136681.454098701        722200352.58076537     
   5393735076.6821508        61503498.124780893        712373081.41829169     
   5260387244.7765532        63719687.809583902        703783471.72354472     
   5122494224.7751923        50785250.508511543        696431523.49653172     
   6717953835.1431913       -31400483.050403595       -12764995.279422278     
   6495113103.4164610        2647614.9574906826       -2346728.6443020250     
   6265416772.3045950        13843715.014924526        9850025.0282887667     
   6028864841.8075676        2187817.1218321323        23825265.738347854     
   5785457311.9254084       -32320078.721711874        39578993.485879406     
   6346572488.7791071       -2608982.7922985554        177480006.02600527     
   6124725175.7093678        12218858.265019655        175432111.93433097     
   5897948347.8119392        10614983.230038166        176805342.91454107     
   5666242005.0868235       -7420607.8972315788        181599698.96664101     
   5429606147.5340204       -41887915.116789103        189815180.09062278     
   5956868771.5964088        20685806.220221281        359094426.25713736     
   5740708128.7105589        17701365.785019398        346827470.08904064     
   5521544055.5544767        4705491.1157298088        339624277.02723932     
   5299376552.1281633       -18301817.787677288        337484847.07174176     
   5074205618.4316196       -51320560.925180674        340409180.22254807     
   5548842683.5951033        38483883.987156153        532078265.41398013     
   5343061962.4200420        19095137.517517805        511839345.81982392     
   5136203895.5322056       -3884761.3280315399        498306827.36638206     
   4928268482.9315958       -30455812.549494028        491480710.05365771     
   4719255724.6182156       -60618016.146861553        491360993.88164806     
   5122494224.7751923        50785250.508511543        696431523.49653172     
   4931786676.8378143        16400173.462497234        670467739.12668550     
   4741927867.7451210       -15155774.101238251        652852993.93196654     
   4552917797.4971142       -43882592.182684660        643587287.91237998     
   4364756466.0937881       -69780280.781854630        642670621.06792259     
   5785457311.9254084       -32320078.721711874        39578993.485879406     
   5720769651.9008121       -24166410.474674702        50991987.181292497     
   5655714912.0086184       -17236341.786293268        65741737.438865028     
   5590293092.2488289       -11529872.656567812        83828244.258597329     
   5524504192.6214314       -7047003.0855348110        105251507.64050506     
   5429606147.5340204       -41887915.116789103        189815180.09062278     
   5373831282.3824234       -28846621.603065491        200978563.93221688     
   5318535582.3967247       -14208110.869689941        214533273.74472290     
   5263719047.5769091        2027617.0833032131        230479309.52813378     
   5209381677.9229813        19860562.255922079        248816671.28246552     
   5074205618.4316196       -51320560.925180674        340409180.22254807     
   5024642317.8923025       -34202011.222965717        352310240.08273226     
   4976404427.5523558       -12665427.522842646        365657195.32257533     
   4929491947.4117937        13289190.175224543        380450045.94207025     
   4883904877.4706087        43661841.871208668        396688791.94121510     
   4719255724.6182156       -60618016.146861553        491360993.88164806     
   4673202758.4304352       -40232579.334408283        504987015.63282841     
   4629321447.4755239       -12608291.745724440        519113502.17240757     
   4587611791.7534809        22254846.619172335        533740453.50038880     
   4548073791.2643013        64356835.760304689        548867869.61676502     
   4364756466.0937881       -69780280.781854630        642670621.06792259     
   4319512603.9968281       -46938325.937360764        659008890.58250237     
   4277286642.1662188       -14036703.538357019        674902194.29422939     
   4238078580.6019673        28924586.415176153        690350532.20309794     
   4201888419.3040709        81945543.923230886        705353904.30910754     
   5524504192.6214314       -7047003.0855348110        105251507.64050506     
   5244768738.4928694       -53468062.440469503        89291134.643431768     
   4974156432.8633575       -69478626.798547029        84965438.289839134     
   4712667275.7329140       -55078696.159738302        92274418.579751506     
   4460301267.1015167       -10268270.524117947        111218075.51316249     
   5209381677.9229813        19860562.255922079        248816671.28246552     
   4962522728.9490490       -10070728.702493191        237225257.66235501     
   4721772903.3795471       -19638274.979488850        235483455.58004656     
   4487132201.2144632       -8842076.5750834942        243591265.03554079     
   4258600622.4537997        22317866.510723352        261548686.02882937     
   4883904877.4706087        43661841.871208668        396688791.94121510     
   4664822247.6350384        28690263.504447222        385949975.08767277     
   4448834716.1092501        24035679.503623009        383275704.66623074     
   4235942282.8932509        29698089.868769169        388665980.67688668     
   4026144947.9870343        45677494.599850416        402120803.11964393     
   4548073791.2643013        64356835.760304689        548867869.61676502     
   4351667294.5508041        62814914.180293322        535465286.91938114     
   4155341871.0524597        61543236.650783300        528342185.54839283     
   3959097520.7692657        60541803.171776533        527498565.50380498     
   3762934243.7012224        59810613.743263483        532934426.78562224     
   4201888419.3040709        81945543.923230886        705353904.30910754     
   4023057869.6963735        92303223.325097322        685771193.15746987     
   3841294368.2091875        92884396.462013960        670682898.22653246     
   3656597914.8425107        83689063.333955288        660089019.51629782     
   3468968509.5963497        64717223.940958023        653989557.02676451     
   4460301267.1015167       -10268270.524117947        111218075.51316249     
   4088995141.4047294       -829714.66332125664        102577811.15619804     
   3708770371.8317971       -21119971.722984076        86008964.228579700     
   3319626958.3827376       -71139041.703083038        61511534.730292730     
   2921564901.0575361       -150886924.60365427        29085522.661342900     
   4258600622.4537997        22317866.510723352        261548686.02882937     
   3865560225.2724581        1376646.0156331062        235395447.52071470     
   3464598494.9802818       -45969018.182233334        207462838.83113247     
   3055715431.5772924       -119719126.08281481        177750859.96005574     
   2638911035.0634747       -219873677.68615615        146259510.90750507     
   4026144947.9870343        45677494.599850416        402120803.11964393     
   3628939457.5759192       -372748.77471637726        359618119.68660164     
   3224809944.8192887       -69503066.634326696        321485278.46124774     
   2813756409.7171583       -161713458.97894716        287722279.44358277     
   2395778852.2695041       -277003925.80863416        258329122.63361061     
   3762934243.7012224        59810613.743263483        532934426.78562224     
   3379132838.3151226       -6077899.0343246460        475245827.65383214     
   2989404721.3488321       -91722117.079232097        428076283.11891150     
   2593749892.8023367       -197122040.39148223        391425793.18085718     
   2192168352.6756387       -322277668.97107208        365294357.83966392     
   3468968509.5963497        64717223.940958023        653989557.02676451     
   3116140367.4900613       -15738804.763215661        582278571.42242491     
   2758382824.5688844       -112626169.51701725        527235852.80413312     
   2395695880.8328257       -225944870.32043529        488861401.17188114     
   2028079536.2818692       -355694907.17349124        467155216.52567250     
   2921564901.0575361       -150886924.60365427        29085522.661342900     
   3541283345.7727051       -7392854.1970059872        227544597.86938652     
   4115793710.8662863       -14592382.528994322        455493012.08681142     
   4645095996.3382702       -172485509.59964585        712930765.31366444     
   5129190202.1886454       -481072235.40896940        999857857.54989493     
   2638911035.0634747       -219873677.68615615        146259510.90750507     
   3324394596.2192740       -39818440.772952080        308972837.05809301     
   3984518216.5621743        55703660.097261429        484348183.03671038     
   4619281896.0921535        66692624.924395561        672385548.84336615     
   5228685634.8092232       -6851546.2915005684        873084934.47805655     
   2395778852.2695041       -277003925.80863416        258329122.63361061     
   3098949475.0620294       -74810938.830018878        408452861.67021888     
   3796608295.8503337        109009374.80118561        554411301.35349858     
   4488755314.6344109        274457015.08496571        696204441.68342817     
   5175390531.4142561        421531982.02131748        833832282.66002882     
   2192168352.6756387       -322277668.97107208        365294357.83966392     
   2864947982.3009706       -112370348.36825502        525984671.70576769     
   3552063948.7307673        145324761.58279181        665682367.03715050     
   4253516251.9650145        450807660.88200474        784387443.83384240     
   4969304892.0037308        804078349.52946126        882099902.09581077     
   2028079536.2818692       -355694907.17349124        467155216.52567250     
   2622390117.9360991       -152496669.38760483        661568267.16472876     
   3250885175.2034640        164649820.44206941        818161380.08770311     
   3913564708.0839920        595744562.31559908        936934555.29460096     
   4610428716.5776548        1140787556.2329402        1017887792.7854264     
   5958110003.8496485        1787433001.1548944        1149395865.5060689     
   6088695002.5830822        1502271867.6053977        1227468768.0923545     
   6222075201.2992907        1226428067.3318238        1268265980.6525493     
   6358250599.9982796        959901600.33417404        1271787503.1866531     
   6497221198.6800442        702692466.61244726        1238033335.6946654     
   5434238745.6207714        1630271623.6862314        1032766220.7993467     
   5489821937.3721724        1372454174.0455112        1113491076.1617286     
   5547650662.4194479        1122121835.3910406        1167487842.9696901     
   5607724920.7625980        879274607.72281909        1194756521.2232308     
   5670044712.4016237        643912491.04084659        1195297110.9223499     
   4894475271.0901279        1468342581.3270383        935628071.14846587     
   4905192660.0642681        1246909616.8565266        1018363601.4855589     
   4917605915.6473789        1031129541.0825899        1084918644.7399006     
   4931715037.8394632        821002354.00522816        1135293200.9114919     
   4947520026.6405210        616528055.62444186        1169487270.0003321     
   4338819580.2577133        1301645874.0773141        857981416.55342722     
   4334807170.6593637        1125638196.0384424        942086344.06384444     
   4331940960.9830866        953451184.40647197        1020558385.9631810     
   4330220951.2288761        785084839.18140149        1093397542.2514369     
   4329647141.3967361        620539160.36323202        1160603812.9286118     
   3767271673.1235337        1130181501.9370601        799826257.01423025     
   3778665469.1574664        1008639911.5912600        884659303.89658594     
   3790655798.4265671        889086765.36268616        974407066.63953114     
   3803242660.9308357        771522063.25133896        1069069545.2430654     
   3816426056.6702733        655945805.25721860        1168646739.7071893     
   6497221198.6800442        702692466.61244726        1238033335.6946654     
   6238706145.2453976        376895666.68822694        1053296346.7161710     
   6010796790.3548489        153117861.91099977        907589341.97605729     
   5813493134.0084038        31359052.280772924        800912321.47432315     
   5646795176.2060528        11619237.797538280        733265285.21096790     
   5670044712.4016237        643912491.04084659        1195297110.9223499     
   5518509688.7909660        384069273.54708552        1073497581.7908087     
   5390888699.2007713        203939502.78820944        979740341.57077301     
   5287181743.6310444        103523178.76421905        914025390.26223958     
   5207388822.0817842        82820301.475111961        876352727.86521173     
   4947520026.6405210        616528055.62444186        1169487270.0003321     
   4871571617.6342068        413220395.99524784        1102818258.7715046     
   4812845578.1247263        267320634.68882751        1053203841.1273073     
   4771341908.1120758        178828771.70518088        1020644017.0677377     
   4747060607.5962591        147744807.04430914        1005138786.5927994     
   4329647141.3967361        620539160.36323202        1160603812.9286118     
   4297891931.7751236        464349034.03271151        1141258377.6582601     
   4276667427.1267076        343261257.61285388        1127979840.6456623     
   4265973627.4514918        257275831.10366082        1120768201.8908186     
   4265810532.7494745        206392754.50512886        1119623461.3937287     
   3816426056.6702733        655945805.25721860        1168646739.7071893     
   3797470631.2137156        537455187.65947855        1188817938.4510736     
   3782354246.2067223        431761371.56029105        1204068340.1258373     
   3771076901.6492963        338864356.95965481        1214397944.7314789     
   3763638597.5414348        258764143.85757101        1219806752.2679994     
   5646795176.2060528        11619237.797538280        733265285.21096790     
   5522537720.4919834        44136681.454098701        722200352.58076537     
   5393735076.6821508        61503498.124780893        712373081.41829169     
   5260387244.7765532        63719687.809583902        703783471.72354472     
   5122494224.7751923        50785250.508511543        696431523.49653172     
   5207388822.0817842        82820301.475111961        876352727.86521173     
   5079197272.6662407        81674641.234258413        855603824.69197142     
   4949559912.5762568        75709612.078597546        838359442.71850193     
   4818476741.8118296        64925214.008132696        824619581.94480598     
   4685947760.3729639        49321447.022858620        814384242.37087977     
   4747060607.5962591        147744807.04430914        1005138786.5927994     
   4621411706.5707932        114879065.53350616        978321853.20139492     
   4497416372.2922077        87525213.178969145        957276300.74180532     
   4375074604.7605038        65683249.980697393        942002129.21403027     
   4254386403.9756761        49353175.938690662        932499338.61807072     
   4265810532.7494745        206392754.50512886        1119623461.3937287     
   4149181022.2056384        143749954.35184216        1090354438.1090362     
   4037304455.8300052        96950301.425893784        1069123655.4882011     
   3930180833.6225724        65993795.727283955        1055931113.5312239     
   3827810155.5833397        50880437.256005526        1050776812.2381035     
   3763638597.5414348        258764143.85757101        1219806752.2679994     
   3662505219.5707798        168287307.68926632        1191701579.4148948     
   3569224163.1896467        103984876.81937110        1173901506.9576907     
   3483795428.3980370        65856851.247886896        1166406534.8963859     
   3406219015.1959481        53903230.974806666        1169216663.2309821     
   5122494224.7751923        50785250.508511543        696431523.49653172     
   4931786676.8378143        16400173.462497234        670467739.12668550     
   4741927867.7451210       -15155774.101238251        652852993.93196654     
   4552917797.4971142       -43882592.182684660        643587287.91237998     
   4364756466.0937881       -69780280.781854630        642670621.06792259     
   4685947760.3729639        49321447.022858620        814384242.37087977     
   4517602919.3187399        21319306.910288811        790383236.37036908     
   4349613593.1745481       -5497783.5021817684        773762287.96635950     
   4181979781.9403868       -31129824.214548588        764521397.15885174     
   4014701485.6162548       -55576815.226820469        762660563.94784832     
   4254386403.9756761        49353175.938690662        932499338.61807072     
   4105635751.0085373        26903417.120744228        909885683.06312990     
   3956747389.0167675        3994628.2207105160        893683103.52606392     
   3807721318.0003772       -19373190.761402607        883891600.00687468     
   3658557537.9593601       -43200039.825600624        880511172.50556242     
   3827810155.5833397        50880437.256005526        1050776812.2381035     
   3695885171.9072018        33152504.093860149        1028975079.2049689     
   3563329255.2717814        13321461.067441225        1012615440.6110847     
   3430142405.6770835       -8612691.8232390881        1001697896.4564492     
   3296324623.1231046       -32649954.578186274        996222446.74106312     
   3406219015.1959481        53903230.974806666        1169216663.2309821     
   3288351182.0147362        40066567.829633832        1147651424.7958899     
   3169359191.9395890        22482715.038012385        1130559299.2214191     
   3049243044.9705067        1151672.5999379158        1117940286.5075736     
   2928002741.1074905       -23926559.484580994        1109794386.6543491     
   4364756466.0937881       -69780280.781854630        642670621.06792259     
   4319512603.9968281       -46938325.937360764        659008890.58250237     
   4277286642.1662188       -14036703.538357019        674902194.29422939     
   4238078580.6019673        28924586.415176153        690350532.20309794     
   4201888419.3040709        81945543.923230886        705353904.30910754     
   4014701485.6162548       -55576815.226820469        762660563.94784832     
   3967561453.5279446       -39056030.645294428        780760517.88111126     
   3923314013.9953580       -12893270.878020763        799305576.91533732     
   3881959167.0184932        22911464.074991941        818295741.05052853     
   3843496912.5973492        68358174.213738918        837731010.28668892     
   3658557537.9593601       -43200039.825600624        880511172.50556242     
   3612064395.6049118       -32237507.589461803        900226618.52843142     
   3568338538.0955458       -12050692.536369562        921277240.55608582     
   3527379965.4312682        17360405.333677530        943663038.58852732     
   3489188677.6120763        55995786.020678282        967384012.62575805     
   3296324623.1231046       -32649954.578186274        996222446.74106312     
   3253021430.2277198       -26482756.769880772        1017407192.5244628     
   3212360214.4667878       -11508968.513398767        1040817185.2164698     
   3174340975.8403058        12271410.191247463        1066452424.8170893     
   3138963714.3482733        44858379.344065428        1094312911.3263156     
   2928002741.1074905       -23926559.484580994        1109794386.6543491     
   2890432557.3963747       -21791778.186546087        1132302239.8692079     
   2855379043.1090760       -11268098.809122562        1157925410.8964951     
   2822842198.2455940        7644478.6476907730        1186663899.7362144     
   2792822022.8059254        34945954.183882475        1218517706.3883624     
   4201888419.3040709        81945543.923230886        705353904.30910754     
   4023057869.6963735        92303223.325097322        685771193.15746987     
   3841294368.2091875        92884396.462013960        670682898.22653246     
   3656597914.8425107        83689063.333955288        660089019.51629782     
   3468968509.5963497        64717223.940958023        653989557.02676451     
   3843496912.5973492        68358174.213738918        837731010.28668892     
   3676073195.9295826        76232878.710931778        816787931.62597620     
   3506492996.3978152        76919306.994783282        800697917.83020902     
   3334756314.0020394        70417459.065272808        789460968.89938188     
   3160863148.7422600        56727334.922415614        783077084.83349490     
   3489188677.6120763        55995786.020678282        967384012.62575805     
   3334196504.2963700        61694928.736846447        945986446.97403324     
   3177824317.1321354        62794025.291263580        929800594.83149219     
   3020072116.1193771        59293075.683932781        918826456.19813597     
   2860939901.2580924        51192079.914849877        913064031.07396138     
   3138963714.3482733        44858379.344065428        1094312911.3263156     
   2997427794.7967348        48689373.402834058        1073366739.2016435     
   2855288330.4121470        50508551.351447940        1057990929.2303952     
   2712545321.1945205        50315913.189925075        1048185481.4125638     
   2569198767.1438441        48111458.918253422        1043950395.7481657     
   2792822022.8059254        34945954.183882475        1218517706.3883624     
   2665767067.4306722        37216212.708890438        1198928808.3087971     
   2538885036.2378526        40062885.175346613        1185268921.0269029     
   2412175929.2274766        43485971.583278894        1177538044.5426700     
   2285639746.3995318        47485471.932650805        1175736178.8560972     
   3468968509.5963497        64717223.940958023        653989557.02676451     
   3116140367.4900613       -15738804.763215661        582278571.42242491     
   2758382824.5688844       -112626169.51701725        527235852.80413312     
   2395695880.8328257       -225944870.32043529        488861401.17188114     
   2028079536.2818692       -355694907.17349124        467155216.52567250     
   3160863148.7422600        56727334.922415614        783077084.83349490     
   2852817876.8013453       -8558041.0855615139        707052518.94960284     
   2539445821.8821630       -91599360.354439855        645307127.89237154     
   2220746983.9847188       -192396622.88419414        597840911.66180265     
   1896721363.1090004       -310949828.67485106        564653870.25789654     
   2860939901.2580924        51192079.914849877        913064031.07396138     
   2590851521.8843255       -970436.67640709877        832262272.38656771     
   2315038977.3689098       -72213503.739826202        763350596.36645818     
   2033502267.7118502       -162537121.27539492        706329003.01363027     
   1746241392.9131396       -271941289.28313017        661197492.32808745     
   2569198767.1438441        48111458.918253422        1043950395.7481657     
   2330241302.7390013        7024008.4642604589        957907831.73332477     
   2085162291.0291266       -54468599.673159361        881366258.22639024     
   1833961732.0142205       -136366365.49402070        814325675.22735786     
   1576639625.6942883       -238669288.99829555        756786082.73622656     
   2285639746.3995318        47485471.932650805        1175736178.8560972     
   2070987219.3653727        15425294.336434841        1083989196.9898694     
   1849815762.8628039       -38364648.154476285        999354113.47216618     
   1622125376.8918319       -113884355.54007280        921830928.30298889     
   1387916061.4524496       -211133827.82036370        851419641.48233247     
   2028079536.2818692       -355694907.17349124        467155216.52567250     
   2622390117.9360991       -152496669.38760483        661568267.16472876     
   3250885175.2034640        164649820.44206941        818161380.08770311     
   3913564708.0839920        595744562.31559908        936934555.29460096     
   4610428716.5776548        1140787556.2329402        1017887792.7854264     
   1896721363.1090004       -310949828.67485106        564653870.25789654     
   2391019349.0090895       -145914444.19502771        793830067.09308672     
   2915759398.0442057        120594484.06821227        992700247.98102546     
   3470941510.2143483        488576956.11487007        1161264412.9217162     
   4056565685.5195022        958032971.94492030        1299522561.9151690     
   1746241392.9131396       -271941289.28313017        661197492.32808745     
   2161995130.9700360       -138628253.73605239        920770687.46825957     
   2604448519.6838322        83683617.334011078        1157551788.4300206     
   3073601559.0545378        394994323.92707908        1371540795.2133541     
   3569454249.0821176        795303866.04312372        1562737707.8182826     
   1576639625.6942883       -238669288.99829555        756786082.73622656     
   1935317463.8189378       -130638098.01068950        1042390128.2902448     
   2316952540.1223536        53917220.239482999        1312716001.4346771     
   2721544854.6045508        314996665.75223458        1567763702.1695156     
   3149094407.2655101        652600238.52756405        1807533230.4947672     
   1387916061.4524496       -211133827.82036370        851419641.48233247     
   1710986347.5557840       -121943977.01895332        1158688389.5590470     
   2053271459.3597684        31295292.784624577        1458192886.9950035     
   2414771396.8644028        248583981.59035522        1749933133.7901912     
   2795486160.0696721        529922089.39823526        2033909129.9446247     
   3767271673.1235337        1130181501.9370601        799826257.01423025     
   3778665469.1574664        1008639911.5912600        884659303.89658594     
   3790655798.4265671        889086765.36268616        974407066.63953114     
   3803242660.9308357        771522063.25133896        1069069545.2430654     
   3816426056.6702733        655945805.25721860        1168646739.7071893     
   3206917512.7460246        962075253.82380736        755989924.01440072     
   3235447640.3319631        868126599.42870593        852898445.98647380     
   3263698713.6534476        773247764.15209150        951706444.99549317     
   3291670732.7104788        677438747.99396384        1052413921.0414584     
   3319363697.5030551        580699550.95432389        1155020874.1243699     
   2684843062.1836262        805452918.65508783        721299749.03746498     
   2721894553.2540183        736512709.79041934        829262227.34969628     
   2757791402.5603366        663723695.04549897        936108943.87523079     
   2792533610.1025777        587085874.42032599        1041839898.6140689     
   2826121175.8807435        506599247.91490084        1146455091.5662098     
   2201048321.4363394        660314496.43090177        695755732.08342266     
   2238006207.9236341        613798242.67640090        813750647.98625374     
   2272933865.1472321        560514558.04290843        927614563.27874517     
   2305831293.1071324        500463442.53042471        1037347477.9608963     
   2336698491.8033352        433644896.13894880        1142949392.0327077     
   1755533290.5041628        526659987.15124887        679357873.15227401     
   1783782604.3408091        499983198.08665019        806363707.89614606     
   1809126101.4141364        463620353.14432073        926223303.20603526     
   1831563781.7241442        417571452.32426059        1038936659.0819412     
   1851095645.2708328        361836495.62646914        1144503775.5238645     
   3816426056.6702733        655945805.25721860        1168646739.7071893     
   3797470631.2137156        537455187.65947855        1188817938.4510736     
   3782354246.2067223        431761371.56029105        1204068340.1258373     
   3771076901.6492963        338864356.95965481        1214397944.7314789     
   3763638597.5414348        258764143.85757101        1219806752.2679994     
   3319363697.5030551        580699550.95432389        1155020874.1243699     
   3293238390.3374662        473019717.95567572        1181848853.6637135     
   3270823903.7847557        377709286.99995339        1205587540.2039032     
   3252120237.8449221        294768258.08715534        1226236933.7449379     
   3237127392.5179658        224196631.21728206        1243797034.2868185     
   2826121175.8807435        506599247.91490084        1146455091.5662098     
   2798058855.7774591        411300060.14674628        1179790262.0915425     
   2773579136.4503627        327942874.96588874        1211867643.6876886     
   2752682017.8994575        256527692.37232900        1242687236.3546472     
   2735367500.1247396        197054512.36606622        1272249040.0924180     
   2336698491.8033352        433644896.13894880        1142949392.0327077     
   2311932027.5336900        352296214.23268729        1182642163.7345598     
   2290619944.2035456        282462135.45809627        1222908650.5771925     
   2272762241.8129015        224142659.81517529        1263748852.5606058     
   2258358920.3617597        177337787.30392408        1305162769.6847985     
   1851095645.2708328        361836495.62646914        1144503775.5238645     
   1834857905.6061609        296008180.21350169        1190404558.5927672     
   1821946327.0443017        241267068.47657615        1238710560.8724165     
   1812360909.5852556        197613160.41569358        1289421782.3628142     
   1806101653.2290220        165046456.03085423        1342538223.0639575     
   3763638597.5414348        258764143.85757101        1219806752.2679994     
   3662505219.5707798        168287307.68926632        1191701579.4148948     
   3569224163.1896467        103984876.81937110        1173901506.9576907     
   3483795428.3980370        65856851.247886896        1166406534.8963859     
   3406219015.1959481        53903230.974806666        1169216663.2309821     
   3237127392.5179658        224196631.21728206        1243797034.2868185     
   3164947560.0406837        151558483.30633557        1231346947.6127968     
   3099006077.3487821        99714834.679984212        1226747098.2476192     
   3039302944.4422584        68665685.338229775        1229997486.1912849     
   2985838161.3211155        58411035.281077266        1241098111.4437950     
   2735367500.1247396        197054512.36606622        1272249040.0924180     
   2685127318.6063857        140150884.35214174        1273571072.4926460     
   2639511515.0692663        98661849.609001040        1280288479.1146607     
   2598520089.5133848        72587408.136649251        1292401259.9584632     
   2562153041.9387369        61927559.935082197        1309909415.0240529     
   2258358920.3617597        177337787.30392408        1305162769.6847985     
   2223044495.2678838        134064510.82668710        1318373954.0544419     
   2190740476.3511014        100825921.60642397        1334525649.5588140     
   2161446863.6114111        77622019.643136978        1353617856.1979196     
   2135163657.0488129        64452804.936823726        1375650573.9717534     
   1806101653.2290220        165046456.03085423        1342538223.0639575     
   1778699090.0251794        133299362.72997260        1365755592.2981820     
   1752692961.1942847        106207050.67225111        1389458609.5800810     
   1728083266.7363393        83769519.857695341        1413647274.9096537     
   1704870006.6513433        65986770.286303163        1438321588.2868993     
   3406219015.1959481        53903230.974806666        1169216663.2309821     
   3288351182.0147362        40066567.829633832        1147651424.7958899     
   3169359191.9395890        22482715.038012385        1130559299.2214191     
   3049243044.9705067        1151672.5999379158        1117940286.5075736     
   2928002741.1074905       -23926559.484580994        1109794386.6543491     
   2985838161.3211155        58411035.281077266        1241098111.4437950     
   2879246098.1376319        40886542.347397089        1217704802.4561450     
   2772131074.9328451        21618849.342704296        1199363087.4803953     
   2664493091.7067528        607956.26699590683        1186072966.5165484     
   2556332148.4593544       -22146136.879733562        1177834439.5645998     
   2562153041.9387369        61927559.935082197        1309909415.0240529     
   2468489552.0423498        41211078.199712038        1285389431.8352449     
   2374904298.9972882        20755385.968755841        1266499523.8096180     
   2281397282.8035488        560483.24221217632        1253239690.9471693     
   2187968503.4611359       -19373629.979913712        1245609933.2479000     
   2135163657.0488129        64452804.936823726        1375650573.9717534     
   2056081543.7288883        41040175.386567354        1350705312.9331908     
   1977678864.1329200        19892324.916161299        1331968608.2090864     
   1899955618.2609026        1009253.5255964994        1319440459.7994375     
   1822911806.1128438       -15609038.785111070        1313120867.7042484     
   1704870006.6513433        65986770.286303163        1438321588.2868993     
   1642022073.1972497        40373833.907975972        1413652445.7499824     
   1580454770.3397388        19029666.184925437        1395770340.6788013     
   1520168098.0788107        1954267.1171508431        1384675273.0733578     
   1461162056.4144678       -10852363.295340240        1380367242.9336469     
   2928002741.1074905       -23926559.484580994        1109794386.6543491     
   2890432557.3963747       -21791778.186546087        1132302239.8692079     
   2855379043.1090760       -11268098.809122562        1157925410.8964951     
   2822842198.2455940        7644478.6476907730        1186663899.7362144     
   2792822022.8059254        34945954.183882475        1218517706.3883624     
   2556332148.4593544       -22146136.879733562        1177834439.5645998     
   2526473328.1147685       -18934910.183480859        1203951028.7128215     
   2498769126.8939962       -8541619.7411814928        1232635707.5463536     
   2473219544.7970395        9033734.4471641779        1263888476.0651970     
   2449824581.8238959        33791152.381555676        1297709334.2693515     
   2187968503.4611359       -19373629.979913712        1245609933.2479000     
   2164257537.5484557       -15555010.565828800        1274912866.3128135     
   2142339140.4595866       -5761161.7390397787        1306236660.9359221     
   2122213312.1945288        10007916.500455379        1339581317.1172202     
   2103880052.7532816        31752224.152651906        1374946834.8567147     
   1822911806.1128438       -15609038.785111070        1313120867.7042484     
   1803785185.6974394       -11652079.333588839        1345187752.6691875     
   1786089083.8058457       -2926724.8026989698        1378728271.0652008     
   1769823500.4380615        10567024.807555795        1413742422.8922887     
   1754988435.5940866        28829169.497169614        1450230208.1504474     
   1461162056.4144678       -10852363.295340240        1380367242.9336469     
   1445056272.5617182       -7226116.4867569804        1414775687.7819414     
   1430018956.9327743       -38308.932157337666        1450110537.9341910     
   1416050109.5276384        10711059.368472695        1486371793.3903964     
   1403149730.3463085        25021988.415119052        1523559454.1505530     
   2792822022.8059254        34945954.183882475        1218517706.3883624     
   2665767067.4306722        37216212.708890438        1198928808.3087971     
   2538885036.2378526        40062885.175346613        1185268921.0269029     
   2412175929.2274766        43485971.583278894        1177538044.5426700     
   2285639746.3995318        47485471.932650805        1175736178.8560972     
   2449824581.8238959        33791152.381555676        1297709334.2693515     
   2338134275.1955829        35533500.325833559        1277310323.1636257     
   2226579591.0520940        37727923.219527841        1262923087.3534317     
   2115160529.3934309        40374421.062641621        1254547626.8387792     
   2003877090.2195933        43472993.855173707        1252183941.6196580     
   2103880052.7532816        31752224.152651906        1374946834.8567147     
   2007790864.8658285        33037602.514375687        1353694192.0776083     
   1911799997.7655873        34650716.833475232        1338536089.0919116     
   1815907451.4525645        36591567.109971642        1329472525.8996217     
   1720113225.9267542        38860153.343836546        1326503502.5007384     
   1754988435.5940866        28829169.497169614        1450230208.1504474     
   1674736836.4414093        29728519.274515867        1428080415.0507507     
   1594546256.3783355        30831266.017203867        1412107926.2423353     
   1514416695.4048684        32137409.725242615        1402312741.7251952     
   1434348153.5209994        33646950.398618042        1398694861.4993348     
   1403149730.3463085        25021988.415119052        1523559454.1505530     
   1338972189.9223294        25606250.606264412        1500468992.0830526     
   1274818366.8903408        26269570.770712197        1483638598.8047051     
   1210688261.2503476        27011948.908475220        1473068274.3155026     
   1146581873.0023432        27833385.019535720        1468758018.6154540     
   2285639746.3995318        47485471.932650805        1175736178.8560972     
   2070987219.3653727        15425294.336434841        1083989196.9898694     
   1849815762.8628039       -38364648.154476285        999354113.47216618     
   1622125376.8918319       -113884355.54007280        921830928.30298889     
   1387916061.4524496       -211133827.82036370        851419641.48233247     
   2003877090.2195933        43472993.855173707        1252183941.6196580     
   1809679921.3258977        13254093.957327127        1153150363.1528723     
   1609780083.5026975       -35973702.372204304        1062314866.9767587     
   1404177576.7499924       -104210395.13341159        979677453.09131551     
   1192872401.0677917       -191455984.32628268        905238121.49654150     
   1720113225.9267542        38860153.343836546        1326503502.5007384     
   1549474797.8653679        11413545.951900423        1221135631.3954513     
   1373949961.4133830       -32321089.408694029        1125052026.5229812     
   1193538716.5707989       -92343752.737953186        1038252687.8833284     
   1008241063.3376213       -168654444.03585875        960737615.47649813     
   1434348153.5209994        33646950.398618042        1398694861.4993348     
   1290371848.9837754        9903650.3201545477        1287945001.7176006     
   1142325396.5948617       -27406809.263939500        1187565592.1108325     
   990208796.35424781       -78284428.353700459        1097556632.6790316     
   834022048.26194823       -142729206.94908404        1017918123.4221922     
   1146581873.0023432        27833385.019535720        1468758018.6154540     
   1032371074.6811283        8724407.0620923042        1353578474.1193295     
   914906389.04712856       -21230861.937965214        1249855563.7403154     
   794187816.10033917       -62032421.980659217        1157589287.4784172     
   670215355.84076595       -113680273.06596532        1076779645.3336360     
   1387916061.4524496       -211133827.82036370        851419641.48233247     
   1710986347.5557840       -121943977.01895332        1158688389.5590470     
   2053271459.3597684        31295292.784624577        1458192886.9950035     
   2414771396.8644028        248583981.59035522        1749933133.7901912     
   2795486160.0696721        529922089.39823526        2033909129.9446247     
   1192872401.0677917       -191455984.32628268        905238121.49654150     
   1490391278.1389246       -108177199.04422277        1236181049.6026843     
   1805399961.7102928        33400941.238619924        1556597390.3677447     
   2137898451.7819061        233278436.52227354        1866487143.7917194     
   2487886748.3537378        491455286.80667388        2165850309.8746061     
   1008241063.3376213       -168654444.03585875        960737615.47649813     
   1272316140.8042076       -93654441.444851160        1313342201.2115810     
   1552156005.5706158        33894852.145567179        1652657862.9052653     
   1847760657.6368463        213993436.73540241        1978684600.5575435     
   2159130097.0029087        446641312.32465082        2291422414.1684122     
   834022048.26194823       -142729206.94908404        1017918123.4221922     
   1056760935.5516322       -78375704.220839500        1390171844.3857455     
   1293539590.9407337        32777025.505453408        1746374304.6075723     
   1544358014.4292474        190728982.22978640        2086525504.0876720     
   1809216206.0171685        395480165.95215106        2410625442.8260431     
   670215355.84076595       -113680273.06596532        1076779645.3336360     
   843725662.38120520       -62340987.372183383        1466669979.1251709     
   1029550717.8206441        30047461.318261623        1837746715.4746594     
   1227690522.1590881        163485073.00539157        2190009854.3821025     
   1438145075.3965323        337971847.68918258        2523459395.8474946     
   1755533290.5041628        526659987.15124887        679357873.15227401     
   1783782604.3408091        499983198.08665019        806363707.89614606     
   1809126101.4141364        463620353.14432073        926223303.20603526     
   1831563781.7241442        417571452.32426059        1038936659.0819412     
   1851095645.2708328        361836495.62646914        1144503775.5238645     
   1326031077.8284981        397809323.34854943        669011190.72260332     
   1339374270.7149572        375448593.80338508        791776854.32225633     
   1350538101.0290821        345823322.35044152        909226496.73587894     
   1359522568.7708733        308933508.98971874        1021360117.9634702     
   1366327673.9403312        264779153.72121757        1128177718.0050309     
   890274791.85074604        267082437.55522379        661620703.27299500     
   893941058.78116584        250606526.02773821        780993725.61791265     
   896154417.33023775        229287586.56242546        896880945.02475119     
   896914867.49796152        203125619.15928555        1009282361.4935112     
   896222409.28433704        172120623.81831843        1118197975.0241919     
   448264432.57090646        134479329.77127194        657186410.80344927     
   447482968.53943628        125456994.75970973        774014321.78311419     
   445975050.31760347        114013145.78027228        889186648.07265234     
   443740677.90540808        100147782.83295938        1002703389.6720638     
   440779851.30285007        83860905.917771220        1114564546.5813487     
  -1.1020602928403954E-002  -3.3061808785211861E-003   655708313.31396604     
  -1.0232234016127119E-002  -7.0031549240997300E-004   770838642.81786156     
  -8.8209602168386227E-003   3.9821597255948315E-003   886143605.87958229     
  -6.7867843899727725E-003   1.0740931667437264E-002   1001623202.4991286     
  -4.1294749213511761E-003   1.9576642276117905E-002   1117277432.6765001     
   1851095645.2708328        361836495.62646914        1144503775.5238645     
   1834857905.6061609        296008180.21350169        1190404558.5927672     
   1821946327.0443017        241267068.47657615        1238710560.8724165     
   1812360909.5852556        197613160.41569358        1289421782.3628142     
   1806101653.2290220        165046456.03085423        1342538223.0639575     
   1366327673.9403312        264779153.72121757        1128177718.0050309     
   1360026780.1979480        217171140.46462530        1181920206.5844467     
   1356220507.2820485        177878529.96297932        1236696518.4726350     
   1354908855.1926332        146901322.21628064        1292506653.6695964     
   1356091823.9297023        124239517.22452879        1349350612.1753302     
   896222409.28433704        172120623.81831843        1118197975.0241919     
   895940087.45860028        141557430.51640806        1178812038.7917378     
   897320846.18301916        116537839.04834872        1239088529.9660814     
   900364685.45759332        97061849.414140671        1299027448.5472229     
   905071605.28232288        83129461.613783985        1358628794.5351636     
   440779851.30285007        83860905.917771220        1114564546.5813487     
   442597827.38811892        69167050.368851364        1181080055.2146404     
   445247343.74721408        57244995.732686490        1245886595.3527560     
   448728400.38013577        48094742.009276196        1308984166.9956958     
   453040997.28688389        41716289.198621139        1370372770.1434579     
  -4.1294749213511761E-003   1.9576642276117905E-002   1117277432.6765001     
  -1.3497467795457116E-002   2.1952980870882981E-002   1188724255.8531544     
  -2.5367175450409583E-002   1.5990356932333423E-002   1257090714.6326580     
  -3.9739436057888079E-002   1.6856729782626038E-003   1322376809.0150106     
  -5.6613482217212054E-002  -2.0957949203931289E-002   1384582539.0002127     
   1806101653.2290220        165046456.03085423        1342538223.0639575     
   1778699090.0251794        133299362.72997260        1365755592.2981820     
   1752692961.1942847        106207050.67225111        1389458609.5800810     
   1728083266.7363393        83769519.857695341        1413647274.9096537     
   1704870006.6513433        65986770.286303163        1438321588.2868993     
   1356091823.9297023        124239517.22452879        1349350612.1753302     
   1332896832.3986080        99636276.506822109        1373948229.9609947     
   1310749166.6483889        78524121.725367606        1399648211.9280593     
   1289648826.6790462        60903052.880167782        1426450558.0765224     
   1269595812.4905787        46773069.971216559        1454355268.4063854     
   905071605.28232288        83129461.613783985        1358628794.5351636     
   887846231.52033651        66198687.308163553        1384199367.5148485     
   871319074.94715309        51595303.631883740        1411489020.8096595     
   855490135.56277120        39319310.584944069        1440497754.4195957     
   840359413.36719155        29370708.167344838        1471225568.3446577     
   453040997.28688389        41716289.198621139        1370372770.1434579     
   443547287.39036620        32986595.133995950        1396509004.9597442     
   434402686.09057623        25420596.391797081        1424981036.2248828     
   425607193.38751596        19018292.972030476        1455788863.9388721     
   417160809.28118193        13779684.874684706        1488932488.1017120     
  -5.6613482217212054E-002  -2.0957949203931289E-002   1384582539.0002127     
   8.6947161924467962E-003  -1.5684660530075625E-002   1410877142.2956817     
   7.8658508278246178E-002   5.1074472032627445E-003   1440124258.1737282     
  0.15327724494859976        4.1415603204246088E-002   1472323886.6343522     
  0.23255083756104419        9.3240639568256040E-002   1507476027.6775525     
   1704870006.6513433        65986770.286303163        1438321588.2868993     
   1642022073.1972497        40373833.907975972        1413652445.7499824     
   1580454770.3397388        19029666.184925437        1395770340.6788013     
   1520168098.0788107        1954267.1171508431        1384675273.0733578     
   1461162056.4144678       -10852363.295340240        1380367242.9336469     
   1269595812.4905787        46773069.971216559        1454355268.4063854     
   1225637294.4869468        28516597.327749670        1432735964.1195817     
   1182639249.4343286        13461701.187660336        1417162296.4670458     
   1140601677.3327217        1608381.5509407520        1407634265.4487753     
   1099524578.1821282       -7043361.5823982358        1404151871.0647736     
   840359413.36719155        29370708.167344838        1471225568.3446577     
   813172022.72411287        17835212.831765652        1452282585.0547998     
   786624947.38647664        8434101.8476610482        1438643837.5677404     
   760718187.35428119        1167375.2150268853        1430309325.8834815     
   735451742.62752867       -3964967.0661326945        1427279050.0020206     
   417160809.28118193        13779684.874684706        1488932488.1017120     
   404626257.90874636        8329680.4200218618        1472292308.5556350     
   392411864.19618237        3946868.1649307311        1460214963.9808888     
   380517628.14348757        631248.10940295458        1452700454.3774731     
   368943549.75066537       -1617179.7465478778        1449748779.7453854     
  0.23255083756104419        9.3240639568256040E-002   1507476027.6775525     
   4.0847773881307163E-002   9.2518460841180164E-002   1492765134.6220891     
 -0.13655377195298890       0.13946766132087896        1481875675.7064874     
 -0.29965533831749797       0.23408293961615831        1474807650.9307480     
 -0.44845921847852954       0.37635855970181020        1471561060.2948720     
   1461162056.4144678       -10852363.295340240        1380367242.9336469     
   1445056272.5617182       -7226116.4867569804        1414775687.7819414     
   1430018956.9327743       -38308.932157337666        1450110537.9341910     
   1416050109.5276384        10711059.368472695        1486371793.3903964     
   1403149730.3463085        25021988.415119052        1523559454.1505530     
   1099524578.1821282       -7043361.5823982358        1404151871.0647736     
   1085887745.1584773       -4790924.9753593206        1438980376.5548837     
   1073052263.2952124        132682.16630297899        1475098702.8099320     
   1061018132.5923381        7727459.8426031470        1512506849.8299186     
   1049785353.0498528        17993408.053527534        1551204817.6148438     
   735451742.62752867       -3964967.0661326945        1427279050.0020206     
   725322190.32149982       -2774841.6940825880        1462215979.5599570     
   715726872.11244142        196064.00120219588        1498806145.3438165     
   706665788.00035536        4947750.0197288990        1537049547.3535969     
   698138937.98523998        11480216.361490399        1576946185.5893013     
   368943549.75066537       -1617179.7465478778        1449748779.7453854     
   363359608.05078721       -1177866.6429239213        1484482496.7971623     
   358042783.38446212        151836.57254314423        1521232865.5358458     
   352993075.75169021        2371929.8998549432        1559999885.9614365     
   348210485.15247250        5482413.3390127271        1600783558.0739329     
 -0.44845921847852954       0.37635855970181020        1471561060.2948720     
  -1.6536617313584705       0.17811050253716387        1505779928.2665002     
  -2.8887300518675905      -0.11969024672474637        1542378863.3860195     
  -4.1536599137299124      -0.51702877327460617        1581357865.6534297     
  -5.4484561551082740       -1.0139232859900444        1622716935.0687323     
   1403149730.3463085        25021988.415119052        1523559454.1505530     
   1338972189.9223294        25606250.606264412        1500468992.0830526     
   1274818366.8903408        26269570.770712197        1483638598.8047051     
   1210688261.2503476        27011948.908475220        1473068274.3155026     
   1146581873.0023432        27833385.019535720        1468758018.6154540     
   1049785353.0498528        17993408.053527534        1551204817.6148438     
   1001807121.4930691        18478081.776085973        1528721779.4271462     
   953846677.97321916        19022048.955091298        1512462661.2255051     
   905904022.49028504        19625309.590480626        1502427463.0099256     
   857979155.04428756        20287863.682326049        1498616184.7804022     
   698138937.98523998        11480216.361490399        1576946185.5893013     
   666256733.00111043        11834316.927113026        1555063653.7004962     
   634386386.69884205        12227946.432274252        1539368892.9946587     
   602527899.07843268        12661104.876965910        1529861903.4717879     
   570681270.13988817        13133792.261204928        1526542685.1318836     
   348210485.15247250        5482413.3390127271        1600783558.0739329     
   332321024.44644535        5674956.0593206435        1579494614.9031076     
   316437493.06721610        5887263.2022873312        1564357294.1121631     
   300559891.01478386        6119334.7679121345        1555371595.7010934     
   284688218.28914410        6371170.7561762482        1552537519.6699002     
  -5.4484561551082740       -1.0139232859900444        1622716935.0687323     
  -4.1709224444205253      -0.82728089488727341        1602014663.0349832     
  -2.9216560032102907      -0.73486342926560666        1587427864.5780194     
  -1.7006645748256572      -0.73669652681298770        1578956539.6978405     
 -0.50793572644628437      -0.83273648965442748        1576600688.3944492     
   1146581873.0023432        27833385.019535720        1468758018.6154540     
   1032371074.6811283        8724407.0620923042        1353578474.1193295     
   914906389.04712856       -21230861.937965214        1249855563.7403154     
   794187816.10033917       -62032421.980659217        1157589287.4784172     
   670215355.84076595       -113680273.06596532        1076779645.3336360     
   857979155.04428756        20287863.682326049        1498616184.7804022     
   774519728.81676590        6615731.8505978286        1380315143.5127945     
   688619887.10895646       -15191118.248757064        1272957712.9403641     
   600279629.92086089       -45132686.615731984        1176543893.0631096     
   509498957.25247413       -83208973.250341684        1091073683.8810344     
   570681270.13988817        13133792.261204928        1526542685.1318836     
   516507434.80052757        4458772.1935355365        1406069197.5640435     
   460706655.81337911       -9639393.3667604625        1296026297.2694447     
   403278933.17843890       -29160704.419694602        1196413984.2480855     
   344224266.89571261       -54105160.965250641        1107232258.4999664     
   284688218.28914410        6371170.7561762482        1552537519.6699002     
   258334192.63241616        2253528.0909171551        1430840636.2730725     
   231166695.16039193       -4575687.2919951379        1319061316.7275531     
   203185725.87308064       -14116475.392531425        1217199561.0333357     
   174391284.77047738       -26368836.210709192        1125255369.1904247     
 -0.50793572644628437      -0.83273648965442748        1576600688.3944492     
   2.3124274473284889      -0.45727272700957955        1454629459.6398857     
   5.1500010757763839       -2.4440088231602708E-002   1342062771.3146923     
   8.0047783191305530       0.46573793356728599        1238900623.4188693     
   10.876771278516955        1.0133009815842362        1145143015.9524121     
   670215355.84076595       -113680273.06596532        1076779645.3336360     
   843725662.38120520       -62340987.372183383        1466669979.1251709     
   1029550717.8206441        30047461.318261623        1837746715.4746594     
   1227690522.1590881        163485073.00539157        2190009854.3821025     
   1438145075.3965323        337971847.68918258        2523459395.8474946     
   509498957.25247413       -83208973.250341684        1091073683.8810344     
   631894141.03380585       -47025773.291639149        1492842635.5322168     
   763525386.22403491        19944298.030058086        1877603417.6726949     
   904392692.82316029        117701240.71474618        2245356030.3024597     
   1054496060.8311836        246245054.76241997        2596100473.4215107     
   344224266.89571261       -54105160.965250641        1107232258.4999664     
   420662693.43604571       -31530537.086199909        1517288025.9390087     
   503258493.89517331        11568666.522165090        1912141051.7986834     
   592011668.27309871        75192449.859855518        2291791336.0789862     
   686922216.56981742        159340812.92685887        2656238878.7799153     
   174391284.77047738       -26368836.210709192        1125255369.1904247     
   210031319.58792934       -15855278.755862534        1540006150.3455393     
   248750040.83406752        4920566.7946057022        1941359617.8526249     
   290547448.50889736        35958700.440715492        2329315771.7116814     
   335423542.61242789        77259122.182490662        2703874611.9226995     
   10.876771278516955        1.0133009815842362        1145143015.9524121     
   19.489449980609677        1.6993626286374353        1560997008.7518137     
   27.040710558979328       -1.1526382183877750        1965259115.8345215     
   33.530568019937121       -7.5426435587260325        2357929337.2005382     
   38.959015317836929       -17.470691102596902        2739007672.8498673     
  -1.1020602928403954E-002  -3.3061808785211861E-003   655708313.31396604     
  -1.0232234016127119E-002  -7.0031549240997300E-004   770838642.81786156     
  -8.8209602168386227E-003   3.9821597255948315E-003   886143605.87958229     
  -6.7867843899727725E-003   1.0740931667437264E-002   1001623202.4991286     
  -4.1294749213511761E-003   1.9576642276117905E-002   1117277432.6765001     
  -448264432.59320790       -134479329.77796236        657186410.80519485     
  -447482968.55934495       -125456994.75831507        774014321.78582489     
  -445975050.33436823       -114013145.76828860        889186648.07629299     
  -443740677.91827786       -100147782.80788344        1002703389.6765989     
  -440779851.31107408       -83860905.877099276        1114564546.5867426     
  -890274791.87382817       -267082437.56214845        661620703.27778602     
  -893941058.80114007       -250606526.02373442        780993725.62405622     
  -896154417.34684777       -229287586.54663903        896880945.03217733     
  -896914867.51095116       -203125619.13086241        1009282361.5021486     
  -896222409.29344988       -172120623.77640441        1118197975.0339708     
  -1326031077.8528814       -397809323.35586441        669011190.73173916     
  -1339374270.7356181       -375448593.79695874        791776854.33255589     
  -1350538101.0462601       -345823322.33106929        909226496.74723542     
  -1359522568.7848063       -308933508.95819592        1021360117.9757783     
  -1366327673.9512575       -264779153.67833930        1128177718.0181842     
  -1755533290.5303676       -526659987.15911031        679357873.16705453     
  -1783782604.3627787       -499983198.07798773        806363707.91132319     
  -1809126101.4326038       -463620353.12157887        926223303.22146738     
  -1831563781.7398431       -417571452.28988397        1038936659.0974873     
  -1851095645.2844965       -361836495.58290315        1144503775.5393834     
  -4.1294749213511761E-003   1.9576642276117905E-002   1117277432.6765001     
  -1.3497467795457116E-002   2.1952980870882981E-002   1188724255.8531544     
  -2.5367175450409583E-002   1.5990356932333423E-002   1257090714.6326580     
  -3.9739436057888079E-002   1.6856729782626038E-003   1322376809.0150106     
  -5.6613482217212054E-002  -2.0957949203931289E-002   1384582539.0002127     
  -440779851.31107408       -83860905.877099276        1114564546.5867426     
  -442597827.41603309       -69167050.323892131        1181080055.2144990     
  -445247343.79821235       -57244995.694752157        1245886595.3464515     
  -448728400.45761162       -48094741.989678442        1308984166.9826021     
  -453040997.39423066       -41716289.208671749        1370372770.1229486     
  -896222409.29344988       -172120623.77640441        1118197975.0339708     
  -895940087.49014950       -141557430.47121251        1178812038.7923238     
  -897320846.23878682       -116537839.00581303        1239088529.9562223     
  -900364685.53936183       -97061849.380206615        1299027448.5256655     
  -905071605.39187527       -83129461.594393522        1358628794.5006535     
  -1366327673.9512575       -264779153.67833930        1128177718.0181842     
  -1360026780.2358468       -217171140.42000726        1181920206.5866311     
  -1356220507.3470912       -177878529.91719365        1236696518.4619708     
  -1354908855.2849910       -146901322.16989893        1292506653.6442029     
  -1356091824.0495472       -124239517.17812407        1349350612.1333272     
  -1851095645.2844965       -361836495.58290315        1144503775.5393834     
  -1834857905.6531241       -296008180.17027539        1190404558.5974195     
  -1821946327.1231244       -241267068.42889214        1238710560.8636961     
  -1812360909.6944985       -197613160.35875386        1289421782.3382127     
  -1806101653.3672459       -165046455.95986098        1342538223.0209706     
  -5.6613482217212054E-002  -2.0957949203931289E-002   1384582539.0002127     
   8.6947161924467962E-003  -1.5684660530075625E-002   1410877142.2956817     
   7.8658508278246178E-002   5.1074472032627445E-003   1440124258.1737282     
  0.15327724494859976        4.1415603204246088E-002   1472323886.6343522     
  0.23255083756104419        9.3240639568256040E-002   1507476027.6775525     
  -453040997.39423066       -41716289.208671749        1370372770.1229486     
  -443547287.36781138       -32986595.121752352        1396509004.9437273     
  -434402685.93208301       -25420596.337137446        1424981036.2100973     
  -425607193.08704597       -19018292.854825854        1455788863.9220564     
  -417160808.83269978       -13779684.674817309        1488932488.0796065     
  -905071605.39187527       -83129461.594393522        1358628794.5006535     
  -887846231.51002097       -66198687.257532686        1384199367.4855046     
  -871319074.81420398       -51595303.540796191        1411489020.7789595     
  -855490135.30442321       -39319310.444181830        1440497754.3810186     
  -840359412.98068094       -29370707.967693180        1471225568.2916822     
  -1356091824.0495472       -124239517.17812407        1349350612.1333272     
  -1332896832.4179332       -99636276.423022032        1373948229.9210134     
  -1310749166.5677025       -78524121.605866075        1399648211.8803179     
  -1289648826.4988565       -60903052.726657212        1426450558.0112388     
  -1269595812.2113929       -46773069.785390615        1454355268.3137770     
  -1806101653.3672459       -165046455.95986098        1342538223.0209706     
  -1778699090.0915487       -133299362.61822289        1365755592.2502549     
  -1752692961.1925817       -106207050.53235412        1389458609.5141699     
  -1728083266.6703424       -83769519.702244103        1413647274.8127158     
  -1704870006.5248344       -65986770.127903402        1438321588.1458929     
  0.23255083756104419        9.3240639568256040E-002   1507476027.6775525     
   4.0847773881307163E-002   9.2518460841180164E-002   1492765134.6220891     
 -0.13655377195298890       0.13946766132087896        1481875675.7064874     
 -0.29965533831749797       0.23408293961615831        1474807650.9307480     
 -0.44845921847852954       0.37635855970181020        1471561060.2948720     
  -417160808.83269978       -13779684.674817309        1488932488.0796065     
  -404626257.84921539       -8329680.2584271133        1472292308.5483744     
  -392411864.50517118       -3946867.9735034108        1460214963.9927073     
  -380517628.80056435       -631247.82003816962        1452700454.4126029     
  -368943550.73539746        1617180.2019609809        1449748779.8080609     
  -840359412.98068094       -29370707.967693180        1471225568.2916822     
  -813172022.72000670       -17835212.703597814        1452282585.0219870     
  -786624947.75250947       -8434101.7500939965        1438643837.5635569     
  -760718188.07818782       -1167375.1071735919        1430309325.9163926     
  -735451743.69704318        3964967.2251553237        1427279050.0804949     
  -1269595812.2113929       -46773069.785390615        1454355268.3137770     
  -1225637294.5715234       -28516597.242989480        1432735964.0429239     
  -1182639249.8785682       -13461701.190299809        1417162296.4190378     
  -1140601678.1325278       -1608381.6273272634        1407634265.4421208     
  -1099524579.3333995        7043361.4459360242        1404151871.1121707     
  -1704870006.5248344       -65986770.127903402        1438321588.1458929     
  -1642022073.4037631       -40373833.876587927        1413652445.6111877     
  -1580454770.8833451       -19029666.294118702        1395770340.5591519     
  -1520168098.9635782       -1954267.3804857135        1384675272.9897854     
  -1461162057.6444659        10852362.864300370        1380367242.9030888     
 -0.44845921847852954       0.37635855970181020        1471561060.2948720     
  -1.6536617313584705       0.17811050253716387        1505779928.2665002     
  -2.8887300518675905      -0.11969024672474637        1542378863.3860195     
  -4.1536599137299124      -0.51702877327460617        1581357865.6534297     
  -5.4484561551082740       -1.0139232859900444        1622716935.0687323     
  -368943550.73539746        1617180.2019609809        1449748779.8080609     
  -363359611.46278620        1177866.6059982926        1484482496.8077462     
  -358042789.26295620       -151837.23256616294        1521232865.5034854     
  -352993084.13590747       -2371931.3137360364        1559999885.8952780     
  -348210496.08163935       -5482415.6375077218        1600783557.9831221     
  -735451743.69704318        3964967.2251553237        1427279050.0804949     
  -725322193.80901265        2774841.2727596760        1462215979.5581665     
  -715726878.03667998       -196065.06529614329        1498806145.2800539     
  -706665796.38004422       -4947751.7890083194        1537049547.2461581     
  -698138948.83910704       -11480218.898382485        1576946185.4564764     
  -1099524579.3333995        7043361.4459360242        1404151871.1121707     
  -1085887748.6923423        4790924.1783880591        1438980376.5177596     
  -1073052269.2099004       -132683.61787772179        1475098702.7157276     
  -1061018140.8860706       -7727461.9428500533        1512506849.7060728     
  -1049785363.7208568       -17993410.796541154        1551204817.4887969     
  -1461162057.6444659        10852362.864300370        1380367242.9030888     
  -1445056276.1127748        7226115.3228846192        1414775687.6865268     
  -1430018962.7826154        38307.109699010849        1450110537.8105047     
  -1416050117.6539881       -10711061.775259912        1486371793.2750220     
  -1403149740.7268903       -25021991.331984699        1523559454.0800798     
  -5.4484561551082740       -1.0139232859900444        1622716935.0687323     
  -4.1709224444205253      -0.82728089488727341        1602014663.0349832     
  -2.9216560032102907      -0.73486342926560666        1587427864.5780194     
  -1.7006645748256572      -0.73669652681298770        1578956539.6978405     
 -0.50793572644628437      -0.83273648965442748        1576600688.3944492     
  -348210496.08163935       -5482415.6375077218        1600783557.9831221     
  -332321032.80272830       -5674957.8604583889        1579494614.7733939     
  -316437498.91251093       -5887264.7123882771        1564357293.9286153     
  -300559894.41099221       -6119336.1933142692        1555371595.4487863     
  -284688219.29816526       -6371172.3032114208        1552537519.3339064     
  -698138948.83910704       -11480218.898382485        1576946185.4564764     
  -666256741.30692065       -11834318.855356008        1555063653.4836061     
  -634386392.52385485       -12227947.976063132        1539368892.6638479     
  -602527902.48990881       -12661106.260505378        1529861902.9972043     
  -570681271.20508575       -13133793.708690256        1526542684.4836724     
  -1049785363.7208568       -17993410.796541154        1551204817.4887969     
  -1001807129.6835009       -18478083.811977863        1528721779.1656191     
  -953846683.75568652       -19022050.525884330        1512462660.7837195     
  -905904025.93741941       -19625310.938282967        1502427462.3430955     
  -857979156.22870183       -20287865.049181134        1498616183.8437519     
  -1403149740.7268903       -25021991.331984699        1523559454.0800798     
  -1338972197.9324610       -25606252.730292141        1500468991.8194339     
  -1274818372.6080046       -26269572.361848116        1483638598.2882278     
  -1210688264.7535157       -27011950.226628006        1473068273.4864650     
  -1146581874.3690073       -27833386.324672282        1468758017.4141431     
 -0.50793572644628437      -0.83273648965442748        1576600688.3944492     
   2.3124274473284889      -0.45727272700957955        1454629459.6398857     
   5.1500010757763839       -2.4440088231602708E-002   1342062771.3146923     
   8.0047783191305530       0.46573793356728599        1238900623.4188693     
   10.876771278516955        1.0133009815842362        1145143015.9524121     
  -284688219.29816526       -6371172.3032114208        1552537519.3339064     
  -258334187.95398682       -2253528.7923337370        1430840635.9694641     
  -231166684.74767351        4575687.5923250467        1319061316.4704180     
  -203185709.67922661        14116476.850763321        1217199560.8367672     
  -174391262.74864632        26368838.982978106        1125255369.0685072     
  -570681271.20508575       -13133793.708690256        1526542684.4836724     
  -516507430.09129858       -4458772.6886498332        1406069196.9950957     
  -460706645.27045393        9639394.0215780139        1296026296.8079402     
  -403278916.74255437        29160706.421988428        1196413983.9222052     
  -344224244.50759721        54105164.512593597        1107232258.3378904     
  -857979156.22870183       -20287865.049181134        1498616183.8437519     
  -774519724.09951663       -6615732.1462516189        1380315142.7167830     
  -688619876.41834784        15191119.263293803        1272957712.3272610     
  -600279613.18520474        45132689.179418474        1176543892.6751859     
  -509498934.40007830        83208977.602154166        1091073683.7605596     
  -1146581874.3690073       -27833386.324672282        1468758017.4141431     
  -1032371069.9786340       -8724407.1651080847        1353578473.1345248     
  -914906378.19135618        21230863.317467749        1249855563.0283811     
  -794187799.00717795        62032425.123048097        1157589287.0957122     
  -670215332.42609262        113680278.25164813        1076779645.3365171     
   10.876771278516955        1.0133009815842362        1145143015.9524121     
   19.489449980609677        1.6993626286374353        1560997008.7518137     
   27.040710558979328       -1.1526382183877750        1965259115.8345215     
   33.530568019937121       -7.5426435587260325        2357929337.2005382     
   38.959015317836929       -17.470691102596902        2739007672.8498673     
  -174391262.74864632        26368838.982978106        1125255369.0685072     
  -210031280.23579451        15855284.339833125        1540006148.1153746     
  -248749985.48619306       -4920562.8474775702        1941359613.2627268     
  -290547378.49984145       -35958702.578955106        2329315764.5105739     
  -335423459.27674317       -77259134.854616761        2703874601.8588934     
  -344224244.50759721        54105164.512593597        1107232258.3378904     
  -420662654.33120185        31530544.669273108        1517288022.4800782     
  -503258438.61990201       -11568656.724368930        1912141044.5399263     
  -592011597.37369382       -75192439.668311313        2291791324.5174379     
  -686922130.59257793       -159340804.16256532        2656238862.4126196     
  -509498934.40007830        83208977.602154166        1091073683.7605596     
  -631894102.79678082        47025782.687642455        1492842631.8459148     
  -763525332.36041510       -19944282.783306360        1877603409.6661110     
  -904392623.09098375       -117701218.81069621        2245356017.2211490     
  -1054495974.9884838       -246245025.39453518        2596100454.5110340     
  -670215332.42609262        113680278.25164813        1076779645.3365171     
  -843725625.63252151        62340998.394986570        1466669976.2128942     
  -1029550666.7077274       -30047441.024268508        1837746708.6412930     
  -1227690455.6517069       -163485040.00610235        2190009842.6217055     
  -1438144992.4644649       -337971798.55052763        2523459378.1541400     
  -1755533290.5303676       -526659987.15911031        679357873.16705453     
  -1783782604.3627787       -499983198.07798773        806363707.91132319     
  -1809126101.4326038       -463620353.12157887        926223303.22146738     
  -1831563781.7398431       -417571452.28988397        1038936659.0974873     
  -1851095645.2844965       -361836495.58290315        1144503775.5393834     
  -2201048321.4630995       -660314496.43892992        695755732.10456944     
  -2238006207.9463849       -613798242.66773880        813750648.00799167     
  -2272933865.1667986       -560514558.02030706        927614563.30100322     
  -2305831293.1243401       -500463442.49663448        1037347477.9836041     
  -2336698491.8190079       -433644896.09671992        1142949392.0557950     
  -2684843062.2078900       -805452918.66236699        721299749.06512165     
  -2721894553.2742968       -736512709.78078163        829262227.37803149     
  -2757791402.5775452       -663723695.02200055        936108943.90424442     
  -2792533610.1176357       -587085874.38602424        1041839898.6437608     
  -2826121175.8945656       -506599247.87285137        1146455091.5965798     
  -3206917512.7647386       -962075253.82942152        755989924.04871047     
  -3235447640.3465137       -868126599.41711593        852898446.02144241     
  -3263698713.6648436       -773247764.12665963        951706445.03119123     
  -3291670732.7197289       -677438747.95805311        1052413921.0779566     
  -3319363697.5111694       -580699550.91129637        1155020874.1617386     
  -3767271673.1336451       -1130181501.9400935        799826257.05533671     
  -3778665469.1630359       -1008639911.5767415        884659303.93822479     
  -3790655798.4286942       -889086765.33428431        974407066.68184328     
  -3803242660.9306211       -771522063.21272206        1069069545.2861921     
  -3816426056.6688170       -655945805.21205437        1168646739.7512710     
  -1851095645.2844965       -361836495.58290315        1144503775.5393834     
  -1834857905.6531241       -296008180.17027539        1190404558.5974195     
  -1821946327.1231244       -241267068.42889214        1238710560.8636961     
  -1812360909.6944985       -197613160.35875386        1289421782.3382127     
  -1806101653.3672459       -165046455.95986098        1342538223.0209706     
  -2336698491.8190079       -433644896.09671992        1142949392.0557950     
  -2311932027.5882277       -352296214.19251001        1182642163.7506433     
  -2290619944.2950482       -282462135.41363388        1222908650.5848920     
  -2272762241.9394689       -224142659.76009315        1263748852.5585408     
  -2258358920.5214887       -177337787.23188436        1305162769.6715899     
  -2826121175.8945656       -506599247.87285137        1146455091.5965798     
  -2798058855.8324938       -411300060.10749292        1179790262.1193092     
  -2773579136.5442486       -327942874.92155707        1211867643.7125986     
  -2752682018.0298305       -256527692.31504786        1242687236.3764474     
  -2735367500.2892394       -197054512.28796136        1272249040.1108556     
  -3319363697.5111694       -580699550.91129637        1155020874.1617386     
  -3293238390.3859196       -473019717.91522408        1181848853.7034178     
  -3270823903.8707242       -377709286.95266318        1205587540.2468166     
  -3252120237.9655828       -294768258.02361846        1226236933.7919340     
  -3237127392.6704969       -224196631.12808919        1243797034.3387716     
  -3816426056.6688170       -655945805.21205437        1168646739.7512710     
  -3797470631.2485070       -537455187.61570358        1188817938.5029681     
  -3782354246.2744761       -431761371.50695336        1204068340.1875448     
  -3771076901.7467279       -338864356.88581097        1214397944.8049991     
  -3763638597.6652608       -258764143.75226939        1219806752.3553340     
  -1806101653.3672459       -165046455.95986098        1342538223.0209706     
  -1778699090.0915487       -133299362.61822289        1365755592.2502549     
  -1752692961.1925817       -106207050.53235412        1389458609.5141699     
  -1728083266.6703424       -83769519.702244103        1413647274.8127158     
  -1704870006.5248344       -65986770.127903402        1438321588.1458929     
  -2258358920.5214887       -177337787.23188436        1305162769.6715899     
  -2223044495.3851700       -134064510.71872175        1318373954.0396979     
  -2190740476.4302912       -100825921.47702777        1334525649.5340705     
  -2161446863.6568513       -77622019.506798506        1353617856.1547081     
  -2135163657.0648522       -64452804.808035612        1375650573.9016109     
  -2735367500.2892394       -197054512.28796136        1272249040.1108556     
  -2685127318.7447724       -140150884.23901248        1273571072.5122924     
  -2639511515.1864562       -98661849.477234960        1280288479.1316271     
  -2598520089.6142902       -72587408.002627611        1292401259.9688604     
  -2562153042.0282760       -61927559.815189242        1309909415.0239937     
  -3237127392.6704969       -224196631.12808919        1243797034.3387716     
  -3164947560.1703548       -151558483.17909777        1231346947.6680396     
  -3099006077.4610748       -99714834.532977700        1226747098.3068404     
  -3039302944.5426574       -68665685.189734936        1229997486.2551732     
  -2985838161.4151015       -58411035.149362683        1241098111.5130408     
  -3763638597.6652608       -258764143.75226939        1219806752.3553340     
  -3662505219.6619210       -168287307.53897941        1191701579.5069387     
  -3569224163.2541509       -103984876.64426219        1173901507.0597093     
  -3483795428.4419560       -65856851.068125963        1166406535.0136471     
  -3406219015.2253327       -53903230.810557961        1169216663.3687510     
  -1704870006.5248344       -65986770.127903402        1438321588.1458929     
  -1642022073.4037631       -40373833.876587927        1413652445.6111877     
  -1580454770.8833451       -19029666.294118702        1395770340.5591519     
  -1520168098.9635782       -1954267.3804857135        1384675272.9897854     
  -1461162057.6444659        10852362.864300370        1380367242.9030888     
  -2135163657.0648522       -64452804.808035612        1375650573.9016109     
  -2056081544.0409858       -41040175.381373405        1350705312.8794007     
  -1977678864.7488620       -19892325.060521245        1331968608.1823606     
  -1899955619.1884820       -1009253.8454763889        1319440459.8104897     
  -1822911807.3598418        15609038.263762355        1313120867.7637892     
  -2562153042.0282760       -61927559.815189242        1309909415.0239937     
  -2468489552.4087553       -41211078.205323696        1285389431.8613403     
  -2374904299.6520696       -20755386.138234258        1266499523.8663578     
  -2281397283.7582150       -560483.61391687393        1253239691.0390451     
  -2187968504.7271914        19373629.367630482        1245609933.3794019     
  -2985838161.4151015       -58411035.149362683        1241098111.5130408     
  -2879246098.5070724       -40886542.348437905        1217704802.5570068     
  -2772131075.5929627       -21618849.527248263        1199363087.6111429     
  -2664493092.6727772       -607956.68580245972        1186072966.6754503     
  -2556332149.7465105        22146136.175910950        1177834439.7499273     
  -3406219015.2253327       -53903230.810557961        1169216663.3687510     
  -3288351182.3359337       -40066567.810714364        1147651424.9663978     
  -3169359192.5715461       -22482715.227575183        1130559299.4167166     
  -3049243045.9321690       -1151673.0611399412        1117940286.7197051     
  -2928002742.4178038        23926558.688594460        1109794386.8753660     
  -1461162057.6444659        10852362.864300370        1380367242.9030888     
  -1445056276.1127748        7226115.3228846192        1414775687.6865268     
  -1430018962.7826154        38307.109699010849        1450110537.8105047     
  -1416050117.6539881       -10711061.775259912        1486371793.2750220     
  -1403149740.7268903       -25021991.331984699        1523559454.0800798     
  -1822911807.3598418        15609038.263762355        1313120867.7637892     
  -1803785189.1788564        11652078.071484327        1345187752.6918924     
  -1786089089.4906595        2926722.9032405615        1378728271.0829582     
  -1769823508.2952600       -10567027.240991950        1413742422.9369864     
  -1754988445.5926547       -28829172.361205935        1450230208.2539799     
  -2187968504.7271914        19373629.367630482        1245609933.3794019     
  -2164257540.9756970        15555009.200866580        1274912866.4456964     
  -2142339146.0082576        5761159.7539159060        1306236661.0973759     
  -2122213319.8248782       -10007918.973233104        1339581317.3344436     
  -2103880062.4255559       -31752226.980566502        1374946835.1568923     
  -2556332149.7465105        22146136.175910950        1177834439.7499273     
  -2526473331.5033021        18934908.711018801        1203951028.9479394     
  -2498769132.3354125        8541617.6617243290        1232635707.8537598     
  -2473219552.2428427       -9033736.9719704390        1263888476.4673874     
  -2449824591.2255964       -33791155.190069556        1297709334.7888284     
  -2928002742.4178038        23926558.688594460        1109794386.8753660     
  -2890432560.7616715        21791776.601932883        1132302240.1986213     
  -2855379048.4721212        11268096.626664877        1157925411.3521080     
  -2822842205.5491567       -7644481.2372232676        1186663900.3358259     
  -2792822031.9927740       -34945956.989713788        1218517707.1497777     
  -1403149740.7268903       -25021991.331984699        1523559454.0800798     
  -1338972197.9324610       -25606252.730292141        1500468991.8194339     
  -1274818372.6080046       -26269572.361848116        1483638598.2882278     
  -1210688264.7535157       -27011950.226628006        1473068273.4864650     
  -1146581874.3690073       -27833386.324672282        1468758017.4141431     
  -1754988445.5926547       -28829172.361205935        1450230208.2539799     
  -1674736844.2070749       -29728521.326996446        1428080414.8557253     
  -1594546261.9883516       -30831267.515637457        1412107925.6983318     
  -1514416698.9364831       -32137410.927130520        1402312740.7818012     
  -1434348155.0514693       -33646951.561472774        1398694860.1061296     
  -2103880062.4255559       -31752226.980566502        1374946835.1568923     
  -2007790872.4162014       -33037604.504052043        1353694191.9746711     
  -1911800003.2705870       -34650718.239999890        1338536088.5447309     
  -1815907454.9887099       -36591568.188404202        1329472524.8670685     
  -1720113227.5705681       -38860154.349265873        1326503500.9416866     
  -2449824591.2255964       -33791155.190069556        1297709334.7888284     
  -2338134282.5598426       -35533502.261463404        1277310323.1762731     
  -2226579596.4547067       -37727924.534917712        1262923086.8274162     
  -2115160532.9101961       -40374422.010452390        1254547625.7422609     
  -2003877091.9263034       -43472994.688052535        1252183939.9208028     
  -2792822031.9927740       -34945956.989713788        1218517707.1497777     
  -2665767074.6379952       -37216214.599228024        1198928808.4605284     
  -2538885041.5407171       -40062886.400416017        1185268920.5463974     
  -2412175932.7009425       -43485972.393278599        1177538043.4073846     
  -2285639748.1186700       -47485472.577818751        1175736177.0434895     
  -1146581874.3690073       -27833386.324672282        1468758017.4141431     
  -1032371069.9786340       -8724407.1651080847        1353578473.1345248     
  -914906378.19135618        21230863.317467749        1249855563.0283811     
  -794187799.00717795        62032425.123048097        1157589287.0957122     
  -670215332.42609262        113680278.25164813        1076779645.3365171     
  -1434348155.0514693       -33646951.561472774        1398694860.1061296     
  -1290371844.3463225       -9903650.1731404662        1287945000.6298897     
  -1142325385.6985114        27406811.024075329        1187565591.3233607     
  -990208779.10803998        78284432.030156493        1097556632.1865449     
  -834022024.57489920        142729212.84513164        1017918123.2194395     
  -1720113227.5705681       -38860154.349265873        1326503500.9416866     
  -1549474793.4185390       -11413545.592525482        1221135630.2388759     
  -1373949950.7780886        32321091.458949983        1125052025.7020137     
  -1193538699.6492124        92343756.805178642        1038252687.3311018     
  -1008241040.0319157        168654450.44614559        960737615.12614059     
  -2003877091.9263034       -43472994.688052535        1252183939.9208028     
  -1809679917.1952839       -13254093.423273444        1153150361.9614773     
  -1609780073.4300816        35973704.622104645        1062314866.1643350     
  -1404177560.6306958        104210399.44810075        979677452.52938569     
  -1192872378.7971275        191455991.05470425        905238121.05661988     
  -2285639748.1186700       -47485472.577818751        1175736177.0434895     
  -2070987215.6765521       -15425293.665375113        1083989195.7976999     
  -1849815753.6544955        38364650.513531566        999354112.71033144     
  -1622125362.0524914        113884359.95893276        921830927.78139329     
  -1387916040.8705437        211133834.67080474        851419641.01088011     
  -670215332.42609262        113680278.25164813        1076779645.3365171     
  -843725625.63252151        62340998.394986570        1466669976.2128942     
  -1029550666.7077274       -30047441.024268508        1837746708.6412930     
  -1227690455.6517069       -163485040.00610235        2190009842.6217055     
  -1438144992.4644649       -337971798.55052763        2523459378.1541400     
  -834022024.57489920        142729212.84513164        1017918123.2194395     
  -1056760900.8722510        78375715.700397551        1390171842.4901330     
  -1293539544.0422962       -32777004.353310645        1746374300.2822688     
  -1544357954.0850248       -190728947.31597573        2086525496.5958405     
  -1809216131.0004575       -395480113.18763298        2410625431.4308591     
  -1008241040.0319157        168654450.44614559        960737615.12614059     
  -1272316108.0789833        93654453.415712595        1313342200.6199145     
  -1552155962.0026569       -33894829.870077968        1652657861.6045468     
  -1847760601.8029442       -213993399.41123468        1978684598.0800502     
  -2159130027.4798384       -446641255.20775461        2291422410.0464015     
  -1192872378.7971275        191455991.05470425        905238121.05661988     
  -1490391247.2527077        108177211.54094100        1236181050.6022365     
  -1805399920.5888219       -33400917.574592590        1556597392.6081364     
  -2137898398.8054547       -233278396.29186505        1866487147.0743177     
  -2487886681.9026198       -491455224.61090016        2165850314.0007796     
  -1387916040.8705437        211133834.67080474        851419641.01088011     
  -1710986318.3934445        121943990.07604218        1158688392.4370999     
  -2053271419.8007808       -31295267.466843009        1458192893.2930253     
  -2414771345.0925622       -248583937.95787901        1749933143.5786552     
  -2795486094.2687883       -529922021.39705473        2033909143.2939873     
  -3767271673.1336451       -1130181501.9400935        799826257.05533671     
  -3778665469.1630359       -1008639911.5767415        884659303.93822479     
  -3790655798.4286942       -889086765.33428431        974407066.68184328     
  -3803242660.9306211       -771522063.21272206        1069069545.2861921     
  -3816426056.6688170       -655945805.21205437        1168646739.7512710     
  -4338819580.2581472       -1301645874.0774443        857981416.59984434     
  -4334807170.6565886       -1125638196.0281522        942086344.10989070     
  -4331940960.9772978       -953451184.38641834        1020558386.0093349     
  -4330220951.2202730       -785084839.15224230        1093397542.2981777     
  -4329647141.3855171       -620539160.32562494        1160603812.9764183     
  -4894475271.0817823       -1468342581.3245349        935628071.19707775     
  -4905192660.0530796       -1246909616.8504443        1018363601.5339503     
  -4917605915.6326447       -1031129541.0705760        1084918644.7888885     
  -4931715037.8204775       -821002353.98492861        1135293200.9618931     
  -4947520026.6165733       -616528055.59350193        1169487270.0529637     
  -5434238745.6045494       -1630271623.6813648        1032766220.8470368     
  -5489821937.3525114       -1372454174.0436184        1113491076.2104034     
  -5547650662.3947392       -1122121835.3867569        1167487843.0205035     
  -5607724920.7312307       -879274607.71077931        1194756521.2773376     
  -5670044712.3619881       -643912491.01568627        1195297110.9809058     
  -5958110003.8264503       -1787433001.1479352        1149395865.5497220     
  -6088695002.5548811       -1502271867.6076741        1227468768.1392500     
  -6222075201.2635765       -1226428067.3349609        1268265980.7041800     
  -6358250599.9525347       -959901600.32979536        1271787503.2445118     
  -6497221198.6217604       -702692466.59217858        1238033335.7602453     
  -3816426056.6688170       -655945805.21205437        1168646739.7512710     
  -3797470631.2485070       -537455187.61570358        1188817938.5029681     
  -3782354246.2744761       -431761371.50695336        1204068340.1875448     
  -3771076901.7467279       -338864356.88581097        1214397944.8049991     
  -3763638597.6652608       -258764143.75226939        1219806752.3553340     
  -4329647141.3855171       -620539160.32562494        1160603812.9764183     
  -4297891931.7945061       -464349033.99428284        1141258377.7177622     
  -4276667427.1749563       -343261257.56780469        1127979840.7186899     
  -4265973627.5268645       -257275831.04619026        1120768201.9792020     
  -4265810532.8502293       -206392754.42943573        1119623461.4992988     
  -4947520026.6165733       -616528055.59350193        1169487270.0529637     
  -4871571617.6357059       -413220395.96142316        1102818258.8379123     
  -4812845578.1514759       -267320634.65146685        1053203841.2091508     
  -4771341908.1638823       -178828771.66363358        1020644017.1666797     
  -4747060607.6729240       -147744806.99792290        1005138786.7104979     
  -5670044712.3619881       -643912491.01568627        1195297110.9809058     
  -5518509688.7721043       -384069273.51712322        1073497581.8634188     
  -5390888699.2040348       -203939502.75794077        979740341.65892708     
  -5287181743.6577797       -103523178.73814178        914025390.36743128     
  -5207388822.1333380       -82820301.457724333        876352727.98893034     
  -6497221198.6217604       -702692466.59217858        1238033335.7602453     
  -6238706145.2036991       -376895666.66138101        1053296346.7942828     
  -6010796790.3326340       -153117861.88722754        907589342.06801951     
  -5813493134.0085592       -31359052.269715071        800912321.58145857     
  -5646795176.2314777       -11619237.808843851        733265285.33459771     
  -3763638597.6652608       -258764143.75226939        1219806752.3553340     
  -3662505219.6619210       -168287307.53897941        1191701579.5069387     
  -3569224163.2541509       -103984876.64426219        1173901507.0597093     
  -3483795428.4419560       -65856851.068125963        1166406535.0136471     
  -3406219015.2253327       -53903230.810557961        1169216663.3687510     
  -4265810532.8502293       -206392754.42943573        1119623461.4992988     
  -4149181022.2609692       -143749954.24124265        1090354438.2141738     
  -4037304455.8446493       -96950301.296198368        1069123655.5997673     
  -3930180833.6012750       -65993795.594305277        1055931113.6560799     
  -3827810155.5308499       -50880437.135562658        1050776812.3831109     
  -4747060607.6729240       -147744806.99792290        1005138786.7104979     
  -4621411706.5847321       -114879065.46092272        978321853.31504250     
  -4497416372.2468596       -87525213.091647625        957276300.85985768     
  -4375074604.6593046       -65683249.890100718        942002129.34494436     
  -4254386403.8220654       -49353175.856278181        932499338.77030110     
  -5207388822.1333380       -82820301.457724333        876352727.98893034     
  -5079197272.6332150       -81674641.198015690        855603824.80954325     
  -4949559912.4607792       -75709612.030611992        838359442.83997917     
  -4818476741.6160336       -64925213.955503464        824619582.08023846     
  -4685947760.0989838       -49321446.972701788        814384242.53031957     
  -5646795176.2314777       -11619237.808843851        733265285.33459771     
  -5522537720.4064140       -44136681.452527285        722200352.69767761     
  -5393735076.4864120       -61503498.113086700        712373081.54013228     
  -5260387244.4714746       -63719687.790524483        703783471.86196256     
  -5122494224.3615999       -50785250.484838486        696431523.66316640     
  -3406219015.2253327       -53903230.810557961        1169216663.3687510     
  -3288351182.3359337       -40066567.810714364        1147651424.9663978     
  -3169359192.5715461       -22482715.227575183        1130559299.4167166     
  -3049243045.9321690       -1151673.0611399412        1117940286.7197051     
  -2928002742.4178038        23926558.688594460        1109794386.8753660     
  -3827810155.5308499       -50880437.135562658        1050776812.3831109     
  -3695885172.1549377       -33152504.101269007        1028975079.3777525     
  -3563329255.8254824       -13321461.221831799        1012615440.8090916     
  -3430142406.5424871        8612691.5027415752        1001697896.6771262     
  -3296324624.3059464        32649954.072460413        996222446.98185897     
  -4254386403.8220654       -49353175.856278181        932499338.77030110     
  -4105635751.1481380       -26903417.144084692        909885683.25358260     
  -3956747389.4421144       -3994628.3249039650        893683103.75758767     
  -3807721318.7039967        19373190.601262093        883891600.28231418     
  -3658557538.9337816        43200039.634415865        880511172.82776475     
  -4685947760.0989838       -49321446.972701788        814384242.53031957     
  -4517602919.3155355       -21319306.939156532        790383236.59388685     
  -4349613593.4214420        5497783.4632184505        773762288.26220298     
  -4181979782.4166994        31129824.234425306        764521397.53526902     
  -4014701486.3013048        55576815.374466181        762660564.41308331     
  -5122494224.3615999       -50785250.484838486        696431523.66316640     
  -4931786676.6571341       -16400173.486492395        670467739.39866662     
  -4741927867.7634659        15155774.142530680        652852994.32293999     
  -4552917797.6805944        43882592.402230024        643587288.43599069     
  -4364756466.4085188        69780281.292609453        642670621.73781490     
  -2928002742.4178038        23926558.688594460        1109794386.8753660     
  -2890432560.7616715        21791776.601932883        1132302240.1986213     
  -2855379048.4721212        11268096.626664877        1157925411.3521080     
  -2822842205.5491567       -7644481.2372232676        1186663900.3358259     
  -2792822031.9927740       -34945956.989713788        1218517707.1497777     
  -3296324624.3059464        32649954.072460413        996222446.98185897     
  -3253021433.3740711        26482755.631261349        1017407192.9558871     
  -3212360219.5404692        11508966.862482548        1040817185.8551509     
  -3174340982.8051467       -12271412.233890295        1066452425.6796474     
  -3138963723.1680980       -44858381.657851934        1094312912.4293776     
  -3658557538.9337816        43200039.634415865        880511172.82776475     
  -3612064398.4547257        32237506.920116663        900226619.09892714     
  -3568338542.8056445        12050691.439245224        921277241.39032364     
  -3527379971.9865284       -17360406.808181286        943663039.70195472     
  -3489188685.9973841       -55995787.822175264        967384014.03382218     
  -4014701486.3013048        55576815.374466181        762660564.41308331     
  -3967561456.0036416        39056030.468493462        780760518.62773561     
  -3923314018.2676396        12893270.356968880        799305577.95762634     
  -3881959173.0932989       -22911464.960087299        818295742.40275443     
  -3843496920.4806204       -68358175.482683659        837731011.96311772     
  -4364756466.4085188        69780281.292609453        642670621.73781490     
  -4319512606.0208111        46938326.276386023        659008891.54231989     
  -4277286645.9264617        14036703.615636110        674902195.55705988     
  -4238078586.1254625       -28924586.689612389        690350533.78204083     
  -4201888426.6178169       -81945544.639383554        705353906.21725941     
  -2792822031.9927740       -34945956.989713788        1218517707.1497777     
  -2665767074.6379952       -37216214.599228024        1198928808.4605284     
  -2538885041.5407171       -40062886.400416017        1185268920.5463974     
  -2412175932.7009425       -43485972.393278599        1177538043.4073846     
  -2285639748.1186700       -47485472.577818751        1175736177.0434895     
  -3138963723.1680980       -44858381.657851934        1094312912.4293776     
  -2997427801.7249966       -48689374.923990846        1073366739.6334909     
  -2855288335.5247188       -50508552.332872987        1057990928.9742635     
  -2712545324.5672560       -50315913.884475112        1048185480.4516934     
  -2569198768.8526163       -48111459.578826427        1043950394.0657846     
  -3489188685.9973841       -55995787.822175264        967384014.03382218     
  -3334196510.8615608       -61694929.863629341        945986447.64842963     
  -3177824321.9538736       -62794025.998868823        929800594.76123607     
  -3020072119.2743244       -59293076.227904558        918826455.37224078     
  -2860939902.8229184       -51192080.550736189        913064029.48144519     
  -3843496920.4806204       -68358175.482683659        837731011.96311772     
  -3676073202.0476737       -76232879.418125629        816787932.50534749     
  -3506493000.8281813       -76919307.398412704        800697917.90731680     
  -3334756316.8221483       -70417459.423564196        789460968.16902375     
  -3160863150.0295601       -56727335.493545294        783077083.29047418     
  -4201888426.6178169       -81945544.639383554        705353906.21725941     
  -4023057875.2833476       -92303223.587498665        685771194.20424151     
  -3841294372.1476479       -92884396.531514645        670682898.41250360     
  -3656597917.2107205       -83689063.471435070        660089018.84204638     
  -3468968510.4725661       -64717224.407270074        653989555.49287105     
  -2285639748.1186700       -47485472.577818751        1175736177.0434895     
  -2070987215.6765521       -15425293.665375113        1083989195.7976999     
  -1849815753.6544955        38364650.513531566        999354112.71033144     
  -1622125362.0524914        113884359.95893276        921830927.78139329     
  -1387916040.8705437        211133834.67080474        851419641.01088011     
  -2569198768.8526163       -48111459.578826427        1043950394.0657846     
  -2330241299.5731478       -7024008.1052842140        957907830.85524666     
  -2085162282.8980503        54468601.353694558        881366258.00091362     
  -1833961718.8273091        136366368.79815066        814325675.50278962     
  -1576639607.3609366        238669294.22803462        756786083.36086726     
  -2860939902.8229184       -51192080.550736189        913064029.48144519     
  -2590851518.9981575        970436.79628252983        832262271.75780368     
  -2315038969.9620695        72213504.847723961        763350596.58814931     
  -2033502255.7146516        162537123.60360396        706329003.97247851     
  -1746241376.2559087        271941293.06389570        661197493.91079521     
  -3160863150.0295601       -56727335.493545294        783077083.29047418     
  -2852817873.9515696        8558041.0393251181        707052518.50536859     
  -2539445814.8465557        91599360.995607376        645307128.47203171     
  -2220746972.7145190        192396624.37529337        597840913.19045937     
  -1896721347.5554614        310949831.17838025        564653872.66065049     
  -3468968510.4725661       -64717224.407270074        653989555.49287105     
  -3116140364.4333916        15738804.623853207        582278571.09794474     
  -2758382817.5515084        112626169.79735482        527235853.65256852     
  -2395695869.8269033        225944871.11324680        488861403.15673381     
  -2028079521.2595913        355694908.57149792        467155219.61044723     
  -1387916040.8705437        211133834.67080474        851419641.01088011     
  -1710986318.3934445        121943990.07604218        1158688392.4370999     
  -2053271419.8007808       -31295267.466843009        1458192893.2930253     
  -2414771345.0925622       -248583937.95787901        1749933143.5786552     
  -2795486094.2687883       -529922021.39705473        2033909143.2939873     
  -1576639607.3609366        238669294.22803462        756786083.36086726     
  -1935317437.0128908        130638107.73149812        1042390134.1603092     
  -2316952503.9006519       -53917202.884401321        1312716012.7927225     
  -2721544808.0242243       -314996637.61967552        1567763719.2581139     
  -3149094349.3836064       -652600196.47429848        1807533253.5564797     
  -1746241376.2559087        271941293.06389570        661197493.91079521     
  -2161995105.4561448        138628260.43979669        920770695.17352712     
  -2604448485.2435517       -83683607.474877715        1157551802.6725032     
  -3073601515.6181459       -394994310.68015170        1371540816.4077270     
  -3569454196.5798979       -795303849.17599773        1562737736.3791926     
  -1896721347.5554614        310949831.17838025        564653872.66065049     
  -2391019323.7232037        145914448.20095801        793830075.47674906     
  -2915759363.8294907       -120594481.23827100        992700262.93236172     
  -3470941467.8743110       -488576957.13929331        1161264435.0274954     
  -4056565635.8576846       -958032979.50213861        1299522591.7621386     
  -2028079521.2595913        355694908.57149792        467155219.61044723     
  -2622390091.8140712        152496671.01497006        661568275.06998217     
  -3250885139.6584535       -164649824.17456162        818161393.57230437     
  -3913564664.7927399       -595744576.99713171        936934575.11741519     
  -4610428667.2169418       -1140787587.4527211        1017887819.7053132     
  -5958110003.8264503       -1787433001.1479352        1149395865.5497220     
  -6088695002.5548811       -1502271867.6076741        1227468768.1392500     
  -6222075201.2635765       -1226428067.3349609        1268265980.7041800     
  -6358250599.9525347       -959901600.32979536        1271787503.2445118     
  -6497221198.6217604       -702692466.59217858        1238033335.7602453     
  -6811076369.0704699       -2043322910.7211411        1353311964.5750241     
  -6828896124.8876877       -1395062800.5293777        1202506516.2144823     
  -6898264226.7702618       -918630510.55545902        1091927180.8906622     
  -7019180674.7181873       -614026040.79938269        1021573958.6035641     
  -7191645468.7314672       -481249391.26115060        991446849.35318804     
  -8338125164.6595926       -2501437549.3978777        1712309477.1928353     
  -8021745954.5332584       -1423648345.6449106        1275747007.4496198     
  -7805668236.5573645       -680197449.06008148        956912453.80444682     
  -7689892010.7319126       -271084859.64339161        755805816.25731564     
  -7674417277.0569029       -196310577.39483976        672427094.80822563     
  -10539256390.593819       -3161776917.1781459        2226388403.4031553     
  -9667244491.4915867       -1588028502.9542711        1447190241.8446634     
  -8944287230.6248856       -511128882.84883022        863221799.44553339     
  -8370384607.9937134        68921943.138175964        474483076.20576483     
  -7945536623.5980749        152123975.00674772        280974072.12535852     
  -13414470046.873152       -4024341014.0619454        2895548743.2059836     
  -11765391735.762680       -1888203272.4574594        1716836219.3996115     
  -10314121208.972826       -411424811.92170429        810855217.81392109     
  -9060658466.5035915        405994367.54532099        177605738.44891304     
  -8005003508.3549767        564054265.94361782       -182912218.69541278     
  -6497221198.6217604       -702692466.59217858        1238033335.7602453     
  -6238706145.2036991       -376895666.66138101        1053296346.7942828     
  -6010796790.3326340       -153117861.88722754        907589342.06801951     
  -5813493134.0085592       -31359052.269715071        800912321.58145857     
  -5646795176.2314777       -11619237.808843851        733265285.33459771     
  -7191645468.7314672       -481249391.26115060        991446849.35318804     
  -6900059090.2432175       -306192892.45739484        846804748.66671455     
  -6620837883.8115540       -172353633.84224892        723358367.90077055     
  -6353981849.4364710       -79731615.415706873        621107707.05535698     
  -6099490987.1179695       -28326837.177774668        540052766.13047290     
  -7674417277.0569029       -196310577.39483976        672427094.80822563     
  -7400714614.4103861       -187280891.99170303        589160496.64005303     
  -7121136597.3300409       -158666691.80913830        509255354.07324010     
  -6835683225.8158646       -110467976.84714317        432711667.10778600     
  -6544354499.8678656       -42684747.105726480        359529435.74369061     
  -7945536623.5980749        152123975.00674772        280974072.12535852     
  -7740672717.7052011       -20159665.264302254        280363590.71430093     
  -7511692930.8880939       -112057035.78789902        265280300.58542722     
  -7258597263.1467428       -123568136.56402493        235724201.73874721     
  -6981385714.4811592       -54692967.592698097        191695294.17425293     
  -8005003508.3549767        564054265.94361782       -182912218.69541278     
  -7919933400.1276693        195170787.72479916       -79585969.110547200     
  -7792506884.4857121       -32524665.778526783       -8566792.5626642648     
  -7622723961.4291058       -119032094.56635332        30145310.948235966     
  -7410584630.9578543       -64351498.638691425        36550341.422154799     
  -5646795176.2314777       -11619237.808843851        733265285.33459771     
  -5522537720.4064140       -44136681.452527285        722200352.69767761     
  -5393735076.4864120       -61503498.113086700        712373081.54013228     
  -5260387244.4714746       -63719687.790524483        703783471.86196256     
  -5122494224.3615999       -50785250.484838486        696431523.66316640     
  -6099490987.1179695       -28326837.177774668        540052766.13047290     
  -5961793910.0652399       -30749428.743986845        534825826.72473973     
  -5824120167.0379562       -33249800.395027161        531754430.15072614     
  -5686469758.0361242       -35827952.130895376        530838576.40843493     
  -5548842683.0597391       -38483883.951592922        532078265.49786645     
  -6544354499.8678656       -42684747.105726480        359529435.74369061     
  -6390595283.4379025       -14225731.149597168        354810547.09535933     
  -6241427923.1537743       -1072902.3462488651        353165082.63109499     
  -6096852419.0154810       -3226260.6956770420        354593042.35090160     
  -5956868771.0230227       -20685806.197892666        359094426.25477737     
  -6981385714.4811592       -54692967.592698097        191695294.17425293     
  -6808941840.5244017        5434411.3306398392        182154513.80953813     
  -6645658344.8338633        35027196.033248901        176605038.98124003     
  -6491535227.4095469        34085386.515123844        175046869.68935978     
  -6346572488.2514486        2608982.7762618065        177480005.93389353     
  -7410584630.9578543       -64351498.638691425        36550341.422154799     
  -7216833581.3247395        28230998.696728706        16857726.867277514     
  -7036811432.0782261        75050494.743463039        2074299.2011642579     
  -6870518183.2183208        76106989.501517296       -7799941.5761921750     
  -6717953834.7450199        31400482.970881462       -12764995.464775292     
  -5122494224.3615999       -50785250.484838486        696431523.66316640     
  -4931786676.6571341       -16400173.486492395        670467739.39866662     
  -4741927867.7634659        15155774.142530680        652852994.32293999     
  -4552917797.6805944        43882592.402230024        643587288.43599069     
  -4364756466.4085188        69780281.292609453        642670621.73781490     
  -5548842683.0597391       -38483883.951592922        532078265.49786645     
  -5343061962.1003542       -19095137.535321474        511839346.01223928     
  -5136203895.3954792        3884761.3659274578        498306827.66825193     
  -4928268482.9451122        30455812.752151728        491480710.46590596     
  -4719255724.7492466        60618016.623356581        491360994.40519929     
  -5956868771.0230227       -20685806.197892666        359094426.25477737     
  -5740708128.3719616       -17701365.832665920        346827470.19702560     
  -5521544055.4191170       -4705491.1281647682        339624277.23378128     
  -5299376552.1644897        18301817.915615320        337484847.36504596     
  -5074205618.6080856        51320561.298668146        340409180.59081405     
  -6346572488.2514486        2608982.7762618065        177480005.93389353     
  -6124725175.4719515       -12218858.378529072        175432111.95303032     
  -5897948347.8343811       -10614983.339747906        176805343.01953095     
  -5666242005.3387365        7420607.8926150799        181599699.13340700     
  -5429606147.9850206        41887915.318547010        189815180.29465690     
  -6717953834.7450199        31400482.970881462       -12764995.464775292     
  -6495113103.4003239       -2647615.1728968620       -2346728.7197583327     
  -6265416772.6412687       -13843715.268815279        9850025.0254958086     
  -6028864842.4678459       -2187817.3168408871        23825265.770994578     
  -5785457312.8800621        32320078.683007717        39578993.516730368     
  -4364756466.4085188        69780281.292609453        642670621.73781490     
  -4319512606.0208111        46938326.276386023        659008891.54231989     
  -4277286645.9264617        14036703.615636110        674902195.55705988     
  -4238078586.1254625       -28924586.689612389        690350533.78204083     
  -4201888426.6178169       -81945544.639383554        705353906.21725941     
  -4719255724.7492466        60618016.623356581        491360994.40519929     
  -4673202760.1675167        40232579.644828558        504987016.35978585     
  -4629321450.8469868        12608291.795629978        519113503.16775620     
  -4587611796.7876616       -22254846.924247503        533740454.82911855     
  -4548073797.9895372       -64356836.514799118        548867871.34386659     
  -5074205618.6080856        51320561.298668146        340409180.59081405     
  -5024642319.4233284        34202011.480540276        352310240.56632054     
  -4976404430.4676180        12665427.565585375        365657196.03837198     
  -4929491951.7409620       -13289190.446214676        380450047.00695622     
  -4883904883.2433519       -43661842.554836750        396688793.47208029     
  -5429606147.9850206        41887915.318547010        189815180.29465690     
  -5373831283.7882404        28846621.783529997        200978564.16193166     
  -5318535584.7883577        14208110.925504923        214533274.16890463     
  -5263719050.9853745       -2027617.2555160522        230479310.31555310     
  -5209381682.3792868       -19860562.759523630        248816672.60189933     
  -5785457312.8800621        32320078.683007717        39578993.516730368     
  -5720769653.2622528        24166410.553781033        50991987.146621510     
  -5655714913.8091955        17236341.875402451        65741737.559346862     
  -5590293094.5208855        11529872.647862196        83828244.754915699     
  -5524504195.3973179        7047002.8711743355        105251508.73332065     
  -4201888426.6178169       -81945544.639383554        705353906.21725941     
  -4023057875.2833476       -92303223.587498665        685771194.20424151     
  -3841294372.1476479       -92884396.531514645        670682898.41250360     
  -3656597917.2107205       -83689063.471435070        660089018.84204638     
  -3468968510.4725661       -64717224.407270074        653989555.49287105     
  -4548073797.9895372       -64356836.514799118        548867871.34386659     
  -4351667299.5785866       -62814914.507428646        535465287.82080299     
  -4155341874.4466076       -61543236.763291121        528342185.60709977     
  -3959097522.5936046       -60541803.282400131        527498564.70276064     
  -3762934244.0195670       -59810614.064742565        532934425.10778153     
  -4883904883.2433519       -43661842.554836750        396688793.47208029     
  -4664822251.7899847       -28690263.802206039        385949975.84540474     
  -4448834718.6957827       -24035679.580145359        383275704.61617476     
  -4235942283.9607534       -29698089.888647318        388665979.78437936     
  -4026144947.5848899       -45677494.727716684        402120801.35003573     
  -5209381682.3792868       -19860562.759523630        248816672.60189933     
  -4962522731.9175434        10070728.528170347        237225258.27804720     
  -4721772904.8951731        19638275.017939568        235483455.43971661     
  -4487132201.3121719        8842076.7098174095        243591264.08691251     
  -4258600621.1685319       -22317866.396178722        261548684.21963036     
  -5524504195.3973179        7047002.8711743355        105251508.73332065     
  -5244768739.9612570        53468062.483692884        89291135.118723363     
  -4974156433.0447721        69478627.030963182        84965438.077734441     
  -4712667274.6478424        55078696.513035059        92274417.610347152     
  -4460301264.7704973        10268270.929852009        111218073.71656373     
  -3468968510.4725661       -64717224.407270074        653989555.49287105     
  -3116140364.4333916        15738804.623853207        582278571.09794474     
  -2758382817.5515084        112626169.79735482        527235853.65256852     
  -2395695869.8269033        225944871.11324680        488861403.15673381     
  -2028079521.2595913        355694908.57149792        467155219.61044723     
  -3762934244.0195670       -59810614.064742565        532934425.10778153     
  -3379132834.8581166        6077899.0443129539        475245827.21791017     
  -2989404714.1439514        91722117.329087615        428076283.83918619     
  -2593749881.8770733        197122040.78957343        391425794.97160625     
  -2192168338.0574822        322277669.42576146        365294360.61517340     
  -4026144947.5848899       -45677494.727716684        402120801.35003573     
  -3628939453.6965895        372748.94065427780        359618119.12688339     
  -3224809937.5455761        69503066.818068624        321485278.97648162     
  -2813756399.1318512        161713458.90452719        287722280.89882201     
  -2395778838.4554052        277003925.20003235        258329124.89390194     
  -4258600621.1685319       -22317866.396178722        261548684.21963036     
  -3865560220.9488115       -1376645.6871254444        235395446.82486758     
  -3464598487.7563744        45969018.264309406        207462839.06444588     
  -3055715421.5912294        119719125.45811582        177750860.93836892     
  -2638911022.4533691        219873675.89428902        146259512.44664213     
  -4460301264.7704973        10268270.929852009        111218073.71656373     
  -4088995136.6147857        829715.16096258163        102577810.31185678     
  -3708770364.7763634        21119971.667776823        86008964.103093535     
  -3319626949.2552290        71139040.450290918        61511535.090270318     
  -2921564890.0513821        150886921.50852430        29085523.273386650     
  -2028079521.2595913        355694908.57149792        467155219.61044723     
  -2622390091.8140712        152496671.01497006        661568275.06998217     
  -3250885139.6584535       -164649824.17456162        818161393.57230437     
  -3913564664.7927399       -595744576.99713171        936934575.11741519     
  -4610428667.2169418       -1140787587.4527211        1017887819.7053132     
  -2192168338.0574822        322277669.42576146        365294360.61517340     
  -2864947954.8529692        112370349.88680744        525984677.34309959     
  -3552063909.5686207       -145324762.71934545        665682375.91571593     
  -4253516202.2044415       -450807668.39272296        784387456.33302248     
  -4969304832.7604141       -804078367.13329470        882099918.59500635     
  -2395778838.4554052        277003925.20003235        258329124.89390194     
  -3098949447.7721982        74810939.794548869        408452865.48826379     
  -3796608255.6394076       -109009374.11231828        554411306.72921169     
  -4488755262.0570374       -274457016.52057457        696204448.61674476     
  -5175390467.0250778       -421531987.43023181        833832291.15086126     
  -2638911022.4533691        219873675.89428902        146259512.44664213     
  -3324394570.5717535        39818440.738187551        308972839.50546342     
  -3984518177.8708043       -55703658.353462696        484348186.01278013     
  -4619281844.3505383       -66692621.380718231        672385551.96857536     
  -5228685570.0109367        6851551.6564750671        873084937.37285399     
  -2921564890.0513821        150886921.50852430        29085523.273386650     
  -3541283323.2516437        7392852.7177321911        227544599.39471510     
  -4115793676.2628260        14592384.557193756        455493013.76643068     
  -4645095949.0849438        172485517.02688193        712930766.38852322     
  -5129190141.7179813        481072250.12682724        999857857.26101315     
 </DataArray>
 <DataArray  type="Float64" Name="VM" NumberOfComponents="1" format="ascii">
   12934895933.694284     
   11340938361.922184     
   10211725606.556269     
   9275428344.4193401     
   8307458420.1112566     
   10130172601.115402     
   9322481942.8698063     
   8827530735.3905182     
   8445140286.6757679     
   8037427439.4390860     
   7982495407.6675482     
   7735478569.2256899     
   7669991779.6163015     
   7670530629.4835243     
   7667145733.1154690     
   6491768730.5938253     
   6587211042.1748075     
   6757950153.2699175     
   6961810516.1603088     
   7172119009.4980001     
   5657526108.9213028     
   5890856568.9375906     
   6116609660.9217949     
   6332282148.5009451     
   6537605925.5554590     
   8307458420.1112566     
   8020484905.5568867     
   7776309721.7382469     
   7564090603.2310505     
   7378890922.5046597     
   8037427439.4390860     
   7745849365.5707121     
   7470439768.7608557     
   7209179542.3907270     
   6962122260.5945597     
   7667145733.1154690     
   7379767528.5465384     
   7098161552.0415401     
   6822416170.4334164     
   6552773301.2043352     
   7172119009.4980001     
   6909634963.7854042     
   6655359988.4536991     
   6405478404.2749443     
   6156848576.5129442     
   6537605925.5554590     
   6327753391.2458811     
   6140351620.4417248     
   5961523447.4308395     
   5782201418.8586664     
   7378890922.5046597     
   7231049363.7921610     
   7074636160.2010832     
   6908899286.9622355     
   6733745284.1860723     
   6962122260.5945597     
   6818963404.7134562     
   6670258506.3856907     
   6515702735.3116846     
   6355316256.3439207     
   6552773301.2043352     
   6413007962.9597235     
   6270797713.1244240     
   6126104673.8521433     
   5978991323.9958620     
   6156848576.5129442     
   6018199597.2743320     
   5880146151.3359451     
   5742722017.6248493     
   5605971544.7095375     
   5782201418.8586664     
   5641041081.2652588     
   5503349289.6532459     
   5369029470.5692816     
   5238074996.8714552     
   6733745284.1860723     
   6493790972.8324308     
   6258529651.9114466     
   6027912486.3806324     
   5802089866.7237434     
   6355316256.3439207     
   6126165187.7275133     
   5900600067.4823141     
   5678673774.5530691     
   5460577057.7820854     
   5978991323.9958620     
   5763271003.9497442     
   5550452528.5075569     
   5340636955.2549219     
   5134027928.1109934     
   5605971544.7095375     
   5406716915.4106350     
   5210133161.1309967     
   5016324559.1318378     
   4825497687.9970160     
   5238074996.8714552     
   5058704142.5817089     
   4882276956.8114538     
   4708863321.3439884     
   4538680293.7851286     
   5802089866.7237434     
   5733571351.3841925     
   5665497155.6597300     
   5597950221.8474045     
   5531036166.2366219     
   5460577057.7820854     
   5399545240.6783476     
   5338601177.4138479     
   5277824518.9428301     
   5217309638.7705212     
   5134027928.1109934     
   5078623887.3414545     
   5022838369.1586237     
   4966768085.8470535     
   4910527356.5166073     
   4825497687.9970160     
   4774253170.9618530     
   4722031379.9132309     
   4668963187.7289686     
   4615212366.7256203     
   4538680293.7851286     
   4490659326.4938889     
   4440934132.4133539     
   4389682629.6278925     
   4337145111.6371756     
   5531036166.2366219     
   5273974241.1720705     
   5011418405.3744297     
   4743140076.8361540     
   4469597385.8591747     
   5217309638.7705212     
   4984529761.5336428     
   4749169386.4460678     
   4511332314.6521168     
   4271575542.3503041     
   4910527356.5166073     
   4698342995.5224895     
   4486254348.2407761     
   4274514398.0989270     
   4063634922.3939037     
   4615212366.7256203     
   4419024051.6142435     
   4225204946.7752776     
   4034004436.7697554     
   3845808801.1631937     
   4337145111.6371756     
   4151267238.6946630     
   3969486147.5055323     
   3791945075.6476169     
   3618913628.4064941     
   4469597385.8591747     
   4093267799.2173643     
   3722357515.7883601     
   3357452902.6363955     
   3000278683.8798294     
   4271575542.3503041     
   3886318218.1109195     
   3506271889.3077555     
   3132465986.0253000     
   2767055925.1807165     
   4063634922.3939037     
   3682190921.7815099     
   3307328588.1140828     
   2940535833.4908123     
   2584633327.6008582     
   3845808801.1631937     
   3480903546.2302408     
   3125523312.5253854     
   2781604452.6597252     
   2452808959.6809182     
   3618913628.4064941     
   3282798779.8444777     
   2960736308.0787392     
   2654931532.3850942     
   2369747881.9178467     
   3000278683.8798294     
   3566826630.6122184     
   4197910396.4298105     
   4892104929.8517237     
   5657444726.0425663     
   2767055925.1807165     
   3387026688.8603282     
   4044912304.9468212     
   4731854613.7585506     
   5446269998.9492960     
   2584633327.6008582     
   3215807995.7907648     
   3864500921.5193520     
   4521767620.8033829     
   5183299389.6644487     
   2452808959.6809182     
   3061448817.7853255     
   3667625086.7664113     
   4268946161.1621475     
   4866119946.9223433     
   2369747881.9178467     
   2934809813.2590241     
   3473941631.1957912     
   3996617882.2215600     
   4517324005.0314932     
   5657526108.9213028     
   5890856568.9375906     
   6116609660.9217949     
   6332282148.5009451     
   6537605925.5554590     
   5150657170.5514669     
   5311010587.5690041     
   5468046171.4151535     
   5618834570.2488251     
   5761876714.3886795     
   4642343300.9871311     
   4755056256.1426544     
   4868935483.0588551     
   4981323155.5975590     
   5090272859.0196323     
   4132847330.8331838     
   4223833575.1352406     
   4320776049.2694197     
   4422005815.0417433     
   4526058025.3142061     
   3623687549.0213256     
   3719169348.9576783     
   3825928926.4978275     
   3943899654.5170417     
   4072985353.4236860     
   6537605925.5554590     
   6327753391.2458811     
   6140351620.4417248     
   5961523447.4308395     
   5782201418.8586664     
   5761876714.3886795     
   5651474104.9799023     
   5557295253.7875967     
   5470282371.1444864     
   5384836334.1373892     
   5090272859.0196323     
   5053568313.9824142     
   5027532688.9934282     
   5006952441.3171263     
   4988584100.4881849     
   4526058025.3142061     
   4538632521.9666710     
   4555953675.8516464     
   4575538659.0019732     
   4595647415.7932568     
   4072985353.4236860     
   4111998936.6841569     
   4148359768.8460803     
   4181178494.8447084     
   4209729824.3715940     
   5782201418.8586664     
   5641041081.2652588     
   5503349289.6532459     
   5369029470.5692816     
   5238074996.8714552     
   5384836334.1373892     
   5252261206.4862566     
   5122273487.2503519     
   4994905917.6245432     
   4870224468.8034334     
   4988584100.4881849     
   4869402514.5170736     
   4752884504.1564293     
   4639000646.8991699     
   4527796039.9261751     
   4595647415.7932568     
   4495168631.3174286     
   4398509397.3122215     
   4305378097.7416153     
   4215727040.3863993     
   4209729824.3715940     
   4133566247.4010167     
   4063639119.1721964     
   3999155977.0061798     
   3939902301.3516550     
   5238074996.8714552     
   5058704142.5817089     
   4882276956.8114538     
   4708863321.3439884     
   4538680293.7851286     
   4870224468.8034334     
   4710307364.4247952     
   4554031851.4743032     
   4401543724.4375477     
   4253115861.4668384     
   4527796039.9261751     
   4385223934.0068779     
   4246889284.0933785     
   4112988907.0143170     
   3983824683.3998160     
   4215727040.3863993     
   4088337997.8952017     
   3965626581.3296247     
   3847816249.3069181     
   3735214100.9497452     
   3939902301.3516550     
   3825495688.0045776     
   3715989820.7086143     
   3611612409.5167313     
   3512657157.4644713     
   4538680293.7851286     
   4490659326.4938889     
   4440934132.4133539     
   4389682629.6278925     
   4337145111.6371756     
   4253115861.4668384     
   4210319159.1152043     
   4166510729.0192065     
   4121894503.8724055     
   4076737256.9707947     
   3983824683.3998160     
   3949141210.7419758     
   3914389014.1549087     
   3879816213.3570013     
   3845736441.4508157     
   3735214100.9497452     
   3711381268.9391518     
   3688666804.6237445     
   3667369616.1418195     
   3647856753.3324857     
   3512657157.4644713     
   3502054825.7909822     
   3493975517.1826801     
   3488757800.4428744     
   3486808632.9302268     
   4337145111.6371756     
   4151267238.6946630     
   3969486147.5055323     
   3791945075.6476169     
   3618913628.4064941     
   4076737256.9707947     
   3903910286.7894139     
   3735645080.7274776     
   3572181279.0409212     
   3413882782.9167747     
   3845736441.4508157     
   3687769061.5523143     
   3535045903.2485571     
   3387920905.3138633     
   3246875122.0401101     
   3647856753.3324857     
   3506757708.9708657     
   3371800780.7830195     
   3243459268.4480753     
   3122336689.5616298     
   3486808632.9302268     
   3364636713.2650032     
   3249679129.9723248     
   3142511013.2492537     
   3043835725.7174025     
   3618913628.4064941     
   3282798779.8444777     
   2960736308.0787392     
   2654931532.3850942     
   2369747881.9178467     
   3413882782.9167747     
   3108508871.5528517     
   2817632162.9973955     
   2543273307.0480714     
   2289220148.3739657     
   3246875122.0401101     
   2965300706.1092119     
   2698130784.7524414     
   2447196635.9034753     
   2215791636.0775928     
   3122336689.5616298     
   2857703356.4279509     
   2606695978.0119715     
   2370966265.4673142     
   2153422049.2883182     
   3043835725.7174025     
   2789691408.1357822     
   2547623140.4973865     
   2319118769.9368958     
   2106815306.4142306     
   2369747881.9178467     
   2934809813.2590241     
   3473941631.1957912     
   3996617882.2215600     
   4517324005.0314932     
   2289220148.3739657     
   2824472931.0074568     
   3334806252.7861152     
   3825692810.6707039     
   4307378010.2818451     
   2215791636.0775928     
   2745288750.8177691     
   3254532807.4700174     
   3745979758.1835074     
   4226246389.1715875     
   2153422049.2883182     
   2697235201.0170436     
   3227370818.5914297     
   3744649625.4903135     
   4253129675.1801968     
   2106815306.4142306     
   2679303164.4807162     
   3245246498.6089053     
   3805185846.2846451     
   4361711759.3625555     
   3623687549.0213256     
   3719169348.9576783     
   3825928926.4978275     
   3943899654.5170417     
   4072985353.4236860     
   3136745932.1953454     
   3255041373.9049039     
   3382784228.6212511     
   3519494190.0074477     
   3664703804.5624738     
   2693592763.5861020     
   2830102210.6388235     
   2973958797.2831941     
   3124059518.3500767     
   3279477194.2287078     
   2297710371.1490755     
   2449143961.3034391     
   2605340426.5561657     
   2764345621.0890555     
   2924706874.3723798     
   1954297852.2620237     
   2119119990.6905332     
   2285345099.2909241     
   2449969632.6105375     
   2611006214.6074662     
   4072985353.4236860     
   4111998936.6841569     
   4148359768.8460803     
   4181178494.8447084     
   4209729824.3715940     
   3664703804.5624738     
   3701580769.5264249     
   3737092011.4093409     
   3770347941.8771524     
   3800604953.9668927     
   3279477194.2287078     
   3320116641.2904935     
   3361038797.2905259     
   3401432093.2411098     
   3440625261.8894238     
   2924706874.3723798     
   2974993257.8013663     
   3027577891.4435139     
   3081793090.5232310     
   3137115059.4490843     
   2611006214.6074662     
   2676262406.0964618     
   2746148963.2873940     
   2820174154.0373459     
   2897995769.2362523     
   4209729824.3715940     
   4133566247.4010167     
   4063639119.1721964     
   3999155977.0061798     
   3939902301.3516550     
   3800604953.9668927     
   3756172825.6180916     
   3717457486.8048863     
   3684028093.3942895     
   3655845872.4551854     
   3440625261.8894238     
   3423328475.2241392     
   3410828620.7125278     
   3402919158.5111933     
   3399615180.2275934     
   3137115059.4490843     
   3142641945.3045273     
   3151428628.6783276     
   3163375689.5281658     
   3178475141.4407454     
   2897995769.2362523     
   2922379977.2536688     
   2947685513.5680037     
   2973839985.1507101     
   3000790579.4859633     
   3939902301.3516550     
   3825495688.0045776     
   3715989820.7086143     
   3611612409.5167313     
   3512657157.4644713     
   3655845872.4551854     
   3552804855.7780509     
   3455526477.1116357     
   3364254918.3726339     
   3279301646.2912836     
   3399615180.2275934     
   3309091700.1445332     
   3225425908.5441623     
   3148860803.5407200     
   3079708219.8298974     
   3178475141.4407454     
   3101288150.1808982     
   3032274704.4828973     
   2971646717.5481834     
   2919685639.8663731     
   3000790579.4859633     
   2937143428.7415462     
   2883166386.8636961     
   2838999980.0338554     
   2804854820.9233112     
   3512657157.4644713     
   3502054825.7909822     
   3493975517.1826801     
   3488757800.4428744     
   3486808632.9302268     
   3279301646.2912836     
   3283254299.1160111     
   3289899087.6688328     
   3299514563.7378421     
   3312423354.0845618     
   3079708219.8298974     
   3097438642.8342066     
   3117812564.7859025     
   3141032454.8995466     
   3167325844.4836349     
   2919685639.8663731     
   2950149976.6914186     
   2982955767.1097293     
   3018225974.1010227     
   3056096143.9234586     
   2804854820.9233112     
   2846656412.8467441     
   2890237138.6855516     
   2935651302.0544348     
   2982959252.2145443     
   3486808632.9302268     
   3364636713.2650032     
   3249679129.9723248     
   3142511013.2492537     
   3043835725.7174025     
   3312423354.0845618     
   3206184244.3068323     
   3108054057.0166659     
   3018576654.8444104     
   2938399671.3215280     
   3167325844.4836349     
   3076271597.3540249     
   2994156183.0794945     
   2921455717.1066189     
   2858721809.5222130     
   3056096143.9234586     
   2978939547.1249022     
   2911445145.7921267     
   2853990957.8350763     
   2807003250.5072536     
   2982959252.2145443     
   2917779590.1359196     
   2862850590.4413123     
   2818436283.5162334     
   2784827065.6960182     
   3043835725.7174025     
   2789691408.1357822     
   2547623140.4973865     
   2319118769.9368958     
   2106815306.4142306     
   2938399671.3215280     
   2690798896.4368186     
   2456854575.2470756     
   2237902614.0335946     
   2036258993.5264711     
   2858721809.5222130     
   2618555729.2589889     
   2393828919.5313678     
   2185676968.9138088     
   1996018285.6524522     
   2807003250.5072536     
   2574642728.9455552     
   2359640236.5314345     
   2162880377.5259037     
   1985818628.9296212     
   2784827065.6960182     
   2559957691.5292645     
   2354431033.6231494     
   2168844525.9662151     
   2004161995.9894936     
   2106815306.4142306     
   2679303164.4807162     
   3245246498.6089053     
   3805185846.2846451     
   4361711759.3625555     
   2036258993.5264711     
   2641708837.9465709     
   3235624961.8404293     
   3818065712.4546700     
   4391030217.4388914     
   1996018285.6524522     
   2630840319.4628496     
   3248316650.7874546     
   3848399957.2465048     
   4432699468.5083294     
   1985818628.9296212     
   2646402100.8164277     
   3283502742.7959113     
   3897131179.0506482     
   4488597085.1902580     
   2004161995.9894936     
   2687325913.6048837     
   3340940154.4836850     
   3965056342.5408950     
   4560699030.5011225     
   1954297852.2620237     
   2119119990.6905332     
   2285345099.2909241     
   2449969632.6105375     
   2611006214.6074662     
   1652825178.6671703     
   1820096332.1338627     
   1989114834.9589577     
   2157143695.2488852     
   2322399431.1525822     
   1392613132.5505371     
   1570910685.7525096     
   1750249908.4875522     
   1928596008.6471694     
   2104680947.2995336     
   1205995574.9610245     
   1398976449.8389583     
   1591541519.9806488     
   1782901563.6228569     
   1972591624.4128222     
   1135720113.6050813     
   1335131693.7979743     
   1534845748.1857274     
   1734862276.7683408     
   1935181279.5458138     
   2611006214.6074662     
   2676262406.0964618     
   2746148963.2873940     
   2820174154.0373459     
   2897995769.2362523     
   2322399431.1525822     
   2406716373.8974614     
   2493589212.7734671     
   2582642145.4352698     
   2673608333.8413329     
   2104680947.2995336     
   2205609584.2586122     
   2306559145.5364799     
   2407302109.0321159     
   2507676934.3014846     
   1972591624.4128222     
   2086843075.5384471     
   2198348068.3905883     
   2307034341.5745640     
   2412851382.1198168     
   1935181279.5458138     
   2058930807.3271689     
   2177344987.4668322     
   2290423819.9648042     
   2398167304.8210850     
   2897995769.2362523     
   2922379977.2536688     
   2947685513.5680037     
   2973839985.1507101     
   3000790579.4859633     
   2673608333.8413329     
   2704983861.6718774     
   2738311403.0199533     
   2773561485.0273557     
   2810716295.4698195     
   2507676934.3014846     
   2545958092.5564270     
   2587239223.7847109     
   2631515426.3943105     
   2678786786.9430361     
   2412851382.1198168     
   2456400496.5841632     
   2504001195.2574272     
   2555655005.1486249     
   2611364497.4219275     
   2398167304.8210850     
   2443710893.6937051     
   2494368384.3693366     
   2550139776.8479781     
   2611025071.1296277     
   3000790579.4859633     
   2937143428.7415462     
   2883166386.8636961     
   2838999980.0338554     
   2804854820.9233112     
   2810716295.4698195     
   2761565859.6905999     
   2721753735.9386554     
   2691364510.1188312     
   2670519741.0215774     
   2678786786.9430361     
   2640916102.0040398     
   2611762573.6497359     
   2591362534.0555334     
   2579766944.5823908     
   2611364497.4219275     
   2581347576.4110980     
   2559128186.3433537     
   2544714069.0486841     
   2538116068.9237466     
   2611025071.1296277     
   2585545056.9328532     
   2566683960.8240972     
   2554441782.8033609     
   2548818522.8706465     
   2804854820.9233112     
   2846656412.8467441     
   2890237138.6855516     
   2935651302.0544348     
   2982959252.2145443     
   2670519741.0215774     
   2719627019.8496528     
   2771109408.0824952     
   2825004624.5379391     
   2881352632.4557786     
   2579766944.5823908     
   2634831938.9319706     
   2692839439.9948554     
   2753809823.4180212     
   2817763794.7092648     
   2538116068.9237466     
   2596829688.5213265     
   2659057838.2874990     
   2724806671.1875830     
   2794082240.0954981     
   2548818522.8706465     
   2608087340.7749982     
   2671478555.9049220     
   2738992168.2604189     
   2810628177.8414912     
   2982959252.2145443     
   2917779590.1359196     
   2862850590.4413123     
   2818436283.5162334     
   2784827065.6960182     
   2881352632.4557786     
   2827793894.7084246     
   2784721011.1655622     
   2752296032.1628361     
   2730693075.3236976     
   2817763794.7092648     
   2773233184.0604925     
   2739307966.2038093     
   2716064033.6534801     
   2703581348.4944820     
   2794082240.0954981     
   2755538654.5515628     
   2727626372.3251586     
   2710364711.6015940     
   2703773737.9719400     
   2810628177.8414912     
   2774770790.8469253     
   2749505714.7996969     
   2734832949.6998048     
   2730752495.5472536     
   2784827065.6960182     
   2559957691.5292645     
   2354431033.6231494     
   2168844525.9662151     
   2004161995.9894936     
   2730693075.3236976     
   2512092802.7498717     
   2312174959.1958227     
   2131251140.2531612     
   1969830743.1728816     
   2703581348.4944820     
   2489093928.8987937     
   2292561223.3785901     
   2114110547.6086233     
   1953952877.2517297     
   2703773737.9719400     
   2491600740.3560767     
   2296581153.8537078     
   2118744037.0452292     
   1958138163.8248434     
   2730752495.5472536     
   2519492130.2827435     
   2324520906.8637381     
   2145838825.2902379     
   1983445885.5622354     
   2004161995.9894936     
   2687325913.6048837     
   3340940154.4836850     
   3965056342.5408950     
   4560699030.5011225     
   1969830743.1728816     
   2667762047.6413226     
   3338311638.3502393     
   3981231303.4168139     
   4596971517.5706139     
   1953952877.2517297     
   2664151620.6942239     
   3349094074.8139257     
   4008558281.5501714     
   4642694457.4569597     
   1958138163.8248434     
   2676294355.9141741     
   3371543904.6656523     
   4043809964.9145269     
   4693120193.1591187     
   1983445885.5622354     
   2703726129.6211805     
   3403928638.6632810     
   4084053412.6885400     
   4744100451.6969643     
   1135720113.6050813     
   1335131693.7979743     
   1534845748.1857274     
   1734862276.7683408     
   1935181279.5458138     
   1205995574.9704268     
   1398976449.8490310     
   1591541519.9916687     
   1782901563.6350620     
   1972591624.4264431     
   1392613132.5690229     
   1570910685.7719462     
   1750249908.5083585     
   1928596008.6697025     
   2104680947.3241241     
   1652825178.6937182     
   1820096332.1614161     
   1989114834.9879093     
   2157143695.2795701     
   2322399431.1852808     
   1954297852.2960341     
   2119119990.7253621     
   2285345099.3268213     
   2449969632.6477041     
   2611006214.6460199     
   1935181279.5458138     
   2058930807.3271689     
   2177344987.4668322     
   2290423819.9648042     
   2398167304.8210850     
   1972591624.4264431     
   2086843075.5469425     
   2198348068.3923883     
   2307034341.5680361     
   2412851382.1033301     
   2104680947.3241241     
   2205609584.2776337     
   2306559145.5470023     
   2407302109.0311294     
   2507676934.2859731     
   2322399431.1852808     
   2406716373.9289670     
   2493589212.7998414     
   2582642145.4524989     
   2673608333.8453522     
   2611006214.6460199     
   2676262406.1423073     
   2746148963.3360548     
   2820174154.0842843     
   2897995769.2767973     
   2398167304.8210850     
   2443710893.6937051     
   2494368384.3693366     
   2550139776.8479781     
   2611025071.1296277     
   2412851382.1033301     
   2456400496.5538650     
   2504001195.2096791     
   2555655005.0798550     
   2611364497.3285642     
   2507676934.2859731     
   2545958092.5126143     
   2587239223.7045383     
   2631515426.2696786     
   2678786786.7657461     
   2673608333.8453522     
   2704983861.6376805     
   2738311402.9344554     
   2773561484.8771420     
   2810716295.2411556     
   2897995769.2767973     
   2922379977.2542658     
   2947685513.5103664     
   2973839985.0158348     
   3000790579.2542338     
   2611025071.1296277     
   2585545056.9328532     
   2566683960.8240972     
   2554441782.8033609     
   2548818522.8706465     
   2611364497.3285642     
   2581347576.4015827     
   2559128186.4251070     
   2544714069.2285838     
   2538116069.2079911     
   2678786786.7657461     
   2640916101.9675231     
   2611762573.7668529     
   2591362534.3381581     
   2579766945.0412765     
   2810716295.2411556     
   2761565859.6263204     
   2721753736.0550342     
   2691364510.4309683     
   2670519741.5434160     
   3000790579.2542338     
   2937143428.6635151     
   2883166386.9569106     
   2838999980.3147035     
   2804854821.4073896     
   2548818522.8706465     
   2608087340.7749982     
   2671478555.9049220     
   2738992168.2604189     
   2810628177.8414912     
   2538116069.2079911     
   2596829689.0150728     
   2659057838.9789333     
   2724806672.0661092     
   2794082241.1520195     
   2579766945.0412765     
   2634831939.8324409     
   2692839441.3214331     
   2753809825.1571031     
   2817763796.8494029     
   2670519741.5434160     
   2719627021.0443220     
   2771109409.9412742     
   2825004627.0539818     
   2881352635.6241708     
   2804854821.4073896     
   2846656414.2132578     
   2890237140.9429007     
   2935651305.2125220     
   2982959256.2843671     
   2810628177.8414912     
   2774770790.8469253     
   2749505714.7996969     
   2734832949.6998048     
   2730752495.5472536     
   2794082241.1520195     
   2755538655.2227764     
   2727626372.5968328     
   2710364711.4641924     
   2703773737.4203992     
   2817763796.8494029     
   2773233185.4499493     
   2739307966.8102303     
   2716064033.4533658     
   2703581347.4729891     
   2881352635.6241708     
   2827793896.8118267     
   2784721012.1483426     
   2752296031.9809217     
   2730693073.9447489     
   2982959256.2843671     
   2917779592.9012127     
   2862850591.8184986     
   2818436283.4338875     
   2784827064.0954776     
   2730752495.5472536     
   2519492130.2827435     
   2324520906.8637381     
   2145838825.2902379     
   1983445885.5622354     
   2703773737.4203992     
   2491600739.3143401     
   2296581152.3678732     
   2118744035.1791620     
   1958138161.6659083     
   2703581347.4729891     
   2489093926.9111423     
   2292561220.5236068     
   2114110544.0253575     
   1953952873.1328559     
   2730693073.9447489     
   2512092799.9447293     
   2312174955.1219082     
   2131251135.1351376     
   1969830737.3258600     
   2784827064.0954776     
   2559957688.0583034     
   2354431028.5024414     
   2168844519.5150204     
   2004161988.6611502     
   1983445885.5622354     
   2703726129.6211805     
   3403928638.6632810     
   4084053412.6885400     
   4744100451.6969643     
   1958138161.6659083     
   2676294349.1116295     
   3371543892.8336725     
   4043809947.6939020     
   4693120170.2503595     
   1953952873.1328559     
   2664151609.0668936     
   3349094054.8726358     
   4008558252.4755630     
   4642694418.4661341     
   1969830737.3258600     
   2667762033.3373761     
   3338311614.3344717     
   3981231268.3142843     
   4596971469.9349823     
   2004161988.6611502     
   2687325898.8586097     
   3340940130.6304121     
   3965056307.5808401     
   4560698982.1592789     
   1954297852.2960341     
   2119119990.7253621     
   2285345099.3268213     
   2449969632.6477041     
   2611006214.6460199     
   2297710371.1885366     
   2449143961.3448329     
   2605340426.5999022     
   2764345621.1353903     
   2924706874.4214144     
   2693592763.6274266     
   2830102210.6827221     
   2973958797.3302803     
   3124059518.4007125     
   3279477194.2830248     
   3136745932.2352672     
   3255041373.9475837     
   3382784228.6675282     
   3519494190.0578313     
   3664703804.6171818     
   3623687549.0568495     
   3719169348.9957328     
   3825928926.5394864     
   3943899654.5629921     
   4072985353.4742699     
   2611006214.6460199     
   2676262406.1423073     
   2746148963.3360548     
   2820174154.0842843     
   2897995769.2767973     
   2924706874.4214144     
   2974993257.8705540     
   3027577891.5304766     
   3081793090.6257334     
   3137115059.5649285     
   3279477194.2830248     
   3320116641.3747439     
   3361038797.4043326     
   3401432093.3844528     
   3440625262.0625210     
   3664703804.6171818     
   3701580769.6172938     
   3737092011.5376859     
   3770347942.0448003     
   3800604954.1760406     
   4072985353.4742699     
   4111998936.7735143     
   4148359768.9768271     
   4181178495.0200114     
   4209729824.5950098     
   2897995769.2767973     
   2922379977.2542658     
   2947685513.5103664     
   2973839985.0158348     
   3000790579.2542338     
   3137115059.5649285     
   3142641945.4000158     
   3151428628.7415113     
   3163375689.5464182     
   3178475141.4009295     
   3440625262.0625210     
   3423328475.3915148     
   3410828620.8678002     
   3402919158.6473274     
   3399615180.3371863     
   3800604954.1760406     
   3756172825.8275366     
   3717457487.0129523     
   3684028093.5986600     
   3655845872.6534023     
   4209729824.5950098     
   4133566247.6199861     
   4063639119.3888617     
   3999155977.2220173     
   3939902301.5682654     
   3000790579.2542338     
   2937143428.6635151     
   2883166386.9569106     
   2838999980.3147035     
   2804854821.4073896     
   3178475141.4009295     
   3101288150.3171177     
   3032274704.8012519     
   2971646718.0536556     
   2919685640.5630674     
   3399615180.3371863     
   3309091700.4439659     
   3225425909.0297108     
   3148860804.2074180     
   3079708220.6715565     
   3655845872.6534023     
   3552804856.1786251     
   3455526477.7024102     
   3364254919.1399302     
   3279301647.2196269     
   3939902301.5682654     
   3825495688.4403839     
   3715989821.3442583     
   3611612410.3309412     
   3512657158.4334688     
   2804854821.4073896     
   2846656414.2132578     
   2890237140.9429007     
   2935651305.2125220     
   2982959256.2843671     
   2919685640.5630674     
   2950149978.4671421     
   2982955769.9704790     
   3018225978.0524344     
   3056096148.9701176     
   3079708220.6715565     
   3097438644.9178743     
   3117812568.1209230     
   3141032459.4932208     
   3167325850.3399715     
   3279301647.2196269     
   3283254301.4168935     
   3289899091.3592315     
   3299514568.8316383     
   3312423360.5906081     
   3512657158.4334688     
   3502054828.2347412     
   3493975521.1283221     
   3488757805.9142709     
   3486808639.9452553     
   2982959256.2843671     
   2917779592.9012127     
   2862850591.8184986     
   2818436283.4338875     
   2784827064.0954776     
   3056096148.9701176     
   2978939550.6150079     
   2911445147.6489058     
   2853990957.9932179     
   2807003248.9143195     
   3167325850.3399715     
   3076271601.4775615     
   2994156185.3960271     
   2921455717.5511432     
   2858721808.0410228     
   3312423360.5906081     
   3206184248.9672480     
   3108054059.7578340     
   3018576655.5985761     
   2938399670.0292659     
   3486808639.9452553     
   3364636718.3696928     
   3249679133.0933962     
   3142511014.3155527     
   3043835724.6622844     
   2784827064.0954776     
   2559957688.0583034     
   2354431028.5024414     
   2168844519.5150204     
   2004161988.6611502     
   2807003248.9143195     
   2574642725.0341716     
   2359640230.4506540     
   2162880369.5430498     
   1985818619.4801984     
   2858721808.0410228     
   2618555725.1240530     
   2393828912.8139338     
   2185676959.8112998     
   1996018274.5502496     
   2938399670.0292659     
   2690798892.3142014     
   2456854568.2897406     
   2237902604.3607635     
   2036258981.4497080     
   3043835724.6622844     
   2789691404.2631607     
   2547623133.7373891     
   2319118760.3334579     
   2106815294.1954761     
   2004161988.6611502     
   2687325898.8586097     
   3340940130.6304121     
   3965056307.5808401     
   4560698982.1592789     
   1985818619.4801984     
   2646402086.0993848     
   3283502721.6081953     
   3897131149.7897792     
   4488597045.8834753     
   1996018274.5502496     
   2630840305.4886231     
   3248316633.3007541     
   3848399935.0543628     
   4432699439.9098244     
   2036258981.4497080     
   2641708825.3290191     
   3235624948.6990194     
   3818065698.0287843     
   4391030200.2715359     
   2106815294.1954761     
   2679303153.6914678     
   3245246490.0254798     
   3805185839.6200652     
   4361711753.3915596     
   3623687549.0568495     
   3719169348.9957328     
   3825928926.5394864     
   3943899654.5629921     
   4072985353.4742699     
   4132847330.8624530     
   4223833575.1661110     
   4320776049.3025866     
   4422005815.0778542     
   4526058025.3538513     
   4642343301.0095720     
   4755056256.1652126     
   4868935483.0818033     
   4981323155.6214914     
   5090272859.0453711     
   5150657170.5666332     
   5311010587.5823259     
   5468046171.4264631     
   5618834570.2586136     
   5761876714.3978996     
   5657526108.9286079     
   5890856568.9407568     
   6116609660.9201956     
   6332282148.4948759     
   6537605925.5458174     
   4072985353.4742699     
   4111998936.7735143     
   4148359768.9768271     
   4181178495.0200114     
   4209729824.5950098     
   4526058025.3538513     
   4538632522.0431833     
   4555953675.9671116     
   4575538659.1586342     
   4595647415.9934072     
   5090272859.0453711     
   5053568314.0408106     
   5027532689.0856562     
   5006952441.4443893     
   4988584100.6518431     
   5761876714.3978996     
   5651474105.0160952     
   5557295253.8508978     
   5470282371.2349119     
   5384836334.2553902     
   6537605925.5458174     
   6327753391.2566528     
   6140351620.4720755     
   5961523447.4795046     
   5782201418.9250069     
   4209729824.5950098     
   4133566247.6199861     
   4063639119.3888617     
   3999155977.2220173     
   3939902301.5682654     
   4595647415.9934072     
   4495168631.4916296     
   4398509397.4635191     
   4305378097.8728590     
   4215727040.5007124     
   4988584100.6518431     
   4869402514.6313686     
   4752884504.2249737     
   4639000646.9256344     
   4527796039.9145527     
   5384836334.2553902     
   5252261206.5289955     
   5122273487.2217417     
   4994905917.5287132     
   4870224468.6448116     
   5782201418.9250069     
   5641041081.2274818     
   5503349289.5154133     
   5369029470.3357296     
   5238074996.5468054     
   3939902301.5682654     
   3825495688.4403839     
   3715989821.3442583     
   3611612410.3309412     
   3512657158.4334688     
   4215727040.5007124     
   4088337998.2453251     
   3965626581.9090610     
   3847816250.1081266     
   3735214101.9638686     
   4527796039.9145527     
   4385223934.2449179     
   4246889284.5871873     
   4112988907.7700667     
   3983824684.4237423     
   4870224468.6448116     
   4710307364.5205336     
   4554031851.8424072     
   4401543725.0975122     
   4253115862.4398518     
   5238074996.5468054     
   5058704142.5023794     
   4882276957.0063219     
   4708863321.8451252     
   4538680294.6282291     
   3512657158.4334688     
   3502054828.2347412     
   3493975521.1283221     
   3488757805.9142709     
   3486808639.9452553     
   3735214101.9638686     
   3711381271.5558281     
   3688666808.8668146     
   3667369622.0339770     
   3647856760.8933415     
   3983824684.4237423     
   3949141213.4387484     
   3914389018.5414486     
   3879816219.4508786     
   3845736449.2692299     
   4253115862.4398518     
   4210319161.7900591     
   4166510733.4016562     
   4121894509.9701953     
   4076737264.7935276     
   4538680294.6282291     
   4490659329.0404701     
   4440934136.6541843     
   4389682635.5567017     
   4337145119.2513399     
   3486808639.9452553     
   3364636718.3696928     
   3249679133.0933962     
   3142511014.3155527     
   3043835724.6622844     
   3647856760.8933415     
   3506757714.6123090     
   3371800784.4321804     
   3243459270.0313487     
   3122336689.0054154     
   3845736449.2692299     
   3687769067.4616008     
   3535045907.1793084     
   3387920907.1937504     
   3246875121.7929645     
   4076737264.7935276     
   3903910292.7235141     
   3735645084.7089214     
   3572181281.0013866     
   3413882782.7812462     
   4337145119.2513399     
   4151267244.4444256     
   3969486151.3329868     
   3791945077.4897976     
   3618913628.1918249     
   3043835724.6622844     
   2789691404.2631607     
   2547623133.7373891     
   2319118760.3334579     
   2106815294.1954761     
   3122336689.0054154     
   2857703353.1128030     
   2606695971.9013200     
   2370966256.6396279     
   2153422038.0021658     
   3246875121.7929645     
   2965300703.1100163     
   2698130778.9912462     
   2447196627.4881692     
   2215791625.2986994     
   3413882782.7812462     
   3108508868.6090856     
   2817632157.2501020     
   2543273298.6226315     
   2289220137.5860033     
   3618913628.1918249     
   3282798776.6961851     
   2960736302.0020108     
   2654931523.5071044     
   2369747870.5664515     
   2106815294.1954761     
   2679303153.6914678     
   3245246490.0254798     
   3805185839.6200652     
   4361711753.3915596     
   2153422038.0021658     
   2697235191.8980279     
   3227370812.6893806     
   3744649622.9156737     
   4253129675.2828531     
   2215791625.2986994     
   2745288740.8119116     
   3254532799.2402945     
   3745979752.1516204     
   4226246385.4003210     
   2289220137.5860033     
   2824472917.9202123     
   3334806237.9763203     
   3825692794.7567258     
   4307377994.1710529     
   2369747870.5664515     
   2934809795.3967586     
   3473941606.7333288     
   3996617851.9980221     
   4517323971.0361729     
   5657526108.9286079     
   5890856568.9407568     
   6116609660.9201956     
   6332282148.4948759     
   6537605925.5458174     
   6491768730.5988321     
   6587211042.1658564     
   6757950153.2477112     
   6961810516.1269045     
   7172119009.4559317     
   7982495407.6818323     
   7735478569.2174950     
   7669991779.5869188     
   7670530629.4355831     
   7667145733.0518579     
   10130172601.150265     
   9322481942.8746853     
   8827530735.3668995     
   8445140286.6262608     
   8037427439.3660126     
   12934895933.760977     
   11340938361.951706     
   10211725606.550381     
   9275428344.3808670     
   8307458420.0422068     
   6537605925.5458174     
   6327753391.2566528     
   6140351620.4720755     
   5961523447.4795046     
   5782201418.9250069     
   7172119009.4559317     
   6909634963.7563686     
   6655359988.4374199     
   6405478404.2706728     
   6156848576.5198069     
   7667145733.0518579     
   7379767528.4857950     
   7098161551.9837513     
   6822416170.3782663     
   6552773301.1510258     
   8037427439.3660126     
   7745849365.4869375     
   7470439768.6666069     
   7209179542.2860451     
   6962122260.4789925     
   8307458420.0422068     
   8020484905.4597445     
   7776309721.6128740     
   7564090603.0777254     
   7378890922.3235598     
   5782201418.9250069     
   5641041081.2274818     
   5503349289.5154133     
   5369029470.3357296     
   5238074996.5468054     
   6156848576.5198069     
   6018199597.1578226     
   5880146151.0959616     
   5742722017.2613792     
   5605971544.2227087     
   6552773301.1510258     
   6413007962.7837477     
   6270797712.8232956     
   6126104673.4231701     
   5978991323.4362097     
   6962122260.4789925     
   6818963404.4964428     
   6670258506.0638466     
   6515702734.8813219     
   6355316255.8011494     
   7378890922.3235598     
   7231049363.5514727     
   7074636159.8978024     
   6908899286.5933800     
   6733745283.7489223     
   5238074996.5468054     
   5058704142.5023794     
   4882276957.0063219     
   4708863321.8451252     
   4538680294.6282291     
   5605971544.2227087     
   5406716915.1411877     
   5210133161.1014814     
   5016324559.3671103     
   4825497688.5249052     
   5978991323.4362097     
   5763271003.6089039     
   5550452528.4046984     
   5340636955.4105463     
   5134027928.5478401     
   6355316255.8011494     
   6126165187.4354811     
   5900600067.4595299     
   5678673774.8182859     
   5460577058.3553905     
   6733745283.7489223     
   6493790972.7087383     
   6258529652.1215820     
   6027912486.9438334     
   5802089867.6594391     
   4538680294.6282291     
   4490659329.0404701     
   4440934136.6541843     
   4389682635.5567017     
   4337145119.2513399     
   4825497688.5249052     
   4774253173.0547056     
   4722031383.5758657     
   4668963192.9706984     
   4615212373.5610857     
   5134027928.5478401     
   5078623889.0911560     
   5022838372.2282200     
   4966768090.2488947     
   4910527362.2695131     
   5460577058.3553905     
   5399545242.1976433     
   5338601179.8787622     
   5277824522.3588800     
   5217309643.1508465     
   5802089867.6594391     
   5733571352.7843361     
   5665497157.5088797     
   5597950224.1366253     
   5531036168.9660587     
   4337145119.2513399     
   4151267244.4444256     
   3969486151.3329868     
   3791945077.4897976     
   3618913628.1918249     
   4615212373.5610857     
   4419024056.7009144     
   4225204950.0569229     
   4034004438.1796632     
   3845808800.6224046     
   4910527362.2695131     
   4698342999.6758404     
   4486254350.7484436     
   4274514398.8999205     
   4063634921.4104838     
   5217309643.1508465     
   4984529764.4928074     
   4749169387.9544830     
   4511332314.6630020     
   4271575540.7964659     
   5531036168.9660587     
   5273974242.6858416     
   5011418405.6635313     
   4743140075.8747911     
   4469597383.5995884     
   3618913628.1918249     
   3282798776.6961851     
   2960736302.0020108     
   2654931523.5071044     
   2369747870.5664515     
   3845808800.6224046     
   3480903542.6976051     
   3125523305.9513335     
   2781604443.0549722     
   2452808947.1587591     
   4063634921.4104838     
   3682190917.8758788     
   3307328581.1891112     
   2940535823.4582911     
   2584633314.3863220     
   4271575540.7964659     
   3886318213.8479500     
   3506271882.2053933     
   3132465975.9310541     
   2767055911.9008274     
   4469597383.5995884     
   4093267794.6171193     
   3722357508.7021499     
   3357452892.8889222     
   3000278671.2408514     
   2369747870.5664515     
   2934809795.3967586     
   3473941606.7333288     
   3996617851.9980221     
   4517323971.0361729     
   2452808947.1587591     
   3061448795.2672653     
   3667625053.9431801     
   4268946118.1500864     
   4866119894.2103882     
   2584633314.3863220     
   3215807971.1171985     
   3864500885.2145872     
   4521767572.7825890     
   5183299329.8290291     
   2767055911.9008274     
   3387026664.1886129     
   4044912269.0035157     
   4731854566.6245184     
   5446269940.6732645     
   3000278671.2408514     
   3566826607.7836161     
   4197910363.9911489     
   4892104888.4091558     
   5657444676.4173822     
 </DataArray>
 <DataArray  type="Float64" Name="strain" NumberOfComponents="3" format="ascii">
  0.20345279571002864        0.0000000000000000       0.12547377887102609     
  0.18664884590004094       -2.7356904137949979E-002   7.4396236173172328E-002
  0.16984489609005324       -4.4713525846372552E-002   3.5137059438095399E-002
  0.15304094628006551       -5.2069865125267720E-002   7.6962486657952654E-003
  0.13623699647007781       -4.9425921974635481E-002  -7.9261961437280537E-003
  0.15984538859040565        0.0000000000000000        9.6476830812797301E-002
  0.15318059901020631       -2.1869080741668847E-002   6.2711577145491054E-002
  0.14651580943000700       -3.6202621439187600E-002   3.7406277974984740E-002
  0.13985101984980769       -4.3000622092556243E-002   2.0560933301278391E-002
  0.13318623026960835       -4.2263082701774812E-002   1.2175543124372037E-002
  0.12646156499747982        0.0000000000000000        7.4200077343538312E-002
  0.12657752418109203       -1.6381257345387715E-002   5.5282370321402222E-002
  0.12669348336470423       -2.7691717032002638E-002   4.1466206330089253E-002
  0.12680944254831644       -3.3931379059844780E-002   3.2751585369599413E-002
  0.12692540173192865       -3.5100243428914123E-002   2.9138507439932616E-002
  0.10330132493125116        0.0000000000000000        5.8643518463249084E-002
  0.10683962141269804       -1.0893433949106586E-002   5.2108615700905879E-002
  0.11037791789414493       -1.9180812624817682E-002   4.7316844503408950E-002
  0.11391621437559182       -2.4862136027133303E-002   4.4268204870758263E-002
  0.11745451085703870       -2.7937404156053440E-002   4.2962696802953802E-002
   9.0364668391719666E-002   0.0000000000000000        4.9807154171929657E-002
   9.3966890705024383E-002  -5.4056105528254529E-003   5.3190313284002033E-002
   9.7569113018329073E-002  -1.0669908217632730E-002   5.4958192494943797E-002
  0.10117133533163379       -1.5792892994421832E-002   5.5110791804754970E-002
  0.10477355764493849       -2.0774564883192764E-002   5.3648111213435504E-002
  0.13623699647007781       -4.9425921974635481E-002  -7.9261961437280537E-003
  0.13297474394233916       -4.2852513463325262E-002  -3.4487253282054209E-003
  0.12971249141460051       -3.8420456660186425E-002  -3.7122767795463515E-004
  0.12645023888686183       -3.6129751565218950E-002   1.3062968070240363E-003
  0.12318798635912317       -3.5980398178422995E-002   1.5838481267308469E-003
  0.13318623026960835       -4.2263082701774812E-002   1.2175543124372037E-002
  0.12891041363688133       -3.8367369167849774E-002   1.2149088929950830E-002
  0.12463459700415422       -3.5690847391787545E-002   1.1495479690824838E-002
  0.12035878037142718       -3.4233517373588186E-002   1.0214715406993920E-002
  0.11608296373870008       -3.3995379113251678E-002   8.3067960784581896E-003
  0.12692540173192865       -3.5100243428914123E-002   2.9138507439932616E-002
  0.12240883911478029       -3.3882224872374238E-002   2.5530288185876094E-002
  0.11789227649763191       -3.2961238123388678E-002   2.2067732007681952E-002
  0.11337571388048356       -3.2337283181957381E-002   1.8750838905350002E-002
  0.10885915126333517       -3.2010360048080458E-002   1.5579608878880248E-002
  0.11745451085703870       -2.7937404156053440E-002   4.2962696802953802E-002
  0.11347002037603614       -2.9397080576898698E-002   3.6694872439570550E-002
  0.10948552989503356       -3.0231628854989777E-002   3.1345529272616746E-002
  0.10550103941403098       -3.0441048990326586E-002   2.6914667302092191E-002
  0.10151654893302843       -3.0025340982909217E-002   2.3402286527997057E-002
  0.10477355764493849       -2.0774564883192764E-002   5.3648111213435504E-002
  0.10209395742064883       -2.4911936281423207E-002   4.5642841691034081E-002
   9.9414357196359160E-002  -2.7502019586590917E-002   3.9328871485629149E-002
   9.6734756972069527E-002  -2.8544814798695799E-002   3.4706200597220668E-002
   9.4055156747779853E-002  -2.8040321917737962E-002   3.1774829025808610E-002
  0.12318798635912317       -3.5980398178422995E-002   1.5838481267308469E-003
  0.12042171468625201       -3.6554684552731920E-002   7.3050149707473699E-004
  0.11765544301338086       -3.6434898741079226E-002   8.9886300160560428E-005
  0.11488917134050969       -3.5621040743465039E-002  -3.3799746401147468E-004
  0.11212289966763855       -3.4113110559889359E-002  -5.5314979544163201E-004
  0.11608296373870008       -3.3995379113251678E-002   8.3067960784581896E-003
  0.11350953606909503       -3.4135282725771793E-002   7.8933622634399514E-003
  0.11093610839949002       -3.3812078326142192E-002   7.6528850222120914E-003
  0.10836268072988500       -3.3025765914362876E-002   7.5853643547742558E-003
  0.10578925306027995       -3.1776345490433844E-002   7.6908002611268955E-003
  0.10885915126333517       -3.2010360048080458E-002   1.5579608878880248E-002
  0.10643879273804452       -3.1715880898811777E-002   1.5375123704688173E-002
  0.10401843421275379       -3.1189257911205154E-002   1.5303820245334606E-002
  0.10159807568746311       -3.0430491085260681E-002   1.5365698500819399E-002
   9.9177717162172371E-002  -2.9439580420978356E-002   1.5560758471142619E-002
  0.10151654893302843       -3.0025340982909217E-002   2.3402286527997057E-002
   9.9209484693100314E-002  -2.9296479071851678E-002   2.3175785820819243E-002
   9.6902420453172169E-002  -2.8566437496268117E-002   2.3042691969528035E-002
   9.4595356213244108E-002  -2.7835216256158531E-002   2.3003004974123567E-002
   9.2288291973315936E-002  -2.7102815351522910E-002   2.3056724834605805E-002
   9.4055156747779853E-002  -2.8040321917737962E-002   3.1774829025808610E-002
   9.1821611934262568E-002  -2.6877077244891606E-002   3.1295348611833168E-002
   8.9588067120745268E-002  -2.5943617081331072E-002   3.0869500194792641E-002
   8.7354522307227969E-002  -2.5239941427056368E-002   3.0497283774686936E-002
   8.5120977493710642E-002  -2.4766050282067437E-002   3.0178699351516375E-002
  0.11212289966763855       -3.4113110559889359E-002  -5.5314979544163201E-004
  0.10823864698215357       -3.2431438601124130E-002  -1.0169157458642109E-004
  0.10435439429666862       -3.1096355277940899E-002   4.2683441789251320E-004
  0.10047014161118363       -3.0107860590340634E-002   1.0324281819950737E-003
   9.6585888925698693E-002  -2.9465954538322237E-002   1.7150897177214408E-003
  0.10578925306027995       -3.1776345490433844E-002   7.6908002611268955E-003
  0.10201765863716436       -3.0419978240796508E-002   7.6020581838210088E-003
   9.8246064214048787E-002  -2.9312825351892391E-002   7.6615648596301128E-003
   9.4474469790933213E-002  -2.8454886823721312E-002   7.8693202885544433E-003
   9.0702875367817626E-002  -2.7846162656283258E-002   8.2253244705936535E-003
   9.9177717162172371E-002  -2.9439580420978356E-002   1.5560758471142619E-002
   9.5589961982917540E-002  -2.8408517880469136E-002   1.5029190370525095E-002
   9.2002206803662639E-002  -2.7529295425843557E-002   1.4717052004513703E-002
   8.8414451624407780E-002  -2.6801913057102104E-002   1.4624343373108809E-002
   8.4826696445152908E-002  -2.6226370774244445E-002   1.4751064476310416E-002
   9.2288291973315936E-002  -2.7102815351522910E-002   2.3056724834605805E-002
   8.8955557019413115E-002  -2.6397057520141584E-002   2.2179704985525704E-002
   8.5622822065510251E-002  -2.5745765499794886E-002   2.1593295852543222E-002
   8.2290087111607402E-002  -2.5148939290482879E-002   2.1297497435658501E-002
   7.8957352157704566E-002  -2.4606578892205438E-002   2.1292309734871416E-002
   8.5120977493710642E-002  -2.4766050282067437E-002   3.0178699351516375E-002
   8.2114443746651083E-002  -2.4385597159814115E-002   2.9053602028823039E-002
   7.9107909999591539E-002  -2.3962235573746243E-002   2.8290296403718551E-002
   7.6101376252531994E-002  -2.3495965523863648E-002   2.7888782476203133E-002
   7.3094842505472407E-002  -2.2986787010166515E-002   2.7849060246276647E-002
   9.6585888925698693E-002  -2.9465954538322237E-002   1.7150897177214408E-003
   9.5466992917386917E-002  -2.9006621767415308E-002   2.2096527778560082E-003
   9.4348096909075113E-002  -2.8565846923147981E-002   2.8488086223508180E-003
   9.3229200900763323E-002  -2.8143630005520275E-002   3.6325572512058840E-003
   9.2110304892451533E-002  -2.7739971014532738E-002   4.5608986644218863E-003
   9.0702875367817626E-002  -2.7846162656283258E-002   8.2253244705936535E-003
   8.9708087814389048E-002  -2.7349933438629875E-002   8.7090711037293989E-003
   8.8713300260960526E-002  -2.6829479759811786E-002   9.2964418622713263E-003
   8.7718512707531976E-002  -2.6284801619829497E-002   9.9874367462191305E-003
   8.6723725154103426E-002  -2.5715899018682875E-002   1.0782055755573505E-002
   8.4826696445152908E-002  -2.6226370774244445E-002   1.4751064476310416E-002
   8.3915048687653204E-002  -2.5693245109844276E-002   1.5266777070251730E-002
   8.3003400930153487E-002  -2.5093112596475828E-002   1.5845145130644930E-002
   8.2091753172653770E-002  -2.4425973234138556E-002   1.6486168657489711E-002
   8.1180105415154108E-002  -2.3691827022832901E-002   1.7189847650785989E-002
   7.8957352157704566E-002  -2.4606578892205438E-002   2.1292309734871416E-002
   7.8087875537179302E-002  -2.4036556781058982E-002   2.1882770677422565E-002
   7.7218398916654024E-002  -2.3356745433139696E-002   2.2494918427470995E-002
   7.6348922296128816E-002  -2.2567144848447865E-002   2.3128752985016848E-002
   7.5479445675603496E-002  -2.1667755026983093E-002   2.3784274350059816E-002
   7.3094842505472407E-002  -2.2986787010166515E-002   2.7849060246276647E-002
   7.2226568362967286E-002  -2.2379868452273494E-002   2.8557051925241772E-002
   7.1358294220462096E-002  -2.1620378269803710E-002   2.9245761752749941E-002
   7.0490020077956905E-002  -2.0708316462756900E-002   2.9915189728800910E-002
   6.9621745935451701E-002  -1.9643683031133174E-002   3.0565335853394660E-002
   9.2110304892451533E-002  -2.7739971014532738E-002   4.5608986644218863E-003
   8.7680152620416840E-002  -2.7114978066472173E-002   3.8692825012153764E-003
   8.3250000348382036E-002  -2.6028759277625907E-002   3.6818356592263624E-003
   7.8819848076347260E-002  -2.4481314647993545E-002   3.9985581384558988E-003
   7.4389695804312539E-002  -2.2472644177576218E-002   4.8194499389037082E-003
   8.6723725154103426E-002  -2.5715899018682875E-002   1.0782055755573505E-002
   8.2759065792663289E-002  -2.4980459123120136E-002   1.0279761165368717E-002
   7.8794406431223235E-002  -2.3936169099889215E-002   1.0204283075135351E-002
   7.4829747069783140E-002  -2.2583028948990377E-002   1.0555621484873434E-002
   7.0865087708343044E-002  -2.0921038670423608E-002   1.1333776394582606E-002
   8.1180105415154108E-002  -2.3691827022832901E-002   1.7189847650785989E-002
   7.7603586143061731E-002  -2.2845940179767737E-002   1.6724498920465819E-002
   7.4027066870969396E-002  -2.1843578922152537E-002   1.6608613868869998E-002
   7.0450547598877006E-002  -2.0684743249986769E-002   1.6842192495998422E-002
   6.6874028326784657E-002  -1.9369433163270999E-002   1.7425234801851236E-002
   7.5479445675603496E-002  -2.1667755026983093E-002   2.3784274350059816E-002
   7.2213713671611932E-002  -2.0711421236415797E-002   2.3203495766506516E-002
   6.8947981667620409E-002  -1.9750988744415908E-002   2.2894828040430356E-002
   6.5682249663628872E-002  -1.8786457550983383E-002   2.2858271171831548E-002
   6.2416517659637391E-002  -1.7817827656118390E-002   2.3093825160710298E-002
   6.9621745935451701E-002  -1.9643683031133174E-002   3.0565335853394660E-002
   6.6589448378314070E-002  -1.8576902293063580E-002   2.9716751703490363E-002
   6.3557150821176397E-002  -1.7658398566679043E-002   2.9062925589816407E-002
   6.0524853264038732E-002  -1.6888171851979963E-002   2.8603857512372904E-002
   5.7492555706901038E-002  -1.6266222148965781E-002   2.8339547471159798E-002
   7.4389695804312539E-002  -2.2472644177576218E-002   4.8194499389037082E-003
   6.8154067596728762E-002  -2.0458804284745669E-002   4.4450384834352485E-003
   6.1918439389144875E-002  -1.8895851387875390E-002   3.7270551165717869E-003
   5.5682811181561043E-002  -1.7783785486965069E-002   2.6654998383126849E-003
   4.9447182973977211E-002  -1.7122606582015254E-002   1.2603726486581923E-003
   7.0865087708343044E-002  -2.0921038670423608E-002   1.1333776394582606E-002
   6.4419120524462803E-002  -1.9304857026101740E-002   1.0200469392564304E-002
   5.7973153340582534E-002  -1.8089142777938633E-002   8.9900563493490737E-003
   5.1527186156702279E-002  -1.7273895925933376E-002   7.7025372649357493E-003
   4.5081218972822024E-002  -1.6859116470086644E-002   6.3379121393252191E-003
   6.6874028326784657E-002  -1.9369433163270999E-002   1.7425234801851236E-002
   6.0484188036805567E-002  -1.8150909767458201E-002   1.5583451853086072E-002
   5.4094347746826449E-002  -1.7282434168001889E-002   1.3931028733320736E-002
   4.7704507456847373E-002  -1.6764006364901576E-002   1.2467965442555254E-002
   4.1314667166868241E-002  -1.6595626358158089E-002   1.1194261980789794E-002
   6.2416517659637391E-002  -1.7817827656118390E-002   2.3093825160710298E-002
   5.6349270133756998E-002  -1.6996962508814356E-002   2.0593985864999394E-002
   5.0282022607876696E-002  -1.6475725558064695E-002   1.8549972268486165E-002
   4.4214775081996352E-002  -1.6254116803869720E-002   1.6961784371170477E-002
   3.8147527556116008E-002  -1.6332136246229395E-002   1.5829422173052103E-002
   5.7492555706901038E-002  -1.6266222148965781E-002   2.8339547471159798E-002
   5.2014366815317098E-002  -1.5843015250170567E-002   2.5232071428305081E-002
   4.6536177923733157E-002  -1.5669016948128042E-002   2.2846886954845769E-002
   4.1057989032149272E-002  -1.5744227242838051E-002   2.1183994050781516E-002
   3.5579800140565276E-002  -1.6068646134300868E-002   2.0243392716112474E-002
   4.9447182973977211E-002  -1.7122606582015254E-002   1.2603726486581923E-003
   5.9058353367196781E-002  -1.7829630965480292E-002   9.8602659076734156E-003
   6.8669523760416407E-002  -2.0822174929814669E-002   1.9738030523761829E-002
   7.8280694153636060E-002  -2.6100238475018779E-002   3.0893666496925459E-002
   8.7891864546855603E-002  -3.3663821601092714E-002   4.3327173827162113E-002
   4.5081218972822024E-002  -1.6859116470086644E-002   6.3379121393252191E-003
   5.5605668807519326E-002  -1.7285613660645571E-002   1.3388822939184031E-002
   6.6130118642216601E-002  -1.8994196747856518E-002   2.0988421264924118E-002
   7.6654568476913917E-002  -2.1984865731720843E-002   2.9136707116545868E-002
   8.7179018311611234E-002  -2.6257620612237798E-002   3.7833680494049116E-002
   4.1314667166868241E-002  -1.6595626358158089E-002   1.1194261980789794E-002
   5.2023212611850583E-002  -1.6741596355810462E-002   1.7699624005709486E-002
   6.2731758056832967E-002  -1.7166218565898575E-002   2.4024489725318274E-002
   7.3440303501815352E-002  -1.7869492988422626E-002   3.0168859139615221E-002
   8.4148848946797694E-002  -1.8851419623382659E-002   3.6132732248601251E-002
   3.8147527556116008E-002  -1.6332136246229395E-002   1.5829422173052103E-002
   4.8310984780190781E-002  -1.6197579050975769E-002   2.2792669107249933E-002
   5.8474442004265492E-002  -1.5338240383940639E-002   2.8846235904943191E-002
   6.8637899228340224E-002  -1.3754120245124993E-002   3.3990122566133173E-002
   7.8801356452414872E-002  -1.1445218634527632E-002   3.8224329090818465E-002
   3.5579800140565276E-002  -1.6068646134300868E-002   2.0243392716112474E-002
   4.4468985312539677E-002  -1.5653561746140576E-002   2.8667958243804914E-002
   5.3358170484514050E-002  -1.3510262201982828E-002   3.5453659803800469E-002
   6.2247355656488534E-002  -9.6387475018266423E-003   4.0600497396099375E-002
   7.1136540828462880E-002  -4.0390176456726046E-003   4.4108471020701812E-002
   9.0364668391719666E-002   0.0000000000000000        4.9807154171929657E-002
   9.3966890705024383E-002  -5.4056105528254529E-003   5.3190313284002033E-002
   9.7569113018329073E-002  -1.0669908217632730E-002   5.4958192494943797E-002
  0.10117133533163379       -1.5792892994421832E-002   5.5110791804754970E-002
  0.10477355764493849       -2.0774564883192764E-002   5.3648111213435504E-002
   8.2419287641915029E-002   0.0000000000000000        4.4753202901305023E-002
   8.4634761419308646E-002  -4.5748734527690064E-003   4.8251279967008245E-002
   8.6850235196702263E-002  -9.0362227222465646E-003   5.0591139862019907E-002
   8.9065708974095867E-002  -1.3384047808432673E-002   5.1772782586340001E-002
   9.1281182751489484E-002  -1.7618348711327336E-002   5.1796208139968498E-002
   7.4232874944866939E-002   0.0000000000000000        4.0543883083100189E-002
   7.5518662916788493E-002  -3.7441363527125596E-003   4.4129089397707551E-002
   7.6804450888710032E-002  -7.4025372268603975E-003   4.7013141272062360E-002
   7.8090238860631586E-002  -1.0975202622443517E-002   4.9196038706164645E-002
   7.9376026832553140E-002  -1.4462132539461908E-002   5.0677781700014392E-002
   6.5805430300575327E-002   0.0000000000000000        3.7179194717315178E-002
   6.6618595197463853E-002  -2.9133992526561119E-003   4.0823741576099928E-002
   6.7431760094352408E-002  -5.7688517314742303E-003   4.4224196725071177E-002
   6.8244924991240935E-002  -8.5663574364543554E-003   4.7380560164228938E-002
   6.9058089888129448E-002  -1.1305916367596480E-002   5.0292831893573177E-002
   5.7136953709040261E-002   0.0000000000000000        3.4659137803949976E-002
   5.7934558261334812E-002  -2.0826621525996663E-003   3.8335236502185392E-002
   5.8732162813629356E-002  -4.1351662360880649E-003   4.2224306221046351E-002
   5.9529767365923907E-002  -6.1575122504651976E-003   4.6326346960532831E-002
   6.0327371918218464E-002  -8.1497001957310574E-003   5.0641358720644875E-002
  0.10477355764493849       -2.0774564883192764E-002   5.3648111213435504E-002
  0.10209395742064883       -2.4911936281423207E-002   4.5642841691034081E-002
   9.9414357196359160E-002  -2.7502019586590917E-002   3.9328871485629149E-002
   9.6734756972069527E-002  -2.8544814798695799E-002   3.4706200597220668E-002
   9.4055156747779853E-002  -2.8040321917737962E-002   3.1774829025808610E-002
   9.1281182751489484E-002  -1.7618348711327336E-002   5.1796208139968498E-002
   9.0054815112113995E-002  -2.1191393884836734E-002   4.6518228544268375E-002
   8.8828447472738492E-002  -2.3555451782867040E-002   4.2455414801400165E-002
   8.7602079833362989E-002  -2.4710522405418239E-002   3.9607766911363716E-002
   8.6375712193987514E-002  -2.4656605752490388E-002   3.7975284874159174E-002
   7.9376026832553140E-002  -1.4462132539461908E-002   5.0677781700014392E-002
   7.9126758313927209E-002  -1.7470851488250238E-002   4.7788791213431867E-002
   7.8877489795301292E-002  -1.9608883979143170E-002   4.5638833115516649E-002
   7.8628221276675361E-002  -2.0876230012140697E-002   4.4227907406268634E-002
   7.8378952758049431E-002  -2.1272889587242806E-002   4.3556014085687975E-002
   6.9058089888129448E-002  -1.1305916367596480E-002   5.0292831893573177E-002
   6.9309787026088504E-002  -1.3750309091663759E-002   4.9454529698524603E-002
   6.9561484164047532E-002  -1.5662316175419310E-002   4.8879126427978703E-002
   6.9813181302006561E-002  -1.7041937618863114E-002   4.8566622081935469E-002
   7.0064878439965603E-002  -1.7889173421995228E-002   4.8517016660394909E-002
   6.0327371918218464E-002  -8.1497001957310574E-003   5.0641358720644875E-002
   6.0603901248597866E-002  -1.0029766695077269E-002   5.1515443999546530E-002
   6.0880430578977254E-002  -1.1715748371695429E-002   5.2176294738786287E-002
   6.1156959909356663E-002  -1.3207645225585570E-002   5.2623910938364084E-002
   6.1433489239736058E-002  -1.4505457256747657E-002   5.2858292598279975E-002
   9.4055156747779853E-002  -2.8040321917737962E-002   3.1774829025808610E-002
   9.1821611934262568E-002  -2.6877077244891606E-002   3.1295348611833168E-002
   8.9588067120745268E-002  -2.5943617081331072E-002   3.0869500194792641E-002
   8.7354522307227969E-002  -2.5239941427056368E-002   3.0497283774686936E-002
   8.5120977493710642E-002  -2.4766050282067437E-002   3.0178699351516375E-002
   8.6375712193987514E-002  -2.4656605752490388E-002   3.7975284874159174E-002
   8.4244914671599391E-002  -2.4034742342760231E-002   3.7076165736652095E-002
   8.2114117149211283E-002  -2.3485972694904655E-002   3.6328909184468419E-002
   7.9983319626823174E-002  -2.3010296808923608E-002   3.5733515217608258E-002
   7.7852522104435107E-002  -2.2607714684817176E-002   3.5289983836071459E-002
   7.8378952758049431E-002  -2.1272889587242806E-002   4.3556014085687975E-002
   7.6449133115179022E-002  -2.1192407440628863E-002   4.2393946972060448E-002
   7.4519313472308626E-002  -2.1028328308478221E-002   4.1481973032144896E-002
   7.2589493829438231E-002  -2.0780652190790890E-002   4.0820092265941313E-002
   7.0659674186567822E-002  -2.0449379087566874E-002   4.0408304673449733E-002
   7.0064878439965603E-002  -1.7889173421995228E-002   4.8517016660394909E-002
   6.8434267265001431E-002  -1.8350072538497492E-002   4.7248692318058234E-002
   6.6803656090037286E-002  -1.8570683922051797E-002   4.6328691737822052E-002
   6.5173044915073128E-002  -1.8551007572658134E-002   4.5757014919686367E-002
   6.3542433740108969E-002  -1.8291043490316607E-002   4.5533661863651154E-002
   6.1433489239736058E-002  -1.4505457256747657E-002   5.2858292598279975E-002
   6.0200317121066660E-002  -1.5507737636366124E-002   5.1640401774645447E-002
   5.8967145002397255E-002  -1.6113039535625380E-002   5.0869065301499927E-002
   5.7733972883727849E-002  -1.6321362954525402E-002   5.0544283178843387E-002
   5.6500800765058437E-002  -1.6132707893066298E-002   5.0666055406675889E-002
   8.5120977493710642E-002  -2.4766050282067437E-002   3.0178699351516375E-002
   8.2114443746651083E-002  -2.4385597159814115E-002   2.9053602028823039E-002
   7.9107909999591539E-002  -2.3962235573746243E-002   2.8290296403718551E-002
   7.6101376252531994E-002  -2.3495965523863648E-002   2.7888782476203133E-002
   7.3094842505472407E-002  -2.2986787010166515E-002   2.7849060246276647E-002
   7.7852522104435107E-002  -2.2607714684817176E-002   3.5289983836071459E-002
   7.5186785454094227E-002  -2.2232692814755553E-002   3.4249940242715993E-002
   7.2521048803753388E-002  -2.1839697690909106E-002   3.3529699145208910E-002
   6.9855312153412522E-002  -2.1428729313277745E-002   3.3129260543550240E-002
   6.7189575503071683E-002  -2.0999787681861615E-002   3.3048624437740093E-002
   7.0659674186567822E-002  -2.0449379087566874E-002   4.0408304673449733E-002
   6.8292745431205226E-002  -2.0079788469696949E-002   3.9428379599402298E-002
   6.5925816675842575E-002  -1.9717159808071996E-002   3.8726267819462770E-002
   6.3558887920479964E-002  -1.9361493102691928E-002   3.8301969333631239E-002
   6.1191959165117334E-002  -1.9012788353556812E-002   3.8155484141907704E-002
   6.3542433740108969E-002  -1.8291043490316607E-002   4.5533661863651154E-002
   6.1432323677984062E-002  -1.7926884124638338E-002   4.4588920098881990E-002
   5.9322213615859147E-002  -1.7594621925234886E-002   4.3880002426480338E-002
   5.7212103553734253E-002  -1.7294256892106070E-002   4.3406908846446129E-002
   5.5101993491609338E-002  -1.7025789025251960E-002   4.3169639358779405E-002
   5.6500800765058437E-002  -1.6132707893066298E-002   5.0666055406675889E-002
   5.4605520194430768E-002  -1.5773979779579783E-002   4.9731561741155228E-002
   5.2710239623803092E-002  -1.5472084042397739E-002   4.8990902966261497E-002
   5.0814959053175415E-002  -1.5227020681520233E-002   4.8444079081994856E-002
   4.8919678482547746E-002  -1.5038789696947136E-002   4.8091090088355132E-002
   7.3094842505472407E-002  -2.2986787010166515E-002   2.7849060246276647E-002
   7.2226568362967286E-002  -2.2379868452273494E-002   2.8557051925241772E-002
   7.1358294220462096E-002  -2.1620378269803710E-002   2.9245761752749941E-002
   7.0490020077956905E-002  -2.0708316462756900E-002   2.9915189728800910E-002
   6.9621745935451701E-002  -1.9643683031133174E-002   3.0565335853394660E-002
   6.7189575503071683E-002  -2.0999787681861615E-002   3.3048624437740093E-002
   6.6321304378692214E-002  -2.0488741111727965E-002   3.3832955774848156E-002
   6.5453033254312731E-002  -1.9831457917943801E-002   3.4636574999664618E-002
   6.4584762129933262E-002  -1.9027938100509269E-002   3.5459482112189571E-002
   6.3716491005553794E-002  -1.8078181659424430E-002   3.6301677112423186E-002
   6.1191959165117334E-002  -1.9012788353556812E-002   3.8155484141907704E-002
   6.0362260798029178E-002  -1.8597613771182256E-002   3.9009820136232026E-002
   5.9532562430940947E-002  -1.8042537566083889E-002   3.9922013757430388E-002
   5.8702864063852750E-002  -1.7347559738261718E-002   4.0892065005502853E-002
   5.7873165696764546E-002  -1.6512680287715742E-002   4.1919973880449518E-002
   5.5101993491609338E-002  -1.7025789025251960E-002   4.3169639358779405E-002
   5.4349437620978061E-002  -1.6706486430636609E-002   4.4087645009393391E-002
   5.3596881750346798E-002  -1.6253617214223921E-002   4.5102078026047022E-002
   5.2844325879715527E-002  -1.5667181376014073E-002   4.6212938408740536E-002
   5.2091770009084229E-002  -1.4947178916006942E-002   4.7420226157473683E-002
   4.8919678482547746E-002  -1.5038789696947136E-002   4.8091090088355132E-002
   4.8282834847538980E-002  -1.4815359090090977E-002   4.9066430394332339E-002
   4.7645991212530214E-002  -1.4464696862364089E-002   5.0176767805514791E-002
   4.7009147577521448E-002  -1.3986803013766458E-002   5.1422102321902620E-002
   4.6372303942512683E-002  -1.3381677544298254E-002   5.2802433943495708E-002
   6.9621745935451701E-002  -1.9643683031133174E-002   3.0565335853394660E-002
   6.6589448378314070E-002  -1.8576902293063580E-002   2.9716751703490363E-002
   6.3557150821176397E-002  -1.7658398566679043E-002   2.9062925589816407E-002
   6.0524853264038732E-002  -1.6888171851979963E-002   2.8603857512372904E-002
   5.7492555706901038E-002  -1.6266222148965781E-002   2.8339547471159798E-002
   6.3716491005553794E-002  -1.8078181659424430E-002   3.6301677112423186E-002
   6.0886722205271721E-002  -1.7109818001132385E-002   3.5394143703792305E-002
   5.8056953404989675E-002  -1.6250476532076022E-002   3.4696909772642393E-002
   5.5227184604707630E-002  -1.5500157252255651E-002   3.4209975318973213E-002
   5.2397415804425584E-002  -1.4858860161671039E-002   3.3933340342784779E-002
   5.7873165696764546E-002  -1.6512680287715742E-002   4.1919973880449518E-002
   5.5261467094588602E-002  -1.5642733709201079E-002   4.0992746035541441E-002
   5.2649768492412610E-002  -1.4842554497472953E-002   4.0291359109364662E-002
   5.0038069890236625E-002  -1.4112142652531341E-002   3.9815813101919229E-002
   4.7426371288060626E-002  -1.3451498174376297E-002   3.9566108013204995E-002
   5.2091770009084229E-002  -1.4947178916006942E-002   4.7420226157473683E-002
   4.9713683046264744E-002  -1.4175649417269773E-002   4.6512558698737883E-002
   4.7335596083445210E-002  -1.3434632462869935E-002   4.5846273599983792E-002
   4.4957509120625710E-002  -1.2724128052807183E-002   4.5421370861211098E-002
   4.2579422157806142E-002  -1.2044136187081667E-002   4.5237850482420516E-002
   4.6372303942512683E-002  -1.3381677544298254E-002   5.2802433943495708E-002
   4.4243370060300088E-002  -1.2708565125338522E-002   5.1953581693381212E-002
   4.2114436178087480E-002  -1.2026710428266821E-002   5.1361653244499123E-002
   3.9985502295874886E-002  -1.1336113453082736E-002   5.1026648596849036E-002
   3.7856568413662278E-002  -1.0636774199786814E-002   5.0948567750430884E-002
   5.7492555706901038E-002  -1.6266222148965781E-002   2.8339547471159798E-002
   5.2014366815317098E-002  -1.5843015250170567E-002   2.5232071428305081E-002
   4.6536177923733157E-002  -1.5669016948128042E-002   2.2846886954845769E-002
   4.1057989032149272E-002  -1.5744227242838051E-002   2.1183994050781516E-002
   3.5579800140565276E-002  -1.6068646134300868E-002   2.0243392716112474E-002
   5.2397415804425584E-002  -1.4858860161671039E-002   3.3933340342784779E-002
   4.7589754818783567E-002  -1.4406723402099419E-002   3.0638942487816123E-002
   4.2782093833141591E-002  -1.4223885115318149E-002   2.7963308875336101E-002
   3.7974432847499615E-002  -1.4310345301326830E-002   2.5906439505344783E-002
   3.3166771861857597E-002  -1.4666103960125854E-002   2.4468334377842182E-002
   4.7426371288060626E-002  -1.3451498174376297E-002   3.9566108013204995E-002
   4.3185710881454127E-002  -1.2970431554028411E-002   3.6064698470084602E-002
   3.8945050474847628E-002  -1.2778753282508319E-002   3.3078525842546523E-002
   3.4704390068241144E-002  -1.2876463359815833E-002   3.0607590130590643E-002
   3.0463729661634645E-002  -1.3263561785951200E-002   2.8651891334217125E-002
   4.2579422157806142E-002  -1.2044136187081667E-002   4.5237850482420516E-002
   3.8802235003328724E-002  -1.1534139705957333E-002   4.1509339375110740E-002
   3.5025047848851243E-002  -1.1333621449698291E-002   3.8192537856476909E-002
   3.1247860694373776E-002  -1.1442581418304780E-002   3.5287445926518841E-002
   2.7470673539896281E-002  -1.1861019611776366E-002   3.2794063585236483E-002
   3.7856568413662278E-002  -1.0636774199786814E-002   5.0948567750430884E-002
   3.4439327184407370E-002  -1.0097847857886283E-002   4.6972865202894343E-002
   3.1022085955152448E-002  -9.8884896168886238E-003   4.3305344917127203E-002
   2.7604844725897561E-002  -1.0008699476793705E-002   3.9946006893129521E-002
   2.4187603496642646E-002  -1.0458477437601643E-002   3.6894851130901074E-002
   3.5579800140565276E-002  -1.6068646134300868E-002   2.0243392716112474E-002
   4.4468985312539677E-002  -1.5653561746140576E-002   2.8667958243804914E-002
   5.3358170484514050E-002  -1.3510262201982828E-002   3.5453659803800469E-002
   6.2247355656488534E-002  -9.6387475018266423E-003   4.0600497396099375E-002
   7.1136540828462880E-002  -4.0390176456726046E-003   4.4108471020701812E-002
   3.3166771861857597E-002  -1.4666103960125854E-002   2.4468334377842182E-002
   4.0579894704459968E-002  -1.4387004148295912E-002   3.4399302907367091E-002
   4.7993017547062367E-002  -1.2568888922417490E-002   4.3017010745844436E-002
   5.5406140389664793E-002  -9.2117582824905765E-003   5.0321457893274371E-002
   6.2819263232267109E-002  -4.3156122285155085E-003   5.6312644349657326E-002
   3.0463729661634645E-002  -1.3263561785951200E-002   2.8651891334217125E-002
   3.6726393451514197E-002  -1.3120446550451054E-002   3.9900063123624582E-002
   4.2989057241393819E-002  -1.1627515642852311E-002   5.0160577498634222E-002
   4.9251721031273565E-002  -8.7847690631547033E-003   5.9433434459245343E-002
   5.5514384821153007E-002  -4.5922068113585235E-003   6.7718634005458911E-002
   2.7470673539896281E-002  -1.1861019611776366E-002   3.2794063585236483E-002
   3.2908481553702414E-002  -1.1853888952606181E-002   4.5170238892577277E-002
   3.8346289567508483E-002  -1.0686142363287052E-002   5.6884360062169348E-002
   4.3784097581314671E-002  -8.3577798438188439E-003   6.7936427094012347E-002
   4.9221905595120678E-002  -4.8688013942014829E-003   7.8326439988106580E-002
   2.4187603496642646E-002  -1.0458477437601643E-002   3.6894851130901074E-002
   2.9126159011024499E-002  -1.0587331354761476E-002   5.0209830214225371E-002
   3.4064714525406353E-002  -9.7447690837217660E-003   6.3188358436450154E-002
   3.9003270039788263E-002  -7.9307906244827572E-003   7.5830435797574952E-002
   4.3941825554170033E-002  -5.1453959770444424E-003   8.8136062297600404E-002
   5.7136953709040261E-002   0.0000000000000000        3.4659137803949976E-002
   5.7934558261334812E-002  -2.0826621525996663E-003   3.8335236502185392E-002
   5.8732162813629356E-002  -4.1351662360880649E-003   4.2224306221046351E-002
   5.9529767365923907E-002  -6.1575122504651976E-003   4.6326346960532831E-002
   6.0327371918218464E-002  -8.1497001957310574E-003   5.0641358720644875E-002
   4.8638248943314706E-002   0.0000000000000000        3.2759563373957364E-002
   4.9583494341722524E-002  -1.7084615445147177E-003   3.6958932659413864E-002
   5.0528739740130335E-002  -3.4310308323990471E-003   4.1240612616471370E-002
   5.1473985138538160E-002  -5.1677078636529952E-003   4.5604603245129861E-002
   5.2419230536945971E-002  -6.9184926382765462E-003   5.0050904545389366E-002
   4.0720119776451666E-002   0.0000000000000000        3.1256322458290152E-002
   4.1682345671948215E-002  -1.3342609364297708E-003   3.5934696518486839E-002
   4.2644571567444785E-002  -2.7268954287100345E-003   4.0564720901260003E-002
   4.3606797462941327E-002  -4.1779034768407875E-003   4.5146395606609650E-002
   4.4569023358437883E-002  -5.6872850808220360E-003   4.9679720634535761E-002
   3.3382566208451148E-002   0.0000000000000000        3.0149415056948316E-002
   3.4231112252011899E-002  -9.6006032834482268E-004   3.5262528079404332E-002
   3.5079658295572663E-002  -2.0227600250210202E-003   4.0196631075412291E-002
   3.5928204339133421E-002  -3.1880990900285851E-003   4.4951724044972170E-002
   3.6776750382694172E-002  -4.4560775233675291E-003   4.9527806988083997E-002
   2.6625588239313137E-002   0.0000000000000000        2.9438841169931874E-002
   2.7229794081913568E-002  -5.8585972025987539E-004   3.4942427342166328E-002
   2.7833999924514005E-002  -1.3186246213320041E-003   4.0136343138928193E-002
   2.8438205767114436E-002  -2.1982947032163792E-003   4.5020588560217456E-002
   2.9042411609714869E-002  -3.2248699659130119E-003   4.9595163606034130E-002
   6.0327371918218464E-002  -8.1497001957310574E-003   5.0641358720644875E-002
   6.0603901248597866E-002  -1.0029766695077269E-002   5.1515443999546530E-002
   6.0880430578977254E-002  -1.1715748371695429E-002   5.2176294738786287E-002
   6.1156959909356663E-002  -1.3207645225585570E-002   5.2623910938364084E-002
   6.1433489239736058E-002  -1.4505457256747657E-002   5.2858292598279975E-002
   5.2419230536945971E-002  -6.9184926382765462E-003   5.0050904545389366E-002
   5.2522207915846060E-002  -8.5825299857594031E-003   5.1213450325427588E-002
   5.2625185294746163E-002  -1.0058964735591222E-002   5.2242126742169138E-002
   5.2728162673646259E-002  -1.1347796887772021E-002   5.3136933795613975E-002
   5.2831140052546355E-002  -1.2449026442301794E-002   5.3897871485762139E-002
   4.4569023358437883E-002  -5.6872850808220360E-003   4.9679720634535761E-002
   4.4577813962223919E-002  -7.1352932764415233E-003   5.1124244690633508E-002
   4.4586604566009935E-002  -8.4021810994870001E-003   5.2514264559799836E-002
   4.4595395169795979E-002  -9.4879485499584706E-003   5.3849780242034712E-002
   4.4604185773581995E-002  -1.0392595627855928E-002   5.5130791737338113E-002
   3.6776750382694172E-002  -4.4560775233675291E-003   4.9527806988083997E-002
   3.6770719387731396E-002  -5.6880565671236609E-003   5.1247827095164261E-002
   3.6764688392768606E-002  -6.7453974633827889E-003   5.2992708191678346E-002
   3.6758657397805816E-002  -7.6281002121449185E-003   5.4762450277626253E-002
   3.6752626402843040E-002  -8.3361648134100633E-003   5.6557053353007931E-002
   2.9042411609714869E-002  -3.2248699659130119E-003   4.9595163606034130E-002
   2.9100924192368507E-002  -4.2408198578057768E-003   5.1584197539019910E-002
   2.9159436775022148E-002  -5.0886138272785717E-003   5.3677457637804717E-002
   2.9217949357675792E-002  -5.7682518743313836E-003   5.5874943902388612E-002
   2.9276461940329429E-002  -6.2797339989642056E-003   5.8176656332771491E-002
   6.1433489239736058E-002  -1.4505457256747657E-002   5.2858292598279975E-002
   6.0200317121066660E-002  -1.5507737636366124E-002   5.1640401774645447E-002
   5.8967145002397255E-002  -1.6113039535625380E-002   5.0869065301499927E-002
   5.7733972883727849E-002  -1.6321362954525402E-002   5.0544283178843387E-002
   5.6500800765058437E-002  -1.6132707893066298E-002   5.0666055406675889E-002
   5.2831140052546355E-002  -1.2449026442301794E-002   5.3897871485762139E-002
   5.1991333584146385E-002  -1.3298763078431159E-002   5.3358367729887862E-002
   5.1151527115746442E-002  -1.3833116475410839E-002   5.3159040924063497E-002
   5.0311720647346493E-002  -1.4052086633240795E-002   5.3299891068289008E-002
   4.9471914178946537E-002  -1.3955673551920955E-002   5.3780918162564445E-002
   4.4604185773581995E-002  -1.0392595627855928E-002   5.5130791737338113E-002
   4.4051367555012391E-002  -1.1089788520496234E-002   5.5188079808014656E-002
   4.3498549336442767E-002  -1.1553193415196315E-002   5.5479167428301966E-002
   4.2945731117873163E-002  -1.1782810311956101E-002   5.6004054598200077E-002
   4.2392912899303539E-002  -1.1778639210775647E-002   5.6762741317708962E-002
   3.6752626402843040E-002  -8.3361648134100633E-003   5.6557053353007931E-002
   3.6380419033664631E-002  -8.8808139625613028E-003   5.7129538009025815E-002
   3.6008211664486235E-002  -9.2732703549817750E-003   5.7829444814215279E-002
   3.5636004295307840E-002  -9.5135339906714401E-003   5.8656773768576517E-002
   3.5263796926129430E-002  -9.6016048696303362E-003   5.9611524872109314E-002
   2.9276461940329429E-002  -6.2797339989642056E-003   5.8176656332771491E-002
   2.8978488020103124E-002  -6.6718394046263521E-003   5.9182742332921222E-002
   2.8680514099876823E-002  -6.9933472947672371E-003   6.0209873081803506E-002
   2.8382540179650514E-002  -7.2442576693867756E-003   6.1258048579418328E-002
   2.8084566259424210E-002  -7.4245705284849972E-003   6.2327268825765642E-002
   5.6500800765058437E-002  -1.6132707893066298E-002   5.0666055406675889E-002
   5.4605520194430768E-002  -1.5773979779579783E-002   4.9731561741155228E-002
   5.2710239623803092E-002  -1.5472084042397739E-002   4.8990902966261497E-002
   5.0814959053175415E-002  -1.5227020681520233E-002   4.8444079081994856E-002
   4.8919678482547746E-002  -1.5038789696947136E-002   4.8091090088355132E-002
   4.9471914178946537E-002  -1.3955673551920955E-002   5.3780918162564445E-002
   4.7783002257223546E-002  -1.3714788118231541E-002   5.2767208106432956E-002
   4.6094090335500562E-002  -1.3500341218952487E-002   5.1972400457483803E-002
   4.4405178413777564E-002  -1.3312332854083833E-002   5.1396495215717097E-002
   4.2716266492054580E-002  -1.3150763023625667E-002   5.1039492381132659E-002
   4.2392912899303539E-002  -1.1778639210775647E-002   5.6762741317708962E-002
   4.0935437143040605E-002  -1.1655596456883216E-002   5.5700208712860612E-002
   3.9477961386777692E-002  -1.1528598395507178E-002   5.4881646031750116E-002
   3.8020485630514751E-002  -1.1397645026647541E-002   5.4307053274377334E-002
   3.6563009874251831E-002  -1.1262736350304239E-002   5.3976430440742330E-002
   3.5263796926129430E-002  -9.6016048696303362E-003   5.9611524872109314E-002
   3.4062824851881973E-002  -9.5964047955349879E-003   5.8530563560438266E-002
   3.2861852777634523E-002  -9.5568555720619112E-003   5.7718639689060408E-002
   3.1660880703387059E-002  -9.4829571992112380E-003   5.7175753257975630E-002
   3.0459908629139616E-002  -9.3747096769827357E-003   5.6901904267184104E-002
   2.8084566259424210E-002  -7.4245705284849972E-003   6.2327268825765642E-002
   2.7165165383747615E-002  -7.5372131341866488E-003   6.1258272649165904E-002
   2.6245764508071021E-002  -7.5851127486166042E-003   6.0483381429414729E-002
   2.5326363632394426E-002  -7.5682693717748738E-003   6.0002595166512171E-002
   2.4406962756717832E-002  -7.4866830036613430E-003   5.9815913860458036E-002
   4.8919678482547746E-002  -1.5038789696947136E-002   4.8091090088355132E-002
   4.8282834847538980E-002  -1.4815359090090977E-002   4.9066430394332339E-002
   4.7645991212530214E-002  -1.4464696862364089E-002   5.0176767805514791E-002
   4.7009147577521448E-002  -1.3986803013766458E-002   5.1422102321902620E-002
   4.6372303942512683E-002  -1.3381677544298254E-002   5.2802433943495708E-002
   4.2716266492054580E-002  -1.3150763023625667E-002   5.1039492381132659E-002
   4.2202563352830215E-002  -1.2947948476965190E-002   5.2171211244222263E-002
   4.1688860213605849E-002  -1.2636205963489675E-002   5.3414213993675318E-002
   4.1175157074381505E-002  -1.2215535483199130E-002   5.4768500629491873E-002
   4.0661453935157160E-002  -1.1685937036093552E-002   5.6234071151671894E-002
   3.6563009874251831E-002  -1.1262736350304239E-002   5.3976430440742330E-002
   3.6148734011970073E-002  -1.1080537863839425E-002   5.5246224206888586E-002
   3.5734458149688314E-002  -1.0807715064615264E-002   5.6603588640556632E-002
   3.5320182287406535E-002  -1.0444267952631720E-002   5.8048523741746204E-002
   3.4905906425124769E-002  -9.9901965278888782E-003   5.9581029510457642E-002
   3.0459908629139616E-002  -9.3747096769827357E-003   5.6901904267184104E-002
   3.0121346824958602E-002  -9.2131272507136770E-003   5.8291469282331462E-002
   2.9782785020777591E-002  -8.9792241657408785E-003   5.9744891746158699E-002
   2.9444223216596579E-002  -8.6730004220643784E-003   6.1262171658665841E-002
   2.9105661412415596E-002  -8.2944560196842737E-003   6.2843309019852717E-002
   2.4406962756717832E-002  -7.4866830036613430E-003   5.9815913860458036E-002
   2.4120401791795754E-002  -7.3457166375878735E-003   6.1306946470550794E-002
   2.3833840826873690E-002  -7.1507332668664936E-003   6.2838123310481608E-002
   2.3547279861951612E-002  -6.9017328914969811E-003   6.4409444380250508E-002
   2.3260718897029548E-002  -6.5987155114795581E-003   6.6020909679857298E-002
   4.6372303942512683E-002  -1.3381677544298254E-002   5.2802433943495708E-002
   4.4243370060300088E-002  -1.2708565125338522E-002   5.1953581693381212E-002
   4.2114436178087480E-002  -1.2026710428266821E-002   5.1361653244499123E-002
   3.9985502295874886E-002  -1.1336113453082736E-002   5.1026648596849036E-002
   3.7856568413662278E-002  -1.0636774199786814E-002   5.0948567750430884E-002
   4.0661453935157160E-002  -1.1685937036093552E-002   5.6234071151671894E-002
   3.8791237084963875E-002  -1.1098446370547355E-002   5.5350114003757112E-002
   3.6921020234770591E-002  -1.0504099234935005E-002   5.4726667118648709E-002
   3.5050803384577306E-002  -9.9028956292564613E-003   5.4363730496347101E-002
   3.3180586534384021E-002  -9.2948355535117377E-003   5.4261304136851846E-002
   3.4905906425124769E-002  -9.9901965278888782E-003   5.9581029510457642E-002
   3.3297993068525267E-002  -9.4883276157562146E-003   5.8660081656696367E-002
   3.1690079711925744E-002  -8.9814880416033485E-003   5.8003230527316173E-002
   3.0082166355326217E-002  -8.4696778054299624E-003   5.7610476122316942E-002
   2.8474252998726725E-002  -7.9528969072364952E-003   5.7481818441698668E-002
   2.9105661412415596E-002  -8.2944560196842737E-003   6.2843309019852717E-002
   2.7763638010984245E-002  -7.8782088609651163E-003   6.1883484652199200E-002
   2.6421614609552904E-002  -7.4588768482716124E-003   6.1191343470501196E-002
   2.5079591208121591E-002  -7.0364599816036310E-003   6.0766885474758454E-002
   2.3737567806690237E-002  -6.6109582609613637E-003   6.0610110664971177E-002
   2.3260718897029548E-002  -6.5987155114795581E-003   6.6020909679857298E-002
   2.2188171912340834E-002  -6.2680901061739069E-003   6.5020322990265611E-002
   2.1115624927652121E-002  -5.9362656549398346E-003   6.4291005948203889E-002
   2.0043077942963415E-002  -5.6032421577771503E-003   6.3832958553671784E-002
   1.8970530958274709E-002  -5.2690196146861212E-003   6.3646180806669672E-002
   3.7856568413662278E-002  -1.0636774199786814E-002   5.0948567750430884E-002
   3.4439327184407370E-002  -1.0097847857886283E-002   4.6972865202894343E-002
   3.1022085955152448E-002  -9.8884896168886238E-003   4.3305344917127203E-002
   2.7604844725897561E-002  -1.0008699476793705E-002   3.9946006893129521E-002
   2.4187603496642646E-002  -1.0458477437601643E-002   3.6894851130901074E-002
   3.3180586534384021E-002  -9.2948355535117377E-003   5.4261304136851846E-002
   3.0095061552311661E-002  -8.8274980406740367E-003   4.9969849069957800E-002
   2.7009536570239315E-002  -8.6484621237168935E-003   4.6033644235659546E-002
   2.3924011588166934E-002  -8.7577278026401556E-003   4.2452689633957007E-002
   2.0838486606094608E-002  -9.1552950774436703E-003   3.9226985264850134E-002
   2.8474252998726725E-002  -7.9528969072364952E-003   5.7481818441698668E-002
   2.5767512234663295E-002  -7.5571482234618320E-003   5.2915877360469557E-002
   2.3060771470599855E-002  -7.4084346305451493E-003   4.8752254482662516E-002
   2.0354030706536415E-002  -7.5067561284865476E-003   4.4990949808277565E-002
   1.7647289942472985E-002  -7.8521127172857530E-003   4.1631963337314920E-002
   2.3737567806690237E-002  -6.6109582609613637E-003   6.0610110664971177E-002
   2.1456679231462151E-002  -6.2867984062496343E-003   5.5810950074429364E-002
   1.9175790656234062E-002  -6.1684071373733010E-003   5.1461175658136071E-002
   1.6894902081005966E-002  -6.2557844543329136E-003   4.7560787416091370E-002
   1.4614013505777890E-002  -6.5489303571278079E-003   4.4109785348294996E-002
   1.8970530958274709E-002  -5.2690196146861212E-003   6.3646180806669672E-002
   1.7162562542708343E-002  -5.0164485890374366E-003   5.8655067211837608E-002
   1.5354594127141970E-002  -4.9283796442017302E-003   5.4160407762080337E-002
   1.3546625711575614E-002  -5.0048127801793491E-003   5.0162202457398081E-002
   1.1738657296009258E-002  -5.2457479969699183E-003   4.6660451297790895E-002
   2.4187603496642646E-002  -1.0458477437601643E-002   3.6894851130901074E-002
   2.9126159011024499E-002  -1.0587331354761476E-002   5.0209830214225371E-002
   3.4064714525406353E-002  -9.7447690837217660E-003   6.3188358436450154E-002
   3.9003270039788263E-002  -7.9307906244827572E-003   7.5830435797574952E-002
   4.3941825554170033E-002  -5.1453959770444424E-003   8.8136062297600404E-002
   2.0838486606094608E-002  -9.1552950774436703E-003   3.9226985264850134E-002
   2.5380740630869855E-002  -9.2549097080983356E-003   5.3567845482782983E-002
   2.9922994655645116E-002  -8.4703174545744664E-003   6.7452553582602270E-002
   3.4465248680420404E-002  -6.8015183168716395E-003   8.0881109564307843E-002
   3.9007502705195596E-002  -4.2485122949907916E-003   9.3853513427899604E-002
   1.7647289942472985E-002  -7.8521127172857530E-003   4.1631963337314920E-002
   2.1673541220627715E-002  -7.9224880614352233E-003   5.6911495385835176E-002
   2.5699792498782424E-002  -7.1958658254269586E-003   7.1615174059228168E-002
   2.9726043776937092E-002  -5.6722460092608583E-003   8.5742999357493549E-002
   3.3752295055091891E-002  -3.3516286129370298E-003   9.9294971280631195E-002
   1.4614013505777890E-002  -6.5489303571278079E-003   4.4109785348294996E-002
   1.8004560780298069E-002  -6.5900664147721527E-003   6.0240779923382302E-002
   2.1395108054818292E-002  -5.9214141962794439E-003   7.5676219866328137E-002
   2.4785655329338525E-002  -4.5429737016497978E-003   9.0416105177132458E-002
   2.8176202603858717E-002  -2.4547449308833236E-003  0.10446043585579520     
   1.1738657296009258E-002  -5.2457479969699183E-003   4.6660451297790895E-002
   1.4373799309881002E-002  -5.2576447681090821E-003   6.3555699095424079E-002
   1.7008941323752760E-002  -4.6469625671321929E-003   7.9635691003901915E-002
   1.9644083337624511E-002  -3.4137013940389142E-003   9.4900427023224446E-002
   2.2279225351496290E-002  -1.5578612488296173E-003  0.10934990715339143     
   2.6625588239313137E-002   0.0000000000000000        2.9438841169931874E-002
   2.7229794081913568E-002  -5.8585972025987539E-004   3.4942427342166328E-002
   2.7833999924514005E-002  -1.3186246213320041E-003   4.0136343138928193E-002
   2.8438205767114436E-002  -2.1982947032163792E-003   4.5020588560217456E-002
   2.9042411609714869E-002  -3.2248699659130119E-003   4.9595163606034130E-002
   2.0111471347065556E-002   0.0000000000000000        2.8990484931312809E-002
   2.0445661542899028E-002  -4.3939479018503466E-004   3.4310330353964441E-002
   2.0779851738732494E-002  -9.8896846597138540E-004   3.9399814858554753E-002
   2.1114041934565959E-002  -1.6487210273590531E-003   4.4258938445083711E-002
   2.1448232130399432E-002  -2.4186524743480299E-003   4.8887701113551341E-002
   1.3502501009736314E-002   0.0000000000000000        2.8670230475163119E-002
   1.3645985016214075E-002  -2.9292986011019307E-004   3.3843061443442880E-002
   1.3789469022691837E-002  -6.5931231061076498E-004   3.8864840951072552E-002
   1.3932953029169599E-002  -1.0991473515017157E-003   4.3735568998052150E-002
   1.4076437035647357E-002  -1.6124349827830440E-003   4.8455245584381648E-002
   6.7986772273254149E-003   0.0000000000000000        2.8478077801482801E-002
   6.8307645018587226E-003  -1.4646493003535235E-004   3.3540620610601618E-002
   6.8628517763920302E-003  -3.2965615525014629E-004   3.8531421416481602E-002
   6.8949390509253378E-003  -5.4957367564438401E-004   4.3450480219122768E-002
   6.9270263254586455E-003  -8.0621749121806354E-004   4.8297797018525108E-002
  -1.6714581108079329E-013   0.0000000000000000        2.8414026910271860E-002
  -1.6703565614006877E-013   3.9489245207136037E-014   3.3403007855440668E-002
  -1.6692680224195122E-013   1.1047412984410698E-013   3.8399556254781898E-002
  -1.6681773150339918E-013   2.1294944974048491E-013   4.3403672108295571E-002
  -1.6670779340310915E-013   3.4692474587538769E-013   4.8415355415981666E-002
   2.9042411609714869E-002  -3.2248699659130119E-003   4.9595163606034130E-002
   2.9100924192368507E-002  -4.2408198578057768E-003   5.1584197539019910E-002
   2.9159436775022148E-002  -5.0886138272785717E-003   5.3677457637804717E-002
   2.9217949357675792E-002  -5.7682518743313836E-003   5.5874943902388612E-002
   2.9276461940329429E-002  -6.2797339989642056E-003   5.8176656332771491E-002
   2.1448232130399432E-002  -2.4186524743480299E-003   4.8887701113551341E-002
   2.1581257300976008E-002  -3.1806148932459850E-003   5.1216542285326024E-002
   2.1714282471552580E-002  -3.8164603703605875E-003   5.3590182467147522E-002
   2.1847307642129152E-002  -4.3261889056918227E-003   5.6008621659015843E-002
   2.1980332812705727E-002  -4.7098004992396983E-003   5.8471859860930973E-002
   1.4076437035647357E-002  -1.6124349827830440E-003   4.8455245584381648E-002
   1.4224547638394631E-002  -2.1204099286862006E-003   5.1081855014308640E-002
   1.4372658241141908E-002  -2.5443069134426168E-003   5.3693836298530195E-002
   1.4520768843889186E-002  -2.8841259370522895E-003   5.6291189437046321E-002
   1.4668879446636461E-002  -3.1398669995152152E-003   5.8873914429857094E-002
   6.9270263254586455E-003  -8.0621749121806354E-004   4.8297797018525108E-002
   7.0307952046243924E-003  -1.0602049641264056E-003   5.1180135725967753E-002
   7.1345640837901358E-003  -1.2721534565246289E-003   5.3988419131952764E-002
   7.2383329629558818E-003  -1.4420629684127424E-003   5.6722647236480149E-002
   7.3421018421216261E-003  -1.5699334997907339E-003   5.9382820039549845E-002
  -1.6670779340310915E-013   3.4692474587538769E-013   4.8415355415981666E-002
  -3.3472270094536682E-013   4.3337035349200193E-013   5.1511384420303362E-002
  -5.0273804216849349E-013   3.9334182612427160E-013   5.4473930967415179E-002
  -6.7075229918944768E-013   2.2679172992715046E-013   5.7302995057317126E-002
  -8.3876829093387784E-013  -6.6231742312794495E-014   5.9998576690009221E-002
   2.9276461940329429E-002  -6.2797339989642056E-003   5.8176656332771491E-002
   2.8978488020103124E-002  -6.6718394046263521E-003   5.9182742332921222E-002
   2.8680514099876823E-002  -6.9933472947672371E-003   6.0209873081803506E-002
   2.8382540179650514E-002  -7.2442576693867756E-003   6.1258048579418328E-002
   2.8084566259424210E-002  -7.4245705284849972E-003   6.2327268825765642E-002
   2.1980332812705727E-002  -4.7098004992396983E-003   5.8471859860930973E-002
   2.1716765824109353E-002  -5.0038795535460034E-003   5.9537756631643110E-002
   2.1453198835512978E-002  -5.2450104711524847E-003   6.0651422516882575E-002
   2.1189631846916600E-002  -5.4331932520591021E-003   6.1812857516649299E-002
   2.0926064858320229E-002  -5.5684278962659511E-003   6.3022061630943371E-002
   1.4668879446636461E-002  -3.1398669995152152E-003   5.8873914429857094E-002
   1.4466443755464792E-002  -3.3359197024656236E-003   5.9981972592310098E-002
   1.4264008064293135E-002  -3.4966736475377036E-003   6.1164524235085248E-002
   1.4061572373121466E-002  -3.6221288347314546E-003   6.2421569358182487E-002
   1.3859136681949803E-002  -3.7122852640468773E-003   6.3753107961601829E-002
   7.3421018421216261E-003  -1.5699334997907339E-003   5.9382820039549845E-002
   7.2275218141694565E-003  -1.6679598513852315E-003   6.0515390214922249E-002
   7.1129417862172851E-003  -1.7483368239229300E-003   6.1749178236411587E-002
   6.9983617582651137E-003  -1.8110644174037386E-003   6.3084184104017796E-002
   6.8837817303129423E-003  -1.8561426318278312E-003   6.4520407817740849E-002
  -8.3876829093387784E-013  -6.6231742312794495E-014   5.9998576690009221E-002
   2.2333523919115805E-013  -3.0488458979682775E-013   6.1138009499479541E-002
   1.2854379019544560E-012  -3.0816842133685185E-013   6.2405384520861557E-002
   2.3475427331220988E-012  -7.6126171338897208E-014   6.3800701754155267E-002
   3.4096440948427897E-012   3.9125647166571298E-013   6.5323961199360611E-002
   2.8084566259424210E-002  -7.4245705284849972E-003   6.2327268825765642E-002
   2.7165165383747615E-002  -7.5372131341866488E-003   6.1258272649165904E-002
   2.6245764508071021E-002  -7.5851127486166042E-003   6.0483381429414729E-002
   2.5326363632394426E-002  -7.5682693717748738E-003   6.0002595166512171E-002
   2.4406962756717832E-002  -7.4866830036613430E-003   5.9815913860458036E-002
   2.0926064858320229E-002  -5.5684278962659511E-003   6.3022061630943371E-002
   2.0284705254810367E-002  -5.6529098503055736E-003   6.2085225111848538E-002
   1.9643345651300510E-002  -5.6888345607106379E-003   6.1410366180238651E-002
   1.9001986047790659E-002  -5.6762020274812629E-003   6.0997484836113600E-002
   1.8360626444280798E-002  -5.6150122506172795E-003   6.0846581079473522E-002
   1.3859136681949803E-002  -3.7122852640468773E-003   6.3753107961601829E-002
   1.3463690981243054E-002  -3.7686065664244706E-003   6.2932245352374655E-002
   1.3068245280536305E-002  -3.7925563728046993E-003   6.2341232961268749E-002
   1.2672799579829553E-002  -3.7841346831876243E-003   6.1980070788284200E-002
   1.2277353879122807E-002  -3.7433414975731882E-003   6.1848758833420892E-002
   6.8837817303129423E-003  -1.8561426318278312E-003   6.4520407817740849E-002
   6.7021225630456635E-003  -1.8843032825433675E-003   6.3799333370744185E-002
   6.5204633957783855E-003  -1.8962781848987330E-003   6.3275981772505180E-002
   6.3388042285111110E-003  -1.8920673388940551E-003   6.2950353023023833E-002
   6.1571450612438287E-003  -1.8716707445291247E-003   6.2822447122300035E-002
   3.4096440948427897E-012   3.9125647166571298E-013   6.5323961199360611E-002
   2.1820392714921866E-013   1.3377354779464667E-012   6.4686489166957198E-002
  -2.9732345058208764E-012   3.0072298817795939E-012   6.4214612613947786E-002
  -6.1646703367057576E-012   5.3996590185234616E-012   6.3908331540332416E-002
  -9.3561131064845426E-012   8.5149387540894850E-012   6.3767645946111118E-002
   2.4406962756717832E-002  -7.4866830036613430E-003   5.9815913860458036E-002
   2.4120401791795754E-002  -7.3457166375878735E-003   6.1306946470550794E-002
   2.3833840826873690E-002  -7.1507332668664936E-003   6.2838123310481608E-002
   2.3547279861951612E-002  -6.9017328914969811E-003   6.4409444380250508E-002
   2.3260718897029548E-002  -6.5987155114795581E-003   6.6020909679857298E-002
   1.8360626444280798E-002  -5.6150122506172795E-003   6.0846581079473522E-002
   1.8122083710851417E-002  -5.5092874753817078E-003   6.2355816317378299E-002
   1.7883540977422025E-002  -5.3630499470376791E-003   6.3920943788430384E-002
   1.7644998243992620E-002  -5.1762996655849713E-003   6.5541963492629807E-002
   1.7406455510563246E-002  -4.9490366310238065E-003   6.7218875429976566E-002
   1.2277353879122807E-002  -3.7433414975731882E-003   6.1848758833420892E-002
   1.2102577380495409E-002  -3.6728583131755421E-003   6.3362692447598137E-002
   1.1927800881868011E-002  -3.5753666272088369E-003   6.4948266298232055E-002
   1.1753024383240610E-002  -3.4508664396729616E-003   6.6605480385322532E-002
   1.1578247884613216E-002  -3.2993577505680272E-003   6.8334334708869723E-002
   6.1571450612438287E-003  -1.8716707445291247E-003   6.2822447122300035E-002
   6.0618828007277404E-003  -1.8364291509693348E-003   6.4327574861210365E-002
   5.9666205402116538E-003  -1.7876833073799253E-003   6.5920090839886647E-002
   5.8713582796955620E-003  -1.7254332137608686E-003   6.7599995058328921E-002
   5.7760960191794788E-003  -1.6496788701121506E-003   6.9367287516537091E-002
  -9.3561131064845426E-012   8.5149387540894850E-012   6.3767645946111118E-002
  -2.8451581368660328E-011   1.1236817032411750E-011   6.5250463558215011E-002
  -4.7547049630836113E-011   1.2448812813925514E-011   6.6836417413394175E-002
  -6.6642521362458851E-011   1.2151153347406130E-011   6.8525507511648626E-002
  -8.5737986155187684E-011   1.0343559342373965E-011   7.0317733852978404E-002
   2.3260718897029548E-002  -6.5987155114795581E-003   6.6020909679857298E-002
   2.2188171912340834E-002  -6.2680901061739069E-003   6.5020322990265611E-002
   2.1115624927652121E-002  -5.9362656549398346E-003   6.4291005948203889E-002
   2.0043077942963415E-002  -5.6032421577771503E-003   6.3832958553671784E-002
   1.8970530958274709E-002  -5.2690196146861212E-003   6.3646180806669672E-002
   1.7406455510563246E-002  -4.9490366310238065E-003   6.7218875429976566E-002
   1.6604394949337388E-002  -4.7010675778639127E-003   6.6244610441843002E-002
   1.5802334388111530E-002  -4.4521992406145738E-003   6.5540048653105226E-002
   1.5000273826885679E-002  -4.2024316192767475E-003   6.5105190063763446E-002
   1.4198213265659829E-002  -3.9517647138493373E-003   6.4940034673817426E-002
   1.1578247884613216E-002  -3.2993577505680272E-003   6.8334334708869723E-002
   1.1045107298716276E-002  -3.1340450495536687E-003   6.7386091660354835E-002
   1.0511966712819329E-002  -2.9681328262896392E-003   6.6705985363101877E-002
   9.9788261269223820E-003  -2.8016210807760653E-003   6.6294015817110807E-002
   9.4456855410254455E-003  -2.6345098130126920E-003   6.6150183022381626E-002
   5.7760960191794788E-003  -1.6496788701121506E-003   6.9367287516537091E-002
   5.5103089604774868E-003  -1.5670225212435496E-003   6.8444766645801333E-002
   5.2445219017754983E-003  -1.4840664119646248E-003   6.7788816078193731E-002
   4.9787348430735045E-003  -1.4008105422753840E-003   6.7399435813714048E-002
   4.7129477843715203E-003  -1.3172549121761162E-003   6.7276625852362340E-002
  -8.5737986155187684E-011   1.0343559342373965E-011   7.0317733852978404E-002
  -6.5378969599239056E-011   7.0665973073147370E-012   6.9420635398182606E-002
  -4.5019949573843476E-011   2.3605561949580078E-012   6.8788540798380843E-002
  -2.4660926946362682E-011  -3.7749525727548416E-012   6.8421450053573085E-002
  -4.3019129924992683E-012  -1.1339262862009036E-011   6.8319363163759472E-002
   1.8970530958274709E-002  -5.2690196146861212E-003   6.3646180806669672E-002
   1.7162562542708343E-002  -5.0164485890374366E-003   5.8655067211837608E-002
   1.5354594127141970E-002  -4.9283796442017302E-003   5.4160407762080337E-002
   1.3546625711575614E-002  -5.0048127801793491E-003   5.0162202457398081E-002
   1.1738657296009258E-002  -5.2457479969699183E-003   4.6660451297790895E-002
   1.4198213265659829E-002  -3.9517647138493373E-003   6.4940034673817426E-002
   1.2875583487693111E-002  -3.7623364465738662E-003   5.9813656218887762E-002
   1.1552953709726393E-002  -3.6962847396907333E-003   5.5161500894082449E-002
   1.0230323931759676E-002  -3.7536095931998380E-003   5.0983568699401419E-002
   8.9076941537929444E-003  -3.9343110071013987E-003   4.7279859634844823E-002
   9.4456855410254455E-003  -2.6345098130126920E-003   6.6150183022381626E-002
   8.5861633857077825E-003  -2.5082243041103791E-003   6.0929665227775223E-002
   7.7266412303901213E-003  -2.4641898351795699E-003   5.6161139548342606E-002
   6.8671190750724540E-003  -2.5024064062204379E-003   5.1844605984083705E-002
   6.0075969197547971E-003  -2.6228740172327403E-003   4.7980064534998548E-002
   4.7129477843715203E-003  -1.3172549121761162E-003   6.7276625852362340E-002
   4.2943022367523502E-003  -1.2541121616467948E-003   6.2003094238499812E-002
   3.8756566891331745E-003  -1.2320949306685453E-003   5.7159323724860635E-002
   3.4570111415140013E-003  -1.2512032192409268E-003   5.2745314311444552E-002
   3.0383655938948356E-003  -1.3114370273642068E-003   4.8761065998251737E-002
  -4.3019129924992683E-012  -1.1339262862009036E-011   6.8319363163759472E-002
   4.0826821090522714E-011  -1.9183349353468770E-011   6.3033943251061708E-002
   8.5955551704097743E-011  -2.6157340182741962E-011   5.8156053423636667E-002
   1.3108428231767277E-010  -3.2261592702864661E-011   5.3685693681484334E-002
   1.7621301640069476E-010  -3.7495506699514181E-011   4.9622864024604529E-002
   1.1738657296009258E-002  -5.2457479969699183E-003   4.6660451297790895E-002
   1.4373799309881002E-002  -5.2576447681090821E-003   6.3555699095424079E-002
   1.7008941323752760E-002  -4.6469625671321929E-003   7.9635691003901915E-002
   1.9644083337624511E-002  -3.4137013940389142E-003   9.4900427023224446E-002
   2.2279225351496290E-002  -1.5578612488296173E-003  0.10934990715339143     
   8.9076941537929444E-003  -3.9343110071013987E-003   4.7279859634844823E-002
   1.0766697883688295E-002  -3.9432335933630158E-003   6.4689847539729395E-002
   1.2625701613583624E-002  -3.4852219639525395E-003   8.1362814765816777E-002
   1.4484705343478940E-002  -2.5602761188700321E-003   9.7298761313106580E-002
   1.6343709073374291E-002  -1.1683960581155839E-003  0.11249768718159880     
   6.0075969197547971E-003  -2.6228740172327403E-003   4.7980064534998548E-002
   7.1686975760317621E-003  -2.6288224186168940E-003   6.5749147790690382E-002
   8.3297982323087306E-003  -2.3234813607731150E-003   8.2859445577942947E-002
   9.4908988885857009E-003  -1.7068508437012350E-003   9.9310957896756077E-002
   1.0651999544862664E-002  -7.7893086740143946E-004  0.11510368474712968     
   3.0383655938948356E-003  -1.3114370273642068E-003   4.8761065998251737E-002
   3.5797983869114685E-003  -1.3144112438706890E-003   6.6733599848306707E-002
   4.1212311799280971E-003  -1.1617407575935761E-003   8.4125583440280413E-002
   4.6626639729447118E-003  -8.5342556853256184E-004  0.10093701677417287     
   5.2040967659613448E-003  -3.8946567668729504E-004  0.11716789984998364     
   1.7621301640069476E-010  -3.7495506699514181E-011   4.9622864024604529E-002
   3.1632735320030747E-010  -6.9124539425757803E-011   6.7643203712578592E-002
   4.5644170040826104E-010  -1.5441418976802623E-010   8.5161228352829271E-002
   5.9655601812591552E-010  -2.9336356607845282E-010  0.10217693794535666     
   7.3667037747693342E-010  -4.8597326163246635E-010  0.11869033249016092     
  -1.6714581108079329E-013   0.0000000000000000        2.8414026910271860E-002
  -1.6703565614006877E-013   3.9489245207136037E-014   3.3403007855440668E-002
  -1.6692680224195122E-013   1.1047412984410698E-013   3.8399556254781898E-002
  -1.6681773150339918E-013   2.1294944974048491E-013   4.3403672108295571E-002
  -1.6670779340310915E-013   3.4692474587538769E-013   4.8415355415981666E-002
  -6.7986772276636531E-003   0.0000000000000000        2.8478077801558446E-002
  -6.8307645021975080E-003   1.4646493015814041E-004   3.3540620610719080E-002
  -6.8628517767313612E-003   3.2965615553369812E-004   3.8531421416639365E-002
  -6.8949390512652144E-003   5.4957367612666532E-004   4.3450480219319285E-002
  -6.9270263257990711E-003   8.0621749193704895E-004   4.8297797018758845E-002
  -1.3502501010086394E-002   0.0000000000000000        2.8670230475370727E-002
  -1.3645985016566995E-002   2.9292986027679331E-004   3.3843061443709105E-002
  -1.3789469023047602E-002   6.5931231095692211E-004   3.8864840951394350E-002
  -1.3932953029528208E-002   1.0991473520403821E-003   4.3735568998426441E-002
  -1.4076437036008809E-002   1.6124349835271762E-003   4.8455245584805400E-002
  -2.0111471347435367E-002   0.0000000000000000        2.8990484931708697E-002
  -2.0445661543275508E-002   4.3939479039544448E-004   3.4310330354410758E-002
  -2.0779851739115653E-002   9.8896846638014436E-004   3.9399814859046867E-002
  -2.1114041934955790E-002   1.6487210279540984E-003   4.4258938445617062E-002
  -2.1448232130795931E-002   2.4186524751173000E-003   4.8887701114121315E-002
  -2.6625588239710576E-002   0.0000000000000000        2.9438841170572362E-002
  -2.7229794082323039E-002   5.8585972051409738E-004   3.4942427342824003E-002
  -2.7833999924935501E-002   1.3186246218033701E-003   4.0136343139596922E-002
  -2.8438205767547964E-002   2.1982947038678147E-003   4.5020588560891119E-002
  -2.9042411610160426E-002   3.2248699667074311E-003   4.9595163606706613E-002
  -1.6670779340310915E-013   3.4692474587538769E-013   4.8415355415981666E-002
  -3.3472270094536682E-013   4.3337035349200193E-013   5.1511384420303362E-002
  -5.0273804216849349E-013   3.9334182612427160E-013   5.4473930967415179E-002
  -6.7075229918944768E-013   2.2679172992715046E-013   5.7302995057317126E-002
  -8.3876829093387784E-013  -6.6231742312794495E-014   5.9998576690009221E-002
  -6.9270263257990711E-003   8.0621749193704895E-004   4.8297797018758845E-002
  -7.0307952053144237E-003   1.0602049650152963E-003   5.1180135725961619E-002
  -7.1345640848297781E-003   1.2721534574118593E-003   5.3988419131679566E-002
  -7.2383329643451351E-003   1.4420629691267509E-003   5.6722647235912756E-002
  -7.3421018438604860E-003   1.5699335001599576E-003   5.9382820038661105E-002
  -1.4076437036008809E-002   1.6124349835271762E-003   4.8455245584805400E-002
  -1.4224547639146429E-002   2.1204099295972058E-003   5.1081855014334036E-002
  -1.4372658242284049E-002   2.5443069144303835E-003   5.3693836298102968E-002
  -1.4520768845421665E-002   2.8841259380266997E-003   5.6291189436112173E-002
  -1.4668879448559286E-002   3.1398670003861505E-003   5.8873914428361651E-002
  -2.1448232130795931E-002   2.4186524751173000E-003   4.8887701114121315E-002
  -2.1581257301830744E-002   3.1806148941791131E-003   5.1216542285420684E-002
  -2.1714282472865550E-002   3.8164603714488940E-003   5.3590182466685399E-002
  -2.1847307643900356E-002   4.3261889069266396E-003   5.6008621657915460E-002
  -2.1980332814935166E-002   4.7098005006123347E-003   5.8471859859110853E-002
  -2.9042411610160426E-002   3.2248699667074311E-003   4.9595163606706613E-002
  -2.9100924193367357E-002   4.2408198587610309E-003   5.1584197539221513E-002
  -2.9159436776574277E-002   5.0886138284674193E-003   5.3677457637426831E-002
  -2.9217949359781205E-002   5.7682518758265956E-003   5.5874943901322555E-002
  -2.9276461942988129E-002   6.2797340008385466E-003   5.8176656330908724E-002
  -8.3876829093387784E-013  -6.6231742312794495E-014   5.9998576690009221E-002
   2.2333523919115805E-013  -3.0488458979682775E-013   6.1138009499479541E-002
   1.2854379019544560E-012  -3.0816842133685185E-013   6.2405384520861557E-002
   2.3475427331220988E-012  -7.6126171338897208E-014   6.3800701754155267E-002
   3.4096440948427897E-012   3.9125647166571298E-013   6.5323961199360611E-002
  -7.3421018438604860E-003   1.5699335001599576E-003   5.9382820038661105E-002
  -7.2275218138547611E-003   1.6679598514765179E-003   6.0515390214228186E-002
  -7.1129417838490302E-003   1.7483368240414580E-003   6.1749178235770884E-002
  -6.9983617538433036E-003   1.8110644178547992E-003   6.3084184103289115E-002
  -6.8837817238375770E-003   1.8561426329165437E-003   6.4520407816782949E-002
  -1.4668879448559286E-002   3.1398670003861505E-003   5.8873914428361651E-002
  -1.4466443755546021E-002   3.3359197032578943E-003   5.9981972591038539E-002
  -1.4264008062532751E-002   3.4966736483910835E-003   6.1164524233754916E-002
  -1.4061572369519477E-002   3.6221288357857519E-003   6.2421569356510810E-002
  -1.3859136676506217E-002   3.7122852654418517E-003   6.3753107959306235E-002
  -2.1980332814935166E-002   4.7098005006123347E-003   5.8471859859110853E-002
  -2.1716765824850440E-002   5.0038795550392976E-003   5.9537756629910579E-002
  -2.1453198834765711E-002   5.2450104727407437E-003   6.0651422514813778E-002
  -2.1189631844680992E-002   5.4331932537166634E-003   6.1812857513820346E-002
  -2.0926064854596263E-002   5.5684278979671216E-003   6.3022061626930331E-002
  -2.9276461942988129E-002   6.2797340008385466E-003   5.8176656330908724E-002
  -2.8978488021768029E-002   6.6718394068206940E-003   5.9182742330844376E-002
  -2.8680514100547925E-002   6.9933472970903389E-003   6.0209873078947367E-002
  -2.8382540179327821E-002   7.2442576716476451E-003   6.1258048575217688E-002
  -2.8084566258107721E-002   7.4245705304924470E-003   6.2327268819655363E-002
   3.4096440948427897E-012   3.9125647166571298E-013   6.5323961199360611E-002
   2.1820392714921866E-013   1.3377354779464667E-012   6.4686489166957198E-002
  -2.9732345058208764E-012   3.0072298817795939E-012   6.4214612613947786E-002
  -6.1646703367057576E-012   5.3996590185234616E-012   6.3908331540332416E-002
  -9.3561131064845426E-012   8.5149387540894850E-012   6.3767645946111118E-002
  -6.8837817238375770E-003   1.8561426329165437E-003   6.4520407816782949E-002
  -6.7021225628614541E-003   1.8843032849389582E-003   6.3799333370429562E-002
  -6.5204634018853364E-003   1.8962781896341326E-003   6.3275981773017312E-002
  -6.3388042409092144E-003   1.8920673470021855E-003   6.2950353024546130E-002
  -6.1571450799330959E-003   1.8716707570430036E-003   6.2822447125015973E-002
  -1.3859136676506217E-002   3.7122852654418517E-003   6.3753107959306235E-002
  -1.3463690981815456E-002   3.7686065685400699E-003   6.2932245350952765E-002
  -1.3068245287124690E-002   3.7925563762609815E-003   6.2341232961087470E-002
  -1.2672799592433929E-002   3.7841346886047125E-003   6.1980070789710344E-002
  -1.2277353897743162E-002   3.7433415055711378E-003   6.1848758836821442E-002
  -2.0926064854596263E-002   5.5684278979671216E-003   6.3022061626930331E-002
  -2.0284705256643776E-002   5.6529098521411261E-003   6.2085225108526709E-002
  -1.9643345658691302E-002   5.6888345628878434E-003   6.1410366178158302E-002
  -1.9001986060738826E-002   5.6762020302071840E-003   6.0997484835825240E-002
  -1.8360626462786338E-002   5.6150122540992650E-003   6.0846581081527393E-002
  -2.8084566258107721E-002   7.4245705304924470E-003   6.2327268819655363E-002
  -2.7165165387346445E-002   7.5372131357423489E-003   6.1258272643151465E-002
  -2.6245764516585158E-002   7.5851127495147469E-003   6.0483381424229918E-002
  -2.5326363645823878E-002   7.5682693718097972E-003   6.0002595162890707E-002
  -2.4406962775062602E-002   7.4866830026273368E-003   5.9815913859133846E-002
  -9.3561131064845426E-012   8.5149387540894850E-012   6.3767645946111118E-002
  -2.8451581368660328E-011   1.1236817032411750E-011   6.5250463558215011E-002
  -4.7547049630836113E-011   1.2448812813925514E-011   6.6836417413394175E-002
  -6.6642521362458851E-011   1.2151153347406130E-011   6.8525507511648626E-002
  -8.5737986155187684E-011   1.0343559342373965E-011   7.0317733852978404E-002
  -6.1571450799330959E-003   1.8716707570430036E-003   6.2822447125015973E-002
  -6.0618828574097615E-003   1.8364291674139027E-003   6.4327574861668999E-002
  -5.9666206348864400E-003   1.7876833257720118E-003   6.5920090838484366E-002
  -5.8713584123631108E-003   1.7254332321172700E-003   6.7599995055462048E-002
  -5.7760961898397842E-003   1.6496788864497347E-003   6.9367287512601961E-002
  -1.2277353897743162E-002   3.7433415055711378E-003   6.1848758836821442E-002
  -1.2102577436514009E-002   3.6728583235910578E-003   6.3362692447520547E-002
  -1.1927800975284852E-002   3.5753666390951309E-003   6.4948266295469001E-002
  -1.1753024514055695E-002   3.4508664520834153E-003   6.6605480380666854E-002
  -1.1578248052826538E-002   3.2993577625558268E-003   6.8334334703113980E-002
  -1.8360626462786338E-002   5.6150122540992650E-003   6.0846581081527393E-002
  -1.8122083765764310E-002   5.5092874797681782E-003   6.2355816315769586E-002
  -1.7883541068742285E-002   5.3630499524182067E-003   6.3920943784348191E-002
  -1.7644998371720261E-002   5.1762996720495190E-003   6.5541963487263155E-002
  -1.7406455674698243E-002   4.9490366386619328E-003   6.7218875424514532E-002
  -2.4406962775062602E-002   7.4866830026273368E-003   5.9815913859133846E-002
  -2.4120401845160670E-002   7.3457166359452847E-003   6.1306946466416157E-002
  -2.3833840915258753E-002   7.1507332657413936E-003   6.2838123305121868E-002
  -2.3547279985356835E-002   6.9017328920156079E-003   6.4409444375250952E-002
  -2.3260719055454914E-002   6.5987155147680387E-003   6.6020909676803463E-002
  -8.5737986155187684E-011   1.0343559342373965E-011   7.0317733852978404E-002
  -6.5378969599239056E-011   7.0665973073147370E-012   6.9420635398182606E-002
  -4.5019949573843476E-011   2.3605561949580078E-012   6.8788540798380843E-002
  -2.4660926946362682E-011  -3.7749525727548416E-012   6.8421450053573085E-002
  -4.3019129924992683E-012  -1.1339262862009036E-011   6.8319363163759472E-002
  -5.7760961898397842E-003   1.6496788864497347E-003   6.9367287512601961E-002
  -5.5103090907431800E-003   1.5670225330060017E-003   6.8444766640180399E-002
  -5.2445219916465741E-003   1.4840664160227501E-003   6.7788816070239996E-002
  -4.9787348925499656E-003   1.4008105354997233E-003   6.7399435802780738E-002
  -4.7129477934533641E-003   1.3172548914373028E-003   6.7276625837802612E-002
  -1.1578248052826538E-002   3.2993577625558268E-003   6.8334334703113980E-002
  -1.1045107427505231E-002   3.1340450589453367E-003   6.7386091650956270E-002
  -1.0511966802183931E-002   2.9681328296848886E-003   6.6705985348766747E-002
  -9.9788261768626197E-003   2.8016210747744547E-003   6.6294015796545522E-002
  -9.4456855515413097E-003   2.6345097942139239E-003   6.6150182994292470E-002
  -1.7406455674698243E-002   4.9490366386619328E-003   6.7218875424514532E-002
  -1.6604395075665124E-002   4.7010675848845399E-003   6.6244610430510165E-002
  -1.5802334476632020E-002   4.4521992433470270E-003   6.5540048633961179E-002
  -1.5000273877598910E-002   4.2024316140490472E-003   6.5105190034867477E-002
  -1.4198213278565790E-002   3.9517646969904896E-003   6.4940034633229254E-002
  -2.3260719055454914E-002   6.5987155147680387E-003   6.6020909676803463E-002
  -2.2188172035222893E-002   6.2680901108241038E-003   6.5020322978842138E-002
  -2.1115625014990834E-002   5.9362656570092209E-003   6.4291005925823208E-002
  -2.0043077994758789E-002   5.6032421533237786E-003   6.3832958517746813E-002
  -1.8970530974526764E-002   5.2690195997671663E-003   6.3646180754612869E-002
  -4.3019129924992683E-012  -1.1339262862009036E-011   6.8319363163759472E-002
   4.0826821090522714E-011  -1.9183349353468770E-011   6.3033943251061708E-002
   8.5955551704097743E-011  -2.6157340182741962E-011   5.8156053423636667E-002
   1.3108428231767277E-010  -3.2261592702864661E-011   5.3685693681484334E-002
   1.7621301640069476E-010  -3.7495506699514181E-011   4.9622864024604529E-002
  -4.7129477934533641E-003   1.3172548914373028E-003   6.7276625837802612E-002
  -4.2943021552714448E-003   1.2541121265643718E-003   6.2003094225343447E-002
  -3.8756565170895169E-003   1.2320948836104517E-003   5.7159323713718110E-002
  -3.4570108789075934E-003   1.2512031625755218E-003   5.2745314302926581E-002
  -3.0383652407256628E-003   1.3114369634595335E-003   4.8761065992968644E-002
  -9.4456855515413097E-003   2.6345097942139239E-003   6.6150182994292470E-002
  -8.5861633047450599E-003   2.5082242723123288E-003   6.0929665203120820E-002
  -7.7266410579487892E-003   2.4641897933785697E-003   5.6161139528344083E-002
  -6.8671188111525151E-003   2.5024063574125791E-003   5.1844605969962224E-002
  -6.0075965643562549E-003   2.6228739644145460E-003   4.7980064527975250E-002
  -1.4198213278565790E-002   3.9517646969904896E-003   6.4940034633229254E-002
  -1.2875583407594021E-002   3.7623364180600569E-003   5.9813656184393930E-002
  -1.1552953536622267E-002   3.6962847031466357E-003   5.5161500867514639E-002
  -1.0230323665650505E-002   3.7536095522496650E-003   5.0983568682591386E-002
  -8.9076937946787425E-003   3.9343109653696279E-003   4.7279859629624249E-002
  -1.8970530974526764E-002   5.2690195997671663E-003   6.3646180754612869E-002
  -1.7162562463818358E-002   5.0164485638080347E-003   5.8655067169162745E-002
  -1.5354593953109941E-002   4.9283796129145768E-003   5.4160407731229848E-002
  -1.3546625442401540E-002   5.0048127470866920E-003   5.0162202440814194E-002
  -1.1738656931693119E-002   5.2457479663245987E-003   4.6660451297915739E-002
   1.7621301640069476E-010  -3.7495506699514181E-011   4.9622864024604529E-002
   3.1632735320030747E-010  -6.9124539425757803E-011   6.7643203712578592E-002
   4.5644170040826104E-010  -1.5441418976802623E-010   8.5161228352829271E-002
   5.9655601812591552E-010  -2.9336356607845282E-010  0.10217693794535666     
   7.3667037747693342E-010  -4.8597326163246635E-010  0.11869033249016092     
  -3.0383652407256628E-003   1.3114369634595335E-003   4.8761065992968644E-002
  -3.5797977589624077E-003   1.3144111401761915E-003   6.6733599751666234E-002
  -4.1212302771991630E-003   1.1617405466396724E-003   8.4125583241384833E-002
  -4.6626627954359148E-003   8.5342518284995533E-004  0.10093701646212487     
  -5.2040953136726353E-003   3.8946504880676969E-004  0.11716789941388539     
  -6.0075965643562549E-003   2.6228739644145460E-003   4.7980064527975250E-002
  -7.1686969621997301E-003   2.6288223494772278E-003   6.5749147640803390E-002
  -8.3297973600431896E-003   2.3234812476933611E-003   8.2859445263396808E-002
  -9.4908977578866734E-003   1.7068506590632807E-003   9.9310957395755642E-002
  -1.0651998155730140E-002   7.7893058358680101E-004  0.11510368403788018     
  -8.9076937946787425E-003   3.9343109653696279E-003   4.7279859629624249E-002
  -1.0766697293384560E-002   3.9432335587779449E-003   6.4689847379989646E-002
  -1.2625700792090388E-002   3.4852219487469700E-003   8.1362814418864809E-002
  -1.4484704290796249E-002   2.5602761352766486E-003   9.7298760746249782E-002
  -1.6343707789502053E-002   1.1683961183668323E-003  0.11249768636214480     
  -1.1738656931693119E-002   5.2457479663245987E-003   4.6660451297915739E-002
  -1.4373798752516959E-002   5.2576447680790506E-003   6.3555698969225416E-002
  -1.7008940573340781E-002   4.6469626498008287E-003   7.9635690707789364E-002
  -1.9644082394164604E-002   3.4137016114901622E-003   9.4900426513607250E-002
  -2.2279224214988444E-002   1.5578616531468636E-003  0.10934990638667941     
  -2.6625588239710576E-002   0.0000000000000000        2.9438841170572362E-002
  -2.7229794082323039E-002   5.8585972051409738E-004   3.4942427342824003E-002
  -2.7833999924935501E-002   1.3186246218033701E-003   4.0136343139596922E-002
  -2.8438205767547964E-002   2.1982947038678147E-003   4.5020588560891119E-002
  -2.9042411610160426E-002   3.2248699667074311E-003   4.9595163606706613E-002
  -3.3382566208857010E-002   0.0000000000000000        3.0149415057864677E-002
  -3.4231112252434387E-002   9.6006032860294476E-004   3.5262528080346307E-002
  -3.5079658296011777E-002   2.0227600254955434E-003   4.0196631076376804E-002
  -3.5928204339589161E-002   3.1880990906777923E-003   4.4951724045956175E-002
  -3.6776750383166537E-002   4.4560775241497081E-003   4.9527806989084447E-002
  -4.0720119776819663E-002   0.0000000000000000        3.1256322459488603E-002
  -4.1682345672334371E-002   1.3342609366917908E-003   3.5934696519714697E-002
  -4.2644571567849079E-002   2.7268954291877166E-003   4.0564720902517261E-002
  -4.3606797463363808E-002   4.1779034774877752E-003   4.5146395607896302E-002
  -4.4569023358878503E-002   5.6872850815919713E-003   4.9679720635851791E-002
  -4.8638248943598535E-002   0.0000000000000000        3.2759563375444119E-002
  -4.9583494342022985E-002   1.7084615447806371E-003   3.6958932660929172E-002
  -5.0528739740447429E-002   3.4310308328798916E-003   4.1240612618018285E-002
  -5.1473985138871879E-002   5.1677078642977589E-003   4.5604603246711450E-002
  -5.2419230537296337E-002   6.9184926390342379E-003   5.0050904547008675E-002
  -5.7136953709193618E-002   0.0000000000000000        3.4659137805731259E-002
  -5.7934558261500221E-002   2.0826621528694852E-003   3.8335236503989741E-002
  -5.8732162813806818E-002   4.1351662365720649E-003   4.2224306222879877E-002
  -5.9529767366113415E-002   6.1575122511077392E-003   4.6326346962401656E-002
  -6.0327371918420011E-002   8.1497001964765114E-003   5.0641358722555076E-002
  -2.9042411610160426E-002   3.2248699667074311E-003   4.9595163606706613E-002
  -2.9100924193367357E-002   4.2408198587610309E-003   5.1584197539221513E-002
  -2.9159436776574277E-002   5.0886138284674193E-003   5.3677457637426831E-002
  -2.9217949359781205E-002   5.7682518758265956E-003   5.5874943901322555E-002
  -2.9276461942988129E-002   6.2797340008385466E-003   5.8176656330908724E-002
  -3.6776750383166537E-002   4.4560775241497081E-003   4.9527806989084447E-002
  -3.6770719388841251E-002   5.6880565680659740E-003   5.1247827095861204E-002
  -3.6764688394515972E-002   6.7453974645813449E-003   5.2992708192011989E-002
  -3.6758657400190686E-002   7.6281002136957925E-003   5.4762450277536769E-002
  -3.6752626405865393E-002   8.3361648154093720E-003   5.6557053352435556E-002
  -4.4569023358878503E-002   5.6872850815919713E-003   4.9679720635851791E-002
  -4.4577813963337432E-002   7.1352932773709205E-003   5.1124244691836733E-002
  -4.4586604567796354E-002   8.4021811006952905E-003   5.2514264560879272E-002
  -4.4595395172255269E-002   9.4879485515650206E-003   5.3849780242979386E-002
  -4.4604185776714191E-002   1.0392595629980177E-002   5.5130791738137078E-002
  -5.2419230537296337E-002   6.9184926390342379E-003   5.0050904547008675E-002
  -5.2522207916855877E-002   8.5825299866758645E-003   5.1213450327148101E-002
  -5.2625185296415418E-002   1.0058964736809234E-002   5.2242126744028720E-002
  -5.2728162675974952E-002   1.1347796889434273E-002   5.3136933797650471E-002
  -5.2831140055534506E-002   1.2449026444550999E-002   5.3897871488013435E-002
  -6.0327371918420011E-002   8.1497001964765114E-003   5.0641358722555076E-002
  -6.0603901249396602E-002   1.0029766695980812E-002   5.1515444001795287E-002
  -6.0880430580373172E-002   1.1715748372923157E-002   5.2176294741460280E-002
  -6.1156959911349743E-002   1.3207645227303456E-002   5.2623910941549966E-002
  -6.1433489242326333E-002   1.4505457259121814E-002   5.2858292602064476E-002
  -2.9276461942988129E-002   6.2797340008385466E-003   5.8176656330908724E-002
  -2.8978488021768029E-002   6.6718394068206940E-003   5.9182742330844376E-002
  -2.8680514100547925E-002   6.9933472970903389E-003   6.0209873078947367E-002
  -2.8382540179327821E-002   7.2442576716476451E-003   6.1258048575217688E-002
  -2.8084566258107721E-002   7.4245705304924470E-003   6.2327268819655363E-002
  -3.6752626405865393E-002   8.3361648154093720E-003   5.6557053352435556E-002
  -3.6380419036159226E-002   8.8808139649471547E-003   5.7129538008386910E-002
  -3.6008211666453044E-002   9.2732703575343252E-003   5.7829444813143061E-002
  -3.5636004296746869E-002   9.5135339931709494E-003   5.8656773766704022E-002
  -3.5263796927040694E-002   9.6016048718570030E-003   5.9611524869069801E-002
  -4.4604185776714191E-002   1.0392595629980177E-002   5.5130791738137078E-002
  -4.4051367557884476E-002   1.1089788523073654E-002   5.5188079808866003E-002
  -4.3498549339054761E-002   1.1553193417978365E-002   5.5479167429037177E-002
  -4.2945731120225032E-002   1.1782810314694324E-002   5.6004054598650620E-002
  -4.2392912901395317E-002   1.1778639213221559E-002   5.6762741317706394E-002
  -5.2831140055534506E-002   1.2449026444550999E-002   5.3897871488013435E-002
  -5.1991333586943765E-002   1.3298763081200147E-002   5.3358367732281711E-002
  -5.1151527118353024E-002   1.3833116478422412E-002   5.3159040926629757E-002
  -5.0311720649762283E-002   1.4052086636217705E-002   5.3299891071057509E-002
  -4.9471914181171542E-002   1.3955673554586129E-002   5.3780918165565100E-002
  -6.1433489242326333E-002   1.4505457259121814E-002   5.2858292602064476E-002
  -6.0200317123337121E-002   1.5507737639326617E-002   5.1640401778634007E-002
  -5.8967145004347875E-002   1.6113039538866385E-002   5.0869065305920738E-002
  -5.7733972885358642E-002   1.6321362957741017E-002   5.0544283183924711E-002
  -5.6500800766369423E-002   1.6132707895950699E-002   5.0666055412645877E-002
  -2.8084566258107721E-002   7.4245705304924470E-003   6.2327268819655363E-002
  -2.7165165387346445E-002   7.5372131357423489E-003   6.1258272643151465E-002
  -2.6245764516585158E-002   7.5851127495147469E-003   6.0483381424229918E-002
  -2.5326363645823878E-002   7.5682693718097972E-003   6.0002595162890707E-002
  -2.4406962775062602E-002   7.4866830026273368E-003   5.9815913859133846E-002
  -3.5263796927040694E-002   9.6016048718570030E-003   5.9611524869069801E-002
  -3.4062824857109562E-002   9.5964047971820385E-003   5.8530563558107367E-002
  -3.2861852787178431E-002   9.5568555727356223E-003   5.7718639687902293E-002
  -3.1660880717247319E-002   9.4829571985178031E-003   5.7175753258454552E-002
  -3.0459908647316174E-002   9.3747096745285807E-003   5.6901904269764200E-002
  -4.2392912901395317E-002   1.1778639213221559E-002   5.6762741317706394E-002
  -4.0935437149119305E-002   1.1655596458621714E-002   5.5700208713991409E-002
  -3.9477961396843321E-002   1.1528598395956442E-002   5.4881646034208843E-002
  -3.8020485644567330E-002   1.1397645025225793E-002   5.4307053278358622E-002
  -3.6563009892291339E-002   1.1262736346429797E-002   5.3976430446440751E-002
  -4.9471914181171542E-002   1.3955673554586129E-002   5.3780918165565100E-002
  -4.7783002263375680E-002   1.3714788120061397E-002   5.2767208110803626E-002
  -4.6094090345579812E-002   1.3500341219177345E-002   5.1972400463149528E-002
  -4.4405178427783944E-002   1.3312332851933846E-002   5.1396495222602846E-002
  -4.2716266509988061E-002   1.3150763018331069E-002   5.1039492389163520E-002
  -5.6500800766369423E-002   1.6132707895950699E-002   5.0666055412645877E-002
  -5.4605520199878653E-002   1.5773979781501093E-002   4.9731561748543901E-002
  -5.2710239633387890E-002   1.5472084042398145E-002   4.8990902974724387E-002
  -5.0814959066897120E-002   1.5227020678641847E-002   4.8444079091187218E-002
  -4.8919678500406363E-002   1.5038789690232257E-002   4.8091090097932526E-002
  -2.4406962775062602E-002   7.4866830026273368E-003   5.9815913859133846E-002
  -2.4120401845160670E-002   7.3457166359452847E-003   6.1306946466416157E-002
  -2.3833840915258753E-002   7.1507332657413936E-003   6.2838123305121868E-002
  -2.3547279985356835E-002   6.9017328920156079E-003   6.4409444375250952E-002
  -2.3260719055454914E-002   6.5987155147680387E-003   6.6020909676803463E-002
  -3.0459908647316174E-002   9.3747096745285807E-003   5.6901904269764200E-002
  -3.0121346876671694E-002   9.2131272470856868E-003   5.8291469283315342E-002
  -2.9782785106027197E-002   8.9792241625073071E-003   5.9744891746928187E-002
  -2.9444223335382703E-002   8.6730004207930984E-003   6.1262171660602743E-002
  -2.9105661564738216E-002   8.2944560219431751E-003   6.2843309024339128E-002
  -3.6563009892291339E-002   1.1262736346429797E-002   5.3976430446440751E-002
  -3.6148734062265951E-002   1.1080537858226262E-002   5.5246224212646841E-002
  -3.5734458232240543E-002   1.0807715059273221E-002   5.6603588647552952E-002
  -3.5320182402215142E-002   1.0444267949570506E-002   5.8048523751159223E-002
  -3.4905906572189768E-002   9.9901965291183392E-003   5.9581029523465334E-002
  -4.2716266509988061E-002   1.3150763018331069E-002   5.1039492389163520E-002
  -4.2202563401943456E-002   1.2947948469366821E-002   5.2171211254410710E-002
  -4.1688860293898830E-002   1.2636205956039134E-002   5.3414214006996252E-002
  -4.1175157185854190E-002   1.2215535478348038E-002   5.4768500646920126E-002
  -4.0661454077809592E-002   1.1685937036293489E-002   5.6234071174182568E-002
  -4.8919678500406363E-002   1.5038789690232257E-002   4.8091090097932526E-002
  -4.8282834895704195E-002   1.4815359080507240E-002   4.9066430408606920E-002
  -4.7645991291002013E-002   1.4464696852805020E-002   5.0176767825258012E-002
  -4.7009147686299831E-002   1.3986803007125397E-002   5.1422102347885787E-002
  -4.6372304081597662E-002   1.3381677543468640E-002   5.2802433976490371E-002
  -2.3260719055454914E-002   6.5987155147680387E-003   6.6020909676803463E-002
  -2.2188172035222893E-002   6.2680901108241038E-003   6.5020322978842138E-002
  -2.1115625014990834E-002   5.9362656570092209E-003   6.4291005925823208E-002
  -2.0043077994758789E-002   5.6032421533237786E-003   6.3832958517746813E-002
  -1.8970530974526764E-002   5.2690195997671663E-003   6.3646180754612869E-002
  -2.9105661564738216E-002   8.2944560219431751E-003   6.2843309024339128E-002
  -2.7763638130149600E-002   7.8782088655854343E-003   6.1883484643748099E-002
  -2.6421614695561008E-002   7.4588768513478010E-003   6.1191343446927712E-002
  -2.5079591260972402E-002   7.0364599792302404E-003   6.0766885433878058E-002
  -2.3737567826383792E-002   6.6109582492328012E-003   6.0610110604598949E-002
  -3.4905906572189768E-002   9.9901965291183392E-003   5.9581029523465334E-002
  -3.3297993184416431E-002   9.4883276203468064E-003   5.8660081652235754E-002
  -3.1690079796643116E-002   8.9814880456862700E-003   5.8003230503605008E-002
  -3.0082166408869810E-002   8.4696778051368132E-003   5.7610476077572970E-002
  -2.8474253021096470E-002   7.9528968986984083E-003   5.7481818374139751E-002
  -4.0661454077809592E-002   1.1685937036293489E-002   5.6234071174182568E-002
  -3.8791237198023396E-002   1.1098446375108158E-002   5.5350114004305166E-002
  -3.6921020318237192E-002   1.0504099240024906E-002   5.4726667095854706E-002
  -3.5050803438451010E-002   9.9028956310434416E-003   5.4363730448831311E-002
  -3.3180586558664793E-002   9.2948355481639738E-003   5.4261304063234789E-002
  -4.6372304081597662E-002   1.3381677543468640E-002   5.2802433976490371E-002
  -4.4243370170970450E-002   1.2708565129869509E-002   5.1953581699956231E-002
  -4.2114436260343203E-002   1.2026710434363319E-002   5.1361653223677223E-002
  -3.9985502349715984E-002   1.1336113456950070E-002   5.1026648547653333E-002
  -3.7856568439088745E-002   1.0636774197629706E-002   5.0948567671884548E-002
  -1.8970530974526764E-002   5.2690195997671663E-003   6.3646180754612869E-002
  -1.7162562463818358E-002   5.0164485638080347E-003   5.8655067169162745E-002
  -1.5354593953109941E-002   4.9283796129145768E-003   5.4160407731229848E-002
  -1.3546625442401540E-002   5.0048127470866920E-003   5.0162202440814194E-002
  -1.1738656931693119E-002   5.2457479663245987E-003   4.6660451297915739E-002
  -2.3737567826383792E-002   6.6109582492328012E-003   6.0610110604598949E-002
  -2.1456679154906337E-002   6.2867983855126042E-003   5.5810950027295220E-002
  -1.9175790483428899E-002   6.1684071122271450E-003   5.1461175624012298E-002
  -1.6894901811951451E-002   6.2557844293761426E-003   4.7560787394750274E-002
  -1.4614013140473978E-002   6.5489303369600238E-003   4.4109785339509044E-002
  -2.8474253021096470E-002   7.9528968986984083E-003   5.7481818374139751E-002
  -2.5767512162346358E-002   7.5571482072172708E-003   5.2915877310351286E-002
  -2.3060771303596225E-002   7.4084346115396091E-003   4.8752254447087258E-002
  -2.0354030444846100E-002   7.5067561116657060E-003   4.4990949784347742E-002
  -1.7647289586095988E-002   7.8521127075953379E-003   4.1631963322132759E-002
  -3.3180586558664793E-002   9.2948355481639738E-003   5.4261304063234789E-002
  -3.0095061486138362E-002   8.8274980289218610E-003   4.9969849018330681E-002
  -2.7009536413611885E-002   8.6484621108521530E-003   4.6033644200454520E-002
  -2.3924011341085433E-002   8.7577277939551584E-003   4.2452689609606714E-002
  -2.0838486268558977E-002   9.1552950782307074E-003   3.9226985245786862E-002
  -3.7856568439088745E-002   1.0636774197629706E-002   5.0948567671884548E-002
  -3.4439327126282324E-002   1.0097847850626507E-002   4.6972865151233667E-002
  -3.1022085813475916E-002   9.8884896101646691E-003   4.3305344884114361E-002
  -2.7604844500669523E-002   1.0008699476244672E-002   3.9946006870527045E-002
  -2.4187603187863088E-002   1.0458477448866133E-002   3.6894851110471472E-002
  -1.1738656931693119E-002   5.2457479663245987E-003   4.6660451297915739E-002
  -1.4373798752516959E-002   5.2576447680790506E-003   6.3555698969225416E-002
  -1.7008940573340781E-002   4.6469626498008287E-003   7.9635690707789364E-002
  -1.9644082394164604E-002   3.4137016114901622E-003   9.4900426513607250E-002
  -2.2279224214988444E-002   1.5578616531468636E-003  0.10934990638667941     
  -1.4614013140473978E-002   6.5489303369600238E-003   4.4109785339509044E-002
  -1.8004560259706169E-002   6.5900664327012137E-003   6.0240779841239100E-002
  -2.1395107378938384E-002   5.9214143143229703E-003   7.5676219678898315E-002
  -2.4785654498170537E-002   4.5429739818255294E-003   9.0416104852486426E-002
  -2.8176201617402793E-002   2.4547454352084053E-003  0.10446043536200389     
  -1.7647289586095988E-002   7.8521127075953379E-003   4.1631963322132759E-002
  -2.1673540735061621E-002   7.9224880973234602E-003   5.6911495360196296E-002
  -2.5699791884027229E-002   7.1958659788453200E-003   7.1615174002863699E-002
  -2.9726043032992894E-002   5.6722463521608098E-003   8.5742999250135510E-002
  -3.3752294181958527E-002   3.3516292172699469E-003   9.9294971102010743E-002
  -2.0838486268558977E-002   9.1552950782307074E-003   3.9226985245786862E-002
  -2.5380740178583164E-002   9.2549097619458870E-003   5.3567845526096919E-002
  -2.9922994088607404E-002   8.4703176433675656E-003   6.7452553679685917E-002
  -3.4465247998631585E-002   6.8015187224961891E-003   8.0881109706553767E-002
  -3.9007501908655838E-002   4.2485129993314330E-003   9.3853513606700453E-002
  -2.4187603187863088E-002   1.0458477448866133E-002   3.6894851110471472E-002
  -2.9126158590270956E-002   1.0587331426567925E-002   5.0209830338940997E-002
  -3.4064713992678797E-002   9.7447693078898528E-003   6.3188358709364428E-002
  -3.9003269395086644E-002   7.9307910928314955E-003   7.5830436221741723E-002
  -4.3941824797494533E-002   5.1453967813930301E-003   8.8136062876072785E-002
  -5.7136953709193618E-002   0.0000000000000000        3.4659137805731259E-002
  -5.7934558261500221E-002   2.0826621528694852E-003   3.8335236503989741E-002
  -5.8732162813806818E-002   4.1351662365720649E-003   4.2224306222879877E-002
  -5.9529767366113415E-002   6.1575122511077392E-003   4.6326346962401656E-002
  -6.0327371918420011E-002   8.1497001964765114E-003   5.0641358722555076E-002
  -6.5805430300581905E-002   0.0000000000000000        3.7179194719326590E-002
  -6.6618595197469044E-002   2.9133992528137392E-003   4.0823741578095263E-002
  -6.7431760094356197E-002   5.7688517317795148E-003   4.4224196727071181E-002
  -6.8244924991243336E-002   8.5663574368973275E-003   4.7380560166254373E-002
  -6.9058089888130503E-002   1.1305916368167173E-002   5.0292831895644791E-002
  -7.4232874944740374E-002   0.0000000000000000        4.0543883085206706E-002
  -7.5518662916632451E-002   3.7441363527579942E-003   4.4129089399804512E-002
  -7.6804450888524542E-002   7.4025372269869612E-003   4.7013141274185169E-002
  -7.8090238860416647E-002   1.0975202622686912E-002   4.9196038708348704E-002
  -7.9376026832308710E-002   1.4462132539857835E-002   5.0677781702295095E-002
  -8.2419287641669003E-002   0.0000000000000000        4.4753202903371599E-002
  -8.4634761418990428E-002   4.5748734527022474E-003   4.8251279969117482E-002
  -8.6850235196311867E-002   9.0362227221944154E-003   5.0591139864221819E-002
  -8.9065708973633279E-002   1.3384047808476497E-002   5.1772782588684632E-002
  -9.1281182750954717E-002   1.7618348711548507E-002   5.1796208142505920E-002
  -9.0364668391367836E-002   0.0000000000000000        4.9807154173821283E-002
  -9.3966890704542977E-002   5.4056105526465031E-003   5.3190313286034172E-002
  -9.7569113017718131E-002   1.0669908217401863E-002   5.4958192497181133E-002
 -0.10117133533089327        1.5792892994266085E-002   5.5110791807262180E-002
 -0.10477355764406845        2.0774564883239161E-002   5.3648111216277300E-002
  -6.0327371918420011E-002   8.1497001964765114E-003   5.0641358722555076E-002
  -6.0603901249396602E-002   1.0029766695980812E-002   5.1515444001795287E-002
  -6.0880430580373172E-002   1.1715748372923157E-002   5.2176294741460280E-002
  -6.1156959911349743E-002   1.3207645227303456E-002   5.2623910941549966E-002
  -6.1433489242326333E-002   1.4505457259121814E-002   5.2858292602064476E-002
  -6.9058089888130503E-002   1.1305916368167173E-002   5.0292831895644791E-002
  -6.9309787026603689E-002   1.3750309092401150E-002   4.9454529701103027E-002
  -6.9561484165076917E-002   1.5662316176411371E-002   4.8879126431143234E-002
  -6.9813181303550118E-002   1.7041937620197817E-002   4.8566622085765426E-002
  -7.0064878442023304E-002   1.7889173423760549E-002   4.8517016664969617E-002
  -7.9376026832308710E-002   1.4462132539857835E-002   5.0677781702295095E-002
  -7.9126758314121318E-002   1.7470851488821479E-002   4.7788791216309530E-002
  -7.8877489795933925E-002   1.9608883979899596E-002   4.5638833119063200E-002
  -7.8628221277746532E-002   2.0876230013092183E-002   4.4227907410556121E-002
  -7.8378952759559126E-002   2.1272889588399239E-002   4.3556014090788242E-002
  -9.1281182750954717E-002   1.7618348711548507E-002   5.1796208142505920E-002
  -9.0054815111949460E-002   2.1191393885241803E-002   4.6518228547414817E-002
  -8.8828447472944203E-002   2.3555451783387825E-002   4.2455414805220172E-002
  -8.7602079833938959E-002   2.4710522405986535E-002   3.9607766915922021E-002
  -8.6375712194933674E-002   2.4656605753037950E-002   3.7975284879520316E-002
 -0.10477355764406845        2.0774564883239161E-002   5.3648111216277300E-002
 -0.10209395742008809        2.4911936281662148E-002   4.5642841694418922E-002
  -9.9414357196107764E-002   2.7502019586876043E-002   3.9328871489614177E-002
  -9.6734756972127411E-002   2.8544814798880880E-002   3.4706200601863205E-002
  -9.4055156748147073E-002   2.8040321917676657E-002   3.1774829031165901E-002
  -6.1433489242326333E-002   1.4505457259121814E-002   5.2858292602064476E-002
  -6.0200317123337121E-002   1.5507737639326617E-002   5.1640401778634007E-002
  -5.8967145004347875E-002   1.6113039538866385E-002   5.0869065305920738E-002
  -5.7733972885358642E-002   1.6321362957741017E-002   5.0544283183924711E-002
  -5.6500800766369423E-002   1.6132707895950699E-002   5.0666055412645877E-002
  -7.0064878442023304E-002   1.7889173423760549E-002   4.8517016664969617E-002
  -6.8434267266476612E-002   1.8350072540617469E-002   4.7248692322614201E-002
  -6.6803656090929836E-002   1.8570683924286607E-002   4.6328691742656587E-002
  -6.5173044915383060E-002   1.8551007574767953E-002   4.5757014925096796E-002
  -6.3542433739836354E-002   1.8291043492061537E-002   4.5533661869934808E-002
  -7.8378952759559126E-002   2.1272889588399239E-002   4.3556014090788242E-002
  -7.6449133115774268E-002   2.1192407441908284E-002   4.2393946976985175E-002
  -7.4519313471989423E-002   2.1028328309706839E-002   4.1481973037260499E-002
  -7.2589493828204579E-002   2.0780652191794848E-002   4.0820092271614254E-002
  -7.0659674184419707E-002   2.0449379088172362E-002   4.0408304680046379E-002
  -8.6375712194933674E-002   2.4656605753037950E-002   3.7975284879520316E-002
  -8.4244914671230173E-002   2.4034742343199147E-002   3.7076165741746873E-002
  -8.2114117147526602E-002   2.3485972695127033E-002   3.6328909189732431E-002
  -7.9983319623823046E-002   2.3010296808821776E-002   3.5733515223477001E-002
  -7.7852522100119559E-002   2.2607714684283221E-002   3.5289983842980516E-002
  -9.4055156748147073E-002   2.8040321917676657E-002   3.1774829031165901E-002
  -9.1821611932844271E-002   2.6877077244489948E-002   3.1295348616899366E-002
  -8.9588067117541442E-002   2.5943617080547286E-002   3.0869500200072401E-002
  -8.7354522302238627E-002   2.5239941425848633E-002   3.0497283780685044E-002
  -8.5120977486935812E-002   2.4766050280394025E-002   3.0178699358737210E-002
  -5.6500800766369423E-002   1.6132707895950699E-002   5.0666055412645877E-002
  -5.4605520199878653E-002   1.5773979781501093E-002   4.9731561748543901E-002
  -5.2710239633387890E-002   1.5472084042398145E-002   4.8990902974724387E-002
  -5.0814959066897120E-002   1.5227020678641847E-002   4.8444079091187218E-002
  -4.8919678500406363E-002   1.5038789690232257E-002   4.8091090097932526E-002
  -6.3542433739836354E-002   1.8291043492061537E-002   4.5533661869934808E-002
  -6.1432323682075948E-002   1.7926884125753537E-002   4.4588920106369279E-002
  -5.9322213624315549E-002   1.7594621925430216E-002   4.3880002435060635E-002
  -5.7212103566555157E-002   1.7294256891091458E-002   4.3406908856008800E-002
  -5.5101993508794744E-002   1.7025789022737409E-002   4.3169639369213891E-002
  -7.0659674184419707E-002   2.0449379088172362E-002   4.0408304680046379E-002
  -6.8292745433415208E-002   2.0079788470005945E-002   3.9428379607655245E-002
  -6.5925816682410723E-002   1.9717159808462174E-002   3.8726267829495467E-002
  -6.3558887931406252E-002   1.9361493103541016E-002   3.8301969345566948E-002
  -6.1191959180401774E-002   1.9012788355242505E-002   3.8155484155869807E-002
  -7.7852522100119559E-002   2.2607714684283221E-002   3.5289983842980516E-002
  -7.5186785453896468E-002   2.2232692814258399E-002   3.4249940252401766E-002
  -7.2521048807673461E-002   2.1839697691494186E-002   3.3529699158028795E-002
  -6.9855312161450453E-002   2.1428729315990588E-002   3.3129260559861658E-002
  -6.7189575515227418E-002   2.0999787687747629E-002   3.3048624457900279E-002
  -8.5120977486935812E-002   2.4766050280394025E-002   3.0178699358737210E-002
  -8.2114443743519769E-002   2.4385597158510797E-002   2.9053602040608889E-002
  -7.9107910000103754E-002   2.3962235574526175E-002   2.8290296420660735E-002
  -7.6101376256687725E-002   2.3495965528440139E-002   2.7888782498892928E-002
  -7.3094842513271696E-002   2.2986787020252752E-002   2.7849060275305315E-002
  -4.8919678500406363E-002   1.5038789690232257E-002   4.8091090097932526E-002
  -4.8282834895704195E-002   1.4815359080507240E-002   4.9066430408606920E-002
  -4.7645991291002013E-002   1.4464696852805020E-002   5.0176767825258012E-002
  -4.7009147686299831E-002   1.3986803007125397E-002   5.1422102347885787E-002
  -4.6372304081597662E-002   1.3381677543468640E-002   5.2802433976490371E-002
  -5.5101993508794744E-002   1.7025789022737409E-002   4.3169639369213891E-002
  -5.4349437667724161E-002   1.6706486427391379E-002   4.4087645028088443E-002
  -5.3596881826653564E-002   1.6253617212077055E-002   4.5102078053723210E-002
  -5.2844325985582995E-002   1.5667181376794230E-002   4.6212938446118054E-002
  -5.2091770144512377E-002   1.4947178921542958E-002   4.7420226205273031E-002
  -6.1191959180401774E-002   1.9012788355242505E-002   3.8155484155869807E-002
  -6.0362260842179348E-002   1.8597613774275573E-002   3.9009820160953508E-002
  -5.9532562503956971E-002   1.8042537571348979E-002   3.9922013793580693E-002
  -5.8702864165734572E-002   1.7347559746462956E-002   4.0892065053751370E-002
  -5.7873165827512188E-002   1.6512680299617333E-002   4.1919973941465627E-002
  -6.7189575515227418E-002   2.0999787687747629E-002   3.3048624457900279E-002
  -6.6321304419069832E-002   2.0488741121159768E-002   3.3832955807201880E-002
  -6.5453033322912177E-002   1.9831457930621015E-002   3.4636575044830475E-002
  -6.4584762226754550E-002   1.9027938116131710E-002   3.5459482170786025E-002
  -6.3716491130596922E-002   1.8078181677691707E-002   3.6301677185068437E-002
  -7.3094842513271696E-002   2.2986787020252752E-002   2.7849060275305315E-002
  -7.2226568398395447E-002   2.2379868468043823E-002   2.8557051966833863E-002
  -7.1358294283519211E-002   2.1620378289892911E-002   2.9245761807472598E-002
  -7.0490020168642975E-002   2.0708316485800439E-002   2.9915189797221770E-002
  -6.9621746053766698E-002   1.9643683055766026E-002   3.0565335936081239E-002
  -4.6372304081597662E-002   1.3381677543468640E-002   5.2802433976490371E-002
  -4.4243370170970450E-002   1.2708565129869509E-002   5.1953581699956231E-002
  -4.2114436260343203E-002   1.2026710434363319E-002   5.1361653223677223E-002
  -3.9985502349715984E-002   1.1336113456950070E-002   5.1026648547653333E-002
  -3.7856568439088745E-002   1.0636774197629706E-002   5.0948567671884548E-002
  -5.2091770144512377E-002   1.4947178921542958E-002   4.7420226205273031E-002
  -4.9713683154129988E-002   1.4175649426558468E-002   4.6512558717451274E-002
  -4.7335596163747620E-002   1.3434632472075714E-002   4.5846273588884753E-002
  -4.4957509173365232E-002   1.2724128058095030E-002   4.5421370819573384E-002
  -4.2579422182982801E-002   1.2044136184615972E-002   4.5237850409517333E-002
  -5.7873165827512188E-002   1.6512680299617333E-002   4.1919973941465627E-002
  -5.5261467198374534E-002   1.5642733723247315E-002   4.0992746064765287E-002
  -5.2649768569236879E-002   1.4842554509788219E-002   4.0291359106320229E-002
  -5.0038069940099218E-002   1.4112142659239879E-002   3.9815813066130433E-002
  -4.7426371310961626E-002   1.3451498171602322E-002   3.9566107944195961E-002
  -6.3716491130596922E-002   1.8078181677691707E-002   3.6301677185068437E-002
  -6.0886722303703934E-002   1.7109818019936274E-002   3.5394143741898393E-002
  -5.8056953476810960E-002   1.6250476547500697E-002   3.4696909775983727E-002
  -5.5227184649917986E-002   1.5500157260384673E-002   3.4209975287324362E-002
  -5.2397415823024943E-002   1.4858860158588713E-002   3.3933340275920550E-002
  -6.9621746053766698E-002   1.9643683055766026E-002   3.0565335936081239E-002
  -6.6589448470118301E-002   1.8576902316625094E-002   2.9716751748850467E-002
  -6.3557150886469890E-002   1.7658398585212995E-002   2.9062925597875156E-002
  -6.0524853302821501E-002   1.6888171861529685E-002   2.8603857483155345E-002
  -5.7492555719173083E-002   1.6266222145574993E-002   2.8339547404691079E-002
  -3.7856568439088745E-002   1.0636774197629706E-002   5.0948567671884548E-002
  -3.4439327126282324E-002   1.0097847850626507E-002   4.6972865151233667E-002
  -3.1022085813475916E-002   9.8884896101646691E-003   4.3305344884114361E-002
  -2.7604844500669523E-002   1.0008699476244672E-002   3.9946006870527045E-002
  -2.4187603187863088E-002   1.0458477448866133E-002   3.6894851110471472E-002
  -4.2579422182982801E-002   1.2044136184615972E-002   4.5237850409517333E-002
  -3.8802234952359377E-002   1.1534139696111001E-002   4.1509339337060691E-002
  -3.5025047721735980E-002   1.1333621437051827E-002   3.8192537846706259E-002
  -3.1247860491112570E-002   1.1442581407439055E-002   3.5287445938454218E-002
  -2.7470673260489117E-002   1.1861019607271928E-002   3.2794063612304247E-002
  -4.7426371310961626E-002   1.3451498171602322E-002   3.9566107944195961E-002
  -4.3185710833950702E-002   1.2970431541595495E-002   3.6064698442838161E-002
  -3.8945050356939785E-002   1.2778753263939083E-002   3.3078525852153137E-002
  -3.4704389879928882E-002   1.2876463338633324E-002   3.0607590172140736E-002
  -3.0463729402917958E-002   1.3263561765677806E-002   2.8651891402801125E-002
  -5.2397415823024943E-002   1.4858860158588713E-002   3.3933340275920550E-002
  -4.7589754771056120E-002   1.4406723387079934E-002   3.0638942468565973E-002
  -4.2782093719087297E-002   1.4223885090826234E-002   2.7963308900454707E-002
  -3.7974432667118446E-002   1.4310345269827484E-002   2.5906439571586573E-002
  -3.3166771615149589E-002   1.4666103924083643E-002   2.4468334481961524E-002
  -5.7492555719173083E-002   1.6266222145574993E-002   2.8339547404691079E-002
  -5.2014366763675796E-002   1.5843015232564511E-002   2.5232071414244273E-002
  -4.6536177808178578E-002   1.5669016917713455E-002   2.2846886991611304E-002
  -4.1057988852681297E-002   1.5744227201021966E-002   2.1183994136791798E-002
  -3.5579799897184017E-002   1.6068646082489590E-002   2.0243392849786046E-002
  -2.4187603187863088E-002   1.0458477448866133E-002   3.6894851110471472E-002
  -2.9126158590270956E-002   1.0587331426567925E-002   5.0209830338940997E-002
  -3.4064713992678797E-002   9.7447693078898528E-003   6.3188358709364428E-002
  -3.9003269395086644E-002   7.9307910928314955E-003   7.5830436221741723E-002
  -4.3941824797494533E-002   5.1453967813930301E-003   8.8136062876072785E-002
  -2.7470673260489117E-002   1.1861019607271928E-002   3.2794063612304247E-002
  -3.2908481155539002E-002   1.1853888980589422E-002   4.5170239146946733E-002
  -3.8346289050588858E-002   1.0686142471429905E-002   5.6884360554351310E-002
  -4.3784096945638694E-002   8.3577800797931950E-003   6.7936427834518268E-002
  -4.9221904840688613E-002   4.8688018056797233E-003   7.8326440987447454E-002
  -3.0463729402917958E-002   1.3263561765677806E-002   2.8651891402801125E-002
  -3.6726393059801396E-002   1.3120446534610669E-002   3.9900063457519508E-002
  -4.2989056716684806E-002   1.1627515634969797E-002   5.0160578115808478E-002
  -4.9251720373568342E-002   8.7847690667548686E-003   5.9433435377668167E-002
  -5.5514384030451641E-002   4.5922068299661944E-003   6.7718635243098346E-002
  -3.3166771615149589E-002   1.4666103924083643E-002   2.4468334481961524E-002
  -4.0579894303058188E-002   1.4387004088631986E-002   3.4399303270659126E-002
  -4.7993016990966822E-002   1.2568888798509602E-002   4.3017011393735677E-002
  -5.5406139678875380E-002   9.2117580537166670E-003   5.0321458851191464E-002
  -6.2819262366784048E-002   4.3156118542527766E-003   5.6312645643026002E-002
  -3.5579799897184017E-002   1.6068646082489590E-002   2.0243392849786046E-002
  -4.4468984885309371E-002   1.5653561642653191E-002   2.8667958586365894E-002
  -5.3358169873434752E-002   1.3510261962049575E-002   3.5453660388133190E-002
  -6.2247354861560009E-002   9.6387470406781722E-003   4.0600498255087991E-002
  -7.1136539849685432E-002   4.0390168785393588E-003   4.4108472187230241E-002
  -9.0364668391367836E-002   0.0000000000000000        4.9807154173821283E-002
  -9.3966890704542977E-002   5.4056105526465031E-003   5.3190313286034172E-002
  -9.7569113017718131E-002   1.0669908217401863E-002   5.4958192497181133E-002
 -0.10117133533089327        1.5792892994266085E-002   5.5110791807262180E-002
 -0.10477355764406845        2.0774564883239161E-002   5.3648111216277300E-002
 -0.10330132493090213        0.0000000000000000        5.8643518464917714E-002
 -0.10683962141214792        1.0893433948948813E-002   5.2108615702627571E-002
 -0.11037791789339373        1.9180812624593660E-002   4.7316844505262030E-002
 -0.11391621437463954        2.4862136026934559E-002   4.4268204872821112E-002
 -0.11745451085588536        2.7937404155971488E-002   4.2962696805304817E-002
 -0.12646156499733716        0.0000000000000000        7.4200077345022861E-002
 -0.12657752418066309        1.6381257345251119E-002   5.5282370322816861E-002
 -0.12669348336398900        2.7691717031785461E-002   4.1466206331526027E-002
 -0.12680944254731491        3.3931379059603035E-002   3.2751585371150346E-002
 -0.12692540173064085        3.5100243428703853E-002   2.9138507441689776E-002
 -0.15984538859067293        0.0000000000000000        9.6476830814136730E-002
 -0.15318059901008843        2.1869080741553418E-002   6.2711577146602082E-002
 -0.14651580942950396        3.6202621438977262E-002   3.7406277975973116E-002
 -0.13985101984891946        4.3000622092271512E-002   2.0560933302249809E-002
 -0.13318623026833498        4.2263082701436167E-002   1.2175543125432202E-002
 -0.20345279571090946        0.0000000000000000       0.12547377887225930     
 -0.18664884590042402        2.7356904137855739E-002   7.4396236173983166E-002
 -0.16984489608993858        4.4713525846169055E-002   3.5137059438603249E-002
 -0.15304094627945314        5.2069865124939975E-002   7.6962486661195650E-003
 -0.13623699646896770        4.9425921974168514E-002  -7.9261961434678868E-003
 -0.10477355764406845        2.0774564883239161E-002   5.3648111216277300E-002
 -0.10209395742008809        2.4911936281662148E-002   4.5642841694418922E-002
  -9.9414357196107764E-002   2.7502019586876043E-002   3.9328871489614177E-002
  -9.6734756972127411E-002   2.8544814798880880E-002   3.4706200601863205E-002
  -9.4055156748147073E-002   2.8040321917676657E-002   3.1774829031165901E-002
 -0.11745451085588536        2.7937404155971488E-002   4.2962696805304817E-002
 -0.11347002037510000        2.9397080576926179E-002   3.6694872442224295E-002
 -0.10948552989431466        3.0231628855020291E-002   3.1345529275700057E-002
 -0.10550103941352931        3.0441048990253908E-002   2.6914667305732137E-002
 -0.10151654893274395        3.0025340982626936E-002   2.3402286532320495E-002
 -0.12692540173064085        3.5100243428703853E-002   2.9138507441689776E-002
 -0.12240883911354793        3.3882224872190218E-002   2.5530288187735634E-002
 -0.11789227649645499        3.2961238123164566E-002   2.2067732009840406E-002
 -0.11337571387936202        3.2337283181626930E-002   1.8750838908004060E-002
 -0.10885915126226912        3.2010360047577222E-002   1.5579608882226594E-002
 -0.13318623026833498        4.2263082701436167E-002   1.2175543125432202E-002
 -0.12891041363543185        3.8367369167454299E-002   1.2149088930953041E-002
 -0.12463459700252874        3.5690847391308823E-002   1.1495479692035180E-002
 -0.12035878036962559        3.4233517372999969E-002   1.0214715408679046E-002
 -0.11608296373672250        3.3995379112527500E-002   8.3067960808842940E-003
 -0.13623699646896770        4.9425921974168514E-002  -7.9261961434678868E-003
 -0.13297474394075182        4.2852513462718331E-002  -3.4487253281237119E-003
 -0.12971249141253591        3.8420456659453116E-002  -3.7122767771545148E-004
 -0.12645023888432000        3.6129751564372974E-002   1.3062968077568919E-003
 -0.12318798635610412        3.5980398177477751E-002   1.5838481282933747E-003
  -9.4055156748147073E-002   2.8040321917676657E-002   3.1774829031165901E-002
  -9.1821611932844271E-002   2.6877077244489948E-002   3.1295348616899366E-002
  -8.9588067117541442E-002   2.5943617080547286E-002   3.0869500200072401E-002
  -8.7354522302238627E-002   2.5239941425848633E-002   3.0497283780685044E-002
  -8.5120977486935812E-002   2.4766050280394025E-002   3.0178699358737210E-002
 -0.10151654893274395        3.0025340982626936E-002   2.3402286532320495E-002
  -9.9209484690700733E-002   2.9296479071259752E-002   2.3175785824738723E-002
  -9.6902420448657475E-002   2.8566437495272663E-002   2.3042691973198134E-002
  -9.4595356206614273E-002   2.7835216254665701E-002   2.3003004977698846E-002
  -9.2288291964571029E-002   2.7102815349438814E-002   2.3056724838240880E-002
 -0.10885915126226912        3.2010360047577222E-002   1.5579608882226594E-002
 -0.10643879273488371        3.1715880898029555E-002   1.5375123707465570E-002
 -0.10401843420749833        3.1189257909998058E-002   1.5303820247347451E-002
 -0.10159807568011296        3.0430491083482787E-002   1.5365698501872404E-002
  -9.9177717152727593E-002   2.9439580418483574E-002   1.5560758471040353E-002
 -0.11608296373672250        3.3995379112527500E-002   8.3067960808842940E-003
 -0.11350953606539324        3.4135282724799342E-002   7.8933622650799850E-003
 -0.11093610839406397        3.3812078324723466E-002   7.6528850225204012E-003
 -0.10836268072273472        3.3025765912299797E-002   7.5853643532055913E-003
 -0.10578925305140546        3.1776345487528279E-002   7.6908002571353870E-003
 -0.12318798635610412        3.5980398177477751E-002   1.5838481282933747E-003
 -0.12042171468222929        3.6554684551569169E-002   7.3050149758202565E-004
 -0.11765544300835443        3.6434898739448850E-002   8.9886298717117841E-005
 -0.11488917133447961        3.5621040741116890E-002  -3.3799746830166094E-004
 -0.11212289966060474        3.4113110556573123E-002  -5.5314980347359599E-004
  -8.5120977486935812E-002   2.4766050280394025E-002   3.0178699358737210E-002
  -8.2114443743519769E-002   2.4385597158510797E-002   2.9053602040608889E-002
  -7.9107910000103754E-002   2.3962235574526175E-002   2.8290296420660735E-002
  -7.6101376256687725E-002   2.3495965528440139E-002   2.7888782498892928E-002
  -7.3094842513271696E-002   2.2986787020252752E-002   2.7849060275305315E-002
  -9.2288291964571029E-002   2.7102815349438814E-002   2.3056724838240880E-002
  -8.8955557013995962E-002   2.6397057518246413E-002   2.2179704993863701E-002
  -8.5622822063420964E-002   2.5745765499742855E-002   2.1593295865624251E-002
  -8.2290087112845967E-002   2.5148939293928092E-002   2.1297497453522593E-002
  -7.8957352162270886E-002   2.4606578900802173E-002   2.1292309757558636E-002
  -9.9177717152727593E-002   2.9439580418483574E-002   1.5560758471040353E-002
  -9.5589961977036023E-002   2.8408517877982042E-002   1.5029190375204442E-002
  -9.2002206801344466E-002   2.7529295424959507E-002   1.4717052013463856E-002
  -8.8414451625652909E-002   2.6801913059416042E-002   1.4624343385818660E-002
  -8.4826696449961436E-002   2.6226370781351566E-002   1.4751064492268609E-002
 -0.10578925305140546        3.1776345487528279E-002   7.6908002571353870E-003
 -0.10201765863263988        3.0419978237717610E-002   7.6020581846313138E-003
  -9.8246064213874273E-002   2.9312825350176104E-002   7.6615648641796749E-003
  -9.4474469795108693E-002   2.8454886824903936E-002   7.8693202957809700E-003
  -9.0702875376343084E-002   2.7846162661900889E-002   8.2253244794351331E-003
 -0.11212289966060474        3.4113110556573123E-002  -5.5314980347359599E-004
 -0.10823864698080760        3.2431438597453344E-002  -1.0169157785619443E-004
 -0.10435439430101040        3.1096355275392756E-002   4.2683441777148501E-004
 -0.10047014162121323        3.0107860590391881E-002   1.0324281834097650E-003
  -9.6585888941416065E-002   2.9465954542450434E-002   1.7150897190583159E-003
  -7.3094842513271696E-002   2.2986787020252752E-002   2.7849060275305315E-002
  -7.2226568398395447E-002   2.2379868468043823E-002   2.8557051966833863E-002
  -7.1358294283519211E-002   2.1620378289892911E-002   2.9245761807472598E-002
  -7.0490020168642975E-002   2.0708316485800439E-002   2.9915189797221770E-002
  -6.9621746053766698E-002   1.9643683055766026E-002   3.0565335936081239E-002
  -7.8957352162270886E-002   2.4606578900802173E-002   2.1292309757558636E-002
  -7.8087875567682763E-002   2.4036556794918063E-002   2.1882770708924054E-002
  -7.7218398973094599E-002   2.3356745450828768E-002   2.2494918470602768E-002
  -7.6348922378506462E-002   2.2567144868534186E-002   2.3128753042595138E-002
  -7.5479445783918284E-002   2.1667755048034365E-002   2.3784274424900886E-002
  -8.4826696449961436E-002   2.6226370781351566E-002   1.4751064492268609E-002
  -8.3915048714458179E-002   2.5693245121792316E-002   1.5266777091207225E-002
  -8.3003400978954894E-002   2.5093112611764515E-002   1.5845145161662785E-002
  -8.2091753243451637E-002   2.4425973251267902E-002   1.6486168703634771E-002
  -8.1180105507948352E-002   2.3691827040302815E-002   1.7189847717123480E-002
  -9.0702875376343084E-002   2.7846162661900889E-002   8.2253244794351331E-003
  -8.9708087838721653E-002   2.7349933448666701E-002   8.7090711136837053E-003
  -8.8713300301100154E-002   2.6829479772700206E-002   9.2964418806525343E-003
  -8.7718512763478668E-002   2.6284801634001605E-002   9.9874367803406347E-003
  -8.6723725225857168E-002   2.5715899032571043E-002   1.0782055812748971E-002
  -9.6585888941416065E-002   2.9465954542450434E-002   1.7150897190583159E-003
  -9.5466992940473117E-002   2.9006621775540947E-002   2.2096527763535989E-003
  -9.4348096939530279E-002   2.8565846933636022E-002   2.8488086275716973E-003
  -9.3229200938587414E-002   2.8143630016735467E-002   3.6325572727130134E-003
  -9.2110304937644494E-002   2.7739971024839494E-002   4.5608987117772282E-003
  -6.9621746053766698E-002   1.9643683055766026E-002   3.0565335936081239E-002
  -6.6589448470118301E-002   1.8576902316625094E-002   2.9716751748850467E-002
  -6.3557150886469890E-002   1.7658398585212995E-002   2.9062925597875156E-002
  -6.0524853302821501E-002   1.6888171861529685E-002   2.8603857483155345E-002
  -5.7492555719173083E-002   1.6266222145574993E-002   2.8339547404691079E-002
  -7.5479445783918284E-002   2.1667755048034365E-002   2.3784274424900886E-002
  -7.2213713753772626E-002   2.0711421256102452E-002   2.3203495805568131E-002
  -6.8947981723627011E-002   1.9750988759511520E-002   2.2894828042974325E-002
  -6.5682249693481409E-002   1.8786457558261357E-002   2.2858271137119628E-002
  -6.2416517663335738E-002   1.7817827652352125E-002   2.3093825088003866E-002
  -8.1180105507948352E-002   2.3691827040302815E-002   1.7189847717123480E-002
  -7.7603586210822056E-002   2.2845940195579825E-002   1.6724498953300873E-002
  -7.4027066913695663E-002   2.1843578933809830E-002   1.6608613866700907E-002
  -7.0450547616569326E-002   2.0684743254992977E-002   1.6842192457323105E-002
  -6.6874028319442919E-002   1.9369433159129174E-002   1.7425234725168215E-002
  -8.6723725225857168E-002   2.5715899032571043E-002   1.0782055812748971E-002
  -8.2759065841266563E-002   2.4980459135057219E-002   1.0279761192048712E-002
  -7.8794406456675917E-002   2.3936169108108193E-002   1.0204283069054387E-002
  -7.4829747072085284E-002   2.2583028951724482E-002   1.0555621443766209E-002
  -7.0865087687494638E-002   2.0921038665906347E-002   1.1333776316183982E-002
  -9.2110304937644494E-002   2.7739971024839494E-002   4.5608987117772282E-003
  -8.7680152645106091E-002   2.7114978074534501E-002   3.8692825218113458E-003
  -8.3250000352567688E-002   2.6028759282406583E-002   3.6818356500351590E-003
  -7.8819848060029229E-002   2.4481314648456466E-002   3.9985580964483763E-003
  -7.4389695767490882E-002   2.2472644172683354E-002   4.8194498610510950E-003
  -5.7492555719173083E-002   1.6266222145574993E-002   2.8339547404691079E-002
  -5.2014366763675796E-002   1.5843015232564511E-002   2.5232071414244273E-002
  -4.6536177808178578E-002   1.5669016917713455E-002   2.2846886991611304E-002
  -4.1057988852681297E-002   1.5744227201021966E-002   2.1183994136791798E-002
  -3.5579799897184017E-002   1.6068646082489590E-002   2.0243392849786046E-002
  -6.2416517663335738E-002   1.7817827652352125E-002   2.3093825088003866E-002
  -5.6349270076190172E-002   1.6996962491695800E-002   2.0593985846109442E-002
  -5.0282022489044627E-002   1.6475725526204549E-002   1.8549972299698070E-002
  -4.4214774901899082E-002   1.6254116755878255E-002   1.6961784448769605E-002
  -3.8147527314753515E-002   1.6332136180716772E-002   1.5829422293324180E-002
  -6.6874028319442919E-002   1.9369433159129174E-002   1.7425234725168215E-002
  -6.0484187972979761E-002   1.8150909750827185E-002   1.5583451828831613E-002
  -5.4094347626516617E-002   1.7282434134695691E-002   1.3931028755647536E-002
  -4.7704507280053488E-002   1.6764006310734707E-002   1.2467965505615620E-002
  -4.1314666933590247E-002   1.6595626278944231E-002   1.1194262078735751E-002
  -7.0865087687494638E-002   2.0921038665906347E-002   1.1333776316183982E-002
  -6.4419120454044562E-002   1.9304857009958633E-002   1.0200469362410928E-002
  -5.7973153220594459E-002   1.8089142743187032E-002   8.9900563594593214E-003
  -5.1527185987144404E-002   1.7273895865591412E-002   7.7025373073293197E-003
  -4.5081218753694266E-002   1.6859116377171662E-002   6.3379122060211596E-003
  -7.4389695767490882E-002   2.2472644172683354E-002   4.8194498610510950E-003
  -6.8154067519384576E-002   2.0458804269089970E-002   4.4450384468471271E-003
  -6.1918439271278269E-002   1.8895851351678095E-002   3.7270551111340533E-003
  -5.5682811023171935E-002   1.7783785420447659E-002   2.6654998539117139E-003
  -4.9447182775065657E-002   1.7122606475398983E-002   1.2603726751800881E-003
  -3.5579799897184017E-002   1.6068646082489590E-002   2.0243392849786046E-002
  -4.4468984885309371E-002   1.5653561642653191E-002   2.8667958586365894E-002
  -5.3358169873434752E-002   1.3510261962049575E-002   3.5453660388133190E-002
  -6.2247354861560009E-002   9.6387470406781722E-003   4.0600498255087991E-002
  -7.1136539849685432E-002   4.0390168785393588E-003   4.4108472187230241E-002
  -3.8147527314753515E-002   1.6332136180716772E-002   1.5829422293324180E-002
  -4.8310984330316858E-002   1.6197578939044971E-002   2.2792669351534317E-002
  -5.8474441345880285E-002   1.5338240169187348E-002   2.8846236289681026E-002
  -6.8637898361443739E-002   1.3754119871143489E-002   3.3990123107764308E-002
  -7.8801355377007110E-002   1.1445218044913830E-002   3.8224329805783608E-002
  -4.1314666933590247E-002   1.6595626278944231E-002   1.1194262078735751E-002
  -5.2023212161842719E-002   1.6741596235436806E-002   1.7699624171158099E-002
  -6.2731757390095205E-002   1.7166218376325065E-002   2.4024489958265838E-002
  -7.3440302618347747E-002   1.7869492701608945E-002   3.0168859440058940E-002
  -8.4148847846600136E-002   1.8851419211288190E-002   3.6132732616537322E-002
  -4.5081218753694266E-002   1.6859116377171662E-002   6.3379122060211596E-003
  -5.5605668379886827E-002   1.7285613531828559E-002   1.3388823045236749E-002
  -6.6130118006079430E-002   1.8994196583462977E-002   2.0988421393887138E-002
  -7.6654567632272047E-002   2.1984865532074054E-002   2.9136707251971598E-002
  -8.7179017258464664E-002   2.6257620377662605E-002   3.7833680619490342E-002
  -4.9447182775065657E-002   1.7122606475398983E-002   1.2603726751800881E-003
  -5.9058352984449392E-002   1.7829630828220422E-002   9.8602659737709875E-003
  -6.8669523193833071E-002   2.0822174790600695E-002   1.9738030596545331E-002
  -7.8280693403216806E-002   2.6100238362539420E-002   3.0893666543502674E-002
  -8.7891863612600485E-002   3.3663821544037020E-002   4.3327173814643904E-002
 </DataArray>
 </PointData>
 </Piece>
 <Piece  NumberOfPoints="          1600 "  NumberOfCells="         1024 ">
 <Points>
 <DataArray  type="Float64" NumberOfComponents="3"  format="ascii" >
  0.50000000000000000        0.0000000000000000        0.0000000000000000     
  0.53125000000000000        0.0000000000000000        0.0000000000000000     
  0.56250000000000000        0.0000000000000000        0.0000000000000000     
  0.59375000000000000        0.0000000000000000        0.0000000000000000     
  0.62500000000000000        0.0000000000000000        0.0000000000000000     
  0.50000000000000000        3.1250000000000000E-002   0.0000000000000000     
  0.53125000000000000        3.1250000000000000E-002   0.0000000000000000     
  0.56250000000000000        3.1250000000000000E-002   0.0000000000000000     
  0.59375000000000000        3.1250000000000000E-002   0.0000000000000000     
  0.62500000000000000        3.1250000000000000E-002   0.0000000000000000     
  0.50000000000000000        6.2500000000000000E-002   0.0000000000000000     
  0.53125000000000000        6.2500000000000000E-002   0.0000000000000000     
  0.56250000000000000        6.2500000000000000E-002   0.0000000000000000     
  0.59375000000000000        6.2500000000000000E-002   0.0000000000000000     
  0.62500000000000000        6.2500000000000000E-002   0.0000000000000000     
  0.50000000000000000        9.3750000000000000E-002   0.0000000000000000     
  0.53125000000000000        9.3750000000000000E-002   0.0000000000000000     
  0.56250000000000000        9.3750000000000000E-002   0.0000000000000000     
  0.59375000000000000        9.3750000000000000E-002   0.0000000000000000     
  0.62500000000000000        9.3750000000000000E-002   0.0000000000000000     
  0.50000000000000000       0.12500000000000000        0.0000000000000000     
  0.53125000000000000       0.12500000000000000        0.0000000000000000     
  0.56250000000000000       0.12500000000000000        0.0000000000000000     
  0.59375000000000000       0.12500000000000000        0.0000000000000000     
  0.62500000000000000       0.12500000000000000        0.0000000000000000     
  0.62500000000000000        0.0000000000000000        0.0000000000000000     
  0.65625000000000000        0.0000000000000000        0.0000000000000000     
  0.68750000000000000        0.0000000000000000        0.0000000000000000     
  0.71875000000000000        0.0000000000000000        0.0000000000000000     
  0.75000000000000000        0.0000000000000000        0.0000000000000000     
  0.62500000000000000        3.1250000000000000E-002   0.0000000000000000     
  0.65625000000000000        3.1250000000000000E-002   0.0000000000000000     
  0.68750000000000000        3.1250000000000000E-002   0.0000000000000000     
  0.71875000000000000        3.1250000000000000E-002   0.0000000000000000     
  0.75000000000000000        3.1250000000000000E-002   0.0000000000000000     
  0.62500000000000000        6.2500000000000000E-002   0.0000000000000000     
  0.65625000000000000        6.2500000000000000E-002   0.0000000000000000     
  0.68750000000000000        6.2500000000000000E-002   0.0000000000000000     
  0.71875000000000000        6.2500000000000000E-002   0.0000000000000000     
  0.75000000000000000        6.2500000000000000E-002   0.0000000000000000     
  0.62500000000000000        9.3750000000000000E-002   0.0000000000000000     
  0.65625000000000000        9.3750000000000000E-002   0.0000000000000000     
  0.68750000000000000        9.3750000000000000E-002   0.0000000000000000     
  0.71875000000000000        9.3750000000000000E-002   0.0000000000000000     
  0.75000000000000000        9.3750000000000000E-002   0.0000000000000000     
  0.62500000000000000       0.12500000000000000        0.0000000000000000     
  0.65625000000000000       0.12500000000000000        0.0000000000000000     
  0.68750000000000000       0.12500000000000000        0.0000000000000000     
  0.71875000000000000       0.12500000000000000        0.0000000000000000     
  0.75000000000000000       0.12500000000000000        0.0000000000000000     
  0.75000000000000000        0.0000000000000000        0.0000000000000000     
  0.78125000000000000        0.0000000000000000        0.0000000000000000     
  0.81250000000000000        0.0000000000000000        0.0000000000000000     
  0.84375000000000000        0.0000000000000000        0.0000000000000000     
  0.87500000000000000        0.0000000000000000        0.0000000000000000     
  0.75000000000000000        3.1250000000000000E-002   0.0000000000000000     
  0.78125000000000000        3.1250000000000000E-002   0.0000000000000000     
  0.81250000000000000        3.1250000000000000E-002   0.0000000000000000     
  0.84375000000000000        3.1250000000000000E-002   0.0000000000000000     
  0.87500000000000000        3.1250000000000000E-002   0.0000000000000000     
  0.75000000000000000        6.2500000000000000E-002   0.0000000000000000     
  0.78125000000000000        6.2500000000000000E-002   0.0000000000000000     
  0.81250000000000000        6.2500000000000000E-002   0.0000000000000000     
  0.84375000000000000        6.2500000000000000E-002   0.0000000000000000     
  0.87500000000000000        6.2500000000000000E-002   0.0000000000000000     
  0.75000000000000000        9.3750000000000000E-002   0.0000000000000000     
  0.78125000000000000        9.3750000000000000E-002   0.0000000000000000     
  0.81250000000000000        9.3750000000000000E-002   0.0000000000000000     
  0.84375000000000000        9.3750000000000000E-002   0.0000000000000000     
  0.87500000000000000        9.3750000000000000E-002   0.0000000000000000     
  0.75000000000000000       0.12500000000000000        0.0000000000000000     
  0.78125000000000000       0.12500000000000000        0.0000000000000000     
  0.81250000000000000       0.12500000000000000        0.0000000000000000     
  0.84375000000000000       0.12500000000000000        0.0000000000000000     
  0.87500000000000000       0.12500000000000000        0.0000000000000000     
  0.87500000000000000        0.0000000000000000        0.0000000000000000     
  0.90625000000000000        0.0000000000000000        0.0000000000000000     
  0.93750000000000000        0.0000000000000000        0.0000000000000000     
  0.96875000000000000        0.0000000000000000        0.0000000000000000     
   1.0000000000000000        0.0000000000000000        0.0000000000000000     
  0.87500000000000000        3.1250000000000000E-002   0.0000000000000000     
  0.90625000000000000        3.1250000000000000E-002   0.0000000000000000     
  0.93750000000000000        3.1250000000000000E-002   0.0000000000000000     
  0.96875000000000000        3.1250000000000000E-002   0.0000000000000000     
   1.0000000000000000        3.1250000000000000E-002   0.0000000000000000     
  0.87500000000000000        6.2500000000000000E-002   0.0000000000000000     
  0.90625000000000000        6.2500000000000000E-002   0.0000000000000000     
  0.93750000000000000        6.2500000000000000E-002   0.0000000000000000     
  0.96875000000000000        6.2500000000000000E-002   0.0000000000000000     
   1.0000000000000000        6.2500000000000000E-002   0.0000000000000000     
  0.87500000000000000        9.3750000000000000E-002   0.0000000000000000     
  0.90625000000000000        9.3750000000000000E-002   0.0000000000000000     
  0.93750000000000000        9.3750000000000000E-002   0.0000000000000000     
  0.96875000000000000        9.3750000000000000E-002   0.0000000000000000     
   1.0000000000000000        9.3750000000000000E-002   0.0000000000000000     
  0.87500000000000000       0.12500000000000000        0.0000000000000000     
  0.90625000000000000       0.12500000000000000        0.0000000000000000     
  0.93750000000000000       0.12500000000000000        0.0000000000000000     
  0.96875000000000000       0.12500000000000000        0.0000000000000000     
   1.0000000000000000       0.12500000000000000        0.0000000000000000     
   1.0000000000000000        0.0000000000000000        0.0000000000000000     
   1.0312500000000000        0.0000000000000000        0.0000000000000000     
   1.0625000000000000        0.0000000000000000        0.0000000000000000     
   1.0937500000000000        0.0000000000000000        0.0000000000000000     
   1.1250000000000000        0.0000000000000000        0.0000000000000000     
   1.0000000000000000        3.1250000000000000E-002   0.0000000000000000     
   1.0312500000000000        3.1250000000000000E-002   0.0000000000000000     
   1.0625000000000000        3.1250000000000000E-002   0.0000000000000000     
   1.0937500000000000        3.1250000000000000E-002   0.0000000000000000     
   1.1250000000000000        3.1250000000000000E-002   0.0000000000000000     
   1.0000000000000000        6.2500000000000000E-002   0.0000000000000000     
   1.0312500000000000        6.2500000000000000E-002   0.0000000000000000     
   1.0625000000000000        6.2500000000000000E-002   0.0000000000000000     
   1.0937500000000000        6.2500000000000000E-002   0.0000000000000000     
   1.1250000000000000        6.2500000000000000E-002   0.0000000000000000     
   1.0000000000000000        9.3750000000000000E-002   0.0000000000000000     
   1.0312500000000000        9.3750000000000000E-002   0.0000000000000000     
   1.0625000000000000        9.3750000000000000E-002   0.0000000000000000     
   1.0937500000000000        9.3750000000000000E-002   0.0000000000000000     
   1.1250000000000000        9.3750000000000000E-002   0.0000000000000000     
   1.0000000000000000       0.12500000000000000        0.0000000000000000     
   1.0312500000000000       0.12500000000000000        0.0000000000000000     
   1.0625000000000000       0.12500000000000000        0.0000000000000000     
   1.0937500000000000       0.12500000000000000        0.0000000000000000     
   1.1250000000000000       0.12500000000000000        0.0000000000000000     
   1.1250000000000000        0.0000000000000000        0.0000000000000000     
   1.1562500000000000        0.0000000000000000        0.0000000000000000     
   1.1875000000000000        0.0000000000000000        0.0000000000000000     
   1.2187500000000000        0.0000000000000000        0.0000000000000000     
   1.2500000000000000        0.0000000000000000        0.0000000000000000     
   1.1250000000000000        3.1250000000000000E-002   0.0000000000000000     
   1.1562500000000000        3.1250000000000000E-002   0.0000000000000000     
   1.1875000000000000        3.1250000000000000E-002   0.0000000000000000     
   1.2187500000000000        3.1250000000000000E-002   0.0000000000000000     
   1.2500000000000000        3.1250000000000000E-002   0.0000000000000000     
   1.1250000000000000        6.2500000000000000E-002   0.0000000000000000     
   1.1562500000000000        6.2500000000000000E-002   0.0000000000000000     
   1.1875000000000000        6.2500000000000000E-002   0.0000000000000000     
   1.2187500000000000        6.2500000000000000E-002   0.0000000000000000     
   1.2500000000000000        6.2500000000000000E-002   0.0000000000000000     
   1.1250000000000000        9.3750000000000000E-002   0.0000000000000000     
   1.1562500000000000        9.3750000000000000E-002   0.0000000000000000     
   1.1875000000000000        9.3750000000000000E-002   0.0000000000000000     
   1.2187500000000000        9.3750000000000000E-002   0.0000000000000000     
   1.2500000000000000        9.3750000000000000E-002   0.0000000000000000     
   1.1250000000000000       0.12500000000000000        0.0000000000000000     
   1.1562500000000000       0.12500000000000000        0.0000000000000000     
   1.1875000000000000       0.12500000000000000        0.0000000000000000     
   1.2187500000000000       0.12500000000000000        0.0000000000000000     
   1.2500000000000000       0.12500000000000000        0.0000000000000000     
   1.2500000000000000        0.0000000000000000        0.0000000000000000     
   1.2812500000000000        0.0000000000000000        0.0000000000000000     
   1.3125000000000000        0.0000000000000000        0.0000000000000000     
   1.3437500000000000        0.0000000000000000        0.0000000000000000     
   1.3750000000000000        0.0000000000000000        0.0000000000000000     
   1.2500000000000000        3.1250000000000000E-002   0.0000000000000000     
   1.2812500000000000        3.1250000000000000E-002   0.0000000000000000     
   1.3125000000000000        3.1250000000000000E-002   0.0000000000000000     
   1.3437500000000000        3.1250000000000000E-002   0.0000000000000000     
   1.3750000000000000        3.1250000000000000E-002   0.0000000000000000     
   1.2500000000000000        6.2500000000000000E-002   0.0000000000000000     
   1.2812500000000000        6.2500000000000000E-002   0.0000000000000000     
   1.3125000000000000        6.2500000000000000E-002   0.0000000000000000     
   1.3437500000000000        6.2500000000000000E-002   0.0000000000000000     
   1.3750000000000000        6.2500000000000000E-002   0.0000000000000000     
   1.2500000000000000        9.3750000000000000E-002   0.0000000000000000     
   1.2812500000000000        9.3750000000000000E-002   0.0000000000000000     
   1.3125000000000000        9.3750000000000000E-002   0.0000000000000000     
   1.3437500000000000        9.3750000000000000E-002   0.0000000000000000     
   1.3750000000000000        9.3750000000000000E-002   0.0000000000000000     
   1.2500000000000000       0.12500000000000000        0.0000000000000000     
   1.2812500000000000       0.12500000000000000        0.0000000000000000     
   1.3125000000000000       0.12500000000000000        0.0000000000000000     
   1.3437500000000000       0.12500000000000000        0.0000000000000000     
   1.3750000000000000       0.12500000000000000        0.0000000000000000     
   1.3750000000000000        0.0000000000000000        0.0000000000000000     
   1.4062500000000000        0.0000000000000000        0.0000000000000000     
   1.4375000000000000        0.0000000000000000        0.0000000000000000     
   1.4687500000000000        0.0000000000000000        0.0000000000000000     
   1.5000000000000000        0.0000000000000000        0.0000000000000000     
   1.3750000000000000        3.1250000000000000E-002   0.0000000000000000     
   1.4062500000000000        3.1250000000000000E-002   0.0000000000000000     
   1.4375000000000000        3.1250000000000000E-002   0.0000000000000000     
   1.4687500000000000        3.1250000000000000E-002   0.0000000000000000     
   1.5000000000000000        3.1250000000000000E-002   0.0000000000000000     
   1.3750000000000000        6.2500000000000000E-002   0.0000000000000000     
   1.4062500000000000        6.2500000000000000E-002   0.0000000000000000     
   1.4375000000000000        6.2500000000000000E-002   0.0000000000000000     
   1.4687500000000000        6.2500000000000000E-002   0.0000000000000000     
   1.5000000000000000        6.2500000000000000E-002   0.0000000000000000     
   1.3750000000000000        9.3750000000000000E-002   0.0000000000000000     
   1.4062500000000000        9.3750000000000000E-002   0.0000000000000000     
   1.4375000000000000        9.3750000000000000E-002   0.0000000000000000     
   1.4687500000000000        9.3750000000000000E-002   0.0000000000000000     
   1.5000000000000000        9.3750000000000000E-002   0.0000000000000000     
   1.3750000000000000       0.12500000000000000        0.0000000000000000     
   1.4062500000000000       0.12500000000000000        0.0000000000000000     
   1.4375000000000000       0.12500000000000000        0.0000000000000000     
   1.4687500000000000       0.12500000000000000        0.0000000000000000     
   1.5000000000000000       0.12500000000000000        0.0000000000000000     
  0.50000000000000000       0.12500000000000000        0.0000000000000000     
  0.53125000000000000       0.12500000000000000        0.0000000000000000     
  0.56250000000000000       0.12500000000000000        0.0000000000000000     
  0.59375000000000000       0.12500000000000000        0.0000000000000000     
  0.62500000000000000       0.12500000000000000        0.0000000000000000     
  0.50000000000000000       0.15625000000000000        0.0000000000000000     
  0.53125000000000000       0.15625000000000000        0.0000000000000000     
  0.56250000000000000       0.15625000000000000        0.0000000000000000     
  0.59375000000000000       0.15625000000000000        0.0000000000000000     
  0.62500000000000000       0.15625000000000000        0.0000000000000000     
  0.50000000000000000       0.18750000000000000        0.0000000000000000     
  0.53125000000000000       0.18750000000000000        0.0000000000000000     
  0.56250000000000000       0.18750000000000000        0.0000000000000000     
  0.59375000000000000       0.18750000000000000        0.0000000000000000     
  0.62500000000000000       0.18750000000000000        0.0000000000000000     
  0.50000000000000000       0.21875000000000000        0.0000000000000000     
  0.53125000000000000       0.21875000000000000        0.0000000000000000     
  0.56250000000000000       0.21875000000000000        0.0000000000000000     
  0.59375000000000000       0.21875000000000000        0.0000000000000000     
  0.62500000000000000       0.21875000000000000        0.0000000000000000     
  0.50000000000000000       0.25000000000000000        0.0000000000000000     
  0.53125000000000000       0.25000000000000000        0.0000000000000000     
  0.56250000000000000       0.25000000000000000        0.0000000000000000     
  0.59375000000000000       0.25000000000000000        0.0000000000000000     
  0.62500000000000000       0.25000000000000000        0.0000000000000000     
  0.62500000000000000       0.12500000000000000        0.0000000000000000     
  0.65625000000000000       0.12500000000000000        0.0000000000000000     
  0.68750000000000000       0.12500000000000000        0.0000000000000000     
  0.71875000000000000       0.12500000000000000        0.0000000000000000     
  0.75000000000000000       0.12500000000000000        0.0000000000000000     
  0.62500000000000000       0.15625000000000000        0.0000000000000000     
  0.65625000000000000       0.15625000000000000        0.0000000000000000     
  0.68750000000000000       0.15625000000000000        0.0000000000000000     
  0.71875000000000000       0.15625000000000000        0.0000000000000000     
  0.75000000000000000       0.15625000000000000        0.0000000000000000     
  0.62500000000000000       0.18750000000000000        0.0000000000000000     
  0.65625000000000000       0.18750000000000000        0.0000000000000000     
  0.68750000000000000       0.18750000000000000        0.0000000000000000     
  0.71875000000000000       0.18750000000000000        0.0000000000000000     
  0.75000000000000000       0.18750000000000000        0.0000000000000000     
  0.62500000000000000       0.21875000000000000        0.0000000000000000     
  0.65625000000000000       0.21875000000000000        0.0000000000000000     
  0.68750000000000000       0.21875000000000000        0.0000000000000000     
  0.71875000000000000       0.21875000000000000        0.0000000000000000     
  0.75000000000000000       0.21875000000000000        0.0000000000000000     
  0.62500000000000000       0.25000000000000000        0.0000000000000000     
  0.65625000000000000       0.25000000000000000        0.0000000000000000     
  0.68750000000000000       0.25000000000000000        0.0000000000000000     
  0.71875000000000000       0.25000000000000000        0.0000000000000000     
  0.75000000000000000       0.25000000000000000        0.0000000000000000     
  0.75000000000000000       0.12500000000000000        0.0000000000000000     
  0.78125000000000000       0.12500000000000000        0.0000000000000000     
  0.81250000000000000       0.12500000000000000        0.0000000000000000     
  0.84375000000000000       0.12500000000000000        0.0000000000000000     
  0.87500000000000000       0.12500000000000000        0.0000000000000000     
  0.75000000000000000       0.15625000000000000        0.0000000000000000     
  0.78125000000000000       0.15625000000000000        0.0000000000000000     
  0.81250000000000000       0.15625000000000000        0.0000000000000000     
  0.84375000000000000       0.15625000000000000        0.0000000000000000     
  0.87500000000000000       0.15625000000000000        0.0000000000000000     
  0.75000000000000000       0.18750000000000000        0.0000000000000000     
  0.78125000000000000       0.18750000000000000        0.0000000000000000     
  0.81250000000000000       0.18750000000000000        0.0000000000000000     
  0.84375000000000000       0.18750000000000000        0.0000000000000000     
  0.87500000000000000       0.18750000000000000        0.0000000000000000     
  0.75000000000000000       0.21875000000000000        0.0000000000000000     
  0.78125000000000000       0.21875000000000000        0.0000000000000000     
  0.81250000000000000       0.21875000000000000        0.0000000000000000     
  0.84375000000000000       0.21875000000000000        0.0000000000000000     
  0.87500000000000000       0.21875000000000000        0.0000000000000000     
  0.75000000000000000       0.25000000000000000        0.0000000000000000     
  0.78125000000000000       0.25000000000000000        0.0000000000000000     
  0.81250000000000000       0.25000000000000000        0.0000000000000000     
  0.84375000000000000       0.25000000000000000        0.0000000000000000     
  0.87500000000000000       0.25000000000000000        0.0000000000000000     
  0.87500000000000000       0.12500000000000000        0.0000000000000000     
  0.90625000000000000       0.12500000000000000        0.0000000000000000     
  0.93750000000000000       0.12500000000000000        0.0000000000000000     
  0.96875000000000000       0.12500000000000000        0.0000000000000000     
   1.0000000000000000       0.12500000000000000        0.0000000000000000     
  0.87500000000000000       0.15625000000000000        0.0000000000000000     
  0.90625000000000000       0.15625000000000000        0.0000000000000000     
  0.93750000000000000       0.15625000000000000        0.0000000000000000     
  0.96875000000000000       0.15625000000000000        0.0000000000000000     
   1.0000000000000000       0.15625000000000000        0.0000000000000000     
  0.87500000000000000       0.18750000000000000        0.0000000000000000     
  0.90625000000000000       0.18750000000000000        0.0000000000000000     
  0.93750000000000000       0.18750000000000000        0.0000000000000000     
  0.96875000000000000       0.18750000000000000        0.0000000000000000     
   1.0000000000000000       0.18750000000000000        0.0000000000000000     
  0.87500000000000000       0.21875000000000000        0.0000000000000000     
  0.90625000000000000       0.21875000000000000        0.0000000000000000     
  0.93750000000000000       0.21875000000000000        0.0000000000000000     
  0.96875000000000000       0.21875000000000000        0.0000000000000000     
   1.0000000000000000       0.21875000000000000        0.0000000000000000     
  0.87500000000000000       0.25000000000000000        0.0000000000000000     
  0.90625000000000000       0.25000000000000000        0.0000000000000000     
  0.93750000000000000       0.25000000000000000        0.0000000000000000     
  0.96875000000000000       0.25000000000000000        0.0000000000000000     
   1.0000000000000000       0.25000000000000000        0.0000000000000000     
   1.0000000000000000       0.12500000000000000        0.0000000000000000     
   1.0312500000000000       0.12500000000000000        0.0000000000000000     
   1.0625000000000000       0.12500000000000000        0.0000000000000000     
   1.0937500000000000       0.12500000000000000        0.0000000000000000     
   1.1250000000000000       0.12500000000000000        0.0000000000000000     
   1.0000000000000000       0.15625000000000000        0.0000000000000000     
   1.0312500000000000       0.15625000000000000        0.0000000000000000     
   1.0625000000000000       0.15625000000000000        0.0000000000000000     
   1.0937500000000000       0.15625000000000000        0.0000000000000000     
   1.1250000000000000       0.15625000000000000        0.0000000000000000     
   1.0000000000000000       0.18750000000000000        0.0000000000000000     
   1.0312500000000000       0.18750000000000000        0.0000000000000000     
   1.0625000000000000       0.18750000000000000        0.0000000000000000     
   1.0937500000000000       0.18750000000000000        0.0000000000000000     
   1.1250000000000000       0.18750000000000000        0.0000000000000000     
   1.0000000000000000       0.21875000000000000        0.0000000000000000     
   1.0312500000000000       0.21875000000000000        0.0000000000000000     
   1.0625000000000000       0.21875000000000000        0.0000000000000000     
   1.0937500000000000       0.21875000000000000        0.0000000000000000     
   1.1250000000000000       0.21875000000000000        0.0000000000000000     
   1.0000000000000000       0.25000000000000000        0.0000000000000000     
   1.0312500000000000       0.25000000000000000        0.0000000000000000     
   1.0625000000000000       0.25000000000000000        0.0000000000000000     
   1.0937500000000000       0.25000000000000000        0.0000000000000000     
   1.1250000000000000       0.25000000000000000        0.0000000000000000     
   1.1250000000000000       0.12500000000000000        0.0000000000000000     
   1.1562500000000000       0.12500000000000000        0.0000000000000000     
   1.1875000000000000       0.12500000000000000        0.0000000000000000     
   1.2187500000000000       0.12500000000000000        0.0000000000000000     
   1.2500000000000000       0.12500000000000000        0.0000000000000000     
   1.1250000000000000       0.15625000000000000        0.0000000000000000     
   1.1562500000000000       0.15625000000000000        0.0000000000000000     
   1.1875000000000000       0.15625000000000000        0.0000000000000000     
   1.2187500000000000       0.15625000000000000        0.0000000000000000     
   1.2500000000000000       0.15625000000000000        0.0000000000000000     
   1.1250000000000000       0.18750000000000000        0.0000000000000000     
   1.1562500000000000       0.18750000000000000        0.0000000000000000     
   1.1875000000000000       0.18750000000000000        0.0000000000000000     
   1.2187500000000000       0.18750000000000000        0.0000000000000000     
   1.2500000000000000       0.18750000000000000        0.0000000000000000     
   1.1250000000000000       0.21875000000000000        0.0000000000000000     
   1.1562500000000000       0.21875000000000000        0.0000000000000000     
   1.1875000000000000       0.21875000000000000        0.0000000000000000     
   1.2187500000000000       0.21875000000000000        0.0000000000000000     
   1.2500000000000000       0.21875000000000000        0.0000000000000000     
   1.1250000000000000       0.25000000000000000        0.0000000000000000     
   1.1562500000000000       0.25000000000000000        0.0000000000000000     
   1.1875000000000000       0.25000000000000000        0.0000000000000000     
   1.2187500000000000       0.25000000000000000        0.0000000000000000     
   1.2500000000000000       0.25000000000000000        0.0000000000000000     
   1.2500000000000000       0.12500000000000000        0.0000000000000000     
   1.2812500000000000       0.12500000000000000        0.0000000000000000     
   1.3125000000000000       0.12500000000000000        0.0000000000000000     
   1.3437500000000000       0.12500000000000000        0.0000000000000000     
   1.3750000000000000       0.12500000000000000        0.0000000000000000     
   1.2500000000000000       0.15625000000000000        0.0000000000000000     
   1.2812500000000000       0.15625000000000000        0.0000000000000000     
   1.3125000000000000       0.15625000000000000        0.0000000000000000     
   1.3437500000000000       0.15625000000000000        0.0000000000000000     
   1.3750000000000000       0.15625000000000000        0.0000000000000000     
   1.2500000000000000       0.18750000000000000        0.0000000000000000     
   1.2812500000000000       0.18750000000000000        0.0000000000000000     
   1.3125000000000000       0.18750000000000000        0.0000000000000000     
   1.3437500000000000       0.18750000000000000        0.0000000000000000     
   1.3750000000000000       0.18750000000000000        0.0000000000000000     
   1.2500000000000000       0.21875000000000000        0.0000000000000000     
   1.2812500000000000       0.21875000000000000        0.0000000000000000     
   1.3125000000000000       0.21875000000000000        0.0000000000000000     
   1.3437500000000000       0.21875000000000000        0.0000000000000000     
   1.3750000000000000       0.21875000000000000        0.0000000000000000     
   1.2500000000000000       0.25000000000000000        0.0000000000000000     
   1.2812500000000000       0.25000000000000000        0.0000000000000000     
   1.3125000000000000       0.25000000000000000        0.0000000000000000     
   1.3437500000000000       0.25000000000000000        0.0000000000000000     
   1.3750000000000000       0.25000000000000000        0.0000000000000000     
   1.3750000000000000       0.12500000000000000        0.0000000000000000     
   1.4062500000000000       0.12500000000000000        0.0000000000000000     
   1.4375000000000000       0.12500000000000000        0.0000000000000000     
   1.4687500000000000       0.12500000000000000        0.0000000000000000     
   1.5000000000000000       0.12500000000000000        0.0000000000000000     
   1.3750000000000000       0.15625000000000000        0.0000000000000000     
   1.4062500000000000       0.15625000000000000        0.0000000000000000     
   1.4375000000000000       0.15625000000000000        0.0000000000000000     
   1.4687500000000000       0.15625000000000000        0.0000000000000000     
   1.5000000000000000       0.15625000000000000        0.0000000000000000     
   1.3750000000000000       0.18750000000000000        0.0000000000000000     
   1.4062500000000000       0.18750000000000000        0.0000000000000000     
   1.4375000000000000       0.18750000000000000        0.0000000000000000     
   1.4687500000000000       0.18750000000000000        0.0000000000000000     
   1.5000000000000000       0.18750000000000000        0.0000000000000000     
   1.3750000000000000       0.21875000000000000        0.0000000000000000     
   1.4062500000000000       0.21875000000000000        0.0000000000000000     
   1.4375000000000000       0.21875000000000000        0.0000000000000000     
   1.4687500000000000       0.21875000000000000        0.0000000000000000     
   1.5000000000000000       0.21875000000000000        0.0000000000000000     
   1.3750000000000000       0.25000000000000000        0.0000000000000000     
   1.4062500000000000       0.25000000000000000        0.0000000000000000     
   1.4375000000000000       0.25000000000000000        0.0000000000000000     
   1.4687500000000000       0.25000000000000000        0.0000000000000000     
   1.5000000000000000       0.25000000000000000        0.0000000000000000     
  0.50000000000000000       0.25000000000000000        0.0000000000000000     
  0.53125000000000000       0.25000000000000000        0.0000000000000000     
  0.56250000000000000       0.25000000000000000        0.0000000000000000     
  0.59375000000000000       0.25000000000000000        0.0000000000000000     
  0.62500000000000000       0.25000000000000000        0.0000000000000000     
  0.50000000000000000       0.28125000000000000        0.0000000000000000     
  0.53125000000000000       0.28125000000000000        0.0000000000000000     
  0.56250000000000000       0.28125000000000000        0.0000000000000000     
  0.59375000000000000       0.28125000000000000        0.0000000000000000     
  0.62500000000000000       0.28125000000000000        0.0000000000000000     
  0.50000000000000000       0.31250000000000000        0.0000000000000000     
  0.53125000000000000       0.31250000000000000        0.0000000000000000     
  0.56250000000000000       0.31250000000000000        0.0000000000000000     
  0.59375000000000000       0.31250000000000000        0.0000000000000000     
  0.62500000000000000       0.31250000000000000        0.0000000000000000     
  0.50000000000000000       0.34375000000000000        0.0000000000000000     
  0.53125000000000000       0.34375000000000000        0.0000000000000000     
  0.56250000000000000       0.34375000000000000        0.0000000000000000     
  0.59375000000000000       0.34375000000000000        0.0000000000000000     
  0.62500000000000000       0.34375000000000000        0.0000000000000000     
  0.50000000000000000       0.37500000000000000        0.0000000000000000     
  0.53125000000000000       0.37500000000000000        0.0000000000000000     
  0.56250000000000000       0.37500000000000000        0.0000000000000000     
  0.59375000000000000       0.37500000000000000        0.0000000000000000     
  0.62500000000000000       0.37500000000000000        0.0000000000000000     
  0.62500000000000000       0.25000000000000000        0.0000000000000000     
  0.65625000000000000       0.25000000000000000        0.0000000000000000     
  0.68750000000000000       0.25000000000000000        0.0000000000000000     
  0.71875000000000000       0.25000000000000000        0.0000000000000000     
  0.75000000000000000       0.25000000000000000        0.0000000000000000     
  0.62500000000000000       0.28125000000000000        0.0000000000000000     
  0.65625000000000000       0.28125000000000000        0.0000000000000000     
  0.68750000000000000       0.28125000000000000        0.0000000000000000     
  0.71875000000000000       0.28125000000000000        0.0000000000000000     
  0.75000000000000000       0.28125000000000000        0.0000000000000000     
  0.62500000000000000       0.31250000000000000        0.0000000000000000     
  0.65625000000000000       0.31250000000000000        0.0000000000000000     
  0.68750000000000000       0.31250000000000000        0.0000000000000000     
  0.71875000000000000       0.31250000000000000        0.0000000000000000     
  0.75000000000000000       0.31250000000000000        0.0000000000000000     
  0.62500000000000000       0.34375000000000000        0.0000000000000000     
  0.65625000000000000       0.34375000000000000        0.0000000000000000     
  0.68750000000000000       0.34375000000000000        0.0000000000000000     
  0.71875000000000000       0.34375000000000000        0.0000000000000000     
  0.75000000000000000       0.34375000000000000        0.0000000000000000     
  0.62500000000000000       0.37500000000000000        0.0000000000000000     
  0.65625000000000000       0.37500000000000000        0.0000000000000000     
  0.68750000000000000       0.37500000000000000        0.0000000000000000     
  0.71875000000000000       0.37500000000000000        0.0000000000000000     
  0.75000000000000000       0.37500000000000000        0.0000000000000000     
  0.75000000000000000       0.25000000000000000        0.0000000000000000     
  0.78125000000000000       0.25000000000000000        0.0000000000000000     
  0.81250000000000000       0.25000000000000000        0.0000000000000000     
  0.84375000000000000       0.25000000000000000        0.0000000000000000     
  0.87500000000000000       0.25000000000000000        0.0000000000000000     
  0.75000000000000000       0.28125000000000000        0.0000000000000000     
  0.78125000000000000       0.28125000000000000        0.0000000000000000     
  0.81250000000000000       0.28125000000000000        0.0000000000000000     
  0.84375000000000000       0.28125000000000000        0.0000000000000000     
  0.87500000000000000       0.28125000000000000        0.0000000000000000     
  0.75000000000000000       0.31250000000000000        0.0000000000000000     
  0.78125000000000000       0.31250000000000000        0.0000000000000000     
  0.81250000000000000       0.31250000000000000        0.0000000000000000     
  0.84375000000000000       0.31250000000000000        0.0000000000000000     
  0.87500000000000000       0.31250000000000000        0.0000000000000000     
  0.75000000000000000       0.34375000000000000        0.0000000000000000     
  0.78125000000000000       0.34375000000000000        0.0000000000000000     
  0.81250000000000000       0.34375000000000000        0.0000000000000000     
  0.84375000000000000       0.34375000000000000        0.0000000000000000     
  0.87500000000000000       0.34375000000000000        0.0000000000000000     
  0.75000000000000000       0.37500000000000000        0.0000000000000000     
  0.78125000000000000       0.37500000000000000        0.0000000000000000     
  0.81250000000000000       0.37500000000000000        0.0000000000000000     
  0.84375000000000000       0.37500000000000000        0.0000000000000000     
  0.87500000000000000       0.37500000000000000        0.0000000000000000     
  0.87500000000000000       0.25000000000000000        0.0000000000000000     
  0.90625000000000000       0.25000000000000000        0.0000000000000000     
  0.93750000000000000       0.25000000000000000        0.0000000000000000     
  0.96875000000000000       0.25000000000000000        0.0000000000000000     
   1.0000000000000000       0.25000000000000000        0.0000000000000000     
  0.87500000000000000       0.28125000000000000        0.0000000000000000     
  0.90625000000000000       0.28125000000000000        0.0000000000000000     
  0.93750000000000000       0.28125000000000000        0.0000000000000000     
  0.96875000000000000       0.28125000000000000        0.0000000000000000     
   1.0000000000000000       0.28125000000000000        0.0000000000000000     
  0.87500000000000000       0.31250000000000000        0.0000000000000000     
  0.90625000000000000       0.31250000000000000        0.0000000000000000     
  0.93750000000000000       0.31250000000000000        0.0000000000000000     
  0.96875000000000000       0.31250000000000000        0.0000000000000000     
   1.0000000000000000       0.31250000000000000        0.0000000000000000     
  0.87500000000000000       0.34375000000000000        0.0000000000000000     
  0.90625000000000000       0.34375000000000000        0.0000000000000000     
  0.93750000000000000       0.34375000000000000        0.0000000000000000     
  0.96875000000000000       0.34375000000000000        0.0000000000000000     
   1.0000000000000000       0.34375000000000000        0.0000000000000000     
  0.87500000000000000       0.37500000000000000        0.0000000000000000     
  0.90625000000000000       0.37500000000000000        0.0000000000000000     
  0.93750000000000000       0.37500000000000000        0.0000000000000000     
  0.96875000000000000       0.37500000000000000        0.0000000000000000     
   1.0000000000000000       0.37500000000000000        0.0000000000000000     
   1.0000000000000000       0.25000000000000000        0.0000000000000000     
   1.0312500000000000       0.25000000000000000        0.0000000000000000     
   1.0625000000000000       0.25000000000000000        0.0000000000000000     
   1.0937500000000000       0.25000000000000000        0.0000000000000000     
   1.1250000000000000       0.25000000000000000        0.0000000000000000     
   1.0000000000000000       0.28125000000000000        0.0000000000000000     
   1.0312500000000000       0.28125000000000000        0.0000000000000000     
   1.0625000000000000       0.28125000000000000        0.0000000000000000     
   1.0937500000000000       0.28125000000000000        0.0000000000000000     
   1.1250000000000000       0.28125000000000000        0.0000000000000000     
   1.0000000000000000       0.31250000000000000        0.0000000000000000     
   1.0312500000000000       0.31250000000000000        0.0000000000000000     
   1.0625000000000000       0.31250000000000000        0.0000000000000000     
   1.0937500000000000       0.31250000000000000        0.0000000000000000     
   1.1250000000000000       0.31250000000000000        0.0000000000000000     
   1.0000000000000000       0.34375000000000000        0.0000000000000000     
   1.0312500000000000       0.34375000000000000        0.0000000000000000     
   1.0625000000000000       0.34375000000000000        0.0000000000000000     
   1.0937500000000000       0.34375000000000000        0.0000000000000000     
   1.1250000000000000       0.34375000000000000        0.0000000000000000     
   1.0000000000000000       0.37500000000000000        0.0000000000000000     
   1.0312500000000000       0.37500000000000000        0.0000000000000000     
   1.0625000000000000       0.37500000000000000        0.0000000000000000     
   1.0937500000000000       0.37500000000000000        0.0000000000000000     
   1.1250000000000000       0.37500000000000000        0.0000000000000000     
   1.1250000000000000       0.25000000000000000        0.0000000000000000     
   1.1562500000000000       0.25000000000000000        0.0000000000000000     
   1.1875000000000000       0.25000000000000000        0.0000000000000000     
   1.2187500000000000       0.25000000000000000        0.0000000000000000     
   1.2500000000000000       0.25000000000000000        0.0000000000000000     
   1.1250000000000000       0.28125000000000000        0.0000000000000000     
   1.1562500000000000       0.28125000000000000        0.0000000000000000     
   1.1875000000000000       0.28125000000000000        0.0000000000000000     
   1.2187500000000000       0.28125000000000000        0.0000000000000000     
   1.2500000000000000       0.28125000000000000        0.0000000000000000     
   1.1250000000000000       0.31250000000000000        0.0000000000000000     
   1.1562500000000000       0.31250000000000000        0.0000000000000000     
   1.1875000000000000       0.31250000000000000        0.0000000000000000     
   1.2187500000000000       0.31250000000000000        0.0000000000000000     
   1.2500000000000000       0.31250000000000000        0.0000000000000000     
   1.1250000000000000       0.34375000000000000        0.0000000000000000     
   1.1562500000000000       0.34375000000000000        0.0000000000000000     
   1.1875000000000000       0.34375000000000000        0.0000000000000000     
   1.2187500000000000       0.34375000000000000        0.0000000000000000     
   1.2500000000000000       0.34375000000000000        0.0000000000000000     
   1.1250000000000000       0.37500000000000000        0.0000000000000000     
   1.1562500000000000       0.37500000000000000        0.0000000000000000     
   1.1875000000000000       0.37500000000000000        0.0000000000000000     
   1.2187500000000000       0.37500000000000000        0.0000000000000000     
   1.2500000000000000       0.37500000000000000        0.0000000000000000     
   1.2500000000000000       0.25000000000000000        0.0000000000000000     
   1.2812500000000000       0.25000000000000000        0.0000000000000000     
   1.3125000000000000       0.25000000000000000        0.0000000000000000     
   1.3437500000000000       0.25000000000000000        0.0000000000000000     
   1.3750000000000000       0.25000000000000000        0.0000000000000000     
   1.2500000000000000       0.28125000000000000        0.0000000000000000     
   1.2812500000000000       0.28125000000000000        0.0000000000000000     
   1.3125000000000000       0.28125000000000000        0.0000000000000000     
   1.3437500000000000       0.28125000000000000        0.0000000000000000     
   1.3750000000000000       0.28125000000000000        0.0000000000000000     
   1.2500000000000000       0.31250000000000000        0.0000000000000000     
   1.2812500000000000       0.31250000000000000        0.0000000000000000     
   1.3125000000000000       0.31250000000000000        0.0000000000000000     
   1.3437500000000000       0.31250000000000000        0.0000000000000000     
   1.3750000000000000       0.31250000000000000        0.0000000000000000     
   1.2500000000000000       0.34375000000000000        0.0000000000000000     
   1.2812500000000000       0.34375000000000000        0.0000000000000000     
   1.3125000000000000       0.34375000000000000        0.0000000000000000     
   1.3437500000000000       0.34375000000000000        0.0000000000000000     
   1.3750000000000000       0.34375000000000000        0.0000000000000000     
   1.2500000000000000       0.37500000000000000        0.0000000000000000     
   1.2812500000000000       0.37500000000000000        0.0000000000000000     
   1.3125000000000000       0.37500000000000000        0.0000000000000000     
   1.3437500000000000       0.37500000000000000        0.0000000000000000     
   1.3750000000000000       0.37500000000000000        0.0000000000000000     
   1.3750000000000000       0.25000000000000000        0.0000000000000000     
   1.4062500000000000       0.25000000000000000        0.0000000000000000     
   1.4375000000000000       0.25000000000000000        0.0000000000000000     
   1.4687500000000000       0.25000000000000000        0.0000000000000000     
   1.5000000000000000       0.25000000000000000        0.0000000000000000     
   1.3750000000000000       0.28125000000000000        0.0000000000000000     
   1.4062500000000000       0.28125000000000000        0.0000000000000000     
   1.4375000000000000       0.28125000000000000        0.0000000000000000     
   1.4687500000000000       0.28125000000000000        0.0000000000000000     
   1.5000000000000000       0.28125000000000000        0.0000000000000000     
   1.3750000000000000       0.31250000000000000        0.0000000000000000     
   1.4062500000000000       0.31250000000000000        0.0000000000000000     
   1.4375000000000000       0.31250000000000000        0.0000000000000000     
   1.4687500000000000       0.31250000000000000        0.0000000000000000     
   1.5000000000000000       0.31250000000000000        0.0000000000000000     
   1.3750000000000000       0.34375000000000000        0.0000000000000000     
   1.4062500000000000       0.34375000000000000        0.0000000000000000     
   1.4375000000000000       0.34375000000000000        0.0000000000000000     
   1.4687500000000000       0.34375000000000000        0.0000000000000000     
   1.5000000000000000       0.34375000000000000        0.0000000000000000     
   1.3750000000000000       0.37500000000000000        0.0000000000000000     
   1.4062500000000000       0.37500000000000000        0.0000000000000000     
   1.4375000000000000       0.37500000000000000        0.0000000000000000     
   1.4687500000000000       0.37500000000000000        0.0000000000000000     
   1.5000000000000000       0.37500000000000000        0.0000000000000000     
  0.50000000000000000       0.37500000000000000        0.0000000000000000     
  0.53125000000000000       0.37500000000000000        0.0000000000000000     
  0.56250000000000000       0.37500000000000000        0.0000000000000000     
  0.59375000000000000       0.37500000000000000        0.0000000000000000     
  0.62500000000000000       0.37500000000000000        0.0000000000000000     
  0.50000000000000000       0.40625000000000000        0.0000000000000000     
  0.53125000000000000       0.40625000000000000        0.0000000000000000     
  0.56250000000000000       0.40625000000000000        0.0000000000000000     
  0.59375000000000000       0.40625000000000000        0.0000000000000000     
  0.62500000000000000       0.40625000000000000        0.0000000000000000     
  0.50000000000000000       0.43750000000000000        0.0000000000000000     
  0.53125000000000000       0.43750000000000000        0.0000000000000000     
  0.56250000000000000       0.43750000000000000        0.0000000000000000     
  0.59375000000000000       0.43750000000000000        0.0000000000000000     
  0.62500000000000000       0.43750000000000000        0.0000000000000000     
  0.50000000000000000       0.46875000000000000        0.0000000000000000     
  0.53125000000000000       0.46875000000000000        0.0000000000000000     
  0.56250000000000000       0.46875000000000000        0.0000000000000000     
  0.59375000000000000       0.46875000000000000        0.0000000000000000     
  0.62500000000000000       0.46875000000000000        0.0000000000000000     
  0.50000000000000000       0.50000000000000000        0.0000000000000000     
  0.53125000000000000       0.50000000000000000        0.0000000000000000     
  0.56250000000000000       0.50000000000000000        0.0000000000000000     
  0.59375000000000000       0.50000000000000000        0.0000000000000000     
  0.62500000000000000       0.50000000000000000        0.0000000000000000     
  0.62500000000000000       0.37500000000000000        0.0000000000000000     
  0.65625000000000000       0.37500000000000000        0.0000000000000000     
  0.68750000000000000       0.37500000000000000        0.0000000000000000     
  0.71875000000000000       0.37500000000000000        0.0000000000000000     
  0.75000000000000000       0.37500000000000000        0.0000000000000000     
  0.62500000000000000       0.40625000000000000        0.0000000000000000     
  0.65625000000000000       0.40625000000000000        0.0000000000000000     
  0.68750000000000000       0.40625000000000000        0.0000000000000000     
  0.71875000000000000       0.40625000000000000        0.0000000000000000     
  0.75000000000000000       0.40625000000000000        0.0000000000000000     
  0.62500000000000000       0.43750000000000000        0.0000000000000000     
  0.65625000000000000       0.43750000000000000        0.0000000000000000     
  0.68750000000000000       0.43750000000000000        0.0000000000000000     
  0.71875000000000000       0.43750000000000000        0.0000000000000000     
  0.75000000000000000       0.43750000000000000        0.0000000000000000     
  0.62500000000000000       0.46875000000000000        0.0000000000000000     
  0.65625000000000000       0.46875000000000000        0.0000000000000000     
  0.68750000000000000       0.46875000000000000        0.0000000000000000     
  0.71875000000000000       0.46875000000000000        0.0000000000000000     
  0.75000000000000000       0.46875000000000000        0.0000000000000000     
  0.62500000000000000       0.50000000000000000        0.0000000000000000     
  0.65625000000000000       0.50000000000000000        0.0000000000000000     
  0.68750000000000000       0.50000000000000000        0.0000000000000000     
  0.71875000000000000       0.50000000000000000        0.0000000000000000     
  0.75000000000000000       0.50000000000000000        0.0000000000000000     
  0.75000000000000000       0.37500000000000000        0.0000000000000000     
  0.78125000000000000       0.37500000000000000        0.0000000000000000     
  0.81250000000000000       0.37500000000000000        0.0000000000000000     
  0.84375000000000000       0.37500000000000000        0.0000000000000000     
  0.87500000000000000       0.37500000000000000        0.0000000000000000     
  0.75000000000000000       0.40625000000000000        0.0000000000000000     
  0.78125000000000000       0.40625000000000000        0.0000000000000000     
  0.81250000000000000       0.40625000000000000        0.0000000000000000     
  0.84375000000000000       0.40625000000000000        0.0000000000000000     
  0.87500000000000000       0.40625000000000000        0.0000000000000000     
  0.75000000000000000       0.43750000000000000        0.0000000000000000     
  0.78125000000000000       0.43750000000000000        0.0000000000000000     
  0.81250000000000000       0.43750000000000000        0.0000000000000000     
  0.84375000000000000       0.43750000000000000        0.0000000000000000     
  0.87500000000000000       0.43750000000000000        0.0000000000000000     
  0.75000000000000000       0.46875000000000000        0.0000000000000000     
  0.78125000000000000       0.46875000000000000        0.0000000000000000     
  0.81250000000000000       0.46875000000000000        0.0000000000000000     
  0.84375000000000000       0.46875000000000000        0.0000000000000000     
  0.87500000000000000       0.46875000000000000        0.0000000000000000     
  0.75000000000000000       0.50000000000000000        0.0000000000000000     
  0.78125000000000000       0.50000000000000000        0.0000000000000000     
  0.81250000000000000       0.50000000000000000        0.0000000000000000     
  0.84375000000000000       0.50000000000000000        0.0000000000000000     
  0.87500000000000000       0.50000000000000000        0.0000000000000000     
  0.87500000000000000       0.37500000000000000        0.0000000000000000     
  0.90625000000000000       0.37500000000000000        0.0000000000000000     
  0.93750000000000000       0.37500000000000000        0.0000000000000000     
  0.96875000000000000       0.37500000000000000        0.0000000000000000     
   1.0000000000000000       0.37500000000000000        0.0000000000000000     
  0.87500000000000000       0.40625000000000000        0.0000000000000000     
  0.90625000000000000       0.40625000000000000        0.0000000000000000     
  0.93750000000000000       0.40625000000000000        0.0000000000000000     
  0.96875000000000000       0.40625000000000000        0.0000000000000000     
   1.0000000000000000       0.40625000000000000        0.0000000000000000     
  0.87500000000000000       0.43750000000000000        0.0000000000000000     
  0.90625000000000000       0.43750000000000000        0.0000000000000000     
  0.93750000000000000       0.43750000000000000        0.0000000000000000     
  0.96875000000000000       0.43750000000000000        0.0000000000000000     
   1.0000000000000000       0.43750000000000000        0.0000000000000000     
  0.87500000000000000       0.46875000000000000        0.0000000000000000     
  0.90625000000000000       0.46875000000000000        0.0000000000000000     
  0.93750000000000000       0.46875000000000000        0.0000000000000000     
  0.96875000000000000       0.46875000000000000        0.0000000000000000     
   1.0000000000000000       0.46875000000000000        0.0000000000000000     
  0.87500000000000000       0.50000000000000000        0.0000000000000000     
  0.90625000000000000       0.50000000000000000        0.0000000000000000     
  0.93750000000000000       0.50000000000000000        0.0000000000000000     
  0.96875000000000000       0.50000000000000000        0.0000000000000000     
   1.0000000000000000       0.50000000000000000        0.0000000000000000     
   1.0000000000000000       0.37500000000000000        0.0000000000000000     
   1.0312500000000000       0.37500000000000000        0.0000000000000000     
   1.0625000000000000       0.37500000000000000        0.0000000000000000     
   1.0937500000000000       0.37500000000000000        0.0000000000000000     
   1.1250000000000000       0.37500000000000000        0.0000000000000000     
   1.0000000000000000       0.40625000000000000        0.0000000000000000     
   1.0312500000000000       0.40625000000000000        0.0000000000000000     
   1.0625000000000000       0.40625000000000000        0.0000000000000000     
   1.0937500000000000       0.40625000000000000        0.0000000000000000     
   1.1250000000000000       0.40625000000000000        0.0000000000000000     
   1.0000000000000000       0.43750000000000000        0.0000000000000000     
   1.0312500000000000       0.43750000000000000        0.0000000000000000     
   1.0625000000000000       0.43750000000000000        0.0000000000000000     
   1.0937500000000000       0.43750000000000000        0.0000000000000000     
   1.1250000000000000       0.43750000000000000        0.0000000000000000     
   1.0000000000000000       0.46875000000000000        0.0000000000000000     
   1.0312500000000000       0.46875000000000000        0.0000000000000000     
   1.0625000000000000       0.46875000000000000        0.0000000000000000     
   1.0937500000000000       0.46875000000000000        0.0000000000000000     
   1.1250000000000000       0.46875000000000000        0.0000000000000000     
   1.0000000000000000       0.50000000000000000        0.0000000000000000     
   1.0312500000000000       0.50000000000000000        0.0000000000000000     
   1.0625000000000000       0.50000000000000000        0.0000000000000000     
   1.0937500000000000       0.50000000000000000        0.0000000000000000     
   1.1250000000000000       0.50000000000000000        0.0000000000000000     
   1.1250000000000000       0.37500000000000000        0.0000000000000000     
   1.1562500000000000       0.37500000000000000        0.0000000000000000     
   1.1875000000000000       0.37500000000000000        0.0000000000000000     
   1.2187500000000000       0.37500000000000000        0.0000000000000000     
   1.2500000000000000       0.37500000000000000        0.0000000000000000     
   1.1250000000000000       0.40625000000000000        0.0000000000000000     
   1.1562500000000000       0.40625000000000000        0.0000000000000000     
   1.1875000000000000       0.40625000000000000        0.0000000000000000     
   1.2187500000000000       0.40625000000000000        0.0000000000000000     
   1.2500000000000000       0.40625000000000000        0.0000000000000000     
   1.1250000000000000       0.43750000000000000        0.0000000000000000     
   1.1562500000000000       0.43750000000000000        0.0000000000000000     
   1.1875000000000000       0.43750000000000000        0.0000000000000000     
   1.2187500000000000       0.43750000000000000        0.0000000000000000     
   1.2500000000000000       0.43750000000000000        0.0000000000000000     
   1.1250000000000000       0.46875000000000000        0.0000000000000000     
   1.1562500000000000       0.46875000000000000        0.0000000000000000     
   1.1875000000000000       0.46875000000000000        0.0000000000000000     
   1.2187500000000000       0.46875000000000000        0.0000000000000000     
   1.2500000000000000       0.46875000000000000        0.0000000000000000     
   1.1250000000000000       0.50000000000000000        0.0000000000000000     
   1.1562500000000000       0.50000000000000000        0.0000000000000000     
   1.1875000000000000       0.50000000000000000        0.0000000000000000     
   1.2187500000000000       0.50000000000000000        0.0000000000000000     
   1.2500000000000000       0.50000000000000000        0.0000000000000000     
   1.2500000000000000       0.37500000000000000        0.0000000000000000     
   1.2812500000000000       0.37500000000000000        0.0000000000000000     
   1.3125000000000000       0.37500000000000000        0.0000000000000000     
   1.3437500000000000       0.37500000000000000        0.0000000000000000     
   1.3750000000000000       0.37500000000000000        0.0000000000000000     
   1.2500000000000000       0.40625000000000000        0.0000000000000000     
   1.2812500000000000       0.40625000000000000        0.0000000000000000     
   1.3125000000000000       0.40625000000000000        0.0000000000000000     
   1.3437500000000000       0.40625000000000000        0.0000000000000000     
   1.3750000000000000       0.40625000000000000        0.0000000000000000     
   1.2500000000000000       0.43750000000000000        0.0000000000000000     
   1.2812500000000000       0.43750000000000000        0.0000000000000000     
   1.3125000000000000       0.43750000000000000        0.0000000000000000     
   1.3437500000000000       0.43750000000000000        0.0000000000000000     
   1.3750000000000000       0.43750000000000000        0.0000000000000000     
   1.2500000000000000       0.46875000000000000        0.0000000000000000     
   1.2812500000000000       0.46875000000000000        0.0000000000000000     
   1.3125000000000000       0.46875000000000000        0.0000000000000000     
   1.3437500000000000       0.46875000000000000        0.0000000000000000     
   1.3750000000000000       0.46875000000000000        0.0000000000000000     
   1.2500000000000000       0.50000000000000000        0.0000000000000000     
   1.2812500000000000       0.50000000000000000        0.0000000000000000     
   1.3125000000000000       0.50000000000000000        0.0000000000000000     
   1.3437500000000000       0.50000000000000000        0.0000000000000000     
   1.3750000000000000       0.50000000000000000        0.0000000000000000     
   1.3750000000000000       0.37500000000000000        0.0000000000000000     
   1.4062500000000000       0.37500000000000000        0.0000000000000000     
   1.4375000000000000       0.37500000000000000        0.0000000000000000     
   1.4687500000000000       0.37500000000000000        0.0000000000000000     
   1.5000000000000000       0.37500000000000000        0.0000000000000000     
   1.3750000000000000       0.40625000000000000        0.0000000000000000     
   1.4062500000000000       0.40625000000000000        0.0000000000000000     
   1.4375000000000000       0.40625000000000000        0.0000000000000000     
   1.4687500000000000       0.40625000000000000        0.0000000000000000     
   1.5000000000000000       0.40625000000000000        0.0000000000000000     
   1.3750000000000000       0.43750000000000000        0.0000000000000000     
   1.4062500000000000       0.43750000000000000        0.0000000000000000     
   1.4375000000000000       0.43750000000000000        0.0000000000000000     
   1.4687500000000000       0.43750000000000000        0.0000000000000000     
   1.5000000000000000       0.43750000000000000        0.0000000000000000     
   1.3750000000000000       0.46875000000000000        0.0000000000000000     
   1.4062500000000000       0.46875000000000000        0.0000000000000000     
   1.4375000000000000       0.46875000000000000        0.0000000000000000     
   1.4687500000000000       0.46875000000000000        0.0000000000000000     
   1.5000000000000000       0.46875000000000000        0.0000000000000000     
   1.3750000000000000       0.50000000000000000        0.0000000000000000     
   1.4062500000000000       0.50000000000000000        0.0000000000000000     
   1.4375000000000000       0.50000000000000000        0.0000000000000000     
   1.4687500000000000       0.50000000000000000        0.0000000000000000     
   1.5000000000000000       0.50000000000000000        0.0000000000000000     
  0.50000000000000000       0.50000000000000000        0.0000000000000000     
  0.53125000000000000       0.50000000000000000        0.0000000000000000     
  0.56250000000000000       0.50000000000000000        0.0000000000000000     
  0.59375000000000000       0.50000000000000000        0.0000000000000000     
  0.62500000000000000       0.50000000000000000        0.0000000000000000     
  0.50000000000000000       0.53125000000000000        0.0000000000000000     
  0.53125000000000000       0.53125000000000000        0.0000000000000000     
  0.56250000000000000       0.53125000000000000        0.0000000000000000     
  0.59375000000000000       0.53125000000000000        0.0000000000000000     
  0.62500000000000000       0.53125000000000000        0.0000000000000000     
  0.50000000000000000       0.56250000000000000        0.0000000000000000     
  0.53125000000000000       0.56250000000000000        0.0000000000000000     
  0.56250000000000000       0.56250000000000000        0.0000000000000000     
  0.59375000000000000       0.56250000000000000        0.0000000000000000     
  0.62500000000000000       0.56250000000000000        0.0000000000000000     
  0.50000000000000000       0.59375000000000000        0.0000000000000000     
  0.53125000000000000       0.59375000000000000        0.0000000000000000     
  0.56250000000000000       0.59375000000000000        0.0000000000000000     
  0.59375000000000000       0.59375000000000000        0.0000000000000000     
  0.62500000000000000       0.59375000000000000        0.0000000000000000     
  0.50000000000000000       0.62500000000000000        0.0000000000000000     
  0.53125000000000000       0.62500000000000000        0.0000000000000000     
  0.56250000000000000       0.62500000000000000        0.0000000000000000     
  0.59375000000000000       0.62500000000000000        0.0000000000000000     
  0.62500000000000000       0.62500000000000000        0.0000000000000000     
  0.62500000000000000       0.50000000000000000        0.0000000000000000     
  0.65625000000000000       0.50000000000000000        0.0000000000000000     
  0.68750000000000000       0.50000000000000000        0.0000000000000000     
  0.71875000000000000       0.50000000000000000        0.0000000000000000     
  0.75000000000000000       0.50000000000000000        0.0000000000000000     
  0.62500000000000000       0.53125000000000000        0.0000000000000000     
  0.65625000000000000       0.53125000000000000        0.0000000000000000     
  0.68750000000000000       0.53125000000000000        0.0000000000000000     
  0.71875000000000000       0.53125000000000000        0.0000000000000000     
  0.75000000000000000       0.53125000000000000        0.0000000000000000     
  0.62500000000000000       0.56250000000000000        0.0000000000000000     
  0.65625000000000000       0.56250000000000000        0.0000000000000000     
  0.68750000000000000       0.56250000000000000        0.0000000000000000     
  0.71875000000000000       0.56250000000000000        0.0000000000000000     
  0.75000000000000000       0.56250000000000000        0.0000000000000000     
  0.62500000000000000       0.59375000000000000        0.0000000000000000     
  0.65625000000000000       0.59375000000000000        0.0000000000000000     
  0.68750000000000000       0.59375000000000000        0.0000000000000000     
  0.71875000000000000       0.59375000000000000        0.0000000000000000     
  0.75000000000000000       0.59375000000000000        0.0000000000000000     
  0.62500000000000000       0.62500000000000000        0.0000000000000000     
  0.65625000000000000       0.62500000000000000        0.0000000000000000     
  0.68750000000000000       0.62500000000000000        0.0000000000000000     
  0.71875000000000000       0.62500000000000000        0.0000000000000000     
  0.75000000000000000       0.62500000000000000        0.0000000000000000     
  0.75000000000000000       0.50000000000000000        0.0000000000000000     
  0.78125000000000000       0.50000000000000000        0.0000000000000000     
  0.81250000000000000       0.50000000000000000        0.0000000000000000     
  0.84375000000000000       0.50000000000000000        0.0000000000000000     
  0.87500000000000000       0.50000000000000000        0.0000000000000000     
  0.75000000000000000       0.53125000000000000        0.0000000000000000     
  0.78125000000000000       0.53125000000000000        0.0000000000000000     
  0.81250000000000000       0.53125000000000000        0.0000000000000000     
  0.84375000000000000       0.53125000000000000        0.0000000000000000     
  0.87500000000000000       0.53125000000000000        0.0000000000000000     
  0.75000000000000000       0.56250000000000000        0.0000000000000000     
  0.78125000000000000       0.56250000000000000        0.0000000000000000     
  0.81250000000000000       0.56250000000000000        0.0000000000000000     
  0.84375000000000000       0.56250000000000000        0.0000000000000000     
  0.87500000000000000       0.56250000000000000        0.0000000000000000     
  0.75000000000000000       0.59375000000000000        0.0000000000000000     
  0.78125000000000000       0.59375000000000000        0.0000000000000000     
  0.81250000000000000       0.59375000000000000        0.0000000000000000     
  0.84375000000000000       0.59375000000000000        0.0000000000000000     
  0.87500000000000000       0.59375000000000000        0.0000000000000000     
  0.75000000000000000       0.62500000000000000        0.0000000000000000     
  0.78125000000000000       0.62500000000000000        0.0000000000000000     
  0.81250000000000000       0.62500000000000000        0.0000000000000000     
  0.84375000000000000       0.62500000000000000        0.0000000000000000     
  0.87500000000000000       0.62500000000000000        0.0000000000000000     
  0.87500000000000000       0.50000000000000000        0.0000000000000000     
  0.90625000000000000       0.50000000000000000        0.0000000000000000     
  0.93750000000000000       0.50000000000000000        0.0000000000000000     
  0.96875000000000000       0.50000000000000000        0.0000000000000000     
   1.0000000000000000       0.50000000000000000        0.0000000000000000     
  0.87500000000000000       0.53125000000000000        0.0000000000000000     
  0.90625000000000000       0.53125000000000000        0.0000000000000000     
  0.93750000000000000       0.53125000000000000        0.0000000000000000     
  0.96875000000000000       0.53125000000000000        0.0000000000000000     
   1.0000000000000000       0.53125000000000000        0.0000000000000000     
  0.87500000000000000       0.56250000000000000        0.0000000000000000     
  0.90625000000000000       0.56250000000000000        0.0000000000000000     
  0.93750000000000000       0.56250000000000000        0.0000000000000000     
  0.96875000000000000       0.56250000000000000        0.0000000000000000     
   1.0000000000000000       0.56250000000000000        0.0000000000000000     
  0.87500000000000000       0.59375000000000000        0.0000000000000000     
  0.90625000000000000       0.59375000000000000        0.0000000000000000     
  0.93750000000000000       0.59375000000000000        0.0000000000000000     
  0.96875000000000000       0.59375000000000000        0.0000000000000000     
   1.0000000000000000       0.59375000000000000        0.0000000000000000     
  0.87500000000000000       0.62500000000000000        0.0000000000000000     
  0.90625000000000000       0.62500000000000000        0.0000000000000000     
  0.93750000000000000       0.62500000000000000        0.0000000000000000     
  0.96875000000000000       0.62500000000000000        0.0000000000000000     
   1.0000000000000000       0.62500000000000000        0.0000000000000000     
   1.0000000000000000       0.50000000000000000        0.0000000000000000     
   1.0312500000000000       0.50000000000000000        0.0000000000000000     
   1.0625000000000000       0.50000000000000000        0.0000000000000000     
   1.0937500000000000       0.50000000000000000        0.0000000000000000     
   1.1250000000000000       0.50000000000000000        0.0000000000000000     
   1.0000000000000000       0.53125000000000000        0.0000000000000000     
   1.0312500000000000       0.53125000000000000        0.0000000000000000     
   1.0625000000000000       0.53125000000000000        0.0000000000000000     
   1.0937500000000000       0.53125000000000000        0.0000000000000000     
   1.1250000000000000       0.53125000000000000        0.0000000000000000     
   1.0000000000000000       0.56250000000000000        0.0000000000000000     
   1.0312500000000000       0.56250000000000000        0.0000000000000000     
   1.0625000000000000       0.56250000000000000        0.0000000000000000     
   1.0937500000000000       0.56250000000000000        0.0000000000000000     
   1.1250000000000000       0.56250000000000000        0.0000000000000000     
   1.0000000000000000       0.59375000000000000        0.0000000000000000     
   1.0312500000000000       0.59375000000000000        0.0000000000000000     
   1.0625000000000000       0.59375000000000000        0.0000000000000000     
   1.0937500000000000       0.59375000000000000        0.0000000000000000     
   1.1250000000000000       0.59375000000000000        0.0000000000000000     
   1.0000000000000000       0.62500000000000000        0.0000000000000000     
   1.0312500000000000       0.62500000000000000        0.0000000000000000     
   1.0625000000000000       0.62500000000000000        0.0000000000000000     
   1.0937500000000000       0.62500000000000000        0.0000000000000000     
   1.1250000000000000       0.62500000000000000        0.0000000000000000     
   1.1250000000000000       0.50000000000000000        0.0000000000000000     
   1.1562500000000000       0.50000000000000000        0.0000000000000000     
   1.1875000000000000       0.50000000000000000        0.0000000000000000     
   1.2187500000000000       0.50000000000000000        0.0000000000000000     
   1.2500000000000000       0.50000000000000000        0.0000000000000000     
   1.1250000000000000       0.53125000000000000        0.0000000000000000     
   1.1562500000000000       0.53125000000000000        0.0000000000000000     
   1.1875000000000000       0.53125000000000000        0.0000000000000000     
   1.2187500000000000       0.53125000000000000        0.0000000000000000     
   1.2500000000000000       0.53125000000000000        0.0000000000000000     
   1.1250000000000000       0.56250000000000000        0.0000000000000000     
   1.1562500000000000       0.56250000000000000        0.0000000000000000     
   1.1875000000000000       0.56250000000000000        0.0000000000000000     
   1.2187500000000000       0.56250000000000000        0.0000000000000000     
   1.2500000000000000       0.56250000000000000        0.0000000000000000     
   1.1250000000000000       0.59375000000000000        0.0000000000000000     
   1.1562500000000000       0.59375000000000000        0.0000000000000000     
   1.1875000000000000       0.59375000000000000        0.0000000000000000     
   1.2187500000000000       0.59375000000000000        0.0000000000000000     
   1.2500000000000000       0.59375000000000000        0.0000000000000000     
   1.1250000000000000       0.62500000000000000        0.0000000000000000     
   1.1562500000000000       0.62500000000000000        0.0000000000000000     
   1.1875000000000000       0.62500000000000000        0.0000000000000000     
   1.2187500000000000       0.62500000000000000        0.0000000000000000     
   1.2500000000000000       0.62500000000000000        0.0000000000000000     
   1.2500000000000000       0.50000000000000000        0.0000000000000000     
   1.2812500000000000       0.50000000000000000        0.0000000000000000     
   1.3125000000000000       0.50000000000000000        0.0000000000000000     
   1.3437500000000000       0.50000000000000000        0.0000000000000000     
   1.3750000000000000       0.50000000000000000        0.0000000000000000     
   1.2500000000000000       0.53125000000000000        0.0000000000000000     
   1.2812500000000000       0.53125000000000000        0.0000000000000000     
   1.3125000000000000       0.53125000000000000        0.0000000000000000     
   1.3437500000000000       0.53125000000000000        0.0000000000000000     
   1.3750000000000000       0.53125000000000000        0.0000000000000000     
   1.2500000000000000       0.56250000000000000        0.0000000000000000     
   1.2812500000000000       0.56250000000000000        0.0000000000000000     
   1.3125000000000000       0.56250000000000000        0.0000000000000000     
   1.3437500000000000       0.56250000000000000        0.0000000000000000     
   1.3750000000000000       0.56250000000000000        0.0000000000000000     
   1.2500000000000000       0.59375000000000000        0.0000000000000000     
   1.2812500000000000       0.59375000000000000        0.0000000000000000     
   1.3125000000000000       0.59375000000000000        0.0000000000000000     
   1.3437500000000000       0.59375000000000000        0.0000000000000000     
   1.3750000000000000       0.59375000000000000        0.0000000000000000     
   1.2500000000000000       0.62500000000000000        0.0000000000000000     
   1.2812500000000000       0.62500000000000000        0.0000000000000000     
   1.3125000000000000       0.62500000000000000        0.0000000000000000     
   1.3437500000000000       0.62500000000000000        0.0000000000000000     
   1.3750000000000000       0.62500000000000000        0.0000000000000000     
   1.3750000000000000       0.50000000000000000        0.0000000000000000     
   1.4062500000000000       0.50000000000000000        0.0000000000000000     
   1.4375000000000000       0.50000000000000000        0.0000000000000000     
   1.4687500000000000       0.50000000000000000        0.0000000000000000     
   1.5000000000000000       0.50000000000000000        0.0000000000000000     
   1.3750000000000000       0.53125000000000000        0.0000000000000000     
   1.4062500000000000       0.53125000000000000        0.0000000000000000     
   1.4375000000000000       0.53125000000000000        0.0000000000000000     
   1.4687500000000000       0.53125000000000000        0.0000000000000000     
   1.5000000000000000       0.53125000000000000        0.0000000000000000     
   1.3750000000000000       0.56250000000000000        0.0000000000000000     
   1.4062500000000000       0.56250000000000000        0.0000000000000000     
   1.4375000000000000       0.56250000000000000        0.0000000000000000     
   1.4687500000000000       0.56250000000000000        0.0000000000000000     
   1.5000000000000000       0.56250000000000000        0.0000000000000000     
   1.3750000000000000       0.59375000000000000        0.0000000000000000     
   1.4062500000000000       0.59375000000000000        0.0000000000000000     
   1.4375000000000000       0.59375000000000000        0.0000000000000000     
   1.4687500000000000       0.59375000000000000        0.0000000000000000     
   1.5000000000000000       0.59375000000000000        0.0000000000000000     
   1.3750000000000000       0.62500000000000000        0.0000000000000000     
   1.4062500000000000       0.62500000000000000        0.0000000000000000     
   1.4375000000000000       0.62500000000000000        0.0000000000000000     
   1.4687500000000000       0.62500000000000000        0.0000000000000000     
   1.5000000000000000       0.62500000000000000        0.0000000000000000     
  0.50000000000000000       0.62500000000000000        0.0000000000000000     
  0.53125000000000000       0.62500000000000000        0.0000000000000000     
  0.56250000000000000       0.62500000000000000        0.0000000000000000     
  0.59375000000000000       0.62500000000000000        0.0000000000000000     
  0.62500000000000000       0.62500000000000000        0.0000000000000000     
  0.50000000000000000       0.65625000000000000        0.0000000000000000     
  0.53125000000000000       0.65625000000000000        0.0000000000000000     
  0.56250000000000000       0.65625000000000000        0.0000000000000000     
  0.59375000000000000       0.65625000000000000        0.0000000000000000     
  0.62500000000000000       0.65625000000000000        0.0000000000000000     
  0.50000000000000000       0.68750000000000000        0.0000000000000000     
  0.53125000000000000       0.68750000000000000        0.0000000000000000     
  0.56250000000000000       0.68750000000000000        0.0000000000000000     
  0.59375000000000000       0.68750000000000000        0.0000000000000000     
  0.62500000000000000       0.68750000000000000        0.0000000000000000     
  0.50000000000000000       0.71875000000000000        0.0000000000000000     
  0.53125000000000000       0.71875000000000000        0.0000000000000000     
  0.56250000000000000       0.71875000000000000        0.0000000000000000     
  0.59375000000000000       0.71875000000000000        0.0000000000000000     
  0.62500000000000000       0.71875000000000000        0.0000000000000000     
  0.50000000000000000       0.75000000000000000        0.0000000000000000     
  0.53125000000000000       0.75000000000000000        0.0000000000000000     
  0.56250000000000000       0.75000000000000000        0.0000000000000000     
  0.59375000000000000       0.75000000000000000        0.0000000000000000     
  0.62500000000000000       0.75000000000000000        0.0000000000000000     
  0.62500000000000000       0.62500000000000000        0.0000000000000000     
  0.65625000000000000       0.62500000000000000        0.0000000000000000     
  0.68750000000000000       0.62500000000000000        0.0000000000000000     
  0.71875000000000000       0.62500000000000000        0.0000000000000000     
  0.75000000000000000       0.62500000000000000        0.0000000000000000     
  0.62500000000000000       0.65625000000000000        0.0000000000000000     
  0.65625000000000000       0.65625000000000000        0.0000000000000000     
  0.68750000000000000       0.65625000000000000        0.0000000000000000     
  0.71875000000000000       0.65625000000000000        0.0000000000000000     
  0.75000000000000000       0.65625000000000000        0.0000000000000000     
  0.62500000000000000       0.68750000000000000        0.0000000000000000     
  0.65625000000000000       0.68750000000000000        0.0000000000000000     
  0.68750000000000000       0.68750000000000000        0.0000000000000000     
  0.71875000000000000       0.68750000000000000        0.0000000000000000     
  0.75000000000000000       0.68750000000000000        0.0000000000000000     
  0.62500000000000000       0.71875000000000000        0.0000000000000000     
  0.65625000000000000       0.71875000000000000        0.0000000000000000     
  0.68750000000000000       0.71875000000000000        0.0000000000000000     
  0.71875000000000000       0.71875000000000000        0.0000000000000000     
  0.75000000000000000       0.71875000000000000        0.0000000000000000     
  0.62500000000000000       0.75000000000000000        0.0000000000000000     
  0.65625000000000000       0.75000000000000000        0.0000000000000000     
  0.68750000000000000       0.75000000000000000        0.0000000000000000     
  0.71875000000000000       0.75000000000000000        0.0000000000000000     
  0.75000000000000000       0.75000000000000000        0.0000000000000000     
  0.75000000000000000       0.62500000000000000        0.0000000000000000     
  0.78125000000000000       0.62500000000000000        0.0000000000000000     
  0.81250000000000000       0.62500000000000000        0.0000000000000000     
  0.84375000000000000       0.62500000000000000        0.0000000000000000     
  0.87500000000000000       0.62500000000000000        0.0000000000000000     
  0.75000000000000000       0.65625000000000000        0.0000000000000000     
  0.78125000000000000       0.65625000000000000        0.0000000000000000     
  0.81250000000000000       0.65625000000000000        0.0000000000000000     
  0.84375000000000000       0.65625000000000000        0.0000000000000000     
  0.87500000000000000       0.65625000000000000        0.0000000000000000     
  0.75000000000000000       0.68750000000000000        0.0000000000000000     
  0.78125000000000000       0.68750000000000000        0.0000000000000000     
  0.81250000000000000       0.68750000000000000        0.0000000000000000     
  0.84375000000000000       0.68750000000000000        0.0000000000000000     
  0.87500000000000000       0.68750000000000000        0.0000000000000000     
  0.75000000000000000       0.71875000000000000        0.0000000000000000     
  0.78125000000000000       0.71875000000000000        0.0000000000000000     
  0.81250000000000000       0.71875000000000000        0.0000000000000000     
  0.84375000000000000       0.71875000000000000        0.0000000000000000     
  0.87500000000000000       0.71875000000000000        0.0000000000000000     
  0.75000000000000000       0.75000000000000000        0.0000000000000000     
  0.78125000000000000       0.75000000000000000        0.0000000000000000     
  0.81250000000000000       0.75000000000000000        0.0000000000000000     
  0.84375000000000000       0.75000000000000000        0.0000000000000000     
  0.87500000000000000       0.75000000000000000        0.0000000000000000     
  0.87500000000000000       0.62500000000000000        0.0000000000000000     
  0.90625000000000000       0.62500000000000000        0.0000000000000000     
  0.93750000000000000       0.62500000000000000        0.0000000000000000     
  0.96875000000000000       0.62500000000000000        0.0000000000000000     
   1.0000000000000000       0.62500000000000000        0.0000000000000000     
  0.87500000000000000       0.65625000000000000        0.0000000000000000     
  0.90625000000000000       0.65625000000000000        0.0000000000000000     
  0.93750000000000000       0.65625000000000000        0.0000000000000000     
  0.96875000000000000       0.65625000000000000        0.0000000000000000     
   1.0000000000000000       0.65625000000000000        0.0000000000000000     
  0.87500000000000000       0.68750000000000000        0.0000000000000000     
  0.90625000000000000       0.68750000000000000        0.0000000000000000     
  0.93750000000000000       0.68750000000000000        0.0000000000000000     
  0.96875000000000000       0.68750000000000000        0.0000000000000000     
   1.0000000000000000       0.68750000000000000        0.0000000000000000     
  0.87500000000000000       0.71875000000000000        0.0000000000000000     
  0.90625000000000000       0.71875000000000000        0.0000000000000000     
  0.93750000000000000       0.71875000000000000        0.0000000000000000     
  0.96875000000000000       0.71875000000000000        0.0000000000000000     
   1.0000000000000000       0.71875000000000000        0.0000000000000000     
  0.87500000000000000       0.75000000000000000        0.0000000000000000     
  0.90625000000000000       0.75000000000000000        0.0000000000000000     
  0.93750000000000000       0.75000000000000000        0.0000000000000000     
  0.96875000000000000       0.75000000000000000        0.0000000000000000     
   1.0000000000000000       0.75000000000000000        0.0000000000000000     
   1.0000000000000000       0.62500000000000000        0.0000000000000000     
   1.0312500000000000       0.62500000000000000        0.0000000000000000     
   1.0625000000000000       0.62500000000000000        0.0000000000000000     
   1.0937500000000000       0.62500000000000000        0.0000000000000000     
   1.1250000000000000       0.62500000000000000        0.0000000000000000     
   1.0000000000000000       0.65625000000000000        0.0000000000000000     
   1.0312500000000000       0.65625000000000000        0.0000000000000000     
   1.0625000000000000       0.65625000000000000        0.0000000000000000     
   1.0937500000000000       0.65625000000000000        0.0000000000000000     
   1.1250000000000000       0.65625000000000000        0.0000000000000000     
   1.0000000000000000       0.68750000000000000        0.0000000000000000     
   1.0312500000000000       0.68750000000000000        0.0000000000000000     
   1.0625000000000000       0.68750000000000000        0.0000000000000000     
   1.0937500000000000       0.68750000000000000        0.0000000000000000     
   1.1250000000000000       0.68750000000000000        0.0000000000000000     
   1.0000000000000000       0.71875000000000000        0.0000000000000000     
   1.0312500000000000       0.71875000000000000        0.0000000000000000     
   1.0625000000000000       0.71875000000000000        0.0000000000000000     
   1.0937500000000000       0.71875000000000000        0.0000000000000000     
   1.1250000000000000       0.71875000000000000        0.0000000000000000     
   1.0000000000000000       0.75000000000000000        0.0000000000000000     
   1.0312500000000000       0.75000000000000000        0.0000000000000000     
   1.0625000000000000       0.75000000000000000        0.0000000000000000     
   1.0937500000000000       0.75000000000000000        0.0000000000000000     
   1.1250000000000000       0.75000000000000000        0.0000000000000000     
   1.1250000000000000       0.62500000000000000        0.0000000000000000     
   1.1562500000000000       0.62500000000000000        0.0000000000000000     
   1.1875000000000000       0.62500000000000000        0.0000000000000000     
   1.2187500000000000       0.62500000000000000        0.0000000000000000     
   1.2500000000000000       0.62500000000000000        0.0000000000000000     
   1.1250000000000000       0.65625000000000000        0.0000000000000000     
   1.1562500000000000       0.65625000000000000        0.0000000000000000     
   1.1875000000000000       0.65625000000000000        0.0000000000000000     
   1.2187500000000000       0.65625000000000000        0.0000000000000000     
   1.2500000000000000       0.65625000000000000        0.0000000000000000     
   1.1250000000000000       0.68750000000000000        0.0000000000000000     
   1.1562500000000000       0.68750000000000000        0.0000000000000000     
   1.1875000000000000       0.68750000000000000        0.0000000000000000     
   1.2187500000000000       0.68750000000000000        0.0000000000000000     
   1.2500000000000000       0.68750000000000000        0.0000000000000000     
   1.1250000000000000       0.71875000000000000        0.0000000000000000     
   1.1562500000000000       0.71875000000000000        0.0000000000000000     
   1.1875000000000000       0.71875000000000000        0.0000000000000000     
   1.2187500000000000       0.71875000000000000        0.0000000000000000     
   1.2500000000000000       0.71875000000000000        0.0000000000000000     
   1.1250000000000000       0.75000000000000000        0.0000000000000000     
   1.1562500000000000       0.75000000000000000        0.0000000000000000     
   1.1875000000000000       0.75000000000000000        0.0000000000000000     
   1.2187500000000000       0.75000000000000000        0.0000000000000000     
   1.2500000000000000       0.75000000000000000        0.0000000000000000     
   1.2500000000000000       0.62500000000000000        0.0000000000000000     
   1.2812500000000000       0.62500000000000000        0.0000000000000000     
   1.3125000000000000       0.62500000000000000        0.0000000000000000     
   1.3437500000000000       0.62500000000000000        0.0000000000000000     
   1.3750000000000000       0.62500000000000000        0.0000000000000000     
   1.2500000000000000       0.65625000000000000        0.0000000000000000     
   1.2812500000000000       0.65625000000000000        0.0000000000000000     
   1.3125000000000000       0.65625000000000000        0.0000000000000000     
   1.3437500000000000       0.65625000000000000        0.0000000000000000     
   1.3750000000000000       0.65625000000000000        0.0000000000000000     
   1.2500000000000000       0.68750000000000000        0.0000000000000000     
   1.2812500000000000       0.68750000000000000        0.0000000000000000     
   1.3125000000000000       0.68750000000000000        0.0000000000000000     
   1.3437500000000000       0.68750000000000000        0.0000000000000000     
   1.3750000000000000       0.68750000000000000        0.0000000000000000     
   1.2500000000000000       0.71875000000000000        0.0000000000000000     
   1.2812500000000000       0.71875000000000000        0.0000000000000000     
   1.3125000000000000       0.71875000000000000        0.0000000000000000     
   1.3437500000000000       0.71875000000000000        0.0000000000000000     
   1.3750000000000000       0.71875000000000000        0.0000000000000000     
   1.2500000000000000       0.75000000000000000        0.0000000000000000     
   1.2812500000000000       0.75000000000000000        0.0000000000000000     
   1.3125000000000000       0.75000000000000000        0.0000000000000000     
   1.3437500000000000       0.75000000000000000        0.0000000000000000     
   1.3750000000000000       0.75000000000000000        0.0000000000000000     
   1.3750000000000000       0.62500000000000000        0.0000000000000000     
   1.4062500000000000       0.62500000000000000        0.0000000000000000     
   1.4375000000000000       0.62500000000000000        0.0000000000000000     
   1.4687500000000000       0.62500000000000000        0.0000000000000000     
   1.5000000000000000       0.62500000000000000        0.0000000000000000     
   1.3750000000000000       0.65625000000000000        0.0000000000000000     
   1.4062500000000000       0.65625000000000000        0.0000000000000000     
   1.4375000000000000       0.65625000000000000        0.0000000000000000     
   1.4687500000000000       0.65625000000000000        0.0000000000000000     
   1.5000000000000000       0.65625000000000000        0.0000000000000000     
   1.3750000000000000       0.68750000000000000        0.0000000000000000     
   1.4062500000000000       0.68750000000000000        0.0000000000000000     
   1.4375000000000000       0.68750000000000000        0.0000000000000000     
   1.4687500000000000       0.68750000000000000        0.0000000000000000     
   1.5000000000000000       0.68750000000000000        0.0000000000000000     
   1.3750000000000000       0.71875000000000000        0.0000000000000000     
   1.4062500000000000       0.71875000000000000        0.0000000000000000     
   1.4375000000000000       0.71875000000000000        0.0000000000000000     
   1.4687500000000000       0.71875000000000000        0.0000000000000000     
   1.5000000000000000       0.71875000000000000        0.0000000000000000     
   1.3750000000000000       0.75000000000000000        0.0000000000000000     
   1.4062500000000000       0.75000000000000000        0.0000000000000000     
   1.4375000000000000       0.75000000000000000        0.0000000000000000     
   1.4687500000000000       0.75000000000000000        0.0000000000000000     
   1.5000000000000000       0.75000000000000000        0.0000000000000000     
  0.50000000000000000       0.75000000000000000        0.0000000000000000     
  0.53125000000000000       0.75000000000000000        0.0000000000000000     
  0.56250000000000000       0.75000000000000000        0.0000000000000000     
  0.59375000000000000       0.75000000000000000        0.0000000000000000     
  0.62500000000000000       0.75000000000000000        0.0000000000000000     
  0.50000000000000000       0.78125000000000000        0.0000000000000000     
  0.53125000000000000       0.78125000000000000        0.0000000000000000     
  0.56250000000000000       0.78125000000000000        0.0000000000000000     
  0.59375000000000000       0.78125000000000000        0.0000000000000000     
  0.62500000000000000       0.78125000000000000        0.0000000000000000     
  0.50000000000000000       0.81250000000000000        0.0000000000000000     
  0.53125000000000000       0.81250000000000000        0.0000000000000000     
  0.56250000000000000       0.81250000000000000        0.0000000000000000     
  0.59375000000000000       0.81250000000000000        0.0000000000000000     
  0.62500000000000000       0.81250000000000000        0.0000000000000000     
  0.50000000000000000       0.84375000000000000        0.0000000000000000     
  0.53125000000000000       0.84375000000000000        0.0000000000000000     
  0.56250000000000000       0.84375000000000000        0.0000000000000000     
  0.59375000000000000       0.84375000000000000        0.0000000000000000     
  0.62500000000000000       0.84375000000000000        0.0000000000000000     
  0.50000000000000000       0.87500000000000000        0.0000000000000000     
  0.53125000000000000       0.87500000000000000        0.0000000000000000     
  0.56250000000000000       0.87500000000000000        0.0000000000000000     
  0.59375000000000000       0.87500000000000000        0.0000000000000000     
  0.62500000000000000       0.87500000000000000        0.0000000000000000     
  0.62500000000000000       0.75000000000000000        0.0000000000000000     
  0.65625000000000000       0.75000000000000000        0.0000000000000000     
  0.68750000000000000       0.75000000000000000        0.0000000000000000     
  0.71875000000000000       0.75000000000000000        0.0000000000000000     
  0.75000000000000000       0.75000000000000000        0.0000000000000000     
  0.62500000000000000       0.78125000000000000        0.0000000000000000     
  0.65625000000000000       0.78125000000000000        0.0000000000000000     
  0.68750000000000000       0.78125000000000000        0.0000000000000000     
  0.71875000000000000       0.78125000000000000        0.0000000000000000     
  0.75000000000000000       0.78125000000000000        0.0000000000000000     
  0.62500000000000000       0.81250000000000000        0.0000000000000000     
  0.65625000000000000       0.81250000000000000        0.0000000000000000     
  0.68750000000000000       0.81250000000000000        0.0000000000000000     
  0.71875000000000000       0.81250000000000000        0.0000000000000000     
  0.75000000000000000       0.81250000000000000        0.0000000000000000     
  0.62500000000000000       0.84375000000000000        0.0000000000000000     
  0.65625000000000000       0.84375000000000000        0.0000000000000000     
  0.68750000000000000       0.84375000000000000        0.0000000000000000     
  0.71875000000000000       0.84375000000000000        0.0000000000000000     
  0.75000000000000000       0.84375000000000000        0.0000000000000000     
  0.62500000000000000       0.87500000000000000        0.0000000000000000     
  0.65625000000000000       0.87500000000000000        0.0000000000000000     
  0.68750000000000000       0.87500000000000000        0.0000000000000000     
  0.71875000000000000       0.87500000000000000        0.0000000000000000     
  0.75000000000000000       0.87500000000000000        0.0000000000000000     
  0.75000000000000000       0.75000000000000000        0.0000000000000000     
  0.78125000000000000       0.75000000000000000        0.0000000000000000     
  0.81250000000000000       0.75000000000000000        0.0000000000000000     
  0.84375000000000000       0.75000000000000000        0.0000000000000000     
  0.87500000000000000       0.75000000000000000        0.0000000000000000     
  0.75000000000000000       0.78125000000000000        0.0000000000000000     
  0.78125000000000000       0.78125000000000000        0.0000000000000000     
  0.81250000000000000       0.78125000000000000        0.0000000000000000     
  0.84375000000000000       0.78125000000000000        0.0000000000000000     
  0.87500000000000000       0.78125000000000000        0.0000000000000000     
  0.75000000000000000       0.81250000000000000        0.0000000000000000     
  0.78125000000000000       0.81250000000000000        0.0000000000000000     
  0.81250000000000000       0.81250000000000000        0.0000000000000000     
  0.84375000000000000       0.81250000000000000        0.0000000000000000     
  0.87500000000000000       0.81250000000000000        0.0000000000000000     
  0.75000000000000000       0.84375000000000000        0.0000000000000000     
  0.78125000000000000       0.84375000000000000        0.0000000000000000     
  0.81250000000000000       0.84375000000000000        0.0000000000000000     
  0.84375000000000000       0.84375000000000000        0.0000000000000000     
  0.87500000000000000       0.84375000000000000        0.0000000000000000     
  0.75000000000000000       0.87500000000000000        0.0000000000000000     
  0.78125000000000000       0.87500000000000000        0.0000000000000000     
  0.81250000000000000       0.87500000000000000        0.0000000000000000     
  0.84375000000000000       0.87500000000000000        0.0000000000000000     
  0.87500000000000000       0.87500000000000000        0.0000000000000000     
  0.87500000000000000       0.75000000000000000        0.0000000000000000     
  0.90625000000000000       0.75000000000000000        0.0000000000000000     
  0.93750000000000000       0.75000000000000000        0.0000000000000000     
  0.96875000000000000       0.75000000000000000        0.0000000000000000     
   1.0000000000000000       0.75000000000000000        0.0000000000000000     
  0.87500000000000000       0.78125000000000000        0.0000000000000000     
  0.90625000000000000       0.78125000000000000        0.0000000000000000     
  0.93750000000000000       0.78125000000000000        0.0000000000000000     
  0.96875000000000000       0.78125000000000000        0.0000000000000000     
   1.0000000000000000       0.78125000000000000        0.0000000000000000     
  0.87500000000000000       0.81250000000000000        0.0000000000000000     
  0.90625000000000000       0.81250000000000000        0.0000000000000000     
  0.93750000000000000       0.81250000000000000        0.0000000000000000     
  0.96875000000000000       0.81250000000000000        0.0000000000000000     
   1.0000000000000000       0.81250000000000000        0.0000000000000000     
  0.87500000000000000       0.84375000000000000        0.0000000000000000     
  0.90625000000000000       0.84375000000000000        0.0000000000000000     
  0.93750000000000000       0.84375000000000000        0.0000000000000000     
  0.96875000000000000       0.84375000000000000        0.0000000000000000     
   1.0000000000000000       0.84375000000000000        0.0000000000000000     
  0.87500000000000000       0.87500000000000000        0.0000000000000000     
  0.90625000000000000       0.87500000000000000        0.0000000000000000     
  0.93750000000000000       0.87500000000000000        0.0000000000000000     
  0.96875000000000000       0.87500000000000000        0.0000000000000000     
   1.0000000000000000       0.87500000000000000        0.0000000000000000     
   1.0000000000000000       0.75000000000000000        0.0000000000000000     
   1.0312500000000000       0.75000000000000000        0.0000000000000000     
   1.0625000000000000       0.75000000000000000        0.0000000000000000     
   1.0937500000000000       0.75000000000000000        0.0000000000000000     
   1.1250000000000000       0.75000000000000000        0.0000000000000000     
   1.0000000000000000       0.78125000000000000        0.0000000000000000     
   1.0312500000000000       0.78125000000000000        0.0000000000000000     
   1.0625000000000000       0.78125000000000000        0.0000000000000000     
   1.0937500000000000       0.78125000000000000        0.0000000000000000     
   1.1250000000000000       0.78125000000000000        0.0000000000000000     
   1.0000000000000000       0.81250000000000000        0.0000000000000000     
   1.0312500000000000       0.81250000000000000        0.0000000000000000     
   1.0625000000000000       0.81250000000000000        0.0000000000000000     
   1.0937500000000000       0.81250000000000000        0.0000000000000000     
   1.1250000000000000       0.81250000000000000        0.0000000000000000     
   1.0000000000000000       0.84375000000000000        0.0000000000000000     
   1.0312500000000000       0.84375000000000000        0.0000000000000000     
   1.0625000000000000       0.84375000000000000        0.0000000000000000     
   1.0937500000000000       0.84375000000000000        0.0000000000000000     
   1.1250000000000000       0.84375000000000000        0.0000000000000000     
   1.0000000000000000       0.87500000000000000        0.0000000000000000     
   1.0312500000000000       0.87500000000000000        0.0000000000000000     
   1.0625000000000000       0.87500000000000000        0.0000000000000000     
   1.0937500000000000       0.87500000000000000        0.0000000000000000     
   1.1250000000000000       0.87500000000000000        0.0000000000000000     
   1.1250000000000000       0.75000000000000000        0.0000000000000000     
   1.1562500000000000       0.75000000000000000        0.0000000000000000     
   1.1875000000000000       0.75000000000000000        0.0000000000000000     
   1.2187500000000000       0.75000000000000000        0.0000000000000000     
   1.2500000000000000       0.75000000000000000        0.0000000000000000     
   1.1250000000000000       0.78125000000000000        0.0000000000000000     
   1.1562500000000000       0.78125000000000000        0.0000000000000000     
   1.1875000000000000       0.78125000000000000        0.0000000000000000     
   1.2187500000000000       0.78125000000000000        0.0000000000000000     
   1.2500000000000000       0.78125000000000000        0.0000000000000000     
   1.1250000000000000       0.81250000000000000        0.0000000000000000     
   1.1562500000000000       0.81250000000000000        0.0000000000000000     
   1.1875000000000000       0.81250000000000000        0.0000000000000000     
   1.2187500000000000       0.81250000000000000        0.0000000000000000     
   1.2500000000000000       0.81250000000000000        0.0000000000000000     
   1.1250000000000000       0.84375000000000000        0.0000000000000000     
   1.1562500000000000       0.84375000000000000        0.0000000000000000     
   1.1875000000000000       0.84375000000000000        0.0000000000000000     
   1.2187500000000000       0.84375000000000000        0.0000000000000000     
   1.2500000000000000       0.84375000000000000        0.0000000000000000     
   1.1250000000000000       0.87500000000000000        0.0000000000000000     
   1.1562500000000000       0.87500000000000000        0.0000000000000000     
   1.1875000000000000       0.87500000000000000        0.0000000000000000     
   1.2187500000000000       0.87500000000000000        0.0000000000000000     
   1.2500000000000000       0.87500000000000000        0.0000000000000000     
   1.2500000000000000       0.75000000000000000        0.0000000000000000     
   1.2812500000000000       0.75000000000000000        0.0000000000000000     
   1.3125000000000000       0.75000000000000000        0.0000000000000000     
   1.3437500000000000       0.75000000000000000        0.0000000000000000     
   1.3750000000000000       0.75000000000000000        0.0000000000000000     
   1.2500000000000000       0.78125000000000000        0.0000000000000000     
   1.2812500000000000       0.78125000000000000        0.0000000000000000     
   1.3125000000000000       0.78125000000000000        0.0000000000000000     
   1.3437500000000000       0.78125000000000000        0.0000000000000000     
   1.3750000000000000       0.78125000000000000        0.0000000000000000     
   1.2500000000000000       0.81250000000000000        0.0000000000000000     
   1.2812500000000000       0.81250000000000000        0.0000000000000000     
   1.3125000000000000       0.81250000000000000        0.0000000000000000     
   1.3437500000000000       0.81250000000000000        0.0000000000000000     
   1.3750000000000000       0.81250000000000000        0.0000000000000000     
   1.2500000000000000       0.84375000000000000        0.0000000000000000     
   1.2812500000000000       0.84375000000000000        0.0000000000000000     
   1.3125000000000000       0.84375000000000000        0.0000000000000000     
   1.3437500000000000       0.84375000000000000        0.0000000000000000     
   1.3750000000000000       0.84375000000000000        0.0000000000000000     
   1.2500000000000000       0.87500000000000000        0.0000000000000000     
   1.2812500000000000       0.87500000000000000        0.0000000000000000     
   1.3125000000000000       0.87500000000000000        0.0000000000000000     
   1.3437500000000000       0.87500000000000000        0.0000000000000000     
   1.3750000000000000       0.87500000000000000        0.0000000000000000     
   1.3750000000000000       0.75000000000000000        0.0000000000000000     
   1.4062500000000000       0.75000000000000000        0.0000000000000000     
   1.4375000000000000       0.75000000000000000        0.0000000000000000     
   1.4687500000000000       0.75000000000000000        0.0000000000000000     
   1.5000000000000000       0.75000000000000000        0.0000000000000000     
   1.3750000000000000       0.78125000000000000        0.0000000000000000     
   1.4062500000000000       0.78125000000000000        0.0000000000000000     
   1.4375000000000000       0.78125000000000000        0.0000000000000000     
   1.4687500000000000       0.78125000000000000        0.0000000000000000     
   1.5000000000000000       0.78125000000000000        0.0000000000000000     
   1.3750000000000000       0.81250000000000000        0.0000000000000000     
   1.4062500000000000       0.81250000000000000        0.0000000000000000     
   1.4375000000000000       0.81250000000000000        0.0000000000000000     
   1.4687500000000000       0.81250000000000000        0.0000000000000000     
   1.5000000000000000       0.81250000000000000        0.0000000000000000     
   1.3750000000000000       0.84375000000000000        0.0000000000000000     
   1.4062500000000000       0.84375000000000000        0.0000000000000000     
   1.4375000000000000       0.84375000000000000        0.0000000000000000     
   1.4687500000000000       0.84375000000000000        0.0000000000000000     
   1.5000000000000000       0.84375000000000000        0.0000000000000000     
   1.3750000000000000       0.87500000000000000        0.0000000000000000     
   1.4062500000000000       0.87500000000000000        0.0000000000000000     
   1.4375000000000000       0.87500000000000000        0.0000000000000000     
   1.4687500000000000       0.87500000000000000        0.0000000000000000     
   1.5000000000000000       0.87500000000000000        0.0000000000000000     
  0.50000000000000000       0.87500000000000000        0.0000000000000000     
  0.53125000000000000       0.87500000000000000        0.0000000000000000     
  0.56250000000000000       0.87500000000000000        0.0000000000000000     
  0.59375000000000000       0.87500000000000000        0.0000000000000000     
  0.62500000000000000       0.87500000000000000        0.0000000000000000     
  0.50000000000000000       0.90625000000000000        0.0000000000000000     
  0.53125000000000000       0.90625000000000000        0.0000000000000000     
  0.56250000000000000       0.90625000000000000        0.0000000000000000     
  0.59375000000000000       0.90625000000000000        0.0000000000000000     
  0.62500000000000000       0.90625000000000000        0.0000000000000000     
  0.50000000000000000       0.93750000000000000        0.0000000000000000     
  0.53125000000000000       0.93750000000000000        0.0000000000000000     
  0.56250000000000000       0.93750000000000000        0.0000000000000000     
  0.59375000000000000       0.93750000000000000        0.0000000000000000     
  0.62500000000000000       0.93750000000000000        0.0000000000000000     
  0.50000000000000000       0.96875000000000000        0.0000000000000000     
  0.53125000000000000       0.96875000000000000        0.0000000000000000     
  0.56250000000000000       0.96875000000000000        0.0000000000000000     
  0.59375000000000000       0.96875000000000000        0.0000000000000000     
  0.62500000000000000       0.96875000000000000        0.0000000000000000     
  0.50000000000000000        1.0000000000000000        0.0000000000000000     
  0.53125000000000000        1.0000000000000000        0.0000000000000000     
  0.56250000000000000        1.0000000000000000        0.0000000000000000     
  0.59375000000000000        1.0000000000000000        0.0000000000000000     
  0.62500000000000000        1.0000000000000000        0.0000000000000000     
  0.62500000000000000       0.87500000000000000        0.0000000000000000     
  0.65625000000000000       0.87500000000000000        0.0000000000000000     
  0.68750000000000000       0.87500000000000000        0.0000000000000000     
  0.71875000000000000       0.87500000000000000        0.0000000000000000     
  0.75000000000000000       0.87500000000000000        0.0000000000000000     
  0.62500000000000000       0.90625000000000000        0.0000000000000000     
  0.65625000000000000       0.90625000000000000        0.0000000000000000     
  0.68750000000000000       0.90625000000000000        0.0000000000000000     
  0.71875000000000000       0.90625000000000000        0.0000000000000000     
  0.75000000000000000       0.90625000000000000        0.0000000000000000     
  0.62500000000000000       0.93750000000000000        0.0000000000000000     
  0.65625000000000000       0.93750000000000000        0.0000000000000000     
  0.68750000000000000       0.93750000000000000        0.0000000000000000     
  0.71875000000000000       0.93750000000000000        0.0000000000000000     
  0.75000000000000000       0.93750000000000000        0.0000000000000000     
  0.62500000000000000       0.96875000000000000        0.0000000000000000     
  0.65625000000000000       0.96875000000000000        0.0000000000000000     
  0.68750000000000000       0.96875000000000000        0.0000000000000000     
  0.71875000000000000       0.96875000000000000        0.0000000000000000     
  0.75000000000000000       0.96875000000000000        0.0000000000000000     
  0.62500000000000000        1.0000000000000000        0.0000000000000000     
  0.65625000000000000        1.0000000000000000        0.0000000000000000     
  0.68750000000000000        1.0000000000000000        0.0000000000000000     
  0.71875000000000000        1.0000000000000000        0.0000000000000000     
  0.75000000000000000        1.0000000000000000        0.0000000000000000     
  0.75000000000000000       0.87500000000000000        0.0000000000000000     
  0.78125000000000000       0.87500000000000000        0.0000000000000000     
  0.81250000000000000       0.87500000000000000        0.0000000000000000     
  0.84375000000000000       0.87500000000000000        0.0000000000000000     
  0.87500000000000000       0.87500000000000000        0.0000000000000000     
  0.75000000000000000       0.90625000000000000        0.0000000000000000     
  0.78125000000000000       0.90625000000000000        0.0000000000000000     
  0.81250000000000000       0.90625000000000000        0.0000000000000000     
  0.84375000000000000       0.90625000000000000        0.0000000000000000     
  0.87500000000000000       0.90625000000000000        0.0000000000000000     
  0.75000000000000000       0.93750000000000000        0.0000000000000000     
  0.78125000000000000       0.93750000000000000        0.0000000000000000     
  0.81250000000000000       0.93750000000000000        0.0000000000000000     
  0.84375000000000000       0.93750000000000000        0.0000000000000000     
  0.87500000000000000       0.93750000000000000        0.0000000000000000     
  0.75000000000000000       0.96875000000000000        0.0000000000000000     
  0.78125000000000000       0.96875000000000000        0.0000000000000000     
  0.81250000000000000       0.96875000000000000        0.0000000000000000     
  0.84375000000000000       0.96875000000000000        0.0000000000000000     
  0.87500000000000000       0.96875000000000000        0.0000000000000000     
  0.75000000000000000        1.0000000000000000        0.0000000000000000     
  0.78125000000000000        1.0000000000000000        0.0000000000000000     
  0.81250000000000000        1.0000000000000000        0.0000000000000000     
  0.84375000000000000        1.0000000000000000        0.0000000000000000     
  0.87500000000000000        1.0000000000000000        0.0000000000000000     
  0.87500000000000000       0.87500000000000000        0.0000000000000000     
  0.90625000000000000       0.87500000000000000        0.0000000000000000     
  0.93750000000000000       0.87500000000000000        0.0000000000000000     
  0.96875000000000000       0.87500000000000000        0.0000000000000000     
   1.0000000000000000       0.87500000000000000        0.0000000000000000     
  0.87500000000000000       0.90625000000000000        0.0000000000000000     
  0.90625000000000000       0.90625000000000000        0.0000000000000000     
  0.93750000000000000       0.90625000000000000        0.0000000000000000     
  0.96875000000000000       0.90625000000000000        0.0000000000000000     
   1.0000000000000000       0.90625000000000000        0.0000000000000000     
  0.87500000000000000       0.93750000000000000        0.0000000000000000     
  0.90625000000000000       0.93750000000000000        0.0000000000000000     
  0.93750000000000000       0.93750000000000000        0.0000000000000000     
  0.96875000000000000       0.93750000000000000        0.0000000000000000     
   1.0000000000000000       0.93750000000000000        0.0000000000000000     
  0.87500000000000000       0.96875000000000000        0.0000000000000000     
  0.90625000000000000       0.96875000000000000        0.0000000000000000     
  0.93750000000000000       0.96875000000000000        0.0000000000000000     
  0.96875000000000000       0.96875000000000000        0.0000000000000000     
   1.0000000000000000       0.96875000000000000        0.0000000000000000     
  0.87500000000000000        1.0000000000000000        0.0000000000000000     
  0.90625000000000000        1.0000000000000000        0.0000000000000000     
  0.93750000000000000        1.0000000000000000        0.0000000000000000     
  0.96875000000000000        1.0000000000000000        0.0000000000000000     
   1.0000000000000000        1.0000000000000000        0.0000000000000000     
   1.0000000000000000       0.87500000000000000        0.0000000000000000     
   1.0312500000000000       0.87500000000000000        0.0000000000000000     
   1.0625000000000000       0.87500000000000000        0.0000000000000000     
   1.0937500000000000       0.87500000000000000        0.0000000000000000     
   1.1250000000000000       0.87500000000000000        0.0000000000000000     
   1.0000000000000000       0.90625000000000000        0.0000000000000000     
   1.0312500000000000       0.90625000000000000        0.0000000000000000     
   1.0625000000000000       0.90625000000000000        0.0000000000000000     
   1.0937500000000000       0.90625000000000000        0.0000000000000000     
   1.1250000000000000       0.90625000000000000        0.0000000000000000     
   1.0000000000000000       0.93750000000000000        0.0000000000000000     
   1.0312500000000000       0.93750000000000000        0.0000000000000000     
   1.0625000000000000       0.93750000000000000        0.0000000000000000     
   1.0937500000000000       0.93750000000000000        0.0000000000000000     
   1.1250000000000000       0.93750000000000000        0.0000000000000000     
   1.0000000000000000       0.96875000000000000        0.0000000000000000     
   1.0312500000000000       0.96875000000000000        0.0000000000000000     
   1.0625000000000000       0.96875000000000000        0.0000000000000000     
   1.0937500000000000       0.96875000000000000        0.0000000000000000     
   1.1250000000000000       0.96875000000000000        0.0000000000000000     
   1.0000000000000000        1.0000000000000000        0.0000000000000000     
   1.0312500000000000        1.0000000000000000        0.0000000000000000     
   1.0625000000000000        1.0000000000000000        0.0000000000000000     
   1.0937500000000000        1.0000000000000000        0.0000000000000000     
   1.1250000000000000        1.0000000000000000        0.0000000000000000     
   1.1250000000000000       0.87500000000000000        0.0000000000000000     
   1.1562500000000000       0.87500000000000000        0.0000000000000000     
   1.1875000000000000       0.87500000000000000        0.0000000000000000     
   1.2187500000000000       0.87500000000000000        0.0000000000000000     
   1.2500000000000000       0.87500000000000000        0.0000000000000000     
   1.1250000000000000       0.90625000000000000        0.0000000000000000     
   1.1562500000000000       0.90625000000000000        0.0000000000000000     
   1.1875000000000000       0.90625000000000000        0.0000000000000000     
   1.2187500000000000       0.90625000000000000        0.0000000000000000     
   1.2500000000000000       0.90625000000000000        0.0000000000000000     
   1.1250000000000000       0.93750000000000000        0.0000000000000000     
   1.1562500000000000       0.93750000000000000        0.0000000000000000     
   1.1875000000000000       0.93750000000000000        0.0000000000000000     
   1.2187500000000000       0.93750000000000000        0.0000000000000000     
   1.2500000000000000       0.93750000000000000        0.0000000000000000     
   1.1250000000000000       0.96875000000000000        0.0000000000000000     
   1.1562500000000000       0.96875000000000000        0.0000000000000000     
   1.1875000000000000       0.96875000000000000        0.0000000000000000     
   1.2187500000000000       0.96875000000000000        0.0000000000000000     
   1.2500000000000000       0.96875000000000000        0.0000000000000000     
   1.1250000000000000        1.0000000000000000        0.0000000000000000     
   1.1562500000000000        1.0000000000000000        0.0000000000000000     
   1.1875000000000000        1.0000000000000000        0.0000000000000000     
   1.2187500000000000        1.0000000000000000        0.0000000000000000     
   1.2500000000000000        1.0000000000000000        0.0000000000000000     
   1.2500000000000000       0.87500000000000000        0.0000000000000000     
   1.2812500000000000       0.87500000000000000        0.0000000000000000     
   1.3125000000000000       0.87500000000000000        0.0000000000000000     
   1.3437500000000000       0.87500000000000000        0.0000000000000000     
   1.3750000000000000       0.87500000000000000        0.0000000000000000     
   1.2500000000000000       0.90625000000000000        0.0000000000000000     
   1.2812500000000000       0.90625000000000000        0.0000000000000000     
   1.3125000000000000       0.90625000000000000        0.0000000000000000     
   1.3437500000000000       0.90625000000000000        0.0000000000000000     
   1.3750000000000000       0.90625000000000000        0.0000000000000000     
   1.2500000000000000       0.93750000000000000        0.0000000000000000     
   1.2812500000000000       0.93750000000000000        0.0000000000000000     
   1.3125000000000000       0.93750000000000000        0.0000000000000000     
   1.3437500000000000       0.93750000000000000        0.0000000000000000     
   1.3750000000000000       0.93750000000000000        0.0000000000000000     
   1.2500000000000000       0.96875000000000000        0.0000000000000000     
   1.2812500000000000       0.96875000000000000        0.0000000000000000     
   1.3125000000000000       0.96875000000000000        0.0000000000000000     
   1.3437500000000000       0.96875000000000000        0.0000000000000000     
   1.3750000000000000       0.96875000000000000        0.0000000000000000     
   1.2500000000000000        1.0000000000000000        0.0000000000000000     
   1.2812500000000000        1.0000000000000000        0.0000000000000000     
   1.3125000000000000        1.0000000000000000        0.0000000000000000     
   1.3437500000000000        1.0000000000000000        0.0000000000000000     
   1.3750000000000000        1.0000000000000000        0.0000000000000000     
   1.3750000000000000       0.87500000000000000        0.0000000000000000     
   1.4062500000000000       0.87500000000000000        0.0000000000000000     
   1.4375000000000000       0.87500000000000000        0.0000000000000000     
   1.4687500000000000       0.87500000000000000        0.0000000000000000     
   1.5000000000000000       0.87500000000000000        0.0000000000000000     
   1.3750000000000000       0.90625000000000000        0.0000000000000000     
   1.4062500000000000       0.90625000000000000        0.0000000000000000     
   1.4375000000000000       0.90625000000000000        0.0000000000000000     
   1.4687500000000000       0.90625000000000000        0.0000000000000000     
   1.5000000000000000       0.90625000000000000        0.0000000000000000     
   1.3750000000000000       0.93750000000000000        0.0000000000000000     
   1.4062500000000000       0.93750000000000000        0.0000000000000000     
   1.4375000000000000       0.93750000000000000        0.0000000000000000     
   1.4687500000000000       0.93750000000000000        0.0000000000000000     
   1.5000000000000000       0.93750000000000000        0.0000000000000000     
   1.3750000000000000       0.96875000000000000        0.0000000000000000     
   1.4062500000000000       0.96875000000000000        0.0000000000000000     
   1.4375000000000000       0.96875000000000000        0.0000000000000000     
   1.4687500000000000       0.96875000000000000        0.0000000000000000     
   1.5000000000000000       0.96875000000000000        0.0000000000000000     
   1.3750000000000000        1.0000000000000000        0.0000000000000000     
   1.4062500000000000        1.0000000000000000        0.0000000000000000     
   1.4375000000000000        1.0000000000000000        0.0000000000000000     
   1.4687500000000000        1.0000000000000000        0.0000000000000000     
   1.5000000000000000        1.0000000000000000        0.0000000000000000     
 </DataArray>
 </Points>
 <Cells>
 <DataArray  type="Int32"  Name="connectivity"  format="ascii">
           0           1           6           5
           1           2           7           6
           2           3           8           7
           3           4           9           8
           5           6          11          10
           6           7          12          11
           7           8          13          12
           8           9          14          13
          10          11          16          15
          11          12          17          16
          12          13          18          17
          13          14          19          18
          15          16          21          20
          16          17          22          21
          17          18          23          22
          18          19          24          23
          25          26          31          30
          26          27          32          31
          27          28          33          32
          28          29          34          33
          30          31          36          35
          31          32          37          36
          32          33          38          37
          33          34          39          38
          35          36          41          40
          36          37          42          41
          37          38          43          42
          38          39          44          43
          40          41          46          45
          41          42          47          46
          42          43          48          47
          43          44          49          48
          50          51          56          55
          51          52          57          56
          52          53          58          57
          53          54          59          58
          55          56          61          60
          56          57          62          61
          57          58          63          62
          58          59          64          63
          60          61          66          65
          61          62          67          66
          62          63          68          67
          63          64          69          68
          65          66          71          70
          66          67          72          71
          67          68          73          72
          68          69          74          73
          75          76          81          80
          76          77          82          81
          77          78          83          82
          78          79          84          83
          80          81          86          85
          81          82          87          86
          82          83          88          87
          83          84          89          88
          85          86          91          90
          86          87          92          91
          87          88          93          92
          88          89          94          93
          90          91          96          95
          91          92          97          96
          92          93          98          97
          93          94          99          98
         100         101         106         105
         101         102         107         106
         102         103         108         107
         103         104         109         108
         105         106         111         110
         106         107         112         111
         107         108         113         112
         108         109         114         113
         110         111         116         115
         111         112         117         116
         112         113         118         117
         113         114         119         118
         115         116         121         120
         116         117         122         121
         117         118         123         122
         118         119         124         123
         125         126         131         130
         126         127         132         131
         127         128         133         132
         128         129         134         133
         130         131         136         135
         131         132         137         136
         132         133         138         137
         133         134         139         138
         135         136         141         140
         136         137         142         141
         137         138         143         142
         138         139         144         143
         140         141         146         145
         141         142         147         146
         142         143         148         147
         143         144         149         148
         150         151         156         155
         151         152         157         156
         152         153         158         157
         153         154         159         158
         155         156         161         160
         156         157         162         161
         157         158         163         162
         158         159         164         163
         160         161         166         165
         161         162         167         166
         162         163         168         167
         163         164         169         168
         165         166         171         170
         166         167         172         171
         167         168         173         172
         168         169         174         173
         175         176         181         180
         176         177         182         181
         177         178         183         182
         178         179         184         183
         180         181         186         185
         181         182         187         186
         182         183         188         187
         183         184         189         188
         185         186         191         190
         186         187         192         191
         187         188         193         192
         188         189         194         193
         190         191         196         195
         191         192         197         196
         192         193         198         197
         193         194         199         198
         200         201         206         205
         201         202         207         206
         202         203         208         207
         203         204         209         208
         205         206         211         210
         206         207         212         211
         207         208         213         212
         208         209         214         213
         210         211         216         215
         211         212         217         216
         212         213         218         217
         213         214         219         218
         215         216         221         220
         216         217         222         221
         217         218         223         222
         218         219         224         223
         225         226         231         230
         226         227         232         231
         227         228         233         232
         228         229         234         233
         230         231         236         235
         231         232         237         236
         232         233         238         237
         233         234         239         238
         235         236         241         240
         236         237         242         241
         237         238         243         242
         238         239         244         243
         240         241         246         245
         241         242         247         246
         242         243         248         247
         243         244         249         248
         250         251         256         255
         251         252         257         256
         252         253         258         257
         253         254         259         258
         255         256         261         260
         256         257         262         261
         257         258         263         262
         258         259         264         263
         260         261         266         265
         261         262         267         266
         262         263         268         267
         263         264         269         268
         265         266         271         270
         266         267         272         271
         267         268         273         272
         268         269         274         273
         275         276         281         280
         276         277         282         281
         277         278         283         282
         278         279         284         283
         280         281         286         285
         281         282         287         286
         282         283         288         287
         283         284         289         288
         285         286         291         290
         286         287         292         291
         287         288         293         292
         288         289         294         293
         290         291         296         295
         291         292         297         296
         292         293         298         297
         293         294         299         298
         300         301         306         305
         301         302         307         306
         302         303         308         307
         303         304         309         308
         305         306         311         310
         306         307         312         311
         307         308         313         312
         308         309         314         313
         310         311         316         315
         311         312         317         316
         312         313         318         317
         313         314         319         318
         315         316         321         320
         316         317         322         321
         317         318         323         322
         318         319         324         323
         325         326         331         330
         326         327         332         331
         327         328         333         332
         328         329         334         333
         330         331         336         335
         331         332         337         336
         332         333         338         337
         333         334         339         338
         335         336         341         340
         336         337         342         341
         337         338         343         342
         338         339         344         343
         340         341         346         345
         341         342         347         346
         342         343         348         347
         343         344         349         348
         350         351         356         355
         351         352         357         356
         352         353         358         357
         353         354         359         358
         355         356         361         360
         356         357         362         361
         357         358         363         362
         358         359         364         363
         360         361         366         365
         361         362         367         366
         362         363         368         367
         363         364         369         368
         365         366         371         370
         366         367         372         371
         367         368         373         372
         368         369         374         373
         375         376         381         380
         376         377         382         381
         377         378         383         382
         378         379         384         383
         380         381         386         385
         381         382         387         386
         382         383         388         387
         383         384         389         388
         385         386         391         390
         386         387         392         391
         387         388         393         392
         388         389         394         393
         390         391         396         395
         391         392         397         396
         392         393         398         397
         393         394         399         398
         400         401         406         405
         401         402         407         406
         402         403         408         407
         403         404         409         408
         405         406         411         410
         406         407         412         411
         407         408         413         412
         408         409         414         413
         410         411         416         415
         411         412         417         416
         412         413         418         417
         413         414         419         418
         415         416         421         420
         416         417         422         421
         417         418         423         422
         418         419         424         423
         425         426         431         430
         426         427         432         431
         427         428         433         432
         428         429         434         433
         430         431         436         435
         431         432         437         436
         432         433         438         437
         433         434         439         438
         435         436         441         440
         436         437         442         441
         437         438         443         442
         438         439         444         443
         440         441         446         445
         441         442         447         446
         442         443         448         447
         443         444         449         448
         450         451         456         455
         451         452         457         456
         452         453         458         457
         453         454         459         458
         455         456         461         460
         456         457         462         461
         457         458         463         462
         458         459         464         463
         460         461         466         465
         461         462         467         466
         462         463         468         467
         463         464         469         468
         465         466         471         470
         466         467         472         471
         467         468         473         472
         468         469         474         473
         475         476         481         480
         476         477         482         481
         477         478         483         482
         478         479         484         483
         480         481         486         485
         481         482         487         486
         482         483         488         487
         483         484         489         488
         485         486         491         490
         486         487         492         491
         487         488         493         492
         488         489         494         493
         490         491         496         495
         491         492         497         496
         492         493         498         497
         493         494         499         498
         500         501         506         505
         501         502         507         506
         502         503         508         507
         503         504         509         508
         505         506         511         510
         506         507         512         511
         507         508         513         512
         508         509         514         513
         510         511         516         515
         511         512         517         516
         512         513         518         517
         513         514         519         518
         515         516         521         520
         516         517         522         521
         517         518         523         522
         518         519         524         523
         525         526         531         530
         526         527         532         531
         527         528         533         532
         528         529         534         533
         530         531         536         535
         531         532         537         536
         532         533         538         537
         533         534         539         538
         535         536         541         540
         536         537         542         541
         537         538         543         542
         538         539         544         543
         540         541         546         545
         541         542         547         546
         542         543         548         547
         543         544         549         548
         550         551         556         555
         551         552         557         556
         552         553         558         557
         553         554         559         558
         555         556         561         560
         556         557         562         561
         557         558         563         562
         558         559         564         563
         560         561         566         565
         561         562         567         566
         562         563         568         567
         563         564         569         568
         565         566         571         570
         566         567         572         571
         567         568         573         572
         568         569         574         573
         575         576         581         580
         576         577         582         581
         577         578         583         582
         578         579         584         583
         580         581         586         585
         581         582         587         586
         582         583         588         587
         583         584         589         588
         585         586         591         590
         586         587         592         591
         587         588         593         592
         588         589         594         593
         590         591         596         595
         591         592         597         596
         592         593         598         597
         593         594         599         598
         600         601         606         605
         601         602         607         606
         602         603         608         607
         603         604         609         608
         605         606         611         610
         606         607         612         611
         607         608         613         612
         608         609         614         613
         610         611         616         615
         611         612         617         616
         612         613         618         617
         613         614         619         618
         615         616         621         620
         616         617         622         621
         617         618         623         622
         618         619         624         623
         625         626         631         630
         626         627         632         631
         627         628         633         632
         628         629         634         633
         630         631         636         635
         631         632         637         636
         632         633         638         637
         633         634         639         638
         635         636         641         640
         636         637         642         641
         637         638         643         642
         638         639         644         643
         640         641         646         645
         641         642         647         646
         642         643         648         647
         643         644         649         648
         650         651         656         655
         651         652         657         656
         652         653         658         657
         653         654         659         658
         655         656         661         660
         656         657         662         661
         657         658         663         662
         658         659         664         663
         660         661         666         665
         661         662         667         666
         662         663         668         667
         663         664         669         668
         665         666         671         670
         666         667         672         671
         667         668         673         672
         668         669         674         673
         675         676         681         680
         676         677         682         681
         677         678         683         682
         678         679         684         683
         680         681         686         685
         681         682         687         686
         682         683         688         687
         683         684         689         688
         685         686         691         690
         686         687         692         691
         687         688         693         692
         688         689         694         693
         690         691         696         695
         691         692         697         696
         692         693         698         697
         693         694         699         698
         700         701         706         705
         701         702         707         706
         702         703         708         707
         703         704         709         708
         705         706         711         710
         706         707         712         711
         707         708         713         712
         708         709         714         713
         710         711         716         715
         711         712         717         716
         712         713         718         717
         713         714         719         718
         715         716         721         720
         716         717         722         721
         717         718         723         722
         718         719         724         723
         725         726         731         730
         726         727         732         731
         727         728         733         732
         728         729         734         733
         730         731         736         735
         731         732         737         736
         732         733         738         737
         733         734         739         738
         735         736         741         740
         736         737         742         741
         737         738         743         742
         738         739         744         743
         740         741         746         745
         741         742         747         746
         742         743         748         747
         743         744         749         748
         750         751         756         755
         751         752         757         756
         752         753         758         757
         753         754         759         758
         755         756         761         760
         756         757         762         761
         757         758         763         762
         758         759         764         763
         760         761         766         765
         761         762         767         766
         762         763         768         767
         763         764         769         768
         765         766         771         770
         766         767         772         771
         767         768         773         772
         768         769         774         773
         775         776         781         780
         776         777         782         781
         777         778         783         782
         778         779         784         783
         780         781         786         785
         781         782         787         786
         782         783         788         787
         783         784         789         788
         785         786         791         790
         786         787         792         791
         787         788         793         792
         788         789         794         793
         790         791         796         795
         791         792         797         796
         792         793         798         797
         793         794         799         798
         800         801         806         805
         801         802         807         806
         802         803         808         807
         803         804         809         808
         805         806         811         810
         806         807         812         811
         807         808         813         812
         808         809         814         813
         810         811         816         815
         811         812         817         816
         812         813         818         817
         813         814         819         818
         815         816         821         820
         816         817         822         821
         817         818         823         822
         818         819         824         823
         825         826         831         830
         826         827         832         831
         827         828         833         832
         828         829         834         833
         830         831         836         835
         831         832         837         836
         832         833         838         837
         833         834         839         838
         835         836         841         840
         836         837         842         841
         837         838         843         842
         838         839         844         843
         840         841         846         845
         841         842         847         846
         842         843         848         847
         843         844         849         848
         850         851         856         855
         851         852         857         856
         852         853         858         857
         853         854         859         858
         855         856         861         860
         856         857         862         861
         857         858         863         862
         858         859         864         863
         860         861         866         865
         861         862         867         866
         862         863         868         867
         863         864         869         868
         865         866         871         870
         866         867         872         871
         867         868         873         872
         868         869         874         873
         875         876         881         880
         876         877         882         881
         877         878         883         882
         878         879         884         883
         880         881         886         885
         881         882         887         886
         882         883         888         887
         883         884         889         888
         885         886         891         890
         886         887         892         891
         887         888         893         892
         888         889         894         893
         890         891         896         895
         891         892         897         896
         892         893         898         897
         893         894         899         898
         900         901         906         905
         901         902         907         906
         902         903         908         907
         903         904         909         908
         905         906         911         910
         906         907         912         911
         907         908         913         912
         908         909         914         913
         910         911         916         915
         911         912         917         916
         912         913         918         917
         913         914         919         918
         915         916         921         920
         916         917         922         921
         917         918         923         922
         918         919         924         923
         925         926         931         930
         926         927         932         931
         927         928         933         932
         928         929         934         933
         930         931         936         935
         931         932         937         936
         932         933         938         937
         933         934         939         938
         935         936         941         940
         936         937         942         941
         937         938         943         942
         938         939         944         943
         940         941         946         945
         941         942         947         946
         942         943         948         947
         943         944         949         948
         950         951         956         955
         951         952         957         956
         952         953         958         957
         953         954         959         958
         955         956         961         960
         956         957         962         961
         957         958         963         962
         958         959         964         963
         960         961         966         965
         961         962         967         966
         962         963         968         967
         963         964         969         968
         965         966         971         970
         966         967         972         971
         967         968         973         972
         968         969         974         973
         975         976         981         980
         976         977         982         981
         977         978         983         982
         978         979         984         983
         980         981         986         985
         981         982         987         986
         982         983         988         987
         983         984         989         988
         985         986         991         990
         986         987         992         991
         987         988         993         992
         988         989         994         993
         990         991         996         995
         991         992         997         996
         992         993         998         997
         993         994         999         998
        1000        1001        1006        1005
        1001        1002        1007        1006
        1002        1003        1008        1007
        1003        1004        1009        1008
        1005        1006        1011        1010
        1006        1007        1012        1011
        1007        1008        1013        1012
        1008        1009        1014        1013
        1010        1011        1016        1015
        1011        1012        1017        1016
        1012        1013        1018        1017
        1013        1014        1019        1018
        1015        1016        1021        1020
        1016        1017        1022        1021
        1017        1018        1023        1022
        1018        1019        1024        1023
        1025        1026        1031        1030
        1026        1027        1032        1031
        1027        1028        1033        1032
        1028        1029        1034        1033
        1030        1031        1036        1035
        1031        1032        1037        1036
        1032        1033        1038        1037
        1033        1034        1039        1038
        1035        1036        1041        1040
        1036        1037        1042        1041
        1037        1038        1043        1042
        1038        1039        1044        1043
        1040        1041        1046        1045
        1041        1042        1047        1046
        1042        1043        1048        1047
        1043        1044        1049        1048
        1050        1051        1056        1055
        1051        1052        1057        1056
        1052        1053        1058        1057
        1053        1054        1059        1058
        1055        1056        1061        1060
        1056        1057        1062        1061
        1057        1058        1063        1062
        1058        1059        1064        1063
        1060        1061        1066        1065
        1061        1062        1067        1066
        1062        1063        1068        1067
        1063        1064        1069        1068
        1065        1066        1071        1070
        1066        1067        1072        1071
        1067        1068        1073        1072
        1068        1069        1074        1073
        1075        1076        1081        1080
        1076        1077        1082        1081
        1077        1078        1083        1082
        1078        1079        1084        1083
        1080        1081        1086        1085
        1081        1082        1087        1086
        1082        1083        1088        1087
        1083        1084        1089        1088
        1085        1086        1091        1090
        1086        1087        1092        1091
        1087        1088        1093        1092
        1088        1089        1094        1093
        1090        1091        1096        1095
        1091        1092        1097        1096
        1092        1093        1098        1097
        1093        1094        1099        1098
        1100        1101        1106        1105
        1101        1102        1107        1106
        1102        1103        1108        1107
        1103        1104        1109        1108
        1105        1106        1111        1110
        1106        1107        1112        1111
        1107        1108        1113        1112
        1108        1109        1114        1113
        1110        1111        1116        1115
        1111        1112        1117        1116
        1112        1113        1118        1117
        1113        1114        1119        1118
        1115        1116        1121        1120
        1116        1117        1122        1121
        1117        1118        1123        1122
        1118        1119        1124        1123
        1125        1126        1131        1130
        1126        1127        1132        1131
        1127        1128        1133        1132
        1128        1129        1134        1133
        1130        1131        1136        1135
        1131        1132        1137        1136
        1132        1133        1138        1137
        1133        1134        1139        1138
        1135        1136        1141        1140
        1136        1137        1142        1141
        1137        1138        1143        1142
        1138        1139        1144        1143
        1140        1141        1146        1145
        1141        1142        1147        1146
        1142        1143        1148        1147
        1143        1144        1149        1148
        1150        1151        1156        1155
        1151        1152        1157        1156
        1152        1153        1158        1157
        1153        1154        1159        1158
        1155        1156        1161        1160
        1156        1157        1162        1161
        1157        1158        1163        1162
        1158        1159        1164        1163
        1160        1161        1166        1165
        1161        1162        1167        1166
        1162        1163        1168        1167
        1163        1164        1169        1168
        1165        1166        1171        1170
        1166        1167        1172        1171
        1167        1168        1173        1172
        1168        1169        1174        1173
        1175        1176        1181        1180
        1176        1177        1182        1181
        1177        1178        1183        1182
        1178        1179        1184        1183
        1180        1181        1186        1185
        1181        1182        1187        1186
        1182        1183        1188        1187
        1183        1184        1189        1188
        1185        1186        1191        1190
        1186        1187        1192        1191
        1187        1188        1193        1192
        1188        1189        1194        1193
        1190        1191        1196        1195
        1191        1192        1197        1196
        1192        1193        1198        1197
        1193        1194        1199        1198
        1200        1201        1206        1205
        1201        1202        1207        1206
        1202        1203        1208        1207
        1203        1204        1209        1208
        1205        1206        1211        1210
        1206        1207        1212        1211
        1207        1208        1213        1212
        1208        1209        1214        1213
        1210        1211        1216        1215
        1211        1212        1217        1216
        1212        1213        1218        1217
        1213        1214        1219        1218
        1215        1216        1221        1220
        1216        1217        1222        1221
        1217        1218        1223        1222
        1218        1219        1224        1223
        1225        1226        1231        1230
        1226        1227        1232        1231
        1227        1228        1233        1232
        1228        1229        1234        1233
        1230        1231        1236        1235
        1231        1232        1237        1236
        1232        1233        1238        1237
        1233        1234        1239        1238
        1235        1236        1241        1240
        1236        1237        1242        1241
        1237        1238        1243        1242
        1238        1239        1244        1243
        1240        1241        1246        1245
        1241        1242        1247        1246
        1242        1243        1248        1247
        1243        1244        1249        1248
        1250        1251        1256        1255
        1251        1252        1257        1256
        1252        1253        1258        1257
        1253        1254        1259        1258
        1255        1256        1261        1260
        1256        1257        1262        1261
        1257        1258        1263        1262
        1258        1259        1264        1263
        1260        1261        1266        1265
        1261        1262        1267        1266
        1262        1263        1268        1267
        1263        1264        1269        1268
        1265        1266        1271        1270
        1266        1267        1272        1271
        1267        1268        1273        1272
        1268        1269        1274        1273
        1275        1276        1281        1280
        1276        1277        1282        1281
        1277        1278        1283        1282
        1278        1279        1284        1283
        1280        1281        1286        1285
        1281        1282        1287        1286
        1282        1283        1288        1287
        1283        1284        1289        1288
        1285        1286        1291        1290
        1286        1287        1292        1291
        1287        1288        1293        1292
        1288        1289        1294        1293
        1290        1291        1296        1295
        1291        1292        1297        1296
        1292        1293        1298        1297
        1293        1294        1299        1298
        1300        1301        1306        1305
        1301        1302        1307        1306
        1302        1303        1308        1307
        1303        1304        1309        1308
        1305        1306        1311        1310
        1306        1307        1312        1311
        1307        1308        1313        1312
        1308        1309        1314        1313
        1310        1311        1316        1315
        1311        1312        1317        1316
        1312        1313        1318        1317
        1313        1314        1319        1318
        1315        1316        1321        1320
        1316        1317        1322        1321
        1317        1318        1323        1322
        1318        1319        1324        1323
        1325        1326        1331        1330
        1326        1327        1332        1331
        1327        1328        1333        1332
        1328        1329        1334        1333
        1330        1331        1336        1335
        1331        1332        1337        1336
        1332        1333        1338        1337
        1333        1334        1339        1338
        1335        1336        1341        1340
        1336        1337        1342        1341
        1337        1338        1343        1342
        1338        1339        1344        1343
        1340        1341        1346        1345
        1341        1342        1347        1346
        1342        1343        1348        1347
        1343        1344        1349        1348
        1350        1351        1356        1355
        1351        1352        1357        1356
        1352        1353        1358        1357
        1353        1354        1359        1358
        1355        1356        1361        1360
        1356        1357        1362        1361
        1357        1358        1363        1362
        1358        1359        1364        1363
        1360        1361        1366        1365
        1361        1362        1367        1366
        1362        1363        1368        1367
        1363        1364        1369        1368
        1365        1366        1371        1370
        1366        1367        1372        1371
        1367        1368        1373        1372
        1368        1369        1374        1373
        1375        1376        1381        1380
        1376        1377        1382        1381
        1377        1378        1383        1382
        1378        1379        1384        1383
        1380        1381        1386        1385
        1381        1382        1387        1386
        1382        1383        1388        1387
        1383        1384        1389        1388
        1385        1386        1391        1390
        1386        1387        1392        1391
        1387        1388        1393        1392
        1388        1389        1394        1393
        1390        1391        1396        1395
        1391        1392        1397        1396
        1392        1393        1398        1397
        1393        1394        1399        1398
        1400        1401        1406        1405
        1401        1402        1407        1406
        1402        1403        1408        1407
        1403        1404        1409        1408
        1405        1406        1411        1410
        1406        1407        1412        1411
        1407        1408        1413        1412
        1408        1409        1414        1413
        1410        1411        1416        1415
        1411        1412        1417        1416
        1412        1413        1418        1417
        1413        1414        1419        1418
        1415        1416        1421        1420
        1416        1417        1422        1421
        1417        1418        1423        1422
        1418        1419        1424        1423
        1425        1426        1431        1430
        1426        1427        1432        1431
        1427        1428        1433        1432
        1428        1429        1434        1433
        1430        1431        1436        1435
        1431        1432        1437        1436
        1432        1433        1438        1437
        1433        1434        1439        1438
        1435        1436        1441        1440
        1436        1437        1442        1441
        1437        1438        1443        1442
        1438        1439        1444        1443
        1440        1441        1446        1445
        1441        1442        1447        1446
        1442        1443        1448        1447
        1443        1444        1449        1448
        1450        1451        1456        1455
        1451        1452        1457        1456
        1452        1453        1458        1457
        1453        1454        1459        1458
        1455        1456        1461        1460
        1456        1457        1462        1461
        1457        1458        1463        1462
        1458        1459        1464        1463
        1460        1461        1466        1465
        1461        1462        1467        1466
        1462        1463        1468        1467
        1463        1464        1469        1468
        1465        1466        1471        1470
        1466        1467        1472        1471
        1467        1468        1473        1472
        1468        1469        1474        1473
        1475        1476        1481        1480
        1476        1477        1482        1481
        1477        1478        1483        1482
        1478        1479        1484        1483
        1480        1481        1486        1485
        1481        1482        1487        1486
        1482        1483        1488        1487
        1483        1484        1489        1488
        1485        1486        1491        1490
        1486        1487        1492        1491
        1487        1488        1493        1492
        1488        1489        1494        1493
        1490        1491        1496        1495
        1491        1492        1497        1496
        1492        1493        1498        1497
        1493        1494        1499        1498
        1500        1501        1506        1505
        1501        1502        1507        1506
        1502        1503        1508        1507
        1503        1504        1509        1508
        1505        1506        1511        1510
        1506        1507        1512        1511
        1507        1508        1513        1512
        1508        1509        1514        1513
        1510        1511        1516        1515
        1511        1512        1517        1516
        1512        1513        1518        1517
        1513        1514        1519        1518
        1515        1516        1521        1520
        1516        1517        1522        1521
        1517        1518        1523        1522
        1518        1519        1524        1523
        1525        1526        1531        1530
        1526        1527        1532        1531
        1527        1528        1533        1532
        1528        1529        1534        1533
        1530        1531        1536        1535
        1531        1532        1537        1536
        1532        1533        1538        1537
        1533        1534        1539        1538
        1535        1536        1541        1540
        1536        1537        1542        1541
        1537        1538        1543        1542
        1538        1539        1544        1543
        1540        1541        1546        1545
        1541        1542        1547        1546
        1542        1543        1548        1547
        1543        1544        1549        1548
        1550        1551        1556        1555
        1551        1552        1557        1556
        1552        1553        1558        1557
        1553        1554        1559        1558
        1555        1556        1561        1560
        1556        1557        1562        1561
        1557        1558        1563        1562
        1558        1559        1564        1563
        1560        1561        1566        1565
        1561        1562        1567        1566
        1562        1563        1568        1567
        1563        1564        1569        1568
        1565        1566        1571        1570
        1566        1567        1572        1571
        1567        1568        1573        1572
        1568        1569        1574        1573
        1575        1576        1581        1580
        1576        1577        1582        1581
        1577        1578        1583        1582
        1578        1579        1584        1583
        1580        1581        1586        1585
        1581        1582        1587        1586
        1582        1583        1588        1587
        1583        1584        1589        1588
        1585        1586        1591        1590
        1586        1587        1592        1591
        1587        1588        1593        1592
        1588        1589        1594        1593
        1590        1591        1596        1595
        1591        1592        1597        1596
        1592        1593        1598        1597
        1593        1594        1599        1598
 </DataArray>
 <DataArray  type="Int32"  Name="offsets"  format="ascii"> 
           4
           8
          12
          16
          20
          24
          28
          32
          36
          40
          44
          48
          52
          56
          60
          64
          68
          72
          76
          80
          84
          88
          92
          96
         100
         104
         108
         112
         116
         120
         124
         128
         132
         136
         140
         144
         148
         152
         156
         160
         164
         168
         172
         176
         180
         184
         188
         192
         196
         200
         204
         208
         212
         216
         220
         224
         228
         232
         236
         240
         244
         248
         252
         256
         260
         264
         268
         272
         276
         280
         284
         288
         292
         296
         300
         304
         308
         312
         316
         320
         324
         328
         332
         336
         340
         344
         348
         352
         356
         360
         364
         368
         372
         376
         380
         384
         388
         392
         396
         400
         404
         408
         412
         416
         420
         424
         428
         432
         436
         440
         444
         448
         452
         456
         460
         464
         468
         472
         476
         480
         484
         488
         492
         496
         500
         504
         508
         512
         516
         520
         524
         528
         532
         536
         540
         544
         548
         552
         556
         560
         564
         568
         572
         576
         580
         584
         588
         592
         596
         600
         604
         608
         612
         616
         620
         624
         628
         632
         636
         640
         644
         648
         652
         656
         660
         664
         668
         672
         676
         680
         684
         688
         692
         696
         700
         704
         708
         712
         716
         720
         724
         728
         732
         736
         740
         744
         748
         752
         756
         760
         764
         768
         772
         776
         780
         784
         788
         792
         796
         800
         804
         808
         812
         816
         820
         824
         828
         832
         836
         840
         844
         848
         852
         856
         860
         864
         868
         872
         876
         880
         884
         888
         892
         896
         900
         904
         908
         912
         916
         920
         924
         928
         932
         936
         940
         944
         948
         952
         956
         960
         964
         968
         972
         976
         980
         984
         988
         992
         996
        1000
        1004
        1008
        1012
        1016
        1020
        1024
        1028
        1032
        1036
        1040
        1044
        1048
        1052
        1056
        1060
        1064
        1068
        1072
        1076
        1080
        1084
        1088
        1092
        1096
        1100
        1104
        1108
        1112
        1116
        1120
        1124
        1128
        1132
        1136
        1140
        1144
        1148
        1152
        1156
        1160
        1164
        1168
        1172
        1176
        1180
        1184
        1188
        1192
        1196
        1200
        1204
        1208
        1212
        1216
        1220
        1224
        1228
        1232
        1236
        1240
        1244
        1248
        1252
        1256
        1260
        1264
        1268
        1272
        1276
        1280
        1284
        1288
        1292
        1296
        1300
        1304
        1308
        1312
        1316
        1320
        1324
        1328
        1332
        1336
        1340
        1344
        1348
        1352
        1356
        1360
        1364
        1368
        1372
        1376
        1380
        1384
        1388
        1392
        1396
        1400
        1404
        1408
        1412
        1416
        1420
        1424
        1428
        1432
        1436
        1440
        1444
        1448
        1452
        1456
        1460
        1464
        1468
        1472
        1476
        1480
        1484
        1488
        1492
        1496
        1500
        1504
        1508
        1512
        1516
        1520
        1524
        1528
        1532
        1536
        1540
        1544
        1548
        1552
        1556
        1560
        1564
        1568
        1572
        1576
        1580
        1584
        1588
        1592
        1596
        1600
        1604
        1608
        1612
        1616
        1620
        1624
        1628
        1632
        1636
        1640
        1644
        1648
        1652
        1656
        1660
        1664
        1668
        1672
        1676
        1680
        1684
        1688
        1692
        1696
        1700
        1704
        1708
        1712
        1716
        1720
        1724
        1728
        1732
        1736
        1740
        1744
        1748
        1752
        1756
        1760
        1764
        1768
        1772
        1776
        1780
        1784
        1788
        1792
        1796
        1800
        1804
        1808
        1812
        1816
        1820
        1824
        1828
        1832
        1836
        1840
        1844
        1848
        1852
        1856
        1860
        1864
        1868
        1872
        1876
        1880
        1884
        1888
        1892
        1896
        1900
        1904
        1908
        1912
        1916
        1920
        1924
        1928
        1932
        1936
        1940
        1944
        1948
        1952
        1956
        1960
        1964
        1968
        1972
        1976
        1980
        1984
        1988
        1992
        1996
        2000
        2004
        2008
        2012
        2016
        2020
        2024
        2028
        2032
        2036
        2040
        2044
        2048
        2052
        2056
        2060
        2064
        2068
        2072
        2076
        2080
        2084
        2088
        2092
        2096
        2100
        2104
        2108
        2112
        2116
        2120
        2124
        2128
        2132
        2136
        2140
        2144
        2148
        2152
        2156
        2160
        2164
        2168
        2172
        2176
        2180
        2184
        2188
        2192
        2196
        2200
        2204
        2208
        2212
        2216
        2220
        2224
        2228
        2232
        2236
        2240
        2244
        2248
        2252
        2256
        2260
        2264
        2268
        2272
        2276
        2280
        2284
        2288
        2292
        2296
        2300
        2304
        2308
        2312
        2316
        2320
        2324
        2328
        2332
        2336
        2340
        2344
        2348
        2352
        2356
        2360
        2364
        2368
        2372
        2376
        2380
        2384
        2388
        2392
        2396
        2400
        2404
        2408
        2412
        2416
        2420
        2424
        2428
        2432
        2436
        2440
        2444
        2448
        2452
        2456
        2460
        2464
        2468
        2472
        2476
        2480
        2484
        2488
        2492
        2496
        2500
        2504
        2508
        2512
        2516
        2520
        2524
        2528
        2532
        2536
        2540
        2544
        2548
        2552
        2556
        2560
        2564
        2568
        2572
        2576
        2580
        2584
        2588
        2592
        2596
        2600
        2604
        2608
        2612
        2616
        2620
        2624
        2628
        2632
        2636
        2640
        2644
        2648
        2652
        2656
        2660
        2664
        2668
        2672
        2676
        2680
        2684
        2688
        2692
        2696
        2700
        2704
        2708
        2712
        2716
        2720
        2724
        2728
        2732
        2736
        2740
        2744
        2748
        2752
        2756
        2760
        2764
        2768
        2772
        2776
        2780
        2784
        2788
        2792
        2796
        2800
        2804
        2808
        2812
        2816
        2820
        2824
        2828
        2832
        2836
        2840
        2844
        2848
        2852
        2856
        2860
        2864
        2868
        2872
        2876
        2880
        2884
        2888
        2892
        2896
        2900
        2904
        2908
        2912
        2916
        2920
        2924
        2928
        2932
        2936
        2940
        2944
        2948
        2952
        2956
        2960
        2964
        2968
        2972
        2976
        2980
        2984
        2988
        2992
        2996
        3000
        3004
        3008
        3012
        3016
        3020
        3024
        3028
        3032
        3036
        3040
        3044
        3048
        3052
        3056
        3060
        3064
        3068
        3072
        3076
        3080
        3084
        3088
        3092
        3096
        3100
        3104
        3108
        3112
        3116
        3120
        3124
        3128
        3132
        3136
        3140
        3144
        3148
        3152
        3156
        3160
        3164
        3168
        3172
        3176
        3180
        3184
        3188
        3192
        3196
        3200
        3204
        3208
        3212
        3216
        3220
        3224
        3228
        3232
        3236
        3240
        3244
        3248
        3252
        3256
        3260
        3264
        3268
        3272
        3276
        3280
        3284
        3288
        3292
        3296
        3300
        3304
        3308
        3312
        3316
        3320
        3324
        3328
        3332
        3336
        3340
        3344
        3348
        3352
        3356
        3360
        3364
        3368
        3372
        3376
        3380
        3384
        3388
        3392
        3396
        3400
        3404
        3408
        3412
        3416
        3420
        3424
        3428
        3432
        3436
        3440
        3444
        3448
        3452
        3456
        3460
        3464
        3468
        3472
        3476
        3480
        3484
        3488
        3492
        3496
        3500
        3504
        3508
        3512
        3516
        3520
        3524
        3528
        3532
        3536
        3540
        3544
        3548
        3552
        3556
        3560
        3564
        3568
        3572
        3576
        3580
        3584
        3588
        3592
        3596
        3600
        3604
        3608
        3612
        3616
        3620
        3624
        3628
        3632
        3636
        3640
        3644
        3648
        3652
        3656
        3660
        3664
        3668
        3672
        3676
        3680
        3684
        3688
        3692
        3696
        3700
        3704
        3708
        3712
        3716
        3720
        3724
        3728
        3732
        3736
        3740
        3744
        3748
        3752
        3756
        3760
        3764
        3768
        3772
        3776
        3780
        3784
        3788
        3792
        3796
        3800
        3804
        3808
        3812
        3816
        3820
        3824
        3828
        3832
        3836
        3840
        3844
        3848
        3852
        3856
        3860
        3864
        3868
        3872
        3876
        3880
        3884
        3888
        3892
        3896
        3900
        3904
        3908
        3912
        3916
        3920
        3924
        3928
        3932
        3936
        3940
        3944
        3948
        3952
        3956
        3960
        3964
        3968
        3972
        3976
        3980
        3984
        3988
        3992
        3996
        4000
        4004
        4008
        4012
        4016
        4020
        4024
        4028
        4032
        4036
        4040
        4044
        4048
        4052
        4056
        4060
        4064
        4068
        4072
        4076
        4080
        4084
        4088
        4092
        4096
 </DataArray>
 <DataArray  type="UInt8"  Name="types"  format="ascii">
 9
 9
 9
 9
 9
 9
 9
 9
 9
 9
 9
 9
 9
 9
 9
 9
 9
 9
 9
 9
 9
 9
 9
 9
 9
 9
 9
 9
 9
 9
 9
 9
 9
 9
 9
 9
 9
 9
 9
 9
 9
 9
 9
 9
 9
 9
 9
 9
 9
 9
 9
 9
 9
 9
 9
 9
 9
 9
 9
 9
 9
 9
 9
 9
 9
 9
 9
 9
 9
 9
 9
 9
 9
 9
 9
 9
 9
 9
 9
 9
 9
 9
 9
 9
 9
 9
 9
 9
 9
 9
 9
 9
 9
 9
 9
 9
 9
 9
 9
 9
 9
 9
 9
 9
 9
 9
 9
 9
 9
 9
 9
 9
 9
 9
 9
 9
 9
 9
 9
 9
 9
 9
 9
 9
 9
 9
 9
 9
 9
 9
 9
 9
 9
 9
 9
 9
 9
 9
 9
 9
 9
 9
 9
 9
 9
 9
 9
 9
 9
 9
 9
 9
 9
 9
 9
 9
 9
 9
 9
 9
 9
 9
 9
 9
 9
 9
 9
 9
 9
 9
 9
 9
 9
 9
 9
 9
 9
 9
 9
 9
 9
 9
 9
 9
 9
 9
 9
 9
 9
 9
 9
 9
 9
 9
 9
 9
 9
 9
 9
 9
 9
 9
 9
 9
 9
 9
 9
 9
 9
 9
 9
 9
 9
 9
 9
 9
 9
 9
 9
 9
 9
 9
 9
 9
 9
 9
 9
 9
 9
 9
 9
 9
 9
 9
 9
 9
 9
 9
 9
 9
 9
 9
 9
 9
 9
 9
 9
 9
 9
 9
 9
 9
 9
 9
 9
 9
 9
 9
 9
 9
 9
 9
 9
 9
 9
 9
 9
 9
 9
 9
 9
 9
 9
 9
 9
 9
 9
 9
 9
 9
 9
 9
 9
 9
 9
 9
 9
 9
 9
 9
 9
 9
 9
 9
 9
 9
 9
 9
 9
 9
 9
 9
 9
 9
 9
 9
 9
 9
 9
 9
 9
 9
 9
 9
 9
 9
 9
 9
 9
 9
 9
 9
 9
 9
 9
 9
 9
 9
 9
 9
 9
 9
 9
 9
 9
 9
 9
 9
 9
 9
 9
 9
 9
 9
 9
 9
 9
 9
 9
 9
 9
 9
 9
 9
 9
 9
 9
 9
 9
 9
 9
 9
 9
 9
 9
 9
 9
 9
 9
 9
 9
 9
 9
 9
 9
 9
 9
 9
 9
 9
 9
 9
 9
 9
 9
 9
 9
 9
 9
 9
 9
 9
 9
 9
 9
 9
 9
 9
 9
 9
 9
 9
 9
 9
 9
 9
 9
 9
 9
 9
 9
 9
 9
 9
 9
 9
 9
 9
 9
 9
 9
 9
 9
 9
 9
 9
 9
 9
 9
 9
 9
 9
 9
 9
 9
 9
 9
 9
 9
 9
 9
 9
 9
 9
 9
 9
 9
 9
 9
 9
 9
 9
 9
 9
 9
 9
 9
 9
 9
 9
 9
 9
 9
 9
 9
 9
 9
 9
 9
 9
 9
 9
 9
 9
 9
 9
 9
 9
 9
 9
 9
 9
 9
 9
 9
 9
 9
 9
 9
 9
 9
 9
 9
 9
 9
 9
 9
 9
 9
 9
 9
 9
 9
 9
 9
 9
 9
 9
 9
 9
 9
 9
 9
 9
 9
 9
 9
 9
 9
 9
 9
 9
 9
 9
 9
 9
 9
 9
 9
 9
 9
 9
 9
 9
 9
 9
 9
 9
 9
 9
 9
 9
 9
 9
 9
 9
 9
 9
 9
 9
 9
 9
 9
 9
 9
 9
 9
 9
 9
 9
 9
 9
 9
 9
 9
 9
 9
 9
 9
 9
 9
 9
 9
 9
 9
 9
 9
 9
 9
 9
 9
 9
 9
 9
 9
 9
 9
 9
 9
 9
 9
 9
 9
 9
 9
 9
 9
 9
 9
 9
 9
 9
 9
 9
 9
 9
 9
 9
 9
 9
 9
 9
 9
 9
 9
 9
 9
 9
 9
 9
 9
 9
 9
 9
 9
 9
 9
 9
 9
 9
 9
 9
 9
 9
 9
 9
 9
 9
 9
 9
 9
 9
 9
 9
 9
 9
 9
 9
 9
 9
 9
 9
 9
 9
 9
 9
 9
 9
 9
 9
 9
 9
 9
 9
 9
 9
 9
 9
 9
 9
 9
 9
 9
 9
 9
 9
 9
 9
 9
 9
 9
 9
 9
 9
 9
 9
 9
 9
 9
 9
 9
 9
 9
 9
 9
 9
 9
 9
 9
 9
 9
 9
 9
 9
 9
 9
 9
 9
 9
 9
 9
 9
 9
 9
 9
 9
 9
 9
 9
 9
 9
 9
 9
 9
 9
 9
 9
 9
 9
 9
 9
 9
 9
 9
 9
 9
 9
 9
 9
 9
 9
 9
 9
 9
 9
 9
 9
 9
 9
 9
 9
 9
 9
 9
 9
 9
 9
 9
 9
 9
 9
 9
 9
 9
 9
 9
 9
 9
 9
 9
 9
 9
 9
 9
 9
 9
 9
 9
 9
 9
 9
 9
 9
 9
 9
 9
 9
 9
 9
 9
 9
 9
 9
 9
 9
 9
 9
 9
 9
 9
 9
 9
 9
 9
 9
 9
 9
 9
 9
 9
 9
 9
 9
 9
 9
 9
 9
 9
 9
 9
 9
 9
 9
 9
 9
 9
 9
 9
 9
 9
 9
 9
 9
 9
 9
 9
 9
 9
 9
 9
 9
 9
 9
 9
 9
 9
 9
 9
 9
 9
 9
 9
 9
 9
 9
 9
 9
 9
 9
 9
 9
 9
 9
 9
 9
 9
 9
 9
 9
 9
 9
 9
 9
 9
 9
 9
 9
 9
 9
 9
 9
 9
 9
 9
 9
 9
 9
 9
 9
 9
 9
 9
 9
 9
 9
 9
 9
 9
 9
 9
 9
 9
 9
 9
 9
 9
 9
 9
 9
 9
 9
 9
 9
 9
 9
 9
 9
 9
 9
 9
 9
 9
 9
 9
 9
 9
 9
 9
 9
 9
 9
 9
 9
 9
 9
 9
 9
 9
 9
 9
 9
 9
 9
 9
 9
 9
 9
 9
 9
 9
 9
 9
 9
 9
 9
 9
 9
 9
 9
 9
 9
 9
 9
 9
 9
 9
 9
 9
 9
 9
 9
 9
 9
 9
 9
 9
 9
 9
 9
 9
 9
 9
 9
 9
 9
 9
 9
 9
 9
 9
 9
 9
 9
 9
 9
 9
 9
 9
 9
 9
 9
 9
 9
 9
 9
 9
 9
 9
 9
 9
 9
 9
 9
 9
 9
 9
 9
 9
 9
 9
 9
 9
 9
 9
 </DataArray>
 </Cells> 
 <PointData>
 <DataArray  type="Float64" Name="disp" NumberOfComponents="3" format="ascii">
   6.5581645352754736E-002   6.2571334534550729E-002   0.0000000000000000     
   6.9692863140372180E-002   6.8251372259459098E-002   0.0000000000000000     
   7.3198272332084174E-002   7.3981889829625114E-002   0.0000000000000000     
   7.6097872927890720E-002   7.9762887245048777E-002   0.0000000000000000     
   7.8391664927791788E-002   8.5594364505730131E-002   0.0000000000000000     
   5.9133544030930657E-002   6.1570166756643577E-002   0.0000000000000000     
   6.3508862078947209E-002   6.7358023794773639E-002   0.0000000000000000     
   6.7161627585304584E-002   7.3177122730035640E-002   0.0000000000000000     
   7.0091840550002782E-002   7.9027463562429554E-002   0.0000000000000000     
   7.2299500973041803E-002   8.4909046291955406E-002   0.0000000000000000     
   5.3393438900267709E-002   6.0632912976439982E-002   0.0000000000000000     
   5.7816800326688483E-002   6.6526256732502675E-002   0.0000000000000000     
   6.1465845415445558E-002   7.2427006748333120E-002   0.0000000000000000     
   6.4340574166538933E-002   7.8335163023931328E-002   0.0000000000000000     
   6.6440986579968581E-002   8.4250725559297288E-002   0.0000000000000000     
   4.8361329960765892E-002   5.9759573193939965E-002   0.0000000000000000     
   5.2616677883596003E-002   6.5756071072646194E-002   0.0000000000000000     
   5.6110925822507082E-002   7.1731541884517580E-002   0.0000000000000000     
   5.8844073777499138E-002   7.7685985629554116E-002   0.0000000000000000     
   6.0816121748572163E-002   8.3619402307755775E-002   0.0000000000000000     
   4.4037217212425206E-002   5.8950147409143519E-002   0.0000000000000000     
   4.7908494749669774E-002   6.5047466815204222E-002   0.0000000000000000     
   5.1096868806489171E-002   7.1090728138589021E-002   0.0000000000000000     
   5.3602339382883425E-002   7.7079931379297917E-002   0.0000000000000000     
   5.5424906478852523E-002   8.3015076537330909E-002   0.0000000000000000     
   7.8391664927791788E-002   8.5594364505730131E-002   0.0000000000000000     
   8.0438277312831707E-002   9.1562038689003131E-002   0.0000000000000000     
   8.2596339064054752E-002   9.7751626872201791E-002   0.0000000000000000     
   8.4865850181460908E-002  0.10416312905532611        0.0000000000000000     
   8.7246810665050217E-002  0.11079654523837611        0.0000000000000000     
   7.2299500973041803E-002   8.4909046291955406E-002   0.0000000000000000     
   7.4202299430840599E-002   9.0909464374617027E-002   0.0000000000000000     
   7.6217926499818178E-002   9.7116311266418273E-002   0.0000000000000000     
   7.8346382179974472E-002  0.10352958696735912        0.0000000000000000     
   8.0587666471309549E-002  0.11014929147743957        0.0000000000000000     
   6.6440986579968581E-002   8.4250725559297288E-002   0.0000000000000000     
   6.8209219396313553E-002   9.0270084367466780E-002   0.0000000000000000     
   7.0087409356152819E-002   9.6489629461475490E-002   0.0000000000000000     
   7.2075556459486392E-002  0.10290936084132349        0.0000000000000000     
   7.4173660706314246E-002  0.10952927850701075        0.0000000000000000     
   6.0816121748572163E-002   8.3619402307755775E-002   0.0000000000000000     
   6.2459037209250556E-002   8.9643898667552346E-002   0.0000000000000000     
   6.4204787633058716E-002   9.5871581457373498E-002   0.0000000000000000     
   6.6053373019996628E-002  0.10230245067721924        0.0000000000000000     
   6.8004793370064306E-002  0.10893650632708959        0.0000000000000000     
   5.5424906478852523E-002   8.3015076537330909E-002   0.0000000000000000     
   5.6951752869651609E-002   8.9030907274873769E-002   0.0000000000000000     
   5.8570061330535841E-002   9.5262167254112254E-002   0.0000000000000000     
   6.0279831861505213E-002  0.10170885647504639        0.0000000000000000     
   6.2081064462559725E-002  0.10837097493767614        0.0000000000000000     
   8.7246810665050217E-002  0.11079654523837611        0.0000000000000000     
   8.9632272089853637E-002  0.11760083322754422        0.0000000000000000     
   9.1915286030902210E-002  0.12452495082902296        0.0000000000000000     
   9.4095852488195908E-002  0.13156889804281230        0.0000000000000000     
   9.6173971461734731E-002  0.13873267486891222        0.0000000000000000     
   8.0587666471309549E-002  0.11014929147743957        0.0000000000000000     
   8.2838046693777340E-002  0.11694100307473218        0.0000000000000000     
   8.4993790167331787E-002  0.12387030003730944        0.0000000000000000     
   8.7054896891972919E-002  0.13093718236517138        0.0000000000000000     
   8.9021366867700708E-002  0.13814165005831797        0.0000000000000000     
   7.4173660706314246E-002  0.10952927850701075        0.0000000000000000     
   7.6282900998905112E-002  0.11632353430089387        0.0000000000000000     
   7.8304456239527628E-002  0.12326628006532947        0.0000000000000000     
   8.0238326428181808E-002  0.13035751580031757        0.0000000000000000     
   8.2084511564867665E-002  0.13759724150585820        0.0000000000000000     
   6.8004793370064306E-002  0.10893650632708959        0.0000000000000000     
   6.9966835005236955E-002  0.11574842690602928        0.0000000000000000     
   7.1847284247489707E-002  0.12271289091308306        0.0000000000000000     
   7.3646141096822604E-002  0.12982989834825093        0.0000000000000000     
   7.5363405553235632E-002  0.13709944921153289        0.0000000000000000     
   6.2081064462559725E-002  0.10837097493767614        0.0000000000000000     
   6.3889848712772854E-002  0.11521568089013844        0.0000000000000000     
   6.5622274191218036E-002  0.12221013258057022        0.0000000000000000     
   6.7278340897895292E-002  0.12935433000897145        0.0000000000000000     
   6.8858048832804594E-002  0.13664827317534217        0.0000000000000000     
   9.6173971461734731E-002  0.13873267486891222        0.0000000000000000     
   9.8137233351303296E-002  0.14600694630880007        0.0000000000000000     
   9.9973228556686181E-002  0.15338237736395302        0.0000000000000000     
  0.10168195707788340       0.16085896803437114        0.0000000000000000     
  0.10326341891489495       0.16843671832005444        0.0000000000000000     
   8.9021366867700708E-002  0.13814165005831797        0.0000000000000000     
   9.0879205931315862E-002  0.14546187427711932        0.0000000000000000     
   9.2614419919619148E-002  0.15287602618194562        0.0000000000000000     
   9.4227008832610565E-002  0.16038410577279685        0.0000000000000000     
   9.5716972670290085E-002  0.16798611304967298        0.0000000000000000     
   8.2084511564867665E-002  0.13759724150585820        0.0000000000000000     
   8.3828460102932226E-002  0.14495578649188631        0.0000000000000000     
   8.5455620495722584E-002  0.15240348006833698        0.0000000000000000     
   8.6965992743238713E-002  0.15994032223521024        0.0000000000000000     
   8.8359576845480611E-002  0.16756631299250602        0.0000000000000000     
   7.5363405553235632E-002  0.13709944921153289        0.0000000000000000     
   7.6984995866152373E-002  0.14448868295310099        0.0000000000000000     
   7.8496830284996461E-002  0.15196473902312710        0.0000000000000000     
   7.9898908809767841E-002  0.15952761742161134        0.0000000000000000     
   8.1191231440466527E-002  0.16717731814855366        0.0000000000000000     
   6.8858048832804594E-002  0.13664827317534217        0.0000000000000000     
   7.0348813220976303E-002  0.14406056366076336        0.0000000000000000     
   7.1738049287440750E-002  0.15155980304631603        0.0000000000000000     
   7.3025757032197935E-002  0.15914599133200016        0.0000000000000000     
   7.4211936455247832E-002  0.16681912851781580        0.0000000000000000     
  0.10326341891489495       0.16843671832005444        0.0000000000000000     
  0.10474925770237324       0.17611287724887353        0.0000000000000000     
  0.10617111707497066       0.18388469384869915        0.0000000000000000     
  0.10752899703268726       0.19175216811953127        0.0000000000000000     
  0.10882289757552301       0.19971530006136989        0.0000000000000000     
   9.5716972670290085E-002  0.16798611304967298        0.0000000000000000     
   9.7113106473405694E-002  0.17568352787143837        0.0000000000000000     
   9.8444205282705352E-002  0.18347783009695742        0.0000000000000000     
   9.9710269098189072E-002  0.19136901972623008        0.0000000000000000     
  0.10091129791985688       0.19935709675925631        0.0000000000000000     
   8.8359576845480611E-002  0.16756631299250602        0.0000000000000000     
   8.9662258302169673E-002  0.17528567495673256        0.0000000000000000     
   9.0899922613027290E-002  0.18310263074439798        0.0000000000000000     
   9.2072569778053434E-002  0.19101718035550225        0.0000000000000000     
   9.3180199797248134E-002  0.19902932379004540        0.0000000000000000     
   8.1191231440466527E-002  0.16717731814855366        0.0000000000000000     
   8.2396713188665177E-002  0.17491931850475617        0.0000000000000000     
   8.3538269065936435E-002  0.18275909579102087        0.0000000000000000     
   8.4615899072280315E-002  0.19069665000734798        0.0000000000000000     
   8.5629603207696775E-002  0.19873198115373719        0.0000000000000000     
   7.4211936455247832E-002  0.16681912851781580        0.0000000000000000     
   7.5316471132892221E-002  0.17458445851550908        0.0000000000000000     
   7.6359244641432844E-002  0.18244722523682613        0.0000000000000000     
   7.7340256980869715E-002  0.19040742868176699        0.0000000000000000     
   7.8259508151202833E-002  0.19846506885033166        0.0000000000000000     
  0.10882289757552301       0.19971530006136989        0.0000000000000000     
  0.11004425286848804       0.20776513618118866        0.0000000000000000     
  0.11118449707659248       0.21589272298596113        0.0000000000000000     
  0.11224363019983633       0.22409806047568739        0.0000000000000000     
  0.11322165223821959       0.23238114865036735        0.0000000000000000     
  0.10091129791985688       0.19935709675925631        0.0000000000000000     
  0.10204072956033049       0.20743086121225363        0.0000000000000000     
  0.10309200183223170       0.21557911310143937        0.0000000000000000     
  0.10406511473556053       0.22380185242681361        0.0000000000000000     
  0.10496006827031693       0.23209907918837633        0.0000000000000000     
   9.3180199797248134E-002  0.19902932379004540        0.0000000000000000     
   9.4217088936485713E-002  0.20712660251261880        0.0000000000000000     
   9.5177513461640537E-002  0.21529655798781375        0.0000000000000000     
   9.6061473372712605E-002  0.22353919021563026        0.0000000000000000     
   9.6868968669701891E-002  0.23185449919606832        0.0000000000000000     
   8.5629603207696775E-002  0.19873198115373719        0.0000000000000000     
   8.6573330996953732E-002  0.20685236008228416        0.0000000000000000     
   8.7441031964818991E-002  0.21504505764508414        0.0000000000000000     
   8.8232706111292594E-002  0.22331007384213727        0.0000000000000000     
   8.8948353436374528E-002  0.23164740867344338        0.0000000000000000     
   7.8259508151202833E-002  0.19846506885033166        0.0000000000000000     
   7.9109455741734488E-002  0.20660813392124966        0.0000000000000000     
   7.9882557341767038E-002  0.21482461207325068        0.0000000000000000     
   8.0578812951300469E-002  0.22311450330633464        0.0000000000000000     
   8.1198222570334794E-002  0.23147780762050149        0.0000000000000000     
  0.11322165223821959       0.23238114865036735        0.0000000000000000     
  0.11415071640777277       0.24076139580456751        0.0000000000000000     
  0.11506297592452640       0.24925821023285441        0.0000000000000000     
  0.11595843078848046       0.25787159193522807        0.0000000000000000     
  0.11683708099963497       0.26660154091168836        0.0000000000000000     
  0.10496006827031693       0.23209907918837633        0.0000000000000000     
  0.10578516655299952       0.24049631304866259        0.0000000000000000     
  0.10654871370010695       0.24901907367020745        0.0000000000000000     
  0.10725070971163916       0.25766736105301102        0.0000000000000000     
  0.10789115458759624       0.26644117519707322        0.0000000000000000     
   9.6868968669701891E-002  0.23185449919606832        0.0000000000000000     
   9.7593594007932050E-002  0.24027041954003206        0.0000000000000000     
   9.8228944042726654E-002  0.24881488585842551        0.0000000000000000     
   9.8775018774085704E-002  0.25748789815124873        0.0000000000000000     
   9.9231818202009228E-002  0.26628945641850166        0.0000000000000000     
   8.8948353436374528E-002  0.23164740867344338        0.0000000000000000     
   8.9575998772570303E-002  0.24008371527867609        0.0000000000000000     
   9.0103666952385475E-002  0.24864564679750864        0.0000000000000000     
   9.0531357975820029E-002  0.25733320322994119        0.0000000000000000     
   9.0859071842873965E-002  0.26614638457597367        0.0000000000000000     
   8.1198222570334794E-002  0.23147780762050149        0.0000000000000000     
   8.1732380846914338E-002  0.23993620026459450        0.0000000000000000     
   8.2172882429083466E-002  0.24851135648745676        0.0000000000000000     
   8.2519727316842151E-002  0.25720327628908829        0.0000000000000000     
   8.2772915510190406E-002  0.26601195966948915        0.0000000000000000     
  0.11683708099963497       0.26660154091168836        0.0000000000000000     
  0.11763771843342834       0.27561134352982442        0.0000000000000000     
  0.11829913496529901       0.28506428615722512        0.0000000000000000     
  0.11882133059524698       0.29496036879389070        0.0000000000000000     
  0.11920430532327222       0.30529959143982094        0.0000000000000000     
  0.10789115458759624       0.26644117519707322        0.0000000000000000     
  0.10845004157271063       0.27547197292819819        0.0000000000000000     
  0.10890736391171489       0.28489121107219006        0.0000000000000000     
  0.10926312160460906       0.29469888962904872        0.0000000000000000     
  0.10951731465139308       0.30489500859877428        0.0000000000000000     
   9.9231818202009228E-002  0.26628945641850166        0.0000000000000000     
   9.9609684661960032E-002  0.27531758886304603        0.0000000000000000     
   9.9918960489400951E-002  0.28467032368774348        0.0000000000000000     
  0.10015964568433193       0.29434766089259395        0.0000000000000000     
  0.10033174024675301       0.30434960047759763        0.0000000000000000     
   9.0859071842873965E-002  0.26614638457597367        0.0000000000000000     
   9.1116647701176542E-002  0.27514819133436774        0.0000000000000000     
   9.1333924698357091E-002  0.28440162400388536        0.0000000000000000     
   9.1510902834415597E-002  0.29390668258452640        0.0000000000000000     
   9.1647582109352033E-002  0.30366336707629094        0.0000000000000000     
   8.2772915510190406E-002  0.26601195966948915        0.0000000000000000     
   8.2970930690360170E-002  0.27496378034216357        0.0000000000000000     
   8.3152256538583380E-002  0.28408511202061587        0.0000000000000000     
   8.3316893054860036E-002  0.29337595470484606        0.0000000000000000     
   8.3464840239190125E-002  0.30283630839485420        0.0000000000000000     
   4.4037217212425206E-002   5.8950147409143519E-002   0.0000000000000000     
   4.7908494749669774E-002   6.5047466815204222E-002   0.0000000000000000     
   5.1096868806489171E-002   7.1090728138589021E-002   0.0000000000000000     
   5.3602339382883425E-002   7.7079931379297917E-002   0.0000000000000000     
   5.5424906478852523E-002   8.3015076537330909E-002   0.0000000000000000     
   4.0073274514748736E-002   5.8200485710117850E-002   0.0000000000000000     
   4.3483435498193466E-002   6.4398354444592507E-002   0.0000000000000000     
   4.6311375539154029E-002   7.0506611773993477E-002   0.0000000000000000     
   4.8557094637630450E-002   7.6525257698320734E-002   0.0000000000000000     
   5.0220592793622690E-002   8.2454292217574332E-002   0.0000000000000000     
   3.6121675727239573E-002   5.7506438184930189E-002   0.0000000000000000     
   3.9132684702450772E-002   6.3806644445226837E-002   0.0000000000000000     
   4.1642147192263855E-002   6.9981239054176969E-002   0.0000000000000000     
   4.3650063196678829E-002   7.6030222011780599E-002   0.0000000000000000     
   4.5156432715695680E-002   8.1953593318037726E-002   0.0000000000000000     
   3.2182420849897704E-002   5.6868004833580517E-002   0.0000000000000000     
   3.4856242362441683E-002   6.3272336817107200E-002   0.0000000000000000     
   3.7089183765818642E-002   6.9514609979139524E-002   0.0000000000000000     
   3.8881245060028581E-002   7.5594824319677512E-002   0.0000000000000000     
   4.0232426245071500E-002   8.1512979838721120E-002   0.0000000000000000     
   2.8255509882723136E-002   5.6285185656068840E-002   0.0000000000000000     
   3.0654108478166200E-002   6.2795431560233594E-002   0.0000000000000000     
   3.2652485259818391E-002   6.9106724548881129E-002   0.0000000000000000     
   3.4250640227679707E-002   7.5219064622011431E-002   0.0000000000000000     
   3.5448573381750136E-002   8.1132451779624498E-002   0.0000000000000000     
   5.5424906478852523E-002   8.3015076537330909E-002   0.0000000000000000     
   5.6951752869651609E-002   8.9030907274873769E-002   0.0000000000000000     
   5.8570061330535841E-002   9.5262167254112254E-002   0.0000000000000000     
   6.0279831861505213E-002  0.10170885647504639        0.0000000000000000     
   6.2081064462559725E-002  0.10837097493767614        0.0000000000000000     
   5.0220592793622690E-002   8.2454292217574332E-002   0.0000000000000000     
   5.1632581953743553E-002   8.8454246310096560E-002   0.0000000000000000     
   5.3123774064605805E-002   9.4685650954229789E-002   0.0000000000000000     
   5.4694169126209433E-002  0.10114850614997403        0.0000000000000000     
   5.6343767138554463E-002  0.10784281189732925        0.0000000000000000     
   4.5156432715695680E-002   8.1953593318037726E-002   0.0000000000000000     
   4.6446740037753204E-002   8.7937051893886259E-002   0.0000000000000000     
   4.7806469451290183E-002   9.4166296660264145E-002   0.0000000000000000     
   4.9235620956306597E-002  0.10064132761717136        0.0000000000000000     
   5.0734194552802474E-002  0.10736214476460791        0.0000000000000000     
   4.0232426245071500E-002   8.1512979838721120E-002   0.0000000000000000     
   4.1394227121680567E-002   8.7479324026242880E-002   0.0000000000000000     
   4.2618147490588967E-002   9.3704104372215311E-002   0.0000000000000000     
   4.3904187351796714E-002  0.10018732087663834        0.0000000000000000     
   4.5252346705303766E-002  0.10692897353951203        0.0000000000000000     
   3.5448573381750136E-002   8.1132451779624498E-002   0.0000000000000000     
   3.6475043205525644E-002   8.7081062707166410E-002   0.0000000000000000     
   3.7558808182502186E-002   9.3299074090083242E-002   0.0000000000000000     
   3.8699868312679749E-002   9.9786485928374996E-002   0.0000000000000000     
   3.9898223596058338E-002  0.10654329822204170        0.0000000000000000     
   6.2081064462559725E-002  0.10837097493767614        0.0000000000000000     
   6.3889848712772854E-002  0.11521568089013844        0.0000000000000000     
   6.5622274191218036E-002  0.12221013258057022        0.0000000000000000     
   6.7278340897895292E-002  0.12935433000897145        0.0000000000000000     
   6.8858048832804594E-002  0.13664827317534217        0.0000000000000000     
   5.6343767138554463E-002  0.10784281189732925        0.0000000000000000     
   5.7997270768351990E-002  0.11472511484063889        0.0000000000000000     
   5.9579382682313137E-002  0.12175196162424633        0.0000000000000000     
   6.1090102880437910E-002  0.12892335224815155        0.0000000000000000     
   6.2529431362726290E-002  0.13623928671235455        0.0000000000000000     
   5.0734194552802474E-002  0.10736214476460791        0.0000000000000000     
   5.2234429818813544E-002  0.11427654734494826        0.0000000000000000     
   5.3668566332375559E-002  0.12133233460056682        0.0000000000000000     
   5.5036604093488525E-002  0.12852950653146364        0.0000000000000000     
   5.6338543102152416E-002  0.13586806313763866        0.0000000000000000     
   4.5252346705303766E-002  0.10692897353951203        0.0000000000000000     
   4.6601325864157522E-002  0.11386997840306649        0.0000000000000000     
   4.7889825141405308E-002  0.12095125150953170        0.0000000000000000     
   4.9117844537047130E-002  0.12817279285890773        0.0000000000000000     
   5.0285384051083001E-002  0.13553460245119453        0.0000000000000000     
   3.9898223596058338E-002  0.10654329822204170        0.0000000000000000     
   4.1097958904383898E-002  0.11350540801499359        0.0000000000000000     
   4.2243159109402365E-002  0.12060871235114096        0.0000000000000000     
   4.3333824211113738E-002  0.12785321123048379        0.0000000000000000     
   4.4369954209518017E-002  0.13523890465302213        0.0000000000000000     
   6.8858048832804594E-002  0.13664827317534217        0.0000000000000000     
   7.0348813220976303E-002  0.14406056366076336        0.0000000000000000     
   7.1738049287440750E-002  0.15155980304631603        0.0000000000000000     
   7.3025757032197935E-002  0.15914599133200016        0.0000000000000000     
   7.4211936455247832E-002  0.16681912851781580        0.0000000000000000     
   6.2529431362726290E-002  0.13623928671235455        0.0000000000000000     
   6.3886602558262201E-002  0.14367135764344627        0.0000000000000000     
   6.5150850896129542E-002  0.15119115766801766        0.0000000000000000     
   6.6322176376328312E-002  0.15879868678606868        0.0000000000000000     
   6.7400578998858540E-002  0.16649394499759940        0.0000000000000000     
   5.6338543102152416E-002  0.13586806313763866        0.0000000000000000     
   5.7565054268868210E-002  0.14332099392972258        0.0000000000000000     
   5.8706808504136856E-002  0.15086128841834601        0.0000000000000000     
   5.9763805807958335E-002  0.15848894660350893        0.0000000000000000     
   6.0736046180332660E-002  0.16620396848521132        0.0000000000000000     
   5.0285384051083001E-002  0.13553460245119453        0.0000000000000000     
   5.1384168352794357E-002  0.14300947251959228        0.0000000000000000     
   5.2405922111462673E-002  0.15057019529730103        0.0000000000000000     
   5.3350645327087956E-002  0.15821677078432078        0.0000000000000000     
   5.4218337999670185E-002  0.16594919898065164        0.0000000000000000     
   4.4369954209518017E-002  0.13523890465302213        0.0000000000000000     
   4.5343944810040643E-002  0.14273679341305534        0.0000000000000000     
   4.6248191718107026E-002  0.15031787830488277        0.0000000000000000     
   4.7082694933717195E-002  0.15798215932850440        0.0000000000000000     
   4.7847454456871122E-002  0.16572963648392031        0.0000000000000000     
   7.4211936455247832E-002  0.16681912851781580        0.0000000000000000     
   7.5316471132892221E-002  0.17458445851550908        0.0000000000000000     
   7.6359244641432844E-002  0.18244722523682613        0.0000000000000000     
   7.7340256980869715E-002  0.19040742868176699        0.0000000000000000     
   7.8259508151202833E-002  0.19846506885033166        0.0000000000000000     
   6.7400578998858540E-002  0.16649394499759940        0.0000000000000000     
   6.8403116151084215E-002  0.17428165973293705        0.0000000000000000     
   6.9346845220369421E-002  0.18216655842240889        0.0000000000000000     
   7.0231766206714119E-002  0.19014864106601506        0.0000000000000000     
   7.1057879110118308E-002  0.19822790766375542        0.0000000000000000     
   6.0736046180332660E-002  0.16620396848521132        0.0000000000000000     
   6.1638232259474637E-002  0.17401148690098570        0.0000000000000000     
   6.2485066683599065E-002  0.18191663468836441        0.0000000000000000     
   6.3276549452705930E-002  0.18991941184734759        0.0000000000000000     
   6.4012680566795294E-002  0.19801981837793509        0.0000000000000000     
   5.4218337999670185E-002  0.16594919898065164        0.0000000000000000     
   5.5021819458063434E-002  0.17377394001965510        0.0000000000000000     
   5.5773909031121789E-002  0.18169745403469273        0.0000000000000000     
   5.6474606718845223E-002  0.18971974102576458        0.0000000000000000     
   5.7123912521233756E-002  0.19784080099287066        0.0000000000000000     
   4.7847454456871122E-002  0.16572963648392031        0.0000000000000000     
   4.8553877746850660E-002  0.17356901908894518        0.0000000000000000     
   4.9213372262937601E-002  0.18150901646139378        0.0000000000000000     
   4.9825938005131958E-002  0.18954962860126609        0.0000000000000000     
   5.0391574973433738E-002  0.19769085550856216        0.0000000000000000     
   7.8259508151202833E-002  0.19846506885033166        0.0000000000000000     
   7.9109455741734488E-002  0.20660813392124966        0.0000000000000000     
   7.9882557341767038E-002  0.21482461207325068        0.0000000000000000     
   8.0578812951300469E-002  0.22311450330633464        0.0000000000000000     
   8.1198222570334794E-002  0.23147780762050149        0.0000000000000000     
   7.1057879110118308E-002  0.19822790766375542        0.0000000000000000     
   7.1816040991542859E-002  0.20639300948983244        0.0000000000000000     
   7.2497108911948674E-002  0.21463259781844854        0.0000000000000000     
   7.3101082871335696E-002  0.22294667264960363        0.0000000000000000     
   7.3627962869703967E-002  0.23133523398329786        0.0000000000000000     
   6.4012680566795294E-002  0.19801981837793509        0.0000000000000000     
   6.4683664567093707E-002  0.20620607224834941        0.0000000000000000     
   6.5279705994827839E-002  0.21446639142681301        0.0000000000000000     
   6.5800804849997716E-002  0.22280077591332570        0.0000000000000000     
   6.6246961132603283E-002  0.23120922570788774        0.0000000000000000     
   5.7123912521233756E-002  0.19784080099287066        0.0000000000000000     
   5.7712326468387011E-002  0.20604732219680055        0.0000000000000000     
   5.8230348590404581E-002  0.21432599289834400        0.0000000000000000     
   5.8677978887286479E-002  0.22267681309750079        0.0000000000000000     
   5.9055217359032706E-002  0.23109978279427112        0.0000000000000000     
   5.0391574973433738E-002  0.19769085550856216        0.0000000000000000     
   5.0902026695422764E-002  0.20591675933518597        0.0000000000000000     
   5.1349036698678859E-002  0.21421140223304158        0.0000000000000000     
   5.1732604983202035E-002  0.22257478420212889        0.0000000000000000     
   5.2052731548992287E-002  0.23100690524244802        0.0000000000000000     
   8.1198222570334794E-002  0.23147780762050149        0.0000000000000000     
   8.1732380846914338E-002  0.23993620026459450        0.0000000000000000     
   8.2172882429083466E-002  0.24851135648745676        0.0000000000000000     
   8.2519727316842151E-002  0.25720327628908829        0.0000000000000000     
   8.2772915510190406E-002  0.26601195966948915        0.0000000000000000     
   7.3627962869703967E-002  0.23133523398329786        0.0000000000000000     
   7.4076590786760599E-002  0.23981306841148936        0.0000000000000000     
   7.4445808502212718E-002  0.24839496252613658        0.0000000000000000     
   7.4735616016060338E-002  0.25708091632723939        0.0000000000000000     
   7.4946013328303460E-002  0.26587092981479787        0.0000000000000000     
   6.6246961132603283E-002  0.23120922570788774        0.0000000000000000     
   6.6622479147905520E-002  0.23969951363306280        0.0000000000000000     
   6.6931663201165364E-002  0.24827941251141478        0.0000000000000000     
   6.7174513292382873E-002  0.25694892234294364        0.0000000000000000     
   6.7351029421557990E-002  0.26570804312764940        0.0000000000000000     
   5.9055217359032706E-002  0.23109978279427112        0.0000000000000000     
   5.9370045930349086E-002  0.23959553592931468        0.0000000000000000     
   5.9630446525941426E-002  0.24816470644329136        0.0000000000000000     
   5.9836419145809720E-002  0.25680729433620109        0.0000000000000000     
   5.9987963789953976E-002  0.26552329960804388        0.0000000000000000     
   5.2052731548992287E-002  0.23100690524244802        0.0000000000000000     
   5.2319291134091339E-002  0.23950113530024508        0.0000000000000000     
   5.2542158476540868E-002  0.24805084432176630        0.0000000000000000     
   5.2721333576340901E-002  0.25665603230701167        0.0000000000000000     
   5.2856816433491438E-002  0.26531669925598117        0.0000000000000000     
   8.2772915510190406E-002  0.26601195966948915        0.0000000000000000     
   8.2970930690360170E-002  0.27496378034216357        0.0000000000000000     
   8.3152256538583380E-002  0.28408511202061587        0.0000000000000000     
   8.3316893054860036E-002  0.29337595470484606        0.0000000000000000     
   8.3464840239190125E-002  0.30283630839485420        0.0000000000000000     
   7.4946013328303460E-002  0.26587092981479787        0.0000000000000000     
   7.5117385231216804E-002  0.27475855865561971        0.0000000000000000     
   7.5290116517075081E-002  0.28373735851651249        0.0000000000000000     
   7.5464207185878290E-002  0.29280732939747633        0.0000000000000000     
   7.5639657237626418E-002  0.30196847129851118        0.0000000000000000     
   6.7351029421557990E-002  0.26570804312764940        0.0000000000000000     
   6.7500862925452321E-002  0.27452672904392239        0.0000000000000000     
   6.7663665140827431E-002  0.28337493427015270        0.0000000000000000     
   6.7839436067683334E-002  0.29225265880634049        0.0000000000000000     
   6.8028175706020030E-002  0.30115990265248571        0.0000000000000000     
   5.9987963789953976E-002  0.26552329960804388        0.0000000000000000     
   6.0121363773066712E-002  0.27426829150707166        0.0000000000000000     
   6.0272902409840456E-002  0.28299783928153660        0.0000000000000000     
   6.0442579700275209E-002  0.29171194293143859        0.0000000000000000     
   6.0630395644370942E-002  0.30041060245677770        0.0000000000000000     
   5.2856816433491438E-002  0.26531669925598117        0.0000000000000000     
   5.2978887774059999E-002  0.27398324604506774        0.0000000000000000     
   5.3117828324114151E-002  0.28260607355066425        0.0000000000000000     
   5.3273638083653874E-002  0.29118518177277075        0.0000000000000000     
   5.3446317052679188E-002  0.29972057071138719        0.0000000000000000     
   2.8255509882723136E-002   5.6285185656068840E-002   0.0000000000000000     
   3.0654108478166200E-002   6.2795431560233594E-002   0.0000000000000000     
   3.2652485259818391E-002   6.9106724548881129E-002   0.0000000000000000     
   3.4250640227679707E-002   7.5219064622011431E-002   0.0000000000000000     
   3.5448573381750136E-002   8.1132451779624498E-002   0.0000000000000000     
   2.4396825827092225E-002   5.5766275998966455E-002   0.0000000000000000     
   2.6540356803400462E-002   6.2375413444449974E-002   0.0000000000000000     
   2.8318145771084317E-002   6.8751230927986240E-002   0.0000000000000000     
   2.9730192730143799E-002   7.4893728449575259E-002   0.0000000000000000     
   3.0776497680578906E-002   8.0802906009216996E-002   0.0000000000000000     
   2.0662251684381319E-002   5.5319571208844655E-002   0.0000000000000000     
   2.2529061091920592E-002   6.2011767239600279E-002   0.0000000000000000     
   2.4072259396437642E-002   6.8441777281039354E-002   0.0000000000000000     
   2.5291846597932481E-002   7.4609601333161829E-002   0.0000000000000000     
   2.6187822696405100E-002   8.0515239395967733E-002   0.0000000000000000     
   1.7051787454590427E-002   5.4945071285703424E-002   0.0000000000000000     
   1.8620221343726592E-002   6.1704492945684503E-002   0.0000000000000000     
   1.9914826135878364E-002   6.8178363608040429E-002   0.0000000000000000     
   2.0935601831045744E-002   7.4366683272771170E-002   0.0000000000000000     
   2.1682548429228735E-002   8.0269451939876724E-002   0.0000000000000000     
   1.3565433137719542E-002   5.4642776229542771E-002   0.0000000000000000     
   1.4813837558818464E-002   6.1453590562702644E-002   0.0000000000000000     
   1.5845845989406481E-002   6.7960989908989480E-002   0.0000000000000000     
   1.6661458429483592E-002   7.4164974268403253E-002   0.0000000000000000     
   1.7260674879049798E-002   8.0065543640943981E-002   0.0000000000000000     
   3.5448573381750136E-002   8.1132451779624498E-002   0.0000000000000000     
   3.6475043205525644E-002   8.7081062707166410E-002   0.0000000000000000     
   3.7558808182502186E-002   9.3299074090083242E-002   0.0000000000000000     
   3.8699868312679749E-002   9.9786485928374996E-002   0.0000000000000000     
   3.9898223596058338E-002  0.10654329822204170        0.0000000000000000     
   3.0776497680578906E-002   8.0802906009216996E-002   0.0000000000000000     
   3.1666406370427953E-002   8.6734867942233285E-002   0.0000000000000000     
   3.2609264547729291E-002   9.2945718583945944E-002   0.0000000000000000     
   3.3605072212482892E-002   9.9435457934354959E-002   0.0000000000000000     
   3.4653829364688769E-002  0.10620408599346035        0.0000000000000000     
   2.6187822696405100E-002   8.0515239395967733E-002   0.0000000000000000     
   2.6945534697527019E-002   8.6433339737019957E-002   0.0000000000000000     
   2.7750329606969746E-002   9.2638550623881308E-002   0.0000000000000000     
   2.8602207424733284E-002   9.9130872056551828E-002   0.0000000000000000     
   2.9501168150817624E-002  0.10591030403503152        0.0000000000000000     
   2.1682548429228735E-002   8.0269451939876724E-002   0.0000000000000000     
   2.2312428186822841E-002   8.6176478091526371E-002   0.0000000000000000     
   2.2982003360223574E-002   9.2377570209889348E-002   0.0000000000000000     
   2.3691273949430929E-002   9.8872728294965601E-002   0.0000000000000000     
   2.4440239954444911E-002  0.10566195234675516        0.0000000000000000     
   1.7260674879049798E-002   8.0065543640943981E-002   0.0000000000000000     
   1.7767086838315415E-002   8.5964283005752595E-002   0.0000000000000000     
   1.8304285807490758E-002   9.2162777341970009E-002   0.0000000000000000     
   1.8872271786575828E-002   9.8661026649596278E-002   0.0000000000000000     
   1.9471044775570621E-002  0.10545903092863132        0.0000000000000000     
   3.9898223596058338E-002  0.10654329822204170        0.0000000000000000     
   4.1097958904383898E-002  0.11350540801499359        0.0000000000000000     
   4.2243159109402365E-002  0.12060871235114096        0.0000000000000000     
   4.3333824211113738E-002  0.12785321123048379        0.0000000000000000     
   4.4369954209518017E-002  0.13523890465302213        0.0000000000000000     
   3.4653829364688769E-002  0.10620408599346035        0.0000000000000000     
   3.5704909987696189E-002  0.11318362855690751        0.0000000000000000     
   3.6707688064854402E-002  0.12030611142034188        0.0000000000000000     
   3.7662163596163423E-002  0.12757153458376347        0.0000000000000000     
   3.8568336581623237E-002  0.13497989804717225        0.0000000000000000     
   2.9501168150817624E-002  0.10591030403503152        0.0000000000000000     
   3.0402760162297860E-002  0.11290543240498620        0.0000000000000000     
   3.1262531836249073E-002  0.12004484301208176        0.0000000000000000     
   3.2080483172671245E-002  0.12732853585631823        0.0000000000000000     
   3.2856614171564408E-002  0.13475651093769558        0.0000000000000000     
   2.4440239954444911E-002  0.10566195234675516        0.0000000000000000     
   2.5191509428188923E-002  0.11267081955922964        0.0000000000000000     
   2.5907690423586354E-002  0.11982490712636065        0.0000000000000000     
   2.6588782940637230E-002  0.12712421504814816        0.0000000000000000     
   2.7234786979341521E-002  0.13456874332459212        0.0000000000000000     
   1.9471044775570621E-002  0.10545903092863132        0.0000000000000000     
   2.0071157785369366E-002  0.11247979001963786        0.0000000000000000     
   2.0643163826866272E-002  0.11964630376317846        0.0000000000000000     
   2.1187062900061344E-002  0.12695857215925319        0.0000000000000000     
   2.1702855004954582E-002  0.13441659520786195        0.0000000000000000     
   4.4369954209518017E-002  0.13523890465302213        0.0000000000000000     
   4.5343944810040643E-002  0.14273679341305534        0.0000000000000000     
   4.6248191718107026E-002  0.15031787830488277        0.0000000000000000     
   4.7082694933717195E-002  0.15798215932850440        0.0000000000000000     
   4.7847454456871122E-002  0.16572963648392031        0.0000000000000000     
   3.8568336581623237E-002  0.13497989804717225        0.0000000000000000     
   3.9419158658612091E-002  0.14249985594521722        0.0000000000000000     
   4.0207581464508257E-002  0.15010006241254739        0.0000000000000000     
   4.0933604999311701E-002  0.15778051744916274        0.0000000000000000     
   4.1597229263022437E-002  0.16554122105506330        0.0000000000000000     
   3.2856614171564408E-002  0.13475651093769558        0.0000000000000000     
   3.3584584916513810E-002  0.14229555945118336        0.0000000000000000     
   3.4258055491104722E-002  0.14991247259175114        0.0000000000000000     
   3.4877025895337144E-002  0.15760725035939888        0.0000000000000000     
   3.5441496129211082E-002  0.16537989275412662        0.0000000000000000     
   2.7234786979341521E-002  0.13456874332459212        0.0000000000000000     
   2.7840223583745743E-002  0.14212390393095373        0.0000000000000000     
   2.8399613797896416E-002  0.14975510884249396        0.0000000000000000     
   2.8912957621793516E-002  0.15746235805921283        0.0000000000000000     
   2.9380255055437059E-002  0.16524565158111029        0.0000000000000000     
   2.1702855004954582E-002  0.13441659520786195        0.0000000000000000     
   2.2186074660307933E-002  0.14198488938452836        0.0000000000000000     
   2.2632256384883351E-002  0.14962797116477589        0.0000000000000000     
   2.3041400178680824E-002  0.15734584054860454        0.0000000000000000     
   2.3413506041700366E-002  0.16513849753601434        0.0000000000000000     
   4.7847454456871122E-002  0.16572963648392031        0.0000000000000000     
   4.8553877746850660E-002  0.17356901908894518        0.0000000000000000     
   4.9213372262937601E-002  0.18150901646139378        0.0000000000000000     
   4.9825938005131958E-002  0.18954962860126609        0.0000000000000000     
   5.0391574973433738E-002  0.19769085550856216        0.0000000000000000     
   4.1597229263022437E-002  0.16554122105506330        0.0000000000000000     
   4.2208627525663359E-002  0.17339332085638046        0.0000000000000000     
   4.2777973057257369E-002  0.18134796447924559        0.0000000000000000     
   4.3305265857804462E-002  0.18940515192365867        0.0000000000000000     
   4.3790505927304636E-002  0.19756488318961973        0.0000000000000000     
   3.5441496129211082E-002  0.16537989275412662        0.0000000000000000     
   3.5960289194328657E-002  0.17324344206948539        0.0000000000000000     
   3.6442228092291973E-002  0.18121094059902612        0.0000000000000000     
   3.6887312823101051E-002  0.18928238834274888        0.0000000000000000     
   3.7295543386755871E-002  0.19745778530065361        0.0000000000000000     
   2.9380255055437059E-002  0.16524565158111029        0.0000000000000000     
   2.9808862752846527E-002  0.17311938272826002        0.0000000000000000     
   3.0206137368041418E-002  0.18109794482073549        0.0000000000000000     
   3.0572078901021722E-002  0.18918133785853675        0.0000000000000000     
   3.0906687351787452E-002  0.19736956184166377        0.0000000000000000     
   2.3413506041700366E-002  0.16513849753601434        0.0000000000000000     
   2.3754348201216982E-002  0.17302114283270431        0.0000000000000000     
   2.4069700884505690E-002  0.18100897714437364        0.0000000000000000     
   2.4359564091566487E-002  0.18910200047102224        0.0000000000000000     
   2.4623937822399376E-002  0.19730021281265020        0.0000000000000000     
   5.0391574973433738E-002  0.19769085550856216        0.0000000000000000     
   5.0902026695422764E-002  0.20591675933518597        0.0000000000000000     
   5.1349036698678859E-002  0.21421140223304158        0.0000000000000000     
   5.1732604983202035E-002  0.22257478420212889        0.0000000000000000     
   5.2052731548992287E-002  0.23100690524244802        0.0000000000000000     
   4.3790505927304636E-002  0.19756488318961973        0.0000000000000000     
   4.4227080486601386E-002  0.20580821614504388        0.0000000000000000     
   4.4608376756538233E-002  0.21411620865784609        0.0000000000000000     
   4.4934394737115191E-002  0.22248886072802646        0.0000000000000000     
   4.5205134428332225E-002  0.23092617235558491        0.0000000000000000     
   3.7295543386755871E-002  0.19745778530065361        0.0000000000000000     
   3.7661803080323311E-002  0.20571552510791258        0.0000000000000000     
   3.7980975200870272E-002  0.21403400139969800        0.0000000000000000     
   3.8253059748396732E-002  0.22241321417600990        0.0000000000000000     
   3.8478056722902707E-002  0.23085316343684828        0.0000000000000000     
   3.0906687351787452E-002  0.19736956184166377        0.0000000000000000     
   3.1206194476588546E-002  0.20563868622379206        0.0000000000000000     
   3.1466832031674968E-002  0.21396478045859724        0.0000000000000000     
   3.1688600017046709E-002  0.22234784454607925        0.0000000000000000     
   3.1871498432703767E-002  0.23078787848623816        0.0000000000000000     
   2.4623937822399376E-002  0.19730021281265020        0.0000000000000000     
   2.4860254675397077E-002  0.20557769949268240        0.0000000000000000     
   2.5065947248952308E-002  0.21390854583454386        0.0000000000000000     
   2.5241015543065074E-002  0.22229275183823452        0.0000000000000000     
   2.5385459557735371E-002  0.23073031750375447        0.0000000000000000     
   5.2052731548992287E-002  0.23100690524244802        0.0000000000000000     
   5.2319291134091339E-002  0.23950113530024508        0.0000000000000000     
   5.2542158476540868E-002  0.24805084432176630        0.0000000000000000     
   5.2721333576340901E-002  0.25665603230701167        0.0000000000000000     
   5.2856816433491438E-002  0.26531669925598117        0.0000000000000000     
   4.5205134428332225E-002  0.23092617235558491        0.0000000000000000     
   4.5431053256171382E-002  0.23941486975492485        0.0000000000000000     
   4.5622608646614708E-002  0.24794167914044948        0.0000000000000000     
   4.5779800599662197E-002  0.25650660051215901        0.0000000000000000     
   4.5902629115313856E-002  0.26510963387005326        0.0000000000000000     
   3.8478056722902707E-002  0.23085316343684828        0.0000000000000000     
   3.8666170793628371E-002  0.23933529730242475        0.0000000000000000     
   3.8827606629813931E-002  0.24784106389295082        0.0000000000000000     
   3.8962364231459372E-002  0.25637046320842666        0.0000000000000000     
   3.9070443598564708E-002  0.26492349524885211        0.0000000000000000     
   3.1871498432703767E-002  0.23078787848623816        0.0000000000000000     
   3.2024643746462314E-002  0.23926241794274486        0.0000000000000000     
   3.2157152426138536E-002  0.24774899857927035        0.0000000000000000     
   3.2269024471732438E-002  0.25624762039581461        0.0000000000000000     
   3.2360259883244015E-002  0.26475828339237778        0.0000000000000000     
   2.5385459557735371E-002  0.23073031750375447        0.0000000000000000     
   2.5506472114673190E-002  0.23919623167588513        0.0000000000000000     
   2.5611246035588529E-002  0.24766548319940795        0.0000000000000000     
   2.5699781320481389E-002  0.25613807207432293        0.0000000000000000     
   2.5772077969351763E-002  0.26461399830063009        0.0000000000000000     
   5.2856816433491438E-002  0.26531669925598117        0.0000000000000000     
   5.2978887774059999E-002  0.27398324604506774        0.0000000000000000     
   5.3117828324114151E-002  0.28260607355066425        0.0000000000000000     
   5.3273638083653874E-002  0.29118518177277075        0.0000000000000000     
   5.3446317052679188E-002  0.29972057071138719        0.0000000000000000     
   4.5902629115313856E-002  0.26510963387005326        0.0000000000000000     
   4.6014739139941543E-002  0.27370037467060399        0.0000000000000000     
   4.6139775619917153E-002  0.28222841837028295        0.0000000000000000     
   4.6277738555240679E-002  0.29069376496909005        0.0000000000000000     
   4.6428627945912120E-002  0.29909641446702528        0.0000000000000000     
   3.9070443598564708E-002  0.26492349524885211        0.0000000000000000     
   3.9170222082220693E-002  0.27344845939637430        0.0000000000000000     
   3.9280077033518088E-002  0.28189365503314023        0.0000000000000000     
   3.9400008452456899E-002  0.29025908215914986        0.0000000000000000     
   3.9530016339037119E-002  0.29854474077440329        0.0000000000000000     
   3.2360259883244015E-002  0.26475828339237778        0.0000000000000000     
   3.2445336600897462E-002  0.27322750022237852        0.0000000000000000     
   3.2538732564916968E-002  0.28160178353923609        0.0000000000000000     
   3.2640447775302547E-002  0.28988113334295029        0.0000000000000000     
   3.2750482232054186E-002  0.29806554963352094        0.0000000000000000     
   2.5772077969351763E-002  0.26461399830063009        0.0000000000000000     
   2.5840082695971843E-002  0.27303749714861680        0.0000000000000000     
   2.5915742214113788E-002  0.28135280388857048        0.0000000000000000     
   2.5999056523777618E-002  0.28955991852049101        0.0000000000000000     
   2.6090025624963320E-002  0.29765884104437851        0.0000000000000000     
   1.3565433137719542E-002   5.4642776229542771E-002   0.0000000000000000     
   1.4813837558818464E-002   6.1453590562702644E-002   0.0000000000000000     
   1.5845845989406481E-002   6.7960989908989480E-002   0.0000000000000000     
   1.6661458429483592E-002   7.4164974268403253E-002   0.0000000000000000     
   1.7260674879049798E-002   8.0065543640943981E-002   0.0000000000000000     
   1.0149369043472863E-002   5.4409857683294628E-002   0.0000000000000000     
   1.1071605857337035E-002   6.1258713687776738E-002   0.0000000000000000     
   1.1836915422361824E-002   6.7790930410477346E-002   0.0000000000000000     
   1.2445297738547242E-002   7.4006507851396480E-002   0.0000000000000000     
   1.2896752805893280E-002   7.9905446010534134E-002   0.0000000000000000     
   6.7497754815545865E-003   5.4243487289890931E-002   0.0000000000000000     
   7.3552223594231213E-003   6.1119515918028798E-002   0.0000000000000000     
   7.8596309000842288E-003   6.7669459339094892E-002   0.0000000000000000     
   8.2630011035379133E-003   7.3893317553089241E-002   0.0000000000000000     
   8.5653329697841698E-003   7.9791090560011851E-002   0.0000000000000000     
   3.3666524519647091E-003   5.4143665049331685E-002   0.0000000000000000     
   3.6646870650767268E-003   6.1035997253458825E-002   0.0000000000000000     
   3.9139924225736937E-003   6.7596576694842106E-002   0.0000000000000000     
   4.1145685244556082E-003   7.3825403373481535E-002   0.0000000000000000     
   4.2664153707224683E-003   7.9722477289377133E-002   0.0000000000000000     
  -4.5296768072522475E-011   5.4110390961616878E-002   0.0000000000000000     
  -2.5702146791081737E-011   6.1008157694066825E-002   0.0000000000000000     
  -1.0169782984487119E-011   6.7572282477718987E-002   0.0000000000000000     
   1.3003235641018129E-012   7.3802765312573362E-002   0.0000000000000000     
   8.7081739388872315E-012   7.9699606198629980E-002   0.0000000000000000     
   1.7260674879049798E-002   8.0065543640943981E-002   0.0000000000000000     
   1.7767086838315415E-002   8.5964283005752595E-002   0.0000000000000000     
   1.8304285807490758E-002   9.2162777341970009E-002   0.0000000000000000     
   1.8872271786575828E-002   9.8661026649596278E-002   0.0000000000000000     
   1.9471044775570621E-002  0.10545903092863132        0.0000000000000000     
   1.2896752805893280E-002   7.9905446010534134E-002   0.0000000000000000     
   1.3280549836200216E-002   8.5798153925495432E-002   0.0000000000000000     
   1.3685958041268317E-002   9.1995040633885541E-002   0.0000000000000000     
   1.4112977421097586E-002   9.8496106135704475E-002   0.0000000000000000     
   1.4561607975688021E-002  0.10530135043095222        0.0000000000000000     
   8.5653329697841698E-003   7.9791090560011851E-002   0.0000000000000000     
   8.8238563646727153E-003   8.5679490296551766E-002   0.0000000000000000     
   9.0958011540532620E-003   9.1875228699398112E-002   0.0000000000000000     
   9.3811673379258099E-003   9.8378305768550861E-002   0.0000000000000000     
   9.6799549162903589E-003  0.10518872150401003        0.0000000000000000     
   4.2664153707224683E-003   7.9722477289377133E-002   0.0000000000000000     
   4.3970064237329179E-003   8.5608292118921597E-002   0.0000000000000000     
   4.5338151458455952E-003   9.1803341538507693E-002   0.0000000000000000     
   4.6768415370605039E-003   9.8307625548135436E-002   0.0000000000000000     
   4.8260855973776377E-003  0.10512114414780481        0.0000000000000000     
   8.7081739388872315E-012   7.9699606198629980E-002   0.0000000000000000     
   1.3380819455927062E-011   8.5584559392604911E-002   0.0000000000000000     
   1.6645315876508138E-011   9.1779379151214313E-002   0.0000000000000000     
   1.8501662685634426E-011   9.8284065474458185E-002   0.0000000000000000     
   1.8949856874644899E-011  0.10509861836233651        0.0000000000000000     
   1.9471044775570621E-002  0.10545903092863132        0.0000000000000000     
   2.0071157785369366E-002  0.11247979001963786        0.0000000000000000     
   2.0643163826866272E-002  0.11964630376317846        0.0000000000000000     
   2.1187062900061344E-002  0.12695857215925319        0.0000000000000000     
   2.1702855004954582E-002  0.13441659520786195        0.0000000000000000     
   1.4561607975688021E-002  0.10530135043095222        0.0000000000000000     
   1.5010533852051738E-002  0.11233170686895477        0.0000000000000000     
   1.5438439197200849E-002  0.11950810879903818        0.0000000000000000     
   1.5845324011135354E-002  0.12683055622120240        0.0000000000000000     
   1.6231188293855257E-002  0.13429904913544749        0.0000000000000000     
   9.6799549162903589E-003  0.10518872150401003        0.0000000000000000     
   9.9784662464485752E-003  0.11222593318992440        0.0000000000000000     
   1.0263003685702122E-002  0.11940939811044270        0.0000000000000000     
   1.0533567234050996E-002  0.12673911626556494        0.0000000000000000     
   1.0790156891495204E-002  0.13421508765529117        0.0000000000000000     
   4.8260855973776377E-003  0.10512114414780481        0.0000000000000000     
   4.9749549685598748E-003  0.11216246898254671        0.0000000000000000     
   5.1168572923700846E-003  0.11935017169739205        0.0000000000000000     
   5.2517925688082704E-003  0.12668425229234084        0.0000000000000000     
   5.3797607978744288E-003  0.13416471076739303        0.0000000000000000     
   1.8949856874644899E-011  0.10509861836233651        0.0000000000000000     
   1.8385638497764312E-011  0.11214131424682171        0.0000000000000000     
   1.7204744031350250E-011  0.11933042955988619        0.0000000000000000     
   1.5407174098818963E-011  0.12666596430152996        0.0000000000000000     
   1.2992927914123875E-011  0.13414791847175309        0.0000000000000000     
   2.1702855004954582E-002  0.13441659520786195        0.0000000000000000     
   2.2186074660307933E-002  0.14198488938452836        0.0000000000000000     
   2.2632256384883351E-002  0.14962797116477589        0.0000000000000000     
   2.3041400178680824E-002  0.15734584054860454        0.0000000000000000     
   2.3413506041700366E-002  0.16513849753601434        0.0000000000000000     
   1.6231188293855257E-002  0.13429904913544749        0.0000000000000000     
   1.6592662955620417E-002  0.14187753208251250        0.0000000000000000     
   1.6926378906690714E-002  0.14952994960313659        0.0000000000000000     
   1.7232336147066138E-002  0.15725630169731977        0.0000000000000000     
   1.7510534676746698E-002  0.16505658836506198        0.0000000000000000     
   1.0790156891495204E-002  0.13421508765529117        0.0000000000000000     
   1.1030513279103269E-002  0.14180084829551140        0.0000000000000000     
   1.1252377017943713E-002  0.14945993420211570        0.0000000000000000     
   1.1455748108016538E-002  0.15719234537510413        0.0000000000000000     
   1.1640626549321745E-002  0.16499808181447664        0.0000000000000000     
   5.3797607978744288E-003  0.13416471076739303        0.0000000000000000     
   5.4996256307564802E-003  0.14175483802352509        0.0000000000000000     
   5.6102507186423451E-003  0.14941792496171324        0.0000000000000000     
   5.7116360615320208E-003  0.15715397158195762        0.0000000000000000     
   5.8037816594255099E-003  0.16496297788425823        0.0000000000000000     
   1.2992927914123875E-011  0.13414791847175309        0.0000000000000000     
   1.0580056362258228E-011  0.14173950126655349        0.0000000000000000     
   8.7866098945343918E-012  0.14940392188192919        0.0000000000000000     
   7.6125888362130190E-012  0.15714118031788035        0.0000000000000000     
   7.0579926451930231E-012  0.16495127657440681        0.0000000000000000     
   2.3413506041700366E-002  0.16513849753601434        0.0000000000000000     
   2.3754348201216982E-002  0.17302114283270431        0.0000000000000000     
   2.4069700884505690E-002  0.18100897714437364        0.0000000000000000     
   2.4359564091566487E-002  0.18910200047102224        0.0000000000000000     
   2.4623937822399376E-002  0.19730021281265020        0.0000000000000000     
   1.7510534676746698E-002  0.16505658836506198        0.0000000000000000     
   1.7765157484042515E-002  0.17294647893159795        0.0000000000000000     
   1.8000387557263711E-002  0.18094164272216223        0.0000000000000000     
   1.8216224896410303E-002  0.18904207973675491        0.0000000000000000     
   1.8412669501482272E-002  0.19724778997537590        0.0000000000000000     
   1.1640626549321745E-002  0.16499808181447664        0.0000000000000000     
   1.1809702545925605E-002  0.17289314757372048        0.0000000000000000     
   1.1965666301894398E-002  0.18089354670632296        0.0000000000000000     
   1.2108517817228114E-002  0.18899927921228410        0.0000000000000000     
   1.2238257091926764E-002  0.19721034509160387        0.0000000000000000     
   5.8037816594255099E-003  0.16496297788425823        0.0000000000000000     
   5.8879833868662659E-003  0.17286114875907196        0.0000000000000000     
   5.9655371183977403E-003  0.18086468909685588        0.0000000000000000     
   6.0364428540199341E-003  0.18897359889760992        0.0000000000000000     
   6.1007005937328490E-003  0.19718787816133412        0.0000000000000000     
   7.0579926451930231E-012  0.16495127657440681        0.0000000000000000     
   6.8644896624586726E-012  0.17285048248765239        0.0000000000000000     
   6.7737441090259809E-012  0.18085506989376091        0.0000000000000000     
   6.7857579906689669E-012  0.18896503879273235        0.0000000000000000     
   6.9005304942360013E-012  0.19718038918456665        0.0000000000000000     
   2.4623937822399376E-002  0.19730021281265020        0.0000000000000000     
   2.4860254675397077E-002  0.20557769949268240        0.0000000000000000     
   2.5065947248952308E-002  0.21390854583454386        0.0000000000000000     
   2.5241015543065074E-002  0.22229275183823452        0.0000000000000000     
   2.5385459557735371E-002  0.23073031750375447        0.0000000000000000     
   1.8412669501482272E-002  0.19724778997537590        0.0000000000000000     
   1.8588159708685208E-002  0.20553127141989969        0.0000000000000000     
   1.8741133854224677E-002  0.21386502205220076        0.0000000000000000     
   1.8871591938100681E-002  0.22224904187227904        0.0000000000000000     
   1.8979533960313218E-002  0.23068333088013460        0.0000000000000000     
   1.2238257091926764E-002  0.19721034509160387        0.0000000000000000     
   1.2354085608389236E-002  0.20549810851076017        0.0000000000000000     
   1.2455204849014429E-002  0.21383393363623096        0.0000000000000000     
   1.2541614813802341E-002  0.22221782046801611        0.0000000000000000     
   1.2613315502752973E-002  0.23064976900611578        0.0000000000000000     
   6.1007005937328490E-003  0.19718787816133412        0.0000000000000000     
   6.1580323745091675E-003  0.20547821076526385        0.0000000000000000     
   6.2081602333215720E-003  0.21381528058663438        0.0000000000000000     
   6.2510841701700634E-003  0.22219908762544582        0.0000000000000000     
   6.2868041850546409E-003  0.23062963188169805        0.0000000000000000     
   6.9005304942360013E-012  0.19718038918456665        0.0000000000000000     
   7.0449984821557843E-012  0.20547157818341064        0.0000000000000000     
   7.1461045631285303E-012  0.21380906290341112        0.0000000000000000     
   7.2038433432484311E-012  0.22219284334456804        0.0000000000000000     
   7.2182195116898829E-012  0.23062291950688141        0.0000000000000000     
   2.5385459557735371E-002  0.23073031750375447        0.0000000000000000     
   2.5506472114673190E-002  0.23919623167588513        0.0000000000000000     
   2.5611246035588529E-002  0.24766548319940795        0.0000000000000000     
   2.5699781320481389E-002  0.25613807207432293        0.0000000000000000     
   2.5772077969351763E-002  0.26461399830063009        0.0000000000000000     
   1.8979533960313218E-002  0.23068333088013460        0.0000000000000000     
   1.9069947164881369E-002  0.23914124692049193        0.0000000000000000     
   1.9147818795824216E-002  0.24759614783807560        0.0000000000000000     
   1.9213148853141761E-002  0.25604803363288553        0.0000000000000000     
   1.9265937336834002E-002  0.26449690430492179        0.0000000000000000     
   1.2613315502752973E-002  0.23064976900611578        0.0000000000000000     
   1.2673360163707206E-002  0.23910197209521156        0.0000000000000000     
   1.2724802044505917E-002  0.24754662257998505        0.0000000000000000     
   1.2767641145149106E-002  0.25598372046043638        0.0000000000000000     
   1.2801877465636775E-002  0.26441326573656537        0.0000000000000000     
   6.2868041850546409E-003  0.23062963188169805        0.0000000000000000     
   6.3167111111506963E-003  0.23907840720004395        0.0000000000000000     
   6.3421957816336217E-003  0.24751690742513646        0.0000000000000000     
   6.3632581965034169E-003  0.25594513255697543        0.0000000000000000     
   6.3798983557600813E-003  0.26436308259556085        0.0000000000000000     
   7.2182195116898829E-012  0.23062291950688141        0.0000000000000000     
   7.2118472218413165E-012  0.23907055223498927        0.0000000000000000     
   7.2073383502666011E-012  0.24750700237352971        0.0000000000000000     
   7.2046961224671996E-012  0.25593226992250268        0.0000000000000000     
   7.2039184513539301E-012  0.26434635488190827        0.0000000000000000     
   2.5772077969351763E-002  0.26461399830063009        0.0000000000000000     
   2.5840082695971843E-002  0.27303749714861680        0.0000000000000000     
   2.5915742214113788E-002  0.28135280388857048        0.0000000000000000     
   2.5999056523777618E-002  0.28955991852049101        0.0000000000000000     
   2.6090025624963320E-002  0.29765884104437851        0.0000000000000000     
   1.9265937336834002E-002  0.26449690430492179        0.0000000000000000     
   1.9315998940378658E-002  0.27288478775293051        0.0000000000000000     
   1.9373148357253435E-002  0.28115371187565796        0.0000000000000000     
   1.9437385587458340E-002  0.28930367667310403        0.0000000000000000     
   1.9508710630993374E-002  0.29733468214526881        0.0000000000000000     
   1.2801877465636775E-002  0.26441326573656537        0.0000000000000000     
   1.2834623907052735E-002  0.27277570961316128        0.0000000000000000     
   1.2872993370480791E-002  0.28101150329501318        0.0000000000000000     
   1.2916985855920944E-002  0.28912064678212102        0.0000000000000000     
   1.2966601363373196E-002  0.29710314007448485        0.0000000000000000     
   6.3798983557600813E-003  0.26436308259556085        0.0000000000000000     
   6.3959575959940743E-003  0.27271026272930904        0.0000000000000000     
   6.4152772537958563E-003  0.28092617814663606        0.0000000000000000     
   6.4378573291654258E-003  0.28901082884754187        0.0000000000000000     
   6.4636978221027878E-003  0.29696421483202662        0.0000000000000000     
   7.2039184513539301E-012  0.26434635488190827        0.0000000000000000     
   7.2026750883025237E-012  0.27268844710137374        0.0000000000000000     
   7.1986312310395872E-012  0.28089773643052657        0.0000000000000000     
   7.1917892105997916E-012  0.28897422286936669        0.0000000000000000     
   7.1821472380495521E-012  0.29691790641789417        0.0000000000000000     
  -4.5296768072522475E-011   5.4110390961616878E-002   0.0000000000000000     
  -2.5702146791081737E-011   6.1008157694066825E-002   0.0000000000000000     
  -1.0169782984487119E-011   6.7572282477718987E-002   0.0000000000000000     
   1.3003235641018129E-012   7.3802765312573362E-002   0.0000000000000000     
   8.7081739388872315E-012   7.9699606198629980E-002   0.0000000000000000     
  -3.3666525417927000E-003   5.4143665030754184E-002   0.0000000000000000     
  -3.6646871161113690E-003   6.1035997242184920E-002   0.0000000000000000     
  -3.9139924428174119E-003   6.7596576688847707E-002   0.0000000000000000     
  -4.1145685219108278E-003   7.3825403370742546E-002   0.0000000000000000     
  -4.2664153533916171E-003   7.9722477287869437E-002   0.0000000000000000     
  -6.7497755690859411E-003   5.4243487260751268E-002   0.0000000000000000     
  -7.3552224093488021E-003   6.1119515900145201E-002   0.0000000000000000     
  -7.8596309200403992E-003   6.7669459329350395E-002   0.0000000000000000     
  -8.2630011011607368E-003   7.3893317548366880E-002   0.0000000000000000     
  -8.5653329527098105E-003   7.9791090557194619E-002   0.0000000000000000     
  -1.0149369127176492E-002   5.4409857651608121E-002   0.0000000000000000     
  -1.1071605905414448E-002   6.1258713667947703E-002   0.0000000000000000     
  -1.1836915441838751E-002   6.7790930399227123E-002   0.0000000000000000     
  -1.2445297736449402E-002   7.4006507845446365E-002   0.0000000000000000     
  -1.2896752789246404E-002   7.9905446006605471E-002   0.0000000000000000     
  -1.3565433216064352E-002   5.4642776203324757E-002   0.0000000000000000     
  -1.4813837604308303E-002   6.1453590545592407E-002   0.0000000000000000     
  -1.5845846008212462E-002   6.7960989898477819E-002   0.0000000000000000     
  -1.6661458427776825E-002   7.4164974261981029E-002   0.0000000000000000     
  -1.7260674863001403E-002   8.0065543636102007E-002   0.0000000000000000     
   8.7081739388872315E-012   7.9699606198629980E-002   0.0000000000000000     
   1.3380819455927062E-011   8.5584559392604911E-002   0.0000000000000000     
   1.6645315876508138E-011   9.1779379151214313E-002   0.0000000000000000     
   1.8501662685634426E-011   9.8284065474458185E-002   0.0000000000000000     
   1.8949856874644899E-011  0.10509861836233651        0.0000000000000000     
  -4.2664153533916171E-003   7.9722477287869437E-002   0.0000000000000000     
  -4.3970063970296958E-003   8.5608292117659524E-002   0.0000000000000000     
  -4.5338151125949777E-003   9.1803341537543909E-002   0.0000000000000000     
  -4.6768415000874629E-003   9.8307625547522579E-002   0.0000000000000000     
  -4.8260855595071515E-003  0.10512114414759559        0.0000000000000000     
  -8.5653329527098105E-003   7.9791090557194619E-002   0.0000000000000000     
  -8.8238563381447498E-003   8.5679490294143235E-002   0.0000000000000000     
  -9.0958011209226891E-003   9.1875228697522432E-002   0.0000000000000000     
  -9.3811673010436251E-003   9.8378305767332169E-002   0.0000000000000000     
  -9.6799548785075559E-003  0.10518872150357245        0.0000000000000000     
  -1.2896752789246404E-002   7.9905446006605471E-002   0.0000000000000000     
  -1.3280549809964346E-002   8.5798153922056072E-002   0.0000000000000000     
  -1.3685958008337820E-002   9.1995040631149883E-002   0.0000000000000000     
  -1.4112977384366824E-002   9.8496106133886902E-002   0.0000000000000000     
  -1.4561607938051358E-002  0.10530135043026714        0.0000000000000000     
  -1.7260674863001403E-002   8.0065543636102007E-002   0.0000000000000000     
  -1.7767086812488477E-002   8.5964283001398009E-002   0.0000000000000000     
  -1.8304285774840365E-002   9.2162777338426288E-002   0.0000000000000000     
  -1.8872271750057061E-002   9.8661026647186803E-002   0.0000000000000000     
  -1.9471044738138557E-002  0.10545903092767962        0.0000000000000000     
   1.8949856874644899E-011  0.10509861836233651        0.0000000000000000     
   1.8385638497764312E-011  0.11214131424682171        0.0000000000000000     
   1.7204744031350250E-011  0.11933042955988619        0.0000000000000000     
   1.5407174098818963E-011  0.12666596430152996        0.0000000000000000     
   1.2992927914123875E-011  0.13414791847175309        0.0000000000000000     
  -4.8260855595071515E-003  0.10512114414759559        0.0000000000000000     
  -4.9749549318165538E-003  0.11216246898272754        0.0000000000000000     
  -5.1168572579781829E-003  0.11935017169788317        0.0000000000000000     
  -5.2517925379920354E-003  0.12668425229306246        0.0000000000000000     
  -5.3797607718581164E-003  0.13416471076826542        0.0000000000000000     
  -9.6799548785075559E-003  0.10518872150357245        0.0000000000000000     
  -9.9784662097891271E-003  0.11222593319024235        0.0000000000000000     
  -1.0263003651362977E-002  0.11940939811134094        0.0000000000000000     
  -1.0533567203229110E-002  0.12673911626686821        0.0000000000000000     
  -1.0790156865387519E-002  0.13421508765682416        0.0000000000000000     
  -1.4561607938051358E-002  0.10530135043026714        0.0000000000000000     
  -1.5010533815532079E-002  0.11233170686936615        0.0000000000000000     
  -1.5438439162949640E-002  0.11950810880025951        0.0000000000000000     
  -1.5845323980304048E-002  0.12683055622294725        0.0000000000000000     
  -1.6231188267595287E-002  0.13429904913742940        0.0000000000000000     
  -1.9471044738138557E-002  0.10545903092767962        0.0000000000000000     
  -2.0071157749045412E-002  0.11247979002009889        0.0000000000000000     
  -2.0643163792738176E-002  0.11964630376463888        0.0000000000000000     
  -2.1187062869216840E-002  0.12695857216129960        0.0000000000000000     
  -2.1702854978481415E-002  0.13441659521008101        0.0000000000000000     
   1.2992927914123875E-011  0.13414791847175309        0.0000000000000000     
   1.0580056362258228E-011  0.14173950126655349        0.0000000000000000     
   8.7866098945343918E-012  0.14940392188192919        0.0000000000000000     
   7.6125888362130190E-012  0.15714118031788035        0.0000000000000000     
   7.0579926451930231E-012  0.16495127657440681        0.0000000000000000     
  -5.3797607718581164E-003  0.13416471076826542        0.0000000000000000     
  -5.4996256095372481E-003  0.14175483802446159        0.0000000000000000     
  -5.6102507009902656E-003  0.14941792496262060        0.0000000000000000     
  -5.7116360462171690E-003  0.15715397158274241        0.0000000000000000     
  -5.8037816452179512E-003  0.16496297788482711        0.0000000000000000     
  -1.0790156865387519E-002  0.13421508765682416        0.0000000000000000     
  -1.1030513257706681E-002  0.14180084829711440        0.0000000000000000     
  -1.1252377000055061E-002  0.14945993420364442        0.0000000000000000     
  -1.1455748092432655E-002  0.15719234537641424        0.0000000000000000     
  -1.1640626534839467E-002  0.16499808181542389        0.0000000000000000     
  -1.6231188267595287E-002  0.13429904913742940        0.0000000000000000     
  -1.6592662933928234E-002  0.14187753208451184        0.0000000000000000     
  -1.6926378888407766E-002  0.14952994960500060        0.0000000000000000     
  -1.7232336131033869E-002  0.15725630169889573        0.0000000000000000     
  -1.7510534661806555E-002  0.16505658836619716        0.0000000000000000     
  -2.1702854978481415E-002  0.13441659521008101        0.0000000000000000     
  -2.2186074638201922E-002  0.14198488938665393        0.0000000000000000     
  -2.2632256366048393E-002  0.14962797116668924        0.0000000000000000     
  -2.3041400162020820E-002  0.15734584055018694        0.0000000000000000     
  -2.3413506026119215E-002  0.16513849753714696        0.0000000000000000     
   7.0579926451930231E-012  0.16495127657440681        0.0000000000000000     
   6.8644896624586726E-012  0.17285048248765239        0.0000000000000000     
   6.7737441090259809E-012  0.18085506989376091        0.0000000000000000     
   6.7857579906689669E-012  0.18896503879273235        0.0000000000000000     
   6.9005304942360013E-012  0.19718038918456665        0.0000000000000000     
  -5.8037816452179512E-003  0.16496297788482711        0.0000000000000000     
  -5.8879833730501614E-003  0.17286114875940695        0.0000000000000000     
  -5.9655371047713304E-003  0.18086468909701431        0.0000000000000000     
  -6.0364428403814636E-003  0.18897359889764923        0.0000000000000000     
  -6.1007005798805625E-003  0.19718787816131164        0.0000000000000000     
  -1.1640626534839467E-002  0.16499808181542389        0.0000000000000000     
  -1.1809702531848118E-002  0.17289314757428076        0.0000000000000000     
  -1.1965666288031220E-002  0.18089354670659236        0.0000000000000000     
  -1.2108517803388782E-002  0.18899927921235851        0.0000000000000000     
  -1.2238257077920795E-002  0.19721034509157936        0.0000000000000000     
  -1.7510534661806555E-002  0.16505658836619716        0.0000000000000000     
  -1.7765157469529384E-002  0.17294647893227394        0.0000000000000000     
  -1.8000387543005932E-002  0.18094164272249491        0.0000000000000000     
  -1.8216224882236197E-002  0.18904207973686024        0.0000000000000000     
  -1.8412669487220170E-002  0.19724778997536979        0.0000000000000000     
  -2.3413506026119215E-002  0.16513849753714696        0.0000000000000000     
  -2.3754348186093965E-002  0.17302114283338635        0.0000000000000000     
  -2.4069700869695457E-002  0.18100897714472211        0.0000000000000000     
  -2.4359564076923697E-002  0.18910200047115430        0.0000000000000000     
  -2.4623937807778683E-002  0.19730021281268290        0.0000000000000000     
   6.9005304942360013E-012  0.19718038918456665        0.0000000000000000     
   7.0449984821557843E-012  0.20547157818341064        0.0000000000000000     
   7.1461045631285303E-012  0.21380906290341112        0.0000000000000000     
   7.2038433432484311E-012  0.22219284334456804        0.0000000000000000     
   7.2182195116898829E-012  0.23062291950688141        0.0000000000000000     
  -6.1007005798805625E-003  0.19718787816131164        0.0000000000000000     
  -6.1580323603838113E-003  0.20547821076521669        0.0000000000000000     
  -6.2081602190064006E-003  0.21381528058657950        0.0000000000000000     
  -6.2510841557483253E-003  0.22219908762540000        0.0000000000000000     
  -6.2868041706095907E-003  0.23062963188167823        0.0000000000000000     
  -1.2238257077920795E-002  0.19721034509157936        0.0000000000000000     
  -1.2354085594157807E-002  0.20549810851069808        0.0000000000000000     
  -1.2455204834630364E-002  0.21383393363615794        0.0000000000000000     
  -1.2541614799338454E-002  0.22221782046795890        0.0000000000000000     
  -1.2613315488282090E-002  0.23064976900610101        0.0000000000000000     
  -1.8412669487220170E-002  0.19724778997536979        0.0000000000000000     
  -1.8588159694276993E-002  0.20553127141985481        0.0000000000000000     
  -1.8741133839725786E-002  0.21386502205214647        0.0000000000000000     
  -1.8871591923566546E-002  0.22224904187224476        0.0000000000000000     
  -1.8979533945799279E-002  0.23068333088014970        0.0000000000000000     
  -2.4623937807778683E-002  0.19730021281268290        0.0000000000000000     
  -2.4860254660741359E-002  0.20557769949268684        0.0000000000000000     
  -2.5065947234292663E-002  0.21390854583454502        0.0000000000000000     
  -2.5241015528432595E-002  0.22229275183825753        0.0000000000000000     
  -2.5385459543161151E-002  0.23073031750382433        0.0000000000000000     
   7.2182195116898829E-012  0.23062291950688141        0.0000000000000000     
   7.2118472218413165E-012  0.23907055223498927        0.0000000000000000     
   7.2073383502666011E-012  0.24750700237352971        0.0000000000000000     
   7.2046961224671996E-012  0.25593226992250268        0.0000000000000000     
   7.2039184513539301E-012  0.26434635488190827        0.0000000000000000     
  -6.2868041706095907E-003  0.23062963188167823        0.0000000000000000     
  -6.3167110967217131E-003  0.23907840720005419        0.0000000000000000     
  -6.3421957672162056E-003  0.24751690742516783        0.0000000000000000     
  -6.3632581820930734E-003  0.25594513255701917        0.0000000000000000     
  -6.3798983413523181E-003  0.26436308259560826        0.0000000000000000     
  -1.2613315488282090E-002  0.23064976900610101        0.0000000000000000     
  -1.2673360149262338E-002  0.23910197209524550        0.0000000000000000     
  -1.2724802030080277E-002  0.24754662258005378        0.0000000000000000     
  -1.2767641130735910E-002  0.25598372046052570        0.0000000000000000     
  -1.2801877451229229E-002  0.26441326573666130        0.0000000000000000     
  -1.8979533945799279E-002  0.23068333088014970        0.0000000000000000     
  -1.9069947150410039E-002  0.23914124692056327        0.0000000000000000     
  -1.9147818781384884E-002  0.24759614783818742        0.0000000000000000     
  -1.9213148838723808E-002  0.25604803363302225        0.0000000000000000     
  -1.9265937322426825E-002  0.26449690430506767        0.0000000000000000     
  -2.5385459543161151E-002  0.23073031750382433        0.0000000000000000     
  -2.5506472100164806E-002  0.23919623167600745        0.0000000000000000     
  -2.5611246021130015E-002  0.24766548319956896        0.0000000000000000     
  -2.5699781306056772E-002  0.25613807207450889        0.0000000000000000     
  -2.5772077954945093E-002  0.26461399830082716        0.0000000000000000     
   7.2039184513539301E-012  0.26434635488190827        0.0000000000000000     
   7.2026750883025237E-012  0.27268844710137374        0.0000000000000000     
   7.1986312310395872E-012  0.28089773643052657        0.0000000000000000     
   7.1917892105997916E-012  0.28897422286936669        0.0000000000000000     
   7.1821472380495521E-012  0.29691790641789417        0.0000000000000000     
  -6.3798983413523181E-003  0.26436308259560826        0.0000000000000000     
  -6.3959575815893833E-003  0.27271026272935667        0.0000000000000000     
  -6.4152772393997271E-003  0.28092617814668619        0.0000000000000000     
  -6.4378573147833434E-003  0.28901082884759688        0.0000000000000000     
  -6.4636978077402402E-003  0.29696421483208868        0.0000000000000000     
  -1.2801877451229229E-002  0.26441326573666130        0.0000000000000000     
  -1.2834623892650020E-002  0.27277570961325881        0.0000000000000000     
  -1.2872993356088061E-002  0.28101150329511637        0.0000000000000000     
  -1.2916985841543348E-002  0.28912064678223387        0.0000000000000000     
  -1.2966601349015890E-002  0.29710314007461142        0.0000000000000000     
  -1.9265937322426825E-002  0.26449690430506767        0.0000000000000000     
  -1.9315998925979235E-002  0.27288478775308034        0.0000000000000000     
  -1.9373148342866370E-002  0.28115371187581700        0.0000000000000000     
  -1.9437385573088231E-002  0.28930367667327767        0.0000000000000000     
  -1.9508710616644807E-002  0.29733468214546238        0.0000000000000000     
  -2.5772077954945093E-002  0.26461399830082716        0.0000000000000000     
  -2.5840082681577028E-002  0.27303749714882120        0.0000000000000000     
  -2.5915742199734654E-002  0.28135280388878825        0.0000000000000000     
  -2.5999056509417976E-002  0.28955991852072843        0.0000000000000000     
  -2.6090025610626986E-002  0.29765884104464158        0.0000000000000000     
  -1.3565433216064352E-002   5.4642776203324757E-002   0.0000000000000000     
  -1.4813837604308303E-002   6.1453590545592407E-002   0.0000000000000000     
  -1.5845846008212462E-002   6.7960989898477819E-002   0.0000000000000000     
  -1.6661458427776825E-002   7.4164974261981029E-002   0.0000000000000000     
  -1.7260674863001403E-002   8.0065543636102007E-002   0.0000000000000000     
  -1.7051787527065883E-002   5.4945071270228546E-002   0.0000000000000000     
  -1.8620221386208034E-002   6.1704492934394936E-002   0.0000000000000000     
  -1.9914826153686834E-002   6.8178363599795094E-002   0.0000000000000000     
  -2.0935601829502298E-002   7.4366683266429034E-002   0.0000000000000000     
  -2.1682548413654416E-002   8.0269451934296743E-002   0.0000000000000000     
  -2.0662251751497440E-002   5.5319571206646850E-002   0.0000000000000000     
  -2.2529061131291297E-002   6.2011767235670902E-002   0.0000000000000000     
  -2.4072259412787188E-002   6.8441777275871474E-002   0.0000000000000000     
  -2.5291846595985115E-002   7.4609601327248573E-002   0.0000000000000000     
  -2.6187822680885074E-002   8.0515239389802151E-002   0.0000000000000000     
  -2.4396825889359021E-002   5.5766276012579684E-002   0.0000000000000000     
  -2.6540356839558091E-002   6.2375413449420325E-002   0.0000000000000000     
  -2.8318145785513504E-002   6.8751230926706972E-002   0.0000000000000000     
  -2.9730192727225269E-002   7.4893728444439589E-002   0.0000000000000000     
  -3.0776497664693384E-002   8.0802906002618247E-002   0.0000000000000000     
  -2.8255509940650639E-002   5.6285185688027040E-002   0.0000000000000000     
  -3.0654108511008415E-002   6.2795431575643185E-002   0.0000000000000000     
  -3.2652485271865796E-002   6.9106724552301560E-002   0.0000000000000000     
  -3.4250640223222759E-002   7.5219064618002165E-002   0.0000000000000000     
  -3.5448573365079325E-002   8.1132451772745029E-002   0.0000000000000000     
  -1.7260674863001403E-002   8.0065543636102007E-002   0.0000000000000000     
  -1.7767086812488477E-002   8.5964283001398009E-002   0.0000000000000000     
  -1.8304285774840365E-002   9.2162777338426288E-002   0.0000000000000000     
  -1.8872271750057061E-002   9.8661026647186803E-002   0.0000000000000000     
  -1.9471044738138557E-002  0.10545903092767962        0.0000000000000000     
  -2.1682548413654416E-002   8.0269451934296743E-002   0.0000000000000000     
  -2.2312428161372508E-002   8.6176478086361571E-002   0.0000000000000000     
  -2.2982003327885900E-002   9.2377570205586873E-002   0.0000000000000000     
  -2.3691273913194581E-002   9.8872728291972647E-002   0.0000000000000000     
  -2.4440239917298559E-002  0.10566195234551884        0.0000000000000000     
  -2.6187822680885074E-002   8.0515239389802151E-002   0.0000000000000000     
  -2.6945534672271794E-002   8.6433339731139272E-002   0.0000000000000000     
  -2.7750329574929983E-002   9.2638550618866930E-002   0.0000000000000000     
  -2.8602207388859647E-002   9.9130872052985097E-002   0.0000000000000000     
  -2.9501168114060776E-002  0.10591030403349377        0.0000000000000000     
  -3.0776497664693384E-002   8.0802906002618247E-002   0.0000000000000000     
  -3.1666406345186332E-002   8.6734867935731139E-002   0.0000000000000000     
  -3.2609264515972618E-002   9.2945718578266445E-002   0.0000000000000000     
  -3.3605072177052248E-002   9.9435457930224222E-002   0.0000000000000000     
  -3.4653829328425194E-002  0.10620408599160443        0.0000000000000000     
  -3.5448573365079325E-002   8.1132451772745029E-002   0.0000000000000000     
  -3.6475043180116122E-002   8.7081062700137116E-002   0.0000000000000000     
  -3.7558808151013812E-002   9.3299074083785433E-002   0.0000000000000000     
  -3.8699868277772380E-002   9.9786485923689966E-002   0.0000000000000000     
  -3.9898223560391841E-002  0.10654329821985076        0.0000000000000000     
  -1.9471044738138557E-002  0.10545903092767962        0.0000000000000000     
  -2.0071157749045412E-002  0.11247979002009889        0.0000000000000000     
  -2.0643163792738176E-002  0.11964630376463888        0.0000000000000000     
  -2.1187062869216840E-002  0.12695857216129960        0.0000000000000000     
  -2.1702854978481415E-002  0.13441659521008101        0.0000000000000000     
  -2.4440239917298559E-002  0.10566195234551884        0.0000000000000000     
  -2.5191509392137806E-002  0.11267081955969957        0.0000000000000000     
  -2.5907690389652301E-002  0.11982490712798892        0.0000000000000000     
  -2.6588782909842044E-002  0.12712421505038682        0.0000000000000000     
  -2.7234786952707032E-002  0.13456874332689331        0.0000000000000000     
  -2.9501168114060776E-002  0.10591030403349377        0.0000000000000000     
  -3.0402760126617953E-002  0.11290543240542718        0.0000000000000000     
  -3.1262531802615769E-002  0.12004484301381943        0.0000000000000000     
  -3.2080483142054202E-002  0.12732853585867054        0.0000000000000000     
  -3.2856614144933266E-002  0.13475651093998051        0.0000000000000000     
  -3.4653829328425194E-002  0.10620408599160443        0.0000000000000000     
  -3.5704909952485854E-002  0.11318362855728162        0.0000000000000000     
  -3.6707688031628556E-002  0.12030611142213042        0.0000000000000000     
  -3.7662163565853314E-002  0.12757153458615073        0.0000000000000000     
  -3.8568336555160135E-002  0.13497989804934263        0.0000000000000000     
  -3.9898223560391841E-002  0.10654329821985076        0.0000000000000000     
  -4.1097958869741498E-002  0.11350540801526299        0.0000000000000000     
  -4.2243159076690684E-002  0.12060871235292188        0.0000000000000000     
  -4.3333824181239378E-002  0.12785321123282745        0.0000000000000000     
  -4.4369954183387607E-002  0.13523890465497970        0.0000000000000000     
  -2.1702854978481415E-002  0.13441659521008101        0.0000000000000000     
  -2.2186074638201922E-002  0.14198488938665393        0.0000000000000000     
  -2.2632256366048393E-002  0.14962797116668924        0.0000000000000000     
  -2.3041400162020820E-002  0.15734584055018694        0.0000000000000000     
  -2.3413506026119215E-002  0.16513849753714696        0.0000000000000000     
  -2.7234786952707032E-002  0.13456874332689331        0.0000000000000000     
  -2.7840223561267863E-002  0.14212390393301530        0.0000000000000000     
  -2.8399613778545153E-002  0.14975510884425974        0.0000000000000000     
  -2.8912957604538894E-002  0.15746235806062664        0.0000000000000000     
  -2.9380255039249084E-002  0.16524565158211602        0.0000000000000000     
  -3.2856614144933266E-002  0.13475651093998051        0.0000000000000000     
  -3.3584584893866211E-002  0.14229555945307049        0.0000000000000000     
  -3.4258055471466285E-002  0.14991247259326163        0.0000000000000000     
  -3.4877025877733475E-002  0.15760725036055387        0.0000000000000000     
  -3.5441496112667809E-002  0.16537989275494722        0.0000000000000000     
  -3.8568336555160135E-002  0.13497989804934263        0.0000000000000000     
  -3.9419158635996959E-002  0.14249985594681952        0.0000000000000000     
  -4.0207581444811784E-002  0.15010006241369483        0.0000000000000000     
  -4.0933604981604588E-002  0.15778051744996849        0.0000000000000000     
  -4.1597229246375378E-002  0.16554122105564054        0.0000000000000000     
  -4.4369954183387607E-002  0.13523890465497970        0.0000000000000000     
  -4.5343944787660115E-002  0.14273679341426240        0.0000000000000000     
  -4.6248191698581645E-002  0.15031787830555934        0.0000000000000000     
  -4.7082694916152211E-002  0.15798215932887055        0.0000000000000000     
  -4.7847454440371806E-002  0.16572963648419600        0.0000000000000000     
  -2.3413506026119215E-002  0.16513849753714696        0.0000000000000000     
  -2.3754348186093965E-002  0.17302114283338635        0.0000000000000000     
  -2.4069700869695457E-002  0.18100897714472211        0.0000000000000000     
  -2.4359564076923697E-002  0.18910200047115430        0.0000000000000000     
  -2.4623937807778683E-002  0.19730021281268290        0.0000000000000000     
  -2.9380255039249084E-002  0.16524565158211602        0.0000000000000000     
  -2.9808862737149590E-002  0.17311938272888147        0.0000000000000000     
  -3.0206137352714272E-002  0.18109794482107661        0.0000000000000000     
  -3.0572078885943127E-002  0.18918133785870150        0.0000000000000000     
  -3.0906687336836155E-002  0.19736956184175611        0.0000000000000000     
  -3.5441496112667809E-002  0.16537989275494722        0.0000000000000000     
  -3.5960289178304017E-002  0.17324344207002262        0.0000000000000000     
  -3.6442228076676846E-002  0.18121094059936105        0.0000000000000000     
  -3.6887312807786302E-002  0.18928238834296246        0.0000000000000000     
  -3.7295543371632392E-002  0.19745778530082689        0.0000000000000000     
  -4.1597229246375378E-002  0.16554122105564054        0.0000000000000000     
  -4.2208627509557221E-002  0.17339332085680992        0.0000000000000000     
  -4.2777973041583171E-002  0.18134796447957546        0.0000000000000000     
  -4.3305265842453235E-002  0.18940515192393720        0.0000000000000000     
  -4.3790505912167405E-002  0.19756488318989512        0.0000000000000000     
  -4.7847454440371806E-002  0.16572963648419600        0.0000000000000000     
  -4.8553877730909224E-002  0.17356901908924327        0.0000000000000000     
  -4.9213372247433253E-002  0.18150901646171982        0.0000000000000000     
  -4.9825937989943905E-002  0.18954962860162569        0.0000000000000000     
  -5.0391574958441189E-002  0.19769085550896090        0.0000000000000000     
  -2.4623937807778683E-002  0.19730021281268290        0.0000000000000000     
  -2.4860254660741359E-002  0.20557769949268684        0.0000000000000000     
  -2.5065947234292663E-002  0.21390854583454502        0.0000000000000000     
  -2.5241015528432595E-002  0.22229275183825753        0.0000000000000000     
  -2.5385459543161151E-002  0.23073031750382433        0.0000000000000000     
  -3.0906687336836155E-002  0.19736956184175611        0.0000000000000000     
  -3.1206194461707835E-002  0.20563868622387230        0.0000000000000000     
  -3.1466832016872649E-002  0.21396478045868181        0.0000000000000000     
  -3.1688600002330598E-002  0.22234784454618473        0.0000000000000000     
  -3.1871498418081685E-002  0.23078787848638099        0.0000000000000000     
  -3.7295543371632392E-002  0.19745778530082689        0.0000000000000000     
  -3.7661803065333350E-002  0.20571552510808933        0.0000000000000000     
  -3.7980975186007404E-002  0.21403400139988499        0.0000000000000000     
  -3.8253059733654567E-002  0.22241321417621379        0.0000000000000000     
  -3.8478056708274838E-002  0.23085316343707579        0.0000000000000000     
  -4.3790505912167405E-002  0.19756488318989512        0.0000000000000000     
  -4.4227080471617893E-002  0.20580821614533801        0.0000000000000000     
  -4.4608376741696938E-002  0.21411620865815453        0.0000000000000000     
  -4.4934394722404500E-002  0.22248886072834478        0.0000000000000000     
  -4.5205134413740605E-002  0.23092617235590870        0.0000000000000000     
  -5.0391574958441189E-002  0.19769085550896090        0.0000000000000000     
  -5.0902026680561485E-002  0.20591675933561823        0.0000000000000000     
  -5.1349036683941217E-002  0.21421140223349050        0.0000000000000000     
  -5.1732604968580391E-002  0.22257478420257773        0.0000000000000000     
  -5.2052731534479001E-002  0.23100690524287984        0.0000000000000000     
  -2.5385459543161151E-002  0.23073031750382433        0.0000000000000000     
  -2.5506472100164806E-002  0.23919623167600745        0.0000000000000000     
  -2.5611246021130015E-002  0.24766548319956896        0.0000000000000000     
  -2.5699781306056772E-002  0.25613807207450889        0.0000000000000000     
  -2.5772077954945093E-002  0.26461399830082716        0.0000000000000000     
  -3.1871498418081685E-002  0.23078787848638099        0.0000000000000000     
  -3.2024643731927718E-002  0.23926241794292855        0.0000000000000000     
  -3.2157152411670512E-002  0.24774899857948540        0.0000000000000000     
  -3.2269024457310079E-002  0.25624762039605153        0.0000000000000000     
  -3.2360259868846400E-002  0.26475828339262691        0.0000000000000000     
  -3.8478056708274838E-002  0.23085316343707579        0.0000000000000000     
  -3.8666170779099833E-002  0.23933529730267708        0.0000000000000000     
  -3.8827606615361221E-002  0.24784106389322391        0.0000000000000000     
  -3.8962364217058974E-002  0.25637046320871620        0.0000000000000000     
  -3.9070443584193114E-002  0.26492349524915404        0.0000000000000000     
  -4.5205134413740605E-002  0.23092617235590870        0.0000000000000000     
  -4.5431053241681181E-002  0.23941486975525303        0.0000000000000000     
  -4.5622608632202140E-002  0.24794167914078444        0.0000000000000000     
  -4.5779800585303489E-002  0.25650660051250285        0.0000000000000000     
  -4.5902629100985221E-002  0.26510963387040848        0.0000000000000000     
  -5.2052731534479001E-002  0.23100690524287984        0.0000000000000000     
  -5.2319291119671728E-002  0.23950113530065639        0.0000000000000000     
  -5.2542158462193268E-002  0.24805084432216698        0.0000000000000000     
  -5.2721333562043601E-002  0.25665603230741157        0.0000000000000000     
  -5.2856816419222755E-002  0.26531669925639012        0.0000000000000000     
  -2.5772077954945093E-002  0.26461399830082716        0.0000000000000000     
  -2.5840082681577028E-002  0.27303749714882120        0.0000000000000000     
  -2.5915742199734654E-002  0.28135280388878825        0.0000000000000000     
  -2.5999056509417976E-002  0.28955991852072843        0.0000000000000000     
  -2.6090025610626986E-002  0.29765884104464158        0.0000000000000000     
  -3.2360259868846400E-002  0.26475828339262691        0.0000000000000000     
  -3.2445336586515612E-002  0.27322750022263859        0.0000000000000000     
  -3.2538732550553839E-002  0.28160178353951359        0.0000000000000000     
  -3.2640447760961089E-002  0.28988113334325188        0.0000000000000000     
  -3.2750482217737346E-002  0.29806554963385351        0.0000000000000000     
  -3.9070443584193114E-002  0.26492349524915404        0.0000000000000000     
  -3.9170222067867203E-002  0.27344845939668999        0.0000000000000000     
  -3.9280077019184845E-002  0.28189365503347680        0.0000000000000000     
  -3.9400008438146054E-002  0.29025908215951429        0.0000000000000000     
  -3.9530016324750797E-002  0.29854474077480270        0.0000000000000000     
  -4.5902629100985221E-002  0.26510963387040848        0.0000000000000000     
  -4.6014739125631816E-002  0.27370037467097524        0.0000000000000000     
  -4.6139775605627688E-002  0.28222841837067764        0.0000000000000000     
  -4.6277738540972869E-002  0.29069376496951560        0.0000000000000000     
  -4.6428627931667341E-002  0.29909641446748908        0.0000000000000000     
  -5.2856816419222755E-002  0.26531669925639012        0.0000000000000000     
  -5.2978887759809419E-002  0.27398324604549446        0.0000000000000000     
  -5.3117828309882355E-002  0.28260607355111633        0.0000000000000000     
  -5.3273638069441534E-002  0.29118518177325581        0.0000000000000000     
  -5.3446317038486978E-002  0.29972057071191271        0.0000000000000000     
  -2.8255509940650639E-002   5.6285185688027040E-002   0.0000000000000000     
  -3.0654108511008415E-002   6.2795431575643185E-002   0.0000000000000000     
  -3.2652485271865796E-002   6.9106724552301560E-002   0.0000000000000000     
  -3.4250640223222759E-002   7.5219064618002165E-002   0.0000000000000000     
  -3.5448573365079325E-002   8.1132451772745029E-002   0.0000000000000000     
  -3.2182420904878148E-002   5.6868004880595929E-002   0.0000000000000000     
  -3.4856242392768064E-002   6.3272336841027038E-002   0.0000000000000000     
  -3.7089183775878776E-002   6.9514609986313355E-002   0.0000000000000000     
  -3.8881245054210305E-002   7.5594824316454923E-002   0.0000000000000000     
  -4.0232426227762644E-002   8.1512979831451685E-002   0.0000000000000000     
  -3.6121675781547423E-002   5.7506438237893372E-002   0.0000000000000000     
  -3.9132684731962797E-002   6.3806644472259422E-002   0.0000000000000000     
  -4.1642147201587196E-002   6.9981239062400460E-002   0.0000000000000000     
  -4.3650063190420620E-002   7.6030222008316467E-002   0.0000000000000000     
  -4.5156432698463062E-002   8.1953593310007428E-002   0.0000000000000000     
  -4.0073274570658464E-002   5.8200485759919360E-002   0.0000000000000000     
  -4.3483435528592629E-002   6.4398354469340363E-002   0.0000000000000000     
  -4.6311375548991035E-002   7.0506611780562833E-002   0.0000000000000000     
  -4.8557094631853689E-002   7.6525257693586798E-002   0.0000000000000000     
  -5.0220592777180578E-002   8.2454292208412258E-002   0.0000000000000000     
  -4.4037217272211285E-002   5.8950147446673914E-002   0.0000000000000000     
  -4.7908494782657553E-002   6.5047466832269835E-002   0.0000000000000000     
  -5.1096868818090301E-002   7.1090728140800502E-002   0.0000000000000000     
  -5.3602339378509521E-002   7.7079931372265958E-002   0.0000000000000000     
  -5.5424906463915194E-002   8.3015076526666204E-002   0.0000000000000000     
  -3.5448573365079325E-002   8.1132451772745029E-002   0.0000000000000000     
  -3.6475043180116122E-002   8.7081062700137116E-002   0.0000000000000000     
  -3.7558808151013812E-002   9.3299074083785433E-002   0.0000000000000000     
  -3.8699868277772380E-002   9.9786485923689966E-002   0.0000000000000000     
  -3.9898223560391841E-002  0.10654329821985076        0.0000000000000000     
  -4.0232426227762644E-002   8.1512979831451685E-002   0.0000000000000000     
  -4.1394227096304623E-002   8.7479324018616023E-002   0.0000000000000000     
  -4.2618147459605113E-002   9.3704104365260207E-002   0.0000000000000000     
  -4.3904187317664094E-002  0.10018732087138428        0.0000000000000000     
  -4.5252346670481565E-002  0.10692897353698820        0.0000000000000000     
  -4.5156432698463062E-002   8.1953593310007428E-002   0.0000000000000000     
  -4.6446740012995286E-002   8.7937051885426595E-002   0.0000000000000000     
  -4.7806469421298063E-002   9.4166296652527084E-002   0.0000000000000000     
  -4.9235620923371401E-002  0.10064132761130899        0.0000000000000000     
  -5.0734194519215278E-002  0.10736214476177222        0.0000000000000000     
  -5.0220592777180578E-002   8.2454292208412258E-002   0.0000000000000000     
  -5.1632581930188118E-002   8.8454246300568834E-002   0.0000000000000000     
  -5.3123774036092697E-002   9.4685650945586092E-002   0.0000000000000000     
  -5.4694169094894302E-002  0.10114850614346410        0.0000000000000000     
  -5.6343767106592946E-002  0.10784281189420275        0.0000000000000000     
  -5.5424906463915194E-002   8.3015076526666204E-002   0.0000000000000000     
  -5.6951752847883098E-002   8.9030907264042752E-002   0.0000000000000000     
  -5.8570061303988966E-002   9.5262167244437229E-002   0.0000000000000000     
  -6.0279831832232809E-002  0.10170885646784959        0.0000000000000000     
  -6.2081064432614616E-002  0.10837097493427987        0.0000000000000000     
  -3.9898223560391841E-002  0.10654329821985076        0.0000000000000000     
  -4.1097958869741498E-002  0.11350540801526299        0.0000000000000000     
  -4.2243159076690684E-002  0.12060871235292188        0.0000000000000000     
  -4.3333824181239378E-002  0.12785321123282745        0.0000000000000000     
  -4.4369954183387607E-002  0.13523890465497970        0.0000000000000000     
  -4.5252346670481565E-002  0.10692897353698820        0.0000000000000000     
  -4.6601325830320096E-002  0.11386997840324813        0.0000000000000000     
  -4.7889825109442216E-002  0.12095125151134012        0.0000000000000000     
  -4.9117844507847931E-002  0.12817279286126418        0.0000000000000000     
  -5.0285384025537228E-002  0.13553460245302024        0.0000000000000000     
  -5.0734194519215278E-002  0.10736214476177222        0.0000000000000000     
  -5.2234429786156847E-002  0.11427654734511397        0.0000000000000000     
  -5.3668566301523238E-002  0.12133233460253133        0.0000000000000000     
  -5.5036604065314451E-002  0.12852950653402434        0.0000000000000000     
  -5.6338543077530501E-002  0.13586806313959296        0.0000000000000000     
  -5.6343767106592946E-002  0.10784281189420275        0.0000000000000000     
  -5.7997270737251742E-002  0.11472511484086048        0.0000000000000000     
  -5.9579382652933742E-002  0.12175196162649557        0.0000000000000000     
  -6.1090102853638972E-002  0.12892335225110799        0.0000000000000000     
  -6.2529431339367419E-002  0.13623928671469776        0.0000000000000000     
  -6.2081064432614616E-002  0.10837097493427987        0.0000000000000000     
  -6.3889848683604783E-002  0.11521568089048773        0.0000000000000000     
  -6.5622274163673749E-002  0.12221013258323282        0.0000000000000000     
  -6.7278340872821488E-002  0.12935433001251515        0.0000000000000000     
  -6.8858048811047998E-002  0.13664827317833475        0.0000000000000000     
  -4.4369954183387607E-002  0.13523890465497970        0.0000000000000000     
  -4.5343944787660115E-002  0.14273679341426240        0.0000000000000000     
  -4.6248191698581645E-002  0.15031787830555934        0.0000000000000000     
  -4.7082694916152211E-002  0.15798215932887055        0.0000000000000000     
  -4.7847454440371806E-002  0.16572963648419600        0.0000000000000000     
  -5.0285384025537228E-002  0.13553460245302024        0.0000000000000000     
  -5.1384168330911265E-002  0.14300947252050358        0.0000000000000000     
  -5.2405922092371188E-002  0.15057019529760926        0.0000000000000000     
  -5.3350645309916962E-002  0.15821677078433732        0.0000000000000000     
  -5.4218337983548630E-002  0.16594919898068777        0.0000000000000000     
  -5.6338543077530501E-002  0.13586806313959296        0.0000000000000000     
  -5.7565054247806023E-002  0.14332099393064759        0.0000000000000000     
  -5.8706808485775676E-002  0.15086128841859867        0.0000000000000000     
  -5.9763805791439480E-002  0.15848894660344612        0.0000000000000000     
  -6.0736046164797400E-002  0.16620396848518998        0.0000000000000000     
  -6.2529431339367419E-002  0.13623928671469776        0.0000000000000000     
  -6.3886602538344384E-002  0.14367135764469441        0.0000000000000000     
  -6.5150850878795158E-002  0.15119115766852748        0.0000000000000000     
  -6.6322176360719742E-002  0.15879868678619685        0.0000000000000000     
  -6.7400578984118123E-002  0.16649394499770268        0.0000000000000000     
  -6.8858048811047998E-002  0.13664827317833475        0.0000000000000000     
  -7.0348813202526339E-002  0.14406056366264411        0.0000000000000000     
  -7.1738049271429599E-002  0.15155980304739572        0.0000000000000000     
  -7.3025757017757750E-002  0.15914599133258964        0.0000000000000000     
  -7.4211936441510792E-002  0.16681912851822581        0.0000000000000000     
  -4.7847454440371806E-002  0.16572963648419600        0.0000000000000000     
  -4.8553877730909224E-002  0.17356901908924327        0.0000000000000000     
  -4.9213372247433253E-002  0.18150901646171982        0.0000000000000000     
  -4.9825937989943905E-002  0.18954962860162569        0.0000000000000000     
  -5.0391574958441189E-002  0.19769085550896090        0.0000000000000000     
  -5.4218337983548630E-002  0.16594919898068777        0.0000000000000000     
  -5.5021819442488754E-002  0.17377394001985233        0.0000000000000000     
  -5.5773909015959938E-002  0.18169745403502280        0.0000000000000000     
  -5.6474606703962191E-002  0.18971974102619910        0.0000000000000000     
  -5.7123912506495497E-002  0.19784080099338133        0.0000000000000000     
  -6.0736046164797400E-002  0.16620396848518998        0.0000000000000000     
  -6.1638232244424558E-002  0.17401148690116677        0.0000000000000000     
  -6.2485066668896076E-002  0.18191663468871289        0.0000000000000000     
  -6.3276549438211913E-002  0.18991941184782851        0.0000000000000000     
  -6.4012680552372109E-002  0.19801981837851348        0.0000000000000000     
  -6.7400578984118123E-002  0.16649394499770268        0.0000000000000000     
  -6.8403116136716652E-002  0.17428165973318660        0.0000000000000000     
  -6.9346845206241653E-002  0.18216655842279034        0.0000000000000000     
  -7.0231766192693099E-002  0.19014864106651394        0.0000000000000000     
  -7.1057879096071003E-002  0.19822790766435738        0.0000000000000000     
  -7.4211936441510792E-002  0.16681912851822581        0.0000000000000000     
  -7.5316471119365014E-002  0.17458445851591173        0.0000000000000000     
  -7.6359244627996647E-002  0.18244722523725496        0.0000000000000000     
  -7.7340256967405735E-002  0.19040742868225535        0.0000000000000000     
  -7.8259508137592221E-002  0.19846506885091303        0.0000000000000000     
  -5.0391574958441189E-002  0.19769085550896090        0.0000000000000000     
  -5.0902026680561485E-002  0.20591675933561823        0.0000000000000000     
  -5.1349036683941217E-002  0.21421140223349050        0.0000000000000000     
  -5.1732604968580391E-002  0.22257478420257773        0.0000000000000000     
  -5.2052731534479001E-002  0.23100690524287984        0.0000000000000000     
  -5.7123912506495497E-002  0.19784080099338133        0.0000000000000000     
  -5.7712326453727904E-002  0.20604732219735911        0.0000000000000000     
  -5.8230348575827470E-002  0.21432599289892207        0.0000000000000000     
  -5.8677978872794190E-002  0.22267681309807030        0.0000000000000000     
  -5.9055217344628048E-002  0.23109978279480378        0.0000000000000000     
  -6.4012680552372109E-002  0.19801981837851348        0.0000000000000000     
  -6.4683664552680972E-002  0.20620607224898960        0.0000000000000000     
  -6.5279705980442887E-002  0.21446639142747864        0.0000000000000000     
  -6.5800804835657825E-002  0.22280077591398048        0.0000000000000000     
  -6.6246961118325801E-002  0.23120922570849523        0.0000000000000000     
  -7.1057879096071003E-002  0.19822790766435738        0.0000000000000000     
  -7.1816040977420698E-002  0.20639300949050970        0.0000000000000000     
  -7.2497108897787460E-002  0.21463259781916000        0.0000000000000000     
  -7.3101082857171318E-002  0.22294667265030818        0.0000000000000000     
  -7.3627962855572257E-002  0.23133523398395425        0.0000000000000000     
  -7.8259508137592221E-002  0.19846506885091303        0.0000000000000000     
  -7.9109455727947059E-002  0.20660813392191951        0.0000000000000000     
  -7.9882557327861217E-002  0.21482461207396628        0.0000000000000000     
  -8.0578812937334654E-002  0.22311450330705340        0.0000000000000000     
  -8.1198222556367397E-002  0.23147780762118081        0.0000000000000000     
  -5.2052731534479001E-002  0.23100690524287984        0.0000000000000000     
  -5.2319291119671728E-002  0.23950113530065639        0.0000000000000000     
  -5.2542158462193268E-002  0.24805084432216698        0.0000000000000000     
  -5.2721333562043601E-002  0.25665603230741157        0.0000000000000000     
  -5.2856816419222755E-002  0.26531669925639012        0.0000000000000000     
  -5.9055217344628048E-002  0.23109978279480378        0.0000000000000000     
  -5.9370045916024211E-002  0.23959553592980451        0.0000000000000000     
  -5.9630446511677822E-002  0.24816470644375466        0.0000000000000000     
  -5.9836419131588860E-002  0.25680729433665422        0.0000000000000000     
  -5.9987963775757353E-002  0.26552329960850313        0.0000000000000000     
  -6.6246961118325801E-002  0.23120922570849523        0.0000000000000000     
  -6.6622479133691348E-002  0.23969951363361466        0.0000000000000000     
  -6.6931663186999016E-002  0.24827941251193045        0.0000000000000000     
  -6.7174513278248804E-002  0.25694892234344269        0.0000000000000000     
  -6.7351029407440699E-002  0.26570804312815133        0.0000000000000000     
  -7.3627962855572257E-002  0.23133523398395425        0.0000000000000000     
  -7.4076590772673145E-002  0.23981306841208685        0.0000000000000000     
  -7.4445808488156850E-002  0.24839496252669441        0.0000000000000000     
  -7.4735616002023414E-002  0.25708091632777702        0.0000000000000000     
  -7.4946013314272794E-002  0.26587092981533467        0.0000000000000000     
  -8.1198222556367397E-002  0.23147780762118081        0.0000000000000000     
  -8.1732380832969576E-002  0.23993620026522100        0.0000000000000000     
  -8.2172882415151333E-002  0.24851135648804651        0.0000000000000000     
  -8.2519727302912696E-002  0.25720327628965728        0.0000000000000000     
  -8.2772915496253638E-002  0.26601195967005331        0.0000000000000000     
  -5.2856816419222755E-002  0.26531669925639012        0.0000000000000000     
  -5.2978887759809419E-002  0.27398324604549446        0.0000000000000000     
  -5.3117828309882355E-002  0.28260607355111633        0.0000000000000000     
  -5.3273638069441534E-002  0.29118518177325581        0.0000000000000000     
  -5.3446317038486978E-002  0.29972057071191271        0.0000000000000000     
  -5.9987963775757353E-002  0.26552329960850313        0.0000000000000000     
  -6.0121363758885285E-002  0.27426829150754928        0.0000000000000000     
  -6.0272902395674684E-002  0.28299783928204048        0.0000000000000000     
  -6.0442579686125542E-002  0.29171194293197683        0.0000000000000000     
  -6.0630395630237865E-002  0.30041060245735818        0.0000000000000000     
  -6.7351029407440699E-002  0.26570804312815133        0.0000000000000000     
  -6.7500862911344620E-002  0.27452672904444131        0.0000000000000000     
  -6.7663665126730513E-002  0.28337493427069771        0.0000000000000000     
  -6.7839436053598351E-002  0.29225265880692064        0.0000000000000000     
  -6.8028175691948134E-002  0.30115990265310982        0.0000000000000000     
  -7.4946013314272794E-002  0.26587092981533467        0.0000000000000000     
  -7.5117385217187471E-002  0.27475855865617066        0.0000000000000000     
  -7.5290116503049856E-002  0.28373735851708815        0.0000000000000000     
  -7.5464207171859976E-002  0.29280732939808723        0.0000000000000000     
  -7.5639657223617818E-002  0.30196847129916776        0.0000000000000000     
  -8.2772915496253638E-002  0.26601195967005331        0.0000000000000000     
  -8.2970930676413771E-002  0.27496378034273727        0.0000000000000000     
  -8.3152256524632706E-002  0.28408511202121167        0.0000000000000000     
  -8.3316893040910389E-002  0.29337595470547662        0.0000000000000000     
  -8.3464840225246889E-002  0.30283630839553199        0.0000000000000000     
  -4.4037217272211285E-002   5.8950147446673914E-002   0.0000000000000000     
  -4.7908494782657553E-002   6.5047466832269835E-002   0.0000000000000000     
  -5.1096868818090301E-002   7.1090728140800502E-002   0.0000000000000000     
  -5.3602339378509521E-002   7.7079931372265958E-002   0.0000000000000000     
  -5.5424906463915194E-002   8.3015076526666204E-002   0.0000000000000000     
  -4.8361330024002523E-002   5.9759573216375539E-002   0.0000000000000000     
  -5.2616677919068752E-002   6.5756071080170606E-002   0.0000000000000000     
  -5.6110925836011342E-002   7.1731541881252997E-002   0.0000000000000000     
  -5.8844073774830301E-002   7.7685985619622686E-002   0.0000000000000000     
  -6.0816121735525593E-002   8.3619402295279699E-002   0.0000000000000000     
  -5.3393438963828845E-002   6.0632912987242785E-002   0.0000000000000000     
  -5.7816800362737404E-002   6.6526256732165473E-002   0.0000000000000000     
  -6.1465845429880518E-002   7.2427006740059807E-002   0.0000000000000000     
  -6.4340574165258194E-002   7.8335163010925704E-002   0.0000000000000000     
  -6.6440986568870417E-002   8.4250725544763219E-002   0.0000000000000000     
  -5.9133544091690270E-002   6.1570166759275645E-002   0.0000000000000000     
  -6.3508862113663508E-002   6.7358023788254451E-002   0.0000000000000000     
  -6.7161627599697821E-002   7.3177122717220919E-002   0.0000000000000000     
  -7.0091840549793227E-002   7.9027463546175042E-002   0.0000000000000000     
  -7.2299500963949700E-002   8.4909046275116834E-002   0.0000000000000000     
  -6.5581645407586764E-002   6.2571334532474127E-002   0.0000000000000000     
  -6.9692863171847044E-002   6.8251372248437497E-002   0.0000000000000000     
  -7.3198272345463250E-002   7.3981889812736359E-002   0.0000000000000000     
  -7.6097872928435367E-002   7.9762887225370671E-002   0.0000000000000000     
  -7.8391664920763410E-002   8.5594364486340460E-002   0.0000000000000000     
  -5.5424906463915194E-002   8.3015076526666204E-002   0.0000000000000000     
  -5.6951752847883098E-002   8.9030907264042752E-002   0.0000000000000000     
  -5.8570061303988966E-002   9.5262167244437229E-002   0.0000000000000000     
  -6.0279831832232809E-002  0.10170885646784959        0.0000000000000000     
  -6.2081064432614616E-002  0.10837097493427987        0.0000000000000000     
  -6.0816121735525593E-002   8.3619402295279699E-002   0.0000000000000000     
  -6.2459037189684957E-002   8.9643898655266424E-002   0.0000000000000000     
  -6.4204787608896099E-002   9.5871581446625373E-002   0.0000000000000000     
  -6.6053372993159026E-002  0.10230245066935649        0.0000000000000000     
  -6.8004793342473738E-002  0.10893650632345980        0.0000000000000000     
  -6.6440986568870417E-002   8.4250725544763219E-002   0.0000000000000000     
  -6.8209219379198396E-002   9.0270084353657937E-002   0.0000000000000000     
  -7.0087409334723266E-002   9.6489629449695455E-002   0.0000000000000000     
  -7.2075556435445082E-002  0.10290936083287576        0.0000000000000000     
  -7.4173660681363773E-002  0.10952927850319885        0.0000000000000000     
  -7.2299500963949700E-002   8.4909046275116834E-002   0.0000000000000000     
  -7.4202299416423409E-002   9.0909464359217276E-002   0.0000000000000000     
  -7.6217926481470494E-002   9.7116311253647475E-002   0.0000000000000000     
  -7.8346382159090955E-002  0.10352958695840739        0.0000000000000000     
  -8.0587666449284792E-002  0.11014929147349702        0.0000000000000000     
  -7.8391664920763410E-002   8.5594364486340460E-002   0.0000000000000000     
  -8.0438277301359995E-002   9.1562038671944457E-002   0.0000000000000000     
  -8.2596339049137754E-002   9.7751626858481447E-002   0.0000000000000000     
  -8.4865850164096659E-002  0.10416312904595139        0.0000000000000000     
  -8.7246810646236739E-002  0.11079654523435431        0.0000000000000000     
  -6.2081064432614616E-002  0.10837097493427987        0.0000000000000000     
  -6.3889848683604783E-002  0.11521568089048773        0.0000000000000000     
  -6.5622274163673749E-002  0.12221013258323282        0.0000000000000000     
  -6.7278340872821488E-002  0.12935433001251515        0.0000000000000000     
  -6.8858048811047998E-002  0.13664827317833475        0.0000000000000000     
  -6.8004793342473738E-002  0.10893650632345980        0.0000000000000000     
  -6.9966834978266917E-002  0.11574842690653929        0.0000000000000000     
  -7.1847284221965291E-002  0.12271289091619904        0.0000000000000000     
  -7.3646141073568858E-002  0.12982989835243897        0.0000000000000000     
  -7.5363405533077604E-002  0.13709944921525916        0.0000000000000000     
  -7.4173660681363773E-002  0.10952927850319885        0.0000000000000000     
  -7.6282900974289039E-002  0.11632353430155892        0.0000000000000000     
  -7.8304456216030438E-002  0.12326628006885020        0.0000000000000000     
  -8.0238326406587956E-002  0.13035751580507265        0.0000000000000000     
  -8.2084511545961636E-002  0.13759724151022631        0.0000000000000000     
  -8.0587666449284792E-002  0.11014929147349702        0.0000000000000000     
  -8.2838046671671162E-002  0.11694100307554660        0.0000000000000000     
  -8.4993790145869150E-002  0.12387030004118629        0.0000000000000000     
  -8.7054896871878826E-002  0.13093718237041616        0.0000000000000000     
  -8.9021366849700120E-002  0.13814165006323617        0.0000000000000000     
  -8.7246810646236739E-002  0.11079654523435431        0.0000000000000000     
  -8.9632272070413271E-002  0.11760083322850226        0.0000000000000000     
  -9.1915286011481481E-002  0.12452495083320733        0.0000000000000000     
  -9.4095852469441382E-002  0.13156889804846950        0.0000000000000000     
  -9.6173971444292988E-002  0.13873267487428881        0.0000000000000000     
  -6.8858048811047998E-002  0.13664827317833475        0.0000000000000000     
  -7.0348813202526339E-002  0.14406056366264411        0.0000000000000000     
  -7.1738049271429599E-002  0.15155980304739572        0.0000000000000000     
  -7.3025757017757750E-002  0.15914599133258964        0.0000000000000000     
  -7.4211936441510792E-002  0.16681912851822581        0.0000000000000000     
  -7.5363405533077604E-002  0.13709944921525916        0.0000000000000000     
  -7.6984995849080862E-002  0.14448868295572104        0.0000000000000000     
  -7.8496830270167919E-002  0.15196473902488608        0.0000000000000000     
  -7.9898908796338819E-002  0.15952761742275434        0.0000000000000000     
  -8.1191231427593505E-002  0.16717731814932577        0.0000000000000000     
  -8.2084511545961636E-002  0.13759724151022631        0.0000000000000000     
  -8.3828460086736875E-002  0.14495578649514965        0.0000000000000000     
  -8.5455620481499059E-002  0.15240348007068119        0.0000000000000000     
  -8.6965992730248201E-002  0.15994032223682098        0.0000000000000000     
  -8.8359576832984302E-002  0.16756631299356894        0.0000000000000000     
  -8.9021366849700120E-002  0.13814165006323617        0.0000000000000000     
  -9.0879205915494393E-002  0.14546187428092994        0.0000000000000000     
  -9.2614419905423004E-002  0.15287602618478105        0.0000000000000000     
  -9.4227008819485966E-002  0.16038410577478951        0.0000000000000000     
  -9.5716972657683225E-002  0.16798611305095534        0.0000000000000000     
  -9.6173971444292988E-002  0.13873267487428881        0.0000000000000000     
  -9.8137233335353402E-002  0.14600694631306194        0.0000000000000000     
  -9.9973228541939740E-002  0.15338237736718566        0.0000000000000000     
 -0.10168195706405202       0.16085896803666000        0.0000000000000000     
 -0.10326341890169023       0.16843671832148494        0.0000000000000000     
  -7.4211936441510792E-002  0.16681912851822581        0.0000000000000000     
  -7.5316471119365014E-002  0.17458445851591173        0.0000000000000000     
  -7.6359244627996647E-002  0.18244722523725496        0.0000000000000000     
  -7.7340256967405735E-002  0.19040742868225535        0.0000000000000000     
  -7.8259508137592221E-002  0.19846506885091303        0.0000000000000000     
  -8.1191231427593505E-002  0.16717731814932577        0.0000000000000000     
  -8.2396713175871841E-002  0.17491931850532674        0.0000000000000000     
  -8.3538269053113665E-002  0.18275909579148356        0.0000000000000000     
  -8.4615899059318975E-002  0.19069665000779631        0.0000000000000000     
  -8.5629603194487744E-002  0.19873198115426485        0.0000000000000000     
  -8.8359576832984302E-002  0.16756631299356894        0.0000000000000000     
  -8.9662258289739324E-002  0.17528567495741604        0.0000000000000000     
  -9.0899922600545233E-002  0.18310263074485317        0.0000000000000000     
  -9.2072569765401999E-002  0.19101718035588017        0.0000000000000000     
  -9.3180199784309664E-002  0.19902932379049726        0.0000000000000000     
  -9.5716972657683225E-002  0.16798611305095534        0.0000000000000000     
  -9.7113106460967477E-002  0.17568352787217967        0.0000000000000000     
  -9.8444205270291324E-002  0.18347783009736354        0.0000000000000000     
  -9.9710269085654821E-002  0.19136901972650705        0.0000000000000000     
 -0.10091129790705794       0.19935709675961022        0.0000000000000000     
 -0.10326341890169023       0.16843671832148494        0.0000000000000000     
 -0.10474925768955626       0.17611287724961755        0.0000000000000000     
 -0.10617111706235199       0.18388469384901487        0.0000000000000000     
 -0.10752899702007744       0.19175216811967694        0.0000000000000000     
 -0.10882289756273258       0.19971530006160371        0.0000000000000000     
  -7.8259508137592221E-002  0.19846506885091303        0.0000000000000000     
  -7.9109455727947059E-002  0.20660813392191951        0.0000000000000000     
  -7.9882557327861217E-002  0.21482461207396628        0.0000000000000000     
  -8.0578812937334654E-002  0.22311450330705340        0.0000000000000000     
  -8.1198222556367397E-002  0.23147780762118081        0.0000000000000000     
  -8.5629603194487744E-002  0.19873198115426485        0.0000000000000000     
  -8.6573330983480482E-002  0.20685236008291610        0.0000000000000000     
  -8.7441031951157544E-002  0.21504505764577692        0.0000000000000000     
  -8.8232706097519015E-002  0.22331007384284723        0.0000000000000000     
  -8.8948353422564824E-002  0.23164740867412709        0.0000000000000000     
  -9.3180199784309664E-002  0.19902932379049726        0.0000000000000000     
  -9.4217088923241266E-002  0.20712660251319678        0.0000000000000000     
  -9.5177513448169868E-002  0.21529655798847130        0.0000000000000000     
  -9.6061473359095512E-002  0.22353919021632082        0.0000000000000000     
  -9.6868968656018170E-002  0.23185449919674536        0.0000000000000000     
 -0.10091129790705794       0.19935709675961022        0.0000000000000000     
 -0.10204072954722947       0.20743086121276147        0.0000000000000000     
 -0.10309200181889822       0.21557911310204944        0.0000000000000000     
 -0.10406511472206420       0.22380185242747416        0.0000000000000000     
 -0.10496006825672738       0.23209907918903550        0.0000000000000000     
 -0.10882289756273258       0.19971530006160371        0.0000000000000000     
 -0.11004425285544508       0.20776513618161019        0.0000000000000000     
 -0.11118449706334257       0.21589272298651133        0.0000000000000000     
 -0.11224363018642504       0.22409806047630712        0.0000000000000000     
 -0.11322165222469249       0.23238114865099757        0.0000000000000000     
  -8.1198222556367397E-002  0.23147780762118081        0.0000000000000000     
  -8.1732380832969576E-002  0.23993620026522100        0.0000000000000000     
  -8.2172882415151333E-002  0.24851135648804651        0.0000000000000000     
  -8.2519727302912696E-002  0.25720327628965728        0.0000000000000000     
  -8.2772915496253638E-002  0.26601195967005331        0.0000000000000000     
  -8.8948353422564824E-002  0.23164740867412709        0.0000000000000000     
  -8.9575998758759476E-002  0.24008371527931746        0.0000000000000000     
  -9.0103666938567403E-002  0.24864564679811921        0.0000000000000000     
  -9.0531357961988593E-002  0.25733320323053244        0.0000000000000000     
  -9.0859071829023030E-002  0.26614638457655704        0.0000000000000000     
  -9.6868968656018170E-002  0.23185449919674536        0.0000000000000000     
  -9.7593593994221683E-002  0.24027041954067624        0.0000000000000000     
  -9.8228944028989990E-002  0.24881488585904493        0.0000000000000000     
  -9.8775018760323033E-002  0.25748789815185141        0.0000000000000000     
  -9.9231818188220855E-002  0.26628945641909568        0.0000000000000000     
 -0.10496006825672738       0.23209907918903550        0.0000000000000000     
 -0.10578516653935621       0.24049631304929742        0.0000000000000000     
 -0.10654871368641908       0.24901907367082368        0.0000000000000000     
 -0.10725070969791602       0.25766736105361437        0.0000000000000000     
 -0.10789115457384699       0.26644117519766936        0.0000000000000000     
 -0.11322165222469249       0.23238114865099757        0.0000000000000000     
 -0.11415071639416301       0.24076139580518091        0.0000000000000000     
 -0.11506297591085470       0.24925821023345543        0.0000000000000000     
 -0.11595843077476754       0.25787159193582115        0.0000000000000000     
 -0.11683708098590155       0.26660154091227795        0.0000000000000000     
  -8.2772915496253638E-002  0.26601195967005331        0.0000000000000000     
  -8.2970930676413771E-002  0.27496378034273727        0.0000000000000000     
  -8.3152256524632706E-002  0.28408511202121167        0.0000000000000000     
  -8.3316893040910389E-002  0.29337595470547662        0.0000000000000000     
  -8.3464840225246889E-002  0.30283630839553199        0.0000000000000000     
  -9.0859071829023030E-002  0.26614638457655704        0.0000000000000000     
  -9.1116647687306887E-002  0.27514819133495638        0.0000000000000000     
  -9.1333924684476264E-002  0.28440162400449359        0.0000000000000000     
  -9.1510902820531134E-002  0.29390668258516867        0.0000000000000000     
  -9.1647582095471553E-002  0.30366336707698183        0.0000000000000000     
  -9.9231818188220855E-002  0.26628945641909568        0.0000000000000000     
  -9.9609684648150176E-002  0.27531758886364316        0.0000000000000000     
  -9.9918960475577814E-002  0.28467032368835915        0.0000000000000000     
 -0.10015964567050378       0.29434766089324355        0.0000000000000000     
 -0.10033174023292804       0.30434960047829657        0.0000000000000000     
 -0.10789115457384699       0.26644117519766936        0.0000000000000000     
 -0.10845004155894361       0.27547197292879771        0.0000000000000000     
 -0.10890736389793734       0.28489121107280829        0.0000000000000000     
 -0.10926312159082825       0.29469888962970114        0.0000000000000000     
 -0.10951731463761631       0.30489500859947627        0.0000000000000000     
 -0.11683708098590155       0.26660154091227795        0.0000000000000000     
 -0.11763771841968718       0.27561134353041994        0.0000000000000000     
 -0.11829913495155486       0.28506428615784113        0.0000000000000000     
 -0.11882133058150460       0.29496036879454141        0.0000000000000000     
 -0.11920430530953641       0.30529959144052093        0.0000000000000000     
 </DataArray>
 <DataArray  type="Float64" Name="stress" NumberOfComponents="3" format="ascii">
   8659378607.5621986        614214010.89149094       -847238115.78469944     
   7450173341.3209581        460704803.88230419       -535157958.25543976     
   6230246180.9920826        271455949.91432405       -333281385.19017273     
   4999597126.5755825        46467448.987581730       -241608396.58889845     
   3758226178.0714264       -214260698.89799738       -260138992.45161185     
   9380215036.7568226        953179815.24072886       -237686500.93249056     
   7923216418.0610085        720854019.54014039       -99362525.646146536     
   6452585719.5618191        443087957.82823181       -23256793.470539831     
   4968322941.2592268        119881630.10501003       -9369304.4056704268     
   3470428083.1532302       -248764963.62955356       -57700058.451537043     
   9576644699.8092308        1134823589.7473085        371840190.34813106     
   8008953703.9538717        864811497.94382095        333012766.72317219     
   6424720442.5793638        539658521.07648659        279952441.34073591     
   4823944915.6856985        159364659.14529109        212659214.20081434     
   3206627123.2728705       -276070087.84976506        131133085.30340189     
   9248667596.7194424        1159145334.4112253        981341958.05717015     
   7707385198.9995432        892577239.09334803        761967918.85251904     
   6146650350.0447350        561167639.65909004        576346319.24364424     
   4566463049.8549995        164916536.10842514        424477159.23054421     
   2966823298.4303532       -296176071.55862403        306360438.81320751     
   8396283727.4874506        1026145049.2324817        1590818802.1946111     
   7018510903.1980219        804151242.98871899        1187502930.7418926     
   5618375441.9579201        507615313.57602859        865924840.23819757     
   4195877343.7671337        136537260.99440813        626084530.68352926     
   2751016608.6256723       -309082914.75612867        467982002.07787603     
   3758226178.0714264       -214260698.89799738       -260138992.45161185     
   4018466379.3869424       -60069304.751634359       -205879844.29831359     
   4265979813.5281205        51699532.146936178       -149032682.85098451     
   4500766480.4949684        121045811.79772925       -89597508.109616369     
   4722826380.2874708        147969534.20072722       -27574320.074226391     
   3470428083.1532302       -248764963.62955356       -57700058.451537043     
   3724841385.8272958       -122823732.92670488       -8046624.7588766990     
   3972378225.1421380       -19804046.754617691        41055834.402517691     
   4213038601.0977778        60294094.886812449        89607319.032660529     
   4446822513.6942034        117470691.99750829        137607829.13153550     
   3206627123.2728705       -276070087.84976506        131133085.30340189     
   3446244990.6617951       -181069581.58355689        183006158.98639634     
   3684836698.5066252       -89489607.130990267        231189270.31283838     
   3922402246.8073707       -1330164.4920563698        275682419.28272825     
   4158941635.5640106        83408746.333219051        316485605.89607018     
   2966823298.4303532       -296176071.55862403        306360438.81320751     
   3182677193.8904390       -234806850.72215605        367278506.93750978     
   3403355233.6215582       -157357148.98224950        421367624.87996984     
   3628857417.6237035       -63826966.338929415        468627792.64058954     
   3859183745.8968763        45783697.207837343        509059010.21936226     
   2751016608.6256723       -309082914.75612867        467982002.07787603     
   2934137995.5132341       -284035540.34250009        544770419.09446633     
   3127933830.4869447       -223406672.30838001        611590898.10391915     
   3332404113.5468073       -127196310.65374660        668443439.10623550     
   3547548844.6928220        4595544.6213858128        715328042.10141182     
   4722826380.2874708        147969534.20072722       -27574320.074226391     
   4493927589.0700445        40637459.507105350       -36599964.077467836     
   4278435879.4487028       -22004343.199568510       -39540497.589786768     
   4076351251.4234719       -39955873.919197798       -36395920.611172944     
   3887673704.9943328       -13217132.651866913       -27166233.141634040     
   4446822513.6942034        117470691.99750829        137607829.13153550     
   4243974348.6879616        46985335.022046089        137219988.52480000     
   4050196714.6417875        6735081.2468004227        142282891.96231276     
   3865489611.5556798       -3280069.3282268047        152796539.44409421     
   3689853039.4296536        16939883.297008038        168760930.97012007     
   4158941635.5640106        83408746.333219051        316485605.89607018     
   3980331621.2070398        49226364.407331705        319676259.61046213     
   3806455587.1741118        30823916.894914627        327683290.92244691     
   3637313533.4652224        28201403.795964479        340506699.83201653     
   3472905460.0803723        41358825.110481977        358146486.33917642     
   3859183745.8968763        45783697.207837343        509059010.21936226     
   3702999406.6272702        47360547.662971258        510768849.17952698     
   3547212497.0456734        50262163.744806528        516660699.29060590     
   3391823017.1520872        54488545.453355551        526734560.55260801     
   3236830966.9465141        60039692.788593054        540990432.96552181     
   3547548844.6928220        4595544.6213858128        715328042.10141182     
   3411977704.9486585        41387884.788961411        710497757.23198187     
   3272467444.2564831        65049821.796486259        709215117.06679213     
   3129018062.6162777        75581355.643921256        711480121.60585535     
   2981629560.0280623        72982486.331326008        717292770.84916759     
   3887673704.9943328       -13217132.651866913       -27166233.141634040     
   3650656986.7344508        11233918.603530645       -27187915.029355161     
   3408286414.2657018        17838789.162671328       -24223296.640016537     
   3160561987.5880594        6597479.0255225897       -18272377.973619442     
   2907483706.7015338       -22490011.807912946       -9335159.0301779751     
   3689853039.4296536        16939883.297008038        168760930.97012007     
   3457798794.0335889        28226213.972875357        157145677.01782170     
   3221943257.2587652        26841573.386209965        149399422.04820797     
   2982286429.1052055        12785961.537078619        145522166.06129041     
   2738828309.5728779       -13940621.574610114        145513909.05705750     
   3472905460.0803723        41358825.110481977        358146486.33917642     
   3248335683.8499327        40237034.097368360        336748983.62411350     
   3021517179.0708656        31619481.255501270        320103178.59737813     
   2792449945.7431741        15506166.584882021        308209071.25895452     
   2561133983.8668547       -8102909.9144904613        301066661.60885388     
   3236830966.9465141        60039692.788593054        540990432.96552181     
   3022267656.1834879        47266378.977018476        511622004.78951710     
   2807008179.7019753        32172512.770474553        487887973.00746137     
   2591052537.5019608        14758094.168937206        469788337.61936247     
   2374400729.5834484       -4976876.8276057243        457323098.62521040     
   2981629560.0280623        72982486.331326008        717292770.84916759     
   2779594711.0342689        49314248.611852527        681764740.51403177     
   2578416259.1521001        28500667.931154013        652753805.27847970     
   2378094204.3815622        10541744.289224029        630259965.14251065     
   2178628546.7226644       -4562522.3139277697        614283220.10612404     
   2907483706.7015338       -22490011.807912946       -9335159.0301779751     
   2785729682.4219551       -18868504.169110894       -3555687.5157754649     
   2664919658.3886952       -12100329.042576671        1047937.3070330174     
   2545053634.6017499       -2185486.4283220768        4475715.4382269755     
   2426131611.0611300        10876023.673673034        6727646.8778166585     
   2738828309.5728779       -13940621.574610114        145513909.05705750     
   2615284667.8923721       -9528800.0876264572        149434208.15294829     
   2492353786.5421114       -3074444.1664878130        152971345.05167872     
   2370035665.5220857        5422446.1887656450        156125319.75325903     
   2248330304.8323078        15961870.978176713        158896132.25769949     
   2561133983.8668547       -8102909.9144904613        301066661.60885388     
   2438065537.6267281       -2221330.7269271612        302741341.71745366     
   2315278611.8007631        4598649.8411718607        304825544.12336516     
   2192773206.3889656        12357031.789829850        307319268.82657886     
   2070549321.3913324        21053815.119041085        310222515.82710302     
   2374400729.5834484       -4976876.8276057243        457323098.62521040     
   2254072291.6250048        3053903.9129251242        456365713.17776561     
   2133694134.1646428        10918952.980406404        456610534.52209193     
   2013266257.2023745        18618270.374846220        458057562.65818131     
   1892788660.7381935        26151856.096259952        460706797.58603227     
   2178628546.7226644       -4562522.3139277697        614283220.10612404     
   2063304929.8872037        6296903.8319506645        610307322.53388214     
   1947600353.6337614        15886465.251224399        608326316.24786687     
   1831514817.9623244        24206161.943837881        608340201.24807096     
   1715048322.8728938        31255993.909817338        610348977.53449249     
   2426131611.0611300        10876023.673673034        6727646.8778166585     
   2270273025.6721444        10458348.818155766       -3510046.5365999457     
   2111889198.4524822        1623201.1937417984       -11103902.027974024     
   1950980129.4021022       -15629419.199750423       -16053919.596309418     
   1787545818.5210419       -41299512.362163782       -18360099.241594601     
   2248330304.8323078        15961870.978176713        158896132.25769949     
   2098437427.8370476        16538906.524032712        145791659.14365700     
   1946938734.8949132        11763222.246975422        134402806.00913778     
   1793834226.0058784        1634818.1469271183        124729572.85411043     
   1639123901.1699629       -13846305.776056051        116771959.67858459     
   2070549321.3913324        21053815.119041085        310222515.82710302     
   1923970101.5225191        21829945.686029911        295323926.54457301     
   1776704491.5906582        20318109.376180053        281212739.29799712     
   1628752491.5957191        16518306.189398170        267888954.08739093     
   1480114101.5376973        10430536.125702322        255352570.91274971     
   1892788660.7381935        26151856.096259952        460706797.58603227     
   1746871046.7285848        26331466.304243803        445086755.66611415     
   1601186468.5397382        27287862.581416845        429325897.83861709     
   1455734926.1716075        29021044.927656472        413424224.10355431     
   1310516419.6242368        31531013.343085468        397381734.46090293     
   1715048322.8728938        31255993.909817338        610348977.53449249     
   1567140263.4552357        30043468.378619969        595080146.50830030     
   1420384665.7421296        32672481.862607121        578742281.63099933     
   1274781529.7335813        39143034.361780226        561335382.90257740     
   1130330855.4295838        49455125.876124263        542859450.32304275     
   1787545818.5210419       -41299512.362163782       -18360099.241594601     
   1762303921.1409287       -17889392.378692627       -10344161.267140405     
   1744613082.5775986        30690923.660722136       -41656942.234165221     
   1734473302.8310785        104441435.75617611       -112298442.14268441     
   1731884581.9013557        203362143.90760958       -222268660.99268264     
   1639123901.1699629       -13846305.776056051        116771959.67858459     
   1520547745.5079281       -15172890.301656604        133983537.96569669     
   1405762651.0533526       -3862604.1357378364        124436722.17183386     
   1294768617.8062441        20084552.721756160        88131512.296985865     
   1187565645.7666032        56668580.270785153        25067908.341175765     
   1480114101.5376973        10430536.125702322        255352570.91274971     
   1304118901.4809239       -4858188.7427683473        277373125.63495797     
   1128154765.0222628       -20043368.284199059        285205611.13669354     
   952221692.16171813       -35125002.498558462        278850027.41795278     
   776319682.89930463       -50103091.385829777        258306374.47876042     
   1310516419.6242368        31531013.343085468        397381734.46090293     
   1113017389.0598776        13054712.297867239        419824601.74063772     
   911789424.48430514       -17851368.784746706        440649724.66041386     
   706832525.89751208       -61187229.904756844        459857103.22022563     
   498146693.29949534       -116952871.06217131        477446737.42008609     
   1130330855.4295838        49455125.876124263        542859450.32304275     
   947243208.24481165        38565812.820310354        561337966.28274798     
   756666629.43949068        2713394.3626553118        590769062.74299574     
   558601119.01359224       -58102129.496907681        631152739.70380330     
   353046676.96715164       -143880758.75829980        682488997.16514945     
   1731884581.9013557        203362143.90760958       -222268660.99268264     
   1458921118.6772218        184497705.46581262       -95973572.627334058     
   1154226778.6770940        59863677.770702422        59858040.231860392     
   817801561.90091419       -170539939.17793167        245226177.58493915     
   449645468.34864575       -506713145.38016033        460130839.43182284     
   1187565645.7666032        56668580.270785153        25067908.341175765     
   979076491.34258926        11718467.295542657        155816161.34712973     
   733072131.22170186       -158282331.33595592        312643283.05935848     
   449552565.40396070       -453333815.62363303        495549273.47785556     
   128517793.88933414       -873435985.56760669        704534132.60260952     
   776319682.89930463       -50103091.385829777        258306374.47876042     
   622425820.73941541       -124102583.85539618        386759408.38437653     
   425232423.96184862       -342433858.38389921        537833655.20867705     
   184739492.56656992       -705096914.97144580        711529114.95163250     
  -99052973.446406722       -1212091753.6179550        907845787.61327744     
   498146693.29949534       -116952871.06217131        477446737.42008609     
   388969106.86775780       -222965447.98684022        596856168.48439407     
   230707656.89752042       -492590903.37319833        735429156.67978013     
   23362343.388743639       -925829237.22134578        893165702.00625634     
  -233066833.65856677       -1522680449.5312691        1070065804.4638126     
   353046676.96715164       -143880758.75829980        682488997.16514945     
   278706349.72760570       -284870125.09881926        786106441.64717793     
   149497830.02869838       -608753466.30388224        905429787.47270107     
  -34578882.129555523       -1115530782.3734200        1040459034.6417100     
  -273523786.74716145       -1805202073.3074870        1191194183.1542060     
   8396283727.4874506        1026145049.2324817        1590818802.1946111     
   7018510903.1980219        804151242.98871899        1187502930.7418926     
   5618375441.9579201        507615313.57602859        865924840.23819757     
   4195877343.7671337        136537260.99440813        626084530.68352926     
   2751016608.6256723       -309082914.75612867        467982002.07787603     
   7352365864.2035513        819748904.01626563        1687313497.4168727     
   6188154000.9621916        665256725.11036158        1303501298.4578285     
   5001296612.6910181        435279462.77173805        986651682.27799618     
   3791793699.3900237        129817117.00038314        736764648.87738001     
   2559645261.0592108       -251130312.20369554        553840198.25598204     
   6460293808.7307110        658906501.14336896        1785293725.6943116     
   5467428054.6236744        559251494.00120211        1420655163.1366177     
   4451633887.4076891        383168443.16251731        1108203985.1883240     
   3412911307.0827403        130657348.62730479        847940191.84943426     
   2351260313.6488423       -198281789.60442615        639863783.11995482     
   5720067561.0689211        543617840.61378646        1884759487.0269361     
   4856333064.1824684        486135549.66123450        1538964524.7782538     
   3969387266.1079345        351282254.74837041        1230581748.9691696     
   3059230166.8452950        139057955.87517333        959611159.59967995     
   2125861766.3945589       -150537346.95833218        726052756.66978884     
   5131687121.2181826        473882922.42751980        1985710781.4147336     
   4354869029.6385813        445908892.09046602        1658429383.3827407     
   3554556748.7917476        339620897.52929258        1353784973.6205389     
   2730750278.6776757        155018938.74399710        1071777552.1281177     
   1883449619.2963691       -107896984.26541340        812407118.90548205     
   2751016608.6256723       -309082914.75612867        467982002.07787603     
   2934137995.5132341       -284035540.34250009        544770419.09446633     
   3127933830.4869447       -223406672.30838001        611590898.10391915     
   3332404113.5468073       -127196310.65374660        668443439.10623550     
   3547548844.6928220        4595544.6213858128        715328042.10141182     
   2559645261.0592108       -251130312.20369554        553840198.25598204     
   2716509527.9333916       -235148307.36797655        637420026.37183785     
   2882981268.7241673       -187141389.47693968        712862016.23328233     
   3059060483.4315495       -107109558.53056002        780166167.84031725     
   3244747172.0555325        4947185.4711669683        839332481.19294345     
   2351260313.6488423       -198281789.60442615        639863783.11995482     
   2487096316.9459972       -189796497.41572833        728990219.13726854     
   2631472819.9902015       -152842872.73685884        811808916.65289760     
   2784389822.7814612       -87420915.567812324        888319875.66684532     
   2945847325.3197689        6469374.0914025307        958523096.17911124     
   2125861766.3945589       -150537346.95833218        726052756.66978884     
   2245898362.5510530       -147980110.48573697        819480997.39075124     
   2373408484.2850509       -120511122.08812881        908431599.36275840     
   2508392131.5965486       -68130381.765522838        992904562.58581352     
   2650849304.4855518        9162110.4821051359        1072899887.0599093     
   1883449619.2963691       -107896984.26541340        812407118.90548205     
   1992915664.7485614       -109699146.57801318        908892361.13229334     
   2108788261.6087081       -90146137.530766249        1002730064.3628706     
   2231067409.8768096       -49237957.123673677        1093920228.5972219     
   2359753109.5528636        13025394.643263221        1182462853.8353422     
   3547548844.6928220        4595544.6213858128        715328042.10141182     
   3411977704.9486585        41387884.788961411        710497757.23198187     
   3272467444.2564831        65049821.796486259        709215117.06679213     
   3129018062.6162777        75581355.643921256        711480121.60585535     
   2981629560.0280623        72982486.331326008        717292770.84916759     
   3244747172.0555325        4947185.4711669683        839332481.19294345     
   3116176330.7621455        33284695.846058130        832146769.09209239     
   2984959350.9467058        52801744.480760217        828749371.81667888     
   2851096232.6091976        63498331.375239372        829140289.36669636     
   2714586975.7496338        65374456.529533386        833319521.74214172     
   2945847325.3197689        6469374.0914025307        958523096.17911124     
   2824964411.3948402        26558343.348921776        950490436.34379220     
   2702728341.3738022        42136792.286096096        946486761.45509505     
   2579139115.2566619        53204720.902924061        946512071.51301277     
   2454196733.0434217        59762129.199412823        950566366.51754487     
   2650849304.4855518        9162110.4821051359        1072899887.0599093     
   2538341946.8467355        21208827.297536492        1065528758.9870760     
   2425774415.5377836        33054965.212504148        1062427285.9820471     
   2313146710.5586791        44700524.226972699        1063595468.0448245     
   2200458831.9094315        56145504.340958595        1069033305.1753970     
   2359753109.5528636        13025394.643263221        1182462853.8353422     
   2256308937.1178427        17236147.691929817        1177261737.0219460     
   2154097573.4386339        25556263.259960532        1176570945.3975427     
   2053119018.5152409        37985741.347378492        1180390478.9621186     
   1953373272.3476567        54524581.954165816        1188720337.7156844     
   2981629560.0280623        72982486.331326008        717292770.84916759     
   2779594711.0342689        49314248.611852527        681764740.51403177     
   2578416259.1521001        28500667.931154013        652753805.27847970     
   2378094204.3815622        10541744.289224029        630259965.14251065     
   2178628546.7226644       -4562522.3139277697        614283220.10612404     
   2714586975.7496338        65374456.529533386        833319521.74214172     
   2531391944.5355902        49430641.561544299        800533662.85108519     
   2348328189.5473804        33924414.012996197        773940317.28683579     
   2165395710.7850084        18855773.883902311        753539485.04940081     
   1982594508.2484658        4224721.1742475033        739331166.13877869     
   2454196733.0434217        59762129.199412823        950566366.51754487     
   2288914143.1154971        51264524.034806490        919676704.70380938     
   2123037708.5276091        40787436.670315266        894654974.44411123     
   1956567429.2797635        28330867.105969787        875501175.73844945     
   1789503305.3719549        13894815.341745615        862215308.58682716     
   2200458831.9094315        56145504.340958595        1069033305.1753970     
   2052161306.7739904        54815896.031647444        1039193866.0722165     
   1902544816.0927882        49089735.903126597        1014897776.7502991     
   1751609359.8658342        38967023.955433786        996145037.20964849     
   1599354938.0931189        24447760.188541174        982935647.45026410     
   1953373272.3476567        54524581.954165816        1188720337.7156844     
   1821133435.5110679        60084757.552063286        1159085146.9562974     
   1686849512.2429187        58831311.711422443        1134668724.2054000     
   1550521502.5432208        50764244.432293952        1115471069.4629986     
   1412149406.4119678        35883555.714642286        1101492182.7290964     
   2178628546.7226644       -4562522.3139277697        614283220.10612404     
   2063304929.8872037        6296903.8319506645        610307322.53388214     
   1947600353.6337614        15886465.251224399        608326316.24786687     
   1831514817.9623244        24206161.943837881        608340201.24807096     
   1715048322.8728938        31255993.909817338        610348977.53449249     
   1982594508.2484658        4224721.1742475033        739331166.13877869     
   1871867854.5798950        11507606.431525111        736384449.74471474     
   1761202170.8216701        18993724.723283410        735804323.16709685     
   1650597456.9737830        26683076.049488246        737590786.40593123     
   1540053713.0362329        34575660.410165071        741743839.46121740     
   1789503305.3719549        13894815.341745615        862215308.58682716     
   1684435610.6709270        17919758.450603426        860813357.58732200     
   1579870815.2085705        23621032.355027497        862149694.93449688     
   1475808918.9848857        30998637.055031836        866224320.62834764     
   1372249921.9998744        40052572.550603509        873037234.66887581     
   1599354938.0931189        24447760.188541174        982935647.45026410     
   1501008198.1602869        25533359.889165998        983594046.06170428     
   1403606286.7944591        29768388.146480918        987362431.55005312     
   1307149203.9956357        37152844.960466385        994240803.91531086     
   1211636949.7638128        47686730.331131160        1004229163.1574713     
   1412149406.4119678        35883555.714642286        1101492182.7290964     
   1321585617.0479922        34348410.747258723        1104726515.1678629     
   1232408585.5793395        37435792.097626865        1111442533.0137768     
   1144618312.0060346        45145699.765810966        1121640236.2668188     
   1058214796.3280565        57478133.751750290        1135319624.9270055     
   1715048322.8728938        31255993.909817338        610348977.53449249     
   1567140263.4552357        30043468.378619969        595080146.50830030     
   1420384665.7421296        32672481.862607121        578742281.63099933     
   1274781529.7335813        39143034.361780226        561335382.90257740     
   1130330855.4295838        49455125.876124263        542859450.32304275     
   1540053713.0362329        34575660.410165071        741743839.46121740     
   1391062470.2877655        31339535.102058232        730670392.63470292     
   1242277646.6231375        28791473.406734645        720299746.27643967     
   1093699242.0423343        26931475.324170053        710631900.38642275     
   945327256.54537606        25759540.854417324        701666854.96464169     
   1372249921.9998744        40052572.550603509        873037234.66887581     
   1227237879.6902092        36311562.596483827        865055455.65120399     
   1081486213.8436480        30105140.852719724        859548311.42112839     
   934994924.46019661        21433307.319319367        856515801.97866845     
   787764011.53986144        10296061.996298254        855957927.32380521     
   1211636949.7638128        47686730.331131160        1004229163.1574713     
   1075666491.6625485        44959550.861871600        998235335.55778825     
   938010367.40366542        36613484.200560093        996487977.06506920     
   798668576.98716807        22648530.347194701        998987087.67931914     
   657641120.41306043        3064689.3017965555        1005732667.4005276     
   1058214796.3280565        57478133.751750290        1135319624.9270055     
   936348306.20478499        57283499.898225129        1130210032.3544712     
   811850107.30317760        48316503.450235605        1131118743.2082558     
   684720199.62322879        30577144.407780141        1138045757.4883716     
   554958583.16495931        4065422.7709115446        1150991075.1948106     
   1130330855.4295838        49455125.876124263        542859450.32304275     
   947243208.24481165        38565812.820310354        561337966.28274798     
   756666629.43949068        2713394.3626553118        590769062.74299574     
   558601119.01359224       -58102129.496907681        631152739.70380330     
   353046676.96715164       -143880758.75829980        682488997.16514945     
   945327256.54537606        25759540.854417324        701666854.96464169     
   787874788.27173448        9143270.2110999823        719936065.41410542     
   621828961.56886446       -36117528.529651403        748293669.35332131     
   447189776.43675607       -110022855.36785689        786739666.78227866     
   263957232.87541485       -212572710.30351359        835274057.70097935     
   787764011.53986144        10296061.996298254        855957927.32380521     
   653477616.43220079       -12787897.958054066        872729334.31957769     
   509493436.08663404       -68197808.705426097        898724947.79430056     
   355811470.50315320       -155933670.24584949        933944767.74795139     
   192431719.68176100       -275995482.57930255        978388794.18055093     
   657641120.41306043        3064689.3017965555        1005732667.4005276     
   544051692.72621965       -27227691.687135637        1019717772.9991602     
   419660052.99280190       -93527446.164684653        1042062898.0659249     
   284466201.21278441       -195834574.13088512        1072768042.6008219     
   138470137.38619244       -334149075.58567917        1111833206.6038678     
   554958583.16495931        4065422.7709115446        1150991075.1948106     
   459597017.15379035       -34176110.976151705        1160901381.4528399     
   352328812.28735960       -112106440.90742624        1178307520.1681972     
   233153968.56567121       -229725567.02289587        1203209491.3408825     
   102072485.98870942       -387033489.32261026        1235607294.9709034     
   353046676.96715164       -143880758.75829980        682488997.16514945     
   278706349.72760570       -284870125.09881926        786106441.64717793     
   149497830.02869838       -608753466.30388224        905429787.47270107     
  -34578882.129555523       -1115530782.3734200        1040459034.6417100     
  -273523786.74716145       -1805202073.3074870        1191194183.1542060     
   263957232.87541485       -212572710.30351359        835274057.70097935     
   224690425.63437575       -352162118.62122583        884810192.05172956     
   141118554.22156227       -639435074.17817795        945296988.59103096     
   13241618.637017965       -1074391576.9742579        1016734447.3188900     
  -158940381.11929595       -1657031627.0095277        1099122568.2353153     
   192431719.68176100       -275995482.57930255        978388794.18055093     
   174652034.85369620       -418260852.14989388        986167268.06888163     
   123130414.14147457       -672999341.33435416        1000141164.9908320     
   37866857.545101285       -1040210950.1326497        1020310484.9464124     
  -81138634.935427785       -1519895678.5447810        1046675227.9356203     
   138470137.38619244       -334149075.58567917        1111833206.6038678     
   128591177.38558456       -483166325.68479162        1090177669.6986377     
   95533409.788418591       -709446267.77242994        1069962316.6721109     
   39296834.594705045       -1012988901.8485683        1051187147.5242720     
  -40118548.195573926       -1393794227.9132318        1033852162.2551275     
   102072485.98870942       -387033489.32261026        1235607294.9709034     
   86507853.230037779       -546878539.22589993        1196841396.9410028     
   58327541.162406772       -748775853.49238753        1154760443.6348600     
   17531549.785818994       -992725432.12205613        1109364435.0524752     
  -35880120.899713993       -1278727275.1148810        1060653371.1938519     
   5131687121.2181826        473882922.42751980        1985710781.4147336     
   4354869029.6385813        445908892.09046602        1658429383.3827407     
   3554556748.7917476        339620897.52929258        1353784973.6205389     
   2730750278.6776757        155018938.74399710        1071777552.1281177     
   1883449619.2963691       -107896984.26541340        812407118.90548205     
   4602851474.7150011        453865573.07927656        2163078149.3806100     
   3888760243.8351827        414310325.34257257        1794427400.4089279     
   3154656787.4012899        308047659.09227395        1454063683.1056700     
   2400541105.4133158        135077574.32838023        1141986997.4708405     
   1626413197.8712654       -104599928.94910479        858197343.50444400     
   4020256883.4691963        417720540.30824435        2326722342.7665367     
   3385035494.4281454        371426969.51358747        1920764533.8538439     
   2733283843.5461745        270032525.91586030        1548743800.0082190     
   2065001930.8232815        113537209.51506090        1210660141.2296672     
   1380189756.2594645       -98058979.688810349        906513557.51818681     
   3383903347.4807820        365447824.11442852        2476643361.5725136     
   2843694781.4174738        317258824.60351515        2037440783.7174914     
   2290437917.2264013        225575498.00004500        1637825324.3281798     
   1724132754.9075670        90397844.304034352        1277796983.4045882     
   1144779294.4609652       -88274136.484528005        957355760.94670761     
   2693790866.7497487        297047424.49783027        2612841205.7985387     
   2264738104.8031635        251805890.61234492        2144456149.9998729     
   1826119008.4419761        174676575.34484398        1721308256.0655644     
   1377933577.6661768        65659478.695309937        1343397523.9956110     
   920181812.47577214       -75245399.336247087        1010723953.7900163     
   1883449619.2963691       -107896984.26541340        812407118.90548205     
   1992915664.7485614       -109699146.57801318        908892361.13229334     
   2108788261.6087081       -90146137.530766249        1002730064.3628706     
   2231067409.8768096       -49237957.123673677        1093920228.5972219     
   2359753109.5528636        13025394.643263221        1182462853.8353422     
   1626413197.8712654       -104599928.94910479        858197343.50444400     
   1728474700.0683346       -103271641.32010579        964912270.79273784     
   1836141153.9632683       -83260181.364888906        1067856523.0483360     
   1949412559.5560751       -44565549.083429098        1167030100.2712359     
   2068288916.8467431        12812255.524233937        1262433002.4614394     
   1380189756.2594645       -98058979.688810349        906513557.51818681     
   1471637755.0972180       -94562930.149470389        1022522970.2061971     
   1567889105.9227529       -75055707.317527711        1133638571.8250463     
   1668943808.7360687       -39537311.192979217        1239860362.3747320     
   1774801863.5371656        11992258.224170923        1341188341.8552523     
   1144779294.4609652       -88274136.484528005        957355760.94670761     
   1222404829.8352149       -83573013.066098511        1081724459.3726726     
   1304032117.4871547       -65532715.388697803        1200076210.6930051     
   1389661157.4167922       -34153243.452303827        1312411014.9077094     
   1479291949.6241243        10565402.743067145        1418728872.0167789     
   920181812.47577214       -75245399.336247087        1010723953.7900163     
   980775924.28232312       -70301890.069994867        1142516738.2921622     
   1044570188.6564810       -54691205.578383863        1267169439.6522126     
   1111564605.5982492       -28413345.861410022        1384682057.8701632     
   1181759175.1076250        8531689.0809260607        1495054592.9460182     
   2359753109.5528636        13025394.643263221        1182462853.8353422     
   2256308937.1178427        17236147.691929817        1177261737.0219460     
   2154097573.4386339        25556263.259960532        1176570945.3975427     
   2053119018.5152409        37985741.347378492        1180390478.9621186     
   1953373272.3476567        54524581.954165816        1188720337.7156844     
   2068288916.8467431        12812255.524233937        1262433002.4614394     
   1976825688.4361346        17071120.923751712        1257905237.4629500     
   1886339664.2631896        24587333.782146692        1258072155.2132821     
   1796830844.3279061        35360894.099414229        1262933755.7124422     
   1708299228.6302919        49391801.875580549        1272490038.9604268     
   1774801863.5371656        11992258.224170923        1341188341.8552523     
   1695846315.0362163        16457256.740109682        1337035723.4004924     
   1617612366.2547846        23327587.654434383        1337762145.2543962     
   1540100017.1928720        32603250.967153549        1343367607.4169595     
   1463309267.8504691        44284246.678249478        1353852109.8881922     
   1479291949.6241243        10565402.743067145        1418728872.0167789     
   1413370816.9180880        15394555.141000092        1414653194.8345778     
   1347915679.4134245        21777024.876840651        1415640915.5208724     
   1282926537.1101265        29712811.950565934        1421692034.0756717     
   1218403390.0081973        39201916.362191260        1432806550.4989669     
   1181759175.1076250        8531689.0809260607        1495054592.9460182     
   1129399194.0817554        13883016.126440763        1490757651.7651992     
   1077249603.7391090        19935645.449362934        1491708466.0127158     
   1025310404.0796808        26689577.049679041        1497907035.6885710     
   973581595.10346985        34144810.927386343        1509353360.7927752     
   1953373272.3476567        54524581.954165816        1188720337.7156844     
   1821133435.5110679        60084757.552063286        1159085146.9562974     
   1686849512.2429187        58831311.711422443        1134668724.2054000     
   1550521502.5432208        50764244.432293952        1115471069.4629986     
   1412149406.4119678        35883555.714642286        1101492182.7290964     
   1708299228.6302919        49391801.875580549        1272490038.9604268     
   1589670007.1983368        53316398.762394726        1240912420.3747621     
   1469353452.4062703        51616551.115509272        1214963179.1790354     
   1347349564.2540898        44292258.934912145        1194642315.3732424     
   1223658342.7418065        31343522.220632553        1179949828.9573905     
   1463309267.8504691        44284246.678249478        1353852109.8881922     
   1359460974.3415563        46924358.609521210        1320748275.3929353     
   1254282100.5439739        45129202.911895573        1293682427.6690559     
   1147772646.4577250        38898779.585383654        1272654566.7165539     
   1039932612.0828106        28233088.629982412        1257664692.5354328     
   1218403390.0081973        39201916.362191260        1432806550.4989669     
   1130506336.9407308        40908637.093432605        1398592712.0108066     
   1041635456.6560371        39369267.100592792        1370826469.6754649     
   951790749.15412331        34583806.383678973        1349507823.4929414     
   860972214.43497837        26552254.942666292        1334636773.4632356     
   973581595.10346985        34144810.927386343        1509353360.7927752     
   902806094.99585462        35269234.214135408        1474445730.2283857     
   831413520.74245393        34336743.681593627        1446395305.1982577     
   759403872.34327567        31347339.329793304        1425202085.7023947     
   686777149.79831588        26301021.158721119        1410866071.7407889     
   1412149406.4119678        35883555.714642286        1101492182.7290964     
   1321585617.0479922        34348410.747258723        1104726515.1678629     
   1232408585.5793395        37435792.097626865        1111442533.0137768     
   1144618312.0060346        45145699.765810966        1121640236.2668188     
   1058214796.3280565        57478133.751750290        1135319624.9270055     
   1223658342.7418065        31343522.220632553        1179949828.9573905     
   1142580066.8803535        30220081.382732451        1186395644.9207103     
   1062557088.4544814        32614298.663432479        1196561315.6797278     
   983589407.46418881        38526174.062733769        1210446841.2344401     
   905677023.90947831        47955707.580638885        1228052221.5848398     
   1039932612.0828106        28233088.629982412        1257664692.5354328     
   969020333.69118333        27725497.111760020        1266935288.1535993     
   898831892.27538264        29630695.512951702        1280163907.9560113     
   829367287.83540893        33948683.833572894        1297350551.9426703     
   760626520.37126565        40679462.073630542        1318495220.1135824     
   860972214.43497837        26552254.942666292        1334636773.4632356     
   800906417.48047829        26864657.934317082        1346345444.8665268     
   741232997.04205132        28484982.646208316        1362250309.8426235     
   681951953.11969483        31413229.078340203        1382351368.3915207     
   623063285.71341991        35649397.230735540        1406648620.5132158     
   686777149.79831588        26301021.158721119        1410866071.7407889     
   638238318.24824047        27637563.850427687        1424626115.0594943     
   589760402.75448346        29177160.063192278        1442820521.3395593     
   541343403.31704986        30919809.797037721        1465449290.5809824     
   492987319.93593687        32865513.051949382        1492512422.7837641     
   1058214796.3280565        57478133.751750290        1135319624.9270055     
   936348306.20478499        57283499.898225129        1130210032.3544712     
   811850107.30317760        48316503.450235605        1131118743.2082558     
   684720199.62322879        30577144.407780141        1138045757.4883716     
   554958583.16495931        4065422.7709115446        1150991075.1948106     
   905677023.90947831        47955707.580638885        1228052221.5848398     
   799121470.99947190        46551583.117358059        1222560684.2314820     
   690033231.30802155        36705169.382596970        1223107600.6796303     
   578412304.83511019        18416466.376294732        1229692970.9292858     
   464258691.58074254       -8314525.9015196264        1242316794.9804709     
   760626520.37126565        40679462.073630542        1318495220.1135824     
   669439477.17507029        38083118.750799388        1312737263.6424217     
   575818769.19429755        27374559.479381233        1313037911.3479619     
   479764396.42895108        8553784.2593839169        1319397163.2302005     
   381276358.87903547       -18379206.909181237        1331815019.2891407     
   623063285.71341991        35649397.230735540        1406648620.5132158     
   547302324.73156142        31878106.798494369        1400739770.5872929     
   469206720.96200931        20324673.740606263        1400909675.2132516     
   388776474.40476370        989098.05707123876        1407158334.3911023     
   306011585.05982387       -26128620.252105877        1419485748.1208355     
   492987319.93593687        32865513.051949382        1492512422.7837641     
   432710013.66894943        27936547.260451794        1486568205.0661001     
   370197086.61114806        15555512.166241050        1486722892.2755044     
   305448538.76254058       -4277592.2306567281        1492976484.4119849     
   238464370.12311995       -31562765.930264875        1505328981.4755390     
   554958583.16495931        4065422.7709115446        1150991075.1948106     
   459597017.15379035       -34176110.976151705        1160901381.4528399     
   352328812.28735960       -112106440.90742624        1178307520.1681972     
   233153968.56567121       -229725567.02289587        1203209491.3408825     
   102072485.98870942       -387033489.32261026        1235607294.9709034     
   464258691.58074254       -8314525.9015196264        1242316794.9804709     
   387927369.42739594       -42826267.079313114        1241496533.3175321     
   301517237.63993031       -110934040.37083945        1246958366.9565170     
   205028296.21834469       -212637845.77609763        1258702295.8974400     
   98460545.162647843       -347937683.29506552        1276728320.1402841     
   381276358.87903547       -18379206.909181237        1331815019.2891407     
   320507460.13949871       -50201501.650922045        1322396657.1299050     
   251487580.98698884       -109527064.43590629        1318046653.1172006     
   174216721.42150778       -196355895.26412594        1318765007.2510231     
   88694881.443054453       -310687994.13559043        1324551719.5313640     
   306011585.05982387       -26128620.252105877        1419485748.1208355     
   257337289.29009554       -56301814.690981090        1403601752.8899674     
   202239842.32853284       -107885513.10263416        1391572378.6502378     
   140719244.17515180       -180879715.48701656        1383397625.4016278     
   72775494.829940662       -275284421.84416640        1379077493.1441400     
   238464370.12311995       -31562765.930264875        1505328981.4755390     
   198416856.87918365       -61127206.199506074        1485111820.5977228     
   153774021.66457561       -106009386.37098077        1467535543.5556357     
   104535864.47927588       -166209306.44476527        1452600150.3492620     
   50702385.323304549       -241726966.42078575        1440305640.9786136     
   102072485.98870942       -387033489.32261026        1235607294.9709034     
   86507853.230037779       -546878539.22589993        1196841396.9410028     
   58327541.162406772       -748775853.49238753        1154760443.6348600     
   17531549.785818994       -992725432.12205613        1109364435.0524752     
  -35880120.899713993       -1278727275.1148810        1060653371.1938519     
   98460545.162647843       -347937683.29506552        1276728320.1402841     
   80925373.181830555       -489117570.79112148        1222197713.8672132     
   51981214.989283532       -668327412.32629037        1165159018.2978344     
   11628070.585005879       -885567207.90054750        1105612233.4321532     
  -40134060.030986905       -1140836957.5138633        1043557359.2701547     
   88694881.443054453       -310687994.13559043        1324551719.5313640     
   71494787.325613648       -432511034.09876925        1255664213.6285543     
   44092400.093679428       -588341717.77692330        1185075584.4093754     
   6487719.7472417355       -778180045.17010057        1112785831.8738196     
  -41319253.713700473       -1002026016.2782779        1038794956.0218772     
   72775494.829940662       -275284421.84416640        1379077493.1441400     
   58216095.661400139       -377058929.14878434        1297240896.2250268     
   34661096.475589275       -508818769.84430903        1214510141.9694691     
   2110497.2724953592       -670563943.93078017        1130885230.3774667     
  -39435701.947866678       -862294451.40812814        1046366161.4490354     
   50702385.323304549       -241726966.42078575        1440305640.9786136     
   41089298.189174950       -322761255.94122958        1346927761.6566346     
   23687304.135010302       -429758568.52845144        1253462690.9781311     
  -1503596.8392078280       -562718904.18252933        1159910428.9431224     
  -34483404.733471811       -721642262.90341008        1066270975.5516018     
   2693790866.7497487        297047424.49783027        2612841205.7985387     
   2264738104.8031635        251805890.61234492        2144456149.9998729     
   1826119008.4419761        174676575.34484398        1721308256.0655644     
   1377933577.6661768        65659478.695309937        1343397523.9956110     
   920181812.47577214       -75245399.336247087        1010723953.7900163     
   1984999589.9838219        212182494.92938679        2657979188.1528883     
   1674539589.0849800        181650217.83859211        2186753548.7214932     
   1356904837.1781986        127202104.05466336        1758121504.3560011     
   1032095334.2634780        48838153.577604532        1372083055.0564039     
   700111080.34081066       -53441633.592608184        1028638200.8227105     
   1299770693.0169098        134386279.30064422        2693695706.5252857     
   1100350405.1702194        116297344.60586953        2222419664.1022716     
   896146949.72225356        82264517.906844169        1791093649.9467030     
   687160326.67301023        32287799.203558266        1399717664.0585747     
   473390536.02249300       -33632811.503974527        1048291706.4378902     
   638104175.84900892        63658777.611608475        2719990760.9157367     
   542170553.05887735        55747270.914173380        2251454496.1422100     
   443845346.07413501        39863816.901368707        1820224692.8376775     
   343128554.89478254        16008415.573195770        1426301351.0021257     
   240020179.52081704       -15818933.070354179        1069684470.6355598     
   38.480120738167400       -10.137726830167287        2736864351.3242297     
   32.750954603988241       -3.2365036017523536        2273858044.8413095     
   26.233844126337253        1.0382398695353148        1845514633.0289154     
   18.928786171274464        2.6864914025055961        1451834115.8870535     
   10.835786480543943        1.7082697893607139        1092816493.4157176     
   920181812.47577214       -75245399.336247087        1010723953.7900163     
   980775924.28232312       -70301890.069994867        1142516738.2921622     
   1044570188.6564810       -54691205.578383863        1267169439.6522126     
   1111564605.5982492       -28413345.861410022        1384682057.8701632     
   1181759175.1076250        8531689.0809260607        1495054592.9460182     
   700111080.34081066       -53441633.592608184        1028638200.8227105     
   742435962.31889939       -50670212.137115985        1161734455.2770677     
   787160958.72611499       -39898409.251201689        1288418790.1925714     
   834286069.56246340       -21126224.934844553        1408691205.5692210     
   883811294.82794189        5646340.8119481206        1522551701.4070218     
   473390536.02249300       -33632811.503974527        1048291706.4378902     
   499526655.60995841       -32409337.627898246        1181758053.0162339     
   527262851.48807609       -25852276.116314590        1309540643.6589706     
   556599123.65684462       -13961626.969229013        1431639478.3660960     
   587535472.11626518        3262609.8133654892        1548054557.1376181     
   240020179.52081704       -15818933.070354179        1069684470.6355598     
   252048004.15550107       -15519266.542335778        1202587531.5096657     
   264875866.94236222       -12552806.173730046        1330535000.0514054     
   278503767.88138992       -6919551.9645692408        1453526876.2607820     
   292931706.97259557        1380496.0851866156        1571563160.1377959     
   10.835786480543943        1.7082697893607139        1092816493.4157176     
   7.9555311514314120        1.1195812363276632        1224222890.7573593     
   5.0889717348548320       0.57654572508111523        1351401859.3698814     
   2.2361046164892469        7.9151554815909408E-002   1474353399.2532833     
 -0.60306539981571872      -0.37258630246995339        1593077510.4075675     
   1181759175.1076250        8531689.0809260607        1495054592.9460182     
   1129399194.0817554        13883016.126440763        1490757651.7651992     
   1077249603.7391090        19935645.449362934        1491708466.0127158     
   1025310404.0796808        26689577.049679041        1497907035.6885710     
   973581595.10346985        34144810.927386343        1509353360.7927752     
   883811294.82794189        5646340.8119481206        1522551701.4070218     
   844667259.00532067        9697621.1766849756        1519040059.9994493     
   805681016.18942261        14274878.230498552        1520746785.6308219     
   766852566.38025141        19378111.973404497        1527671878.3011534     
   728181909.57780433        25007322.405388355        1539815338.0104346     
   587535472.11626518        3262609.8133654892        1548054557.1376181     
   561523414.67007327        5988653.4492745399        1545266851.5473735     
   535616552.55411226        9065348.1859540641        1547668124.6066935     
   509814885.76837784        12492694.023390144        1555258376.3155873     
   484118414.31287640        16270690.961600006        1568037606.6740448     
   292931706.97259557        1380496.0851866156        1571563160.1377959     
   279967661.07601750        2756112.9442253709        1569438026.4089742     
   267056212.83317548        4307055.3157197982        1572472482.9403334     
   254197362.24406439        6033323.1996504217        1580666529.7318754     
   241391109.30868939        7934916.5960330814        1594020166.7836013     
 -0.60306539981571872      -0.37258630246995339        1593077510.4075675     
  -1.7768467100595500      -0.33846300304576460        1591553584.5842557     
  -2.9733886598303361      -0.38020850204475831        1595159860.6317403     
  -4.1926916151356677      -0.49782436643693162        1603896338.5500185     
  -5.4347528309186153      -0.69130040519843550        1617763018.3390968     
   973581595.10346985        34144810.927386343        1509353360.7927752     
   902806094.99585462        35269234.214135408        1474445730.2283857     
   831413520.74245393        34336743.681593627        1446395305.1982577     
   759403872.34327567        31347339.329793304        1425202085.7023947     
   686777149.79831588        26301021.158721119        1410866071.7407889     
   728181909.57780433        25007322.405388355        1539815338.0104346     
   675141928.22544074        25863133.011337429        1504740585.7788785     
   621639141.25468123        25176258.222632676        1476513322.2895849     
   567673548.66551781        22946698.039247751        1455133547.5425634     
   513245150.45795244        19174452.461191356        1440601261.5378225     
   484118414.31287640        16270690.961600006        1568037606.6740448     
   448786189.45295072        16849560.207943276        1532975712.7239192     
   413145427.50199866        16399972.484198332        1504751590.7240722     
   377196128.46002746        14921927.790389061        1483365240.6745093     
   340938292.32703006        12415426.126493886        1468816662.5752275     
   241391109.30868939        7934916.5960330814        1594020166.7836013     
   223738878.67837313        8228515.8039128557        1559151111.0635130     
   205932379.48440662        8007886.4662913978        1531110110.5017233     
   187971611.72680214        7273028.5832099020        1509897165.0982242     
   169856575.40554860        6023942.1546320170        1495512274.8530192     
  -5.4347528309186153      -0.69130040519843550        1617763018.3390968     
  -4.0982885583353443      -0.20074281065268695        1583266780.7976651     
  -2.7980949974608844       0.16891241153035830        1555588881.6225343     
  -1.5341597269126317       0.41770666595937977        1534729320.8137059     
 -0.30649420730326449       0.54560175059211524        1520688098.3711889     
   686777149.79831588        26301021.158721119        1410866071.7407889     
   638238318.24824047        27637563.850427687        1424626115.0594943     
   589760402.75448346        29177160.063192278        1442820521.3395593     
   541343403.31704986        30919809.797037721        1465449290.5809824     
   492987319.93593687        32865513.051949382        1492512422.7837641     
   513245150.45795244        19174452.461191356        1440601261.5378225     
   476259484.29559511        20002396.664195359        1454920136.0525048     
   439319505.18075794        20982631.025604084        1473809066.7860870     
   402425213.11344177        22115155.545414880        1497268053.7385638     
   365576608.09364402        23399970.223619074        1525297096.9099300     
   340938292.32703006        12415426.126493886        1468816662.5752275     
   315893486.57392156        12851080.347251236        1483676601.1089637     
   290879138.85953087        13388261.363739580        1503242289.1191294     
   265895249.18387279        14026969.176000655        1527513726.6057305     
   240941817.54692858        14767203.783975288        1556490913.5687540     
   169856575.40554860        6023942.1546320170        1495512274.8530192     
   157140325.08322132        6183614.8996007890        1510895510.2288687     
   144439303.79081956        6394051.0776560679        1531120188.3386924     
   131753511.52833852        6655250.6887784153        1556186309.1824799     
   119082948.29578544        6967213.7329965346        1586093872.7602372     
 -0.30649420730326449       0.54560175059211524        1520688098.3711889     
 -0.17650395796945595       0.32124948305907225        1536576863.4122295     
  -2.5395299416477661E-002  0.16728983125509006        1557442764.4447701     
  0.14685382031299996        8.3799771151553265E-002   1583285801.4688168     
  0.34021732317815134        7.0690294277538479E-002   1614105974.4843700     
   492987319.93593687        32865513.051949382        1492512422.7837641     
   432710013.66894943        27936547.260451794        1486568205.0661001     
   370197086.61114806        15555512.166241050        1486722892.2755044     
   305448538.76254058       -4277592.2306567281        1492976484.4119849     
   238464370.12311995       -31562765.930264875        1505328981.4755390     
   365576608.09364402        23399970.223619074        1525297096.9099300     
   321322610.81220335        19989440.598328352        1517930957.4708986     
   275391897.93925977        10989859.001358226        1516441127.0553133     
   227784469.47482884       -3598774.5672333241        1520827605.6631863     
   178500325.41890463       -23776460.107474729        1531090393.2945130     
   240941817.54692858        14767203.783975288        1556490913.5687540     
   212075140.95497617        12684313.836060576        1548354908.4742196     
   182090653.97084054        6875389.2475352809        1545872616.4995196     
   150988356.59453493       -2659569.9815581366        1549044037.6446495     
   118768248.82604343       -15920563.851268351        1557869171.9096198     
   119082948.29578544        6967213.7329965346        1586093872.7602372     
   104967604.09726608        6021166.9736412764        1577840058.0760672     
   90293354.705884486        3212102.9047483578        1575017360.6081157     
   75060200.121640399       -1459978.4736863449        1577625780.3563728     
   59268140.344535150       -7995077.1616610959        1585665317.3208523     
  0.34021732317815134        7.0690294277538479E-002   1614105974.4843700     
  0.23907753066642679        1.1088428710025119E-002   1606386406.2764387     
  0.14438683765089128       -2.7014356868687035E-002   1603875359.3811073     
   5.6159221046408359E-002  -4.3573901355252381E-002   1606572833.7983701     
  -2.5620348333708343E-002  -3.8641342872711114E-002   1614478829.5282252     
   238464370.12311995       -31562765.930264875        1505328981.4755390     
   198416856.87918365       -61127206.199506074        1485111820.5977228     
   153774021.66457561       -106009386.37098077        1467535543.5556357     
   104535864.47927588       -166209306.44476527        1452600150.3492620     
   50702385.323304549       -241726966.42078575        1440305640.9786136     
   178500325.41890463       -23776460.107474729        1531090393.2945130     
   147699651.49073863       -46179301.999413267        1506352617.9599948     
   113452486.08372886       -80070448.820832282        1484434235.5609782     
   75758829.197867826       -125449900.57175568        1465335246.0974500     
   34618680.833154432       -182317657.25218546        1449055649.5694170     
   118768248.82604343       -15920563.851268351        1557869171.9096198     
   97724440.212990567       -31008799.566114709        1529951084.3588738     
   74382970.612922102       -53755905.237677664        1505030898.8433952     
   48743840.025836952       -84161880.865966052        1483108615.3631818     
   20807048.451739490       -122226726.45095795        1464184233.9182262     
   59268140.344535150       -7995077.1616610959        1585665317.3208523     
   48491223.045939565       -15615698.899608694        1555907219.7943556     
   36565475.252160996       -27065755.621499747        1529325533.4028921     
   23490896.963197317       -42345247.327342488        1505920258.1464598     
   9267488.1790569760       -61454174.017107412        1485691394.0250697     
  -2.5620348333708343E-002  -3.8641342872711114E-002   1614478829.5282252     
  -1.0410994410892226E-002   1.1744268561316405E-004   1584221024.2664411     
   1.4392790988330831E-003   2.7679987423025139E-002   1557318139.2394621     
   9.9453641293075074E-003   4.4094890284905645E-002   1533770174.4472866     
   1.5105224763308693E-002   4.9355711825208683E-002   1513577129.8899238     
   50702385.323304549       -241726966.42078575        1440305640.9786136     
   41089298.189174950       -322761255.94122958        1346927761.6566346     
   23687304.135010302       -429758568.52845144        1253462690.9781311     
  -1503596.8392078280       -562718904.18252933        1159910428.9431224     
  -34483404.733471811       -721642262.90341008        1066270975.5516018     
   34618680.833154432       -182317657.25218546        1449055649.5694170     
   30250296.034570649       -242240945.22694430        1348190319.4401419     
   20040231.046151698       -321636500.50115228        1246574797.4918780     
   3988485.8678814769       -420504323.07485753        1144209083.7246208     
  -17904939.500211775       -538844412.94798815        1041093178.1383482     
   20807048.451739490       -122226726.45095795        1464184233.9182262     
   19789078.953027919       -161607298.99075386        1358103217.5002556     
   14876655.994681403       -213969383.06266493        1250609008.8007920     
   6069779.5767110735       -279312978.66665733        1141701607.8198516     
  -6631550.3008947521       -357638085.80276263        1031381014.5574489     
   9267488.1790569760       -61454174.017107412        1485691394.0250697     
   9705646.9445445277       -80860317.232665598        1376666455.8369570     
   8196578.9806206375       -106757216.21292721        1265565324.9048777     
   4740284.2872662172       -139144870.95795605        1152388001.2288513     
  -663237.13550629467       -178023281.46771571        1037134484.8088388     
   1.5105224763308693E-002   4.9355711825208683E-002   1513577129.8899238     
   9.1360069692608872E-003   4.7371767680709560E-002   1403880034.4502470     
   3.9473461129794184E-003   4.7991761663602736E-002   1291443745.8041365     
  -4.3801958397367627E-004   5.1288712288200096E-002   1176268263.9515688     
  -4.0493249778924441E-003   5.7165170033521499E-002   1058353588.8925791     
   38.480120738167400       -10.137726830167287        2736864351.3242297     
   32.750954603988241       -3.2365036017523536        2273858044.8413095     
   26.233844126337253        1.0382398695353148        1845514633.0289154     
   18.928786171274464        2.6864914025055961        1451834115.8870535     
   10.835786480543943        1.7082697893607139        1092816493.4157176     
  -638104094.77940798       -63658781.264811277        2719990768.1871610     
  -542170485.31115365       -55747267.758102298        2251454501.3342290     
  -443845292.63475931       -39863810.224262163        1820224696.1305900     
  -343128516.75022829       -16008408.663299322        1426301352.5762525     
  -240020157.65755945        15818936.924789026        1069684470.6712172     
  -1299770609.7661209       -134386266.91005421        2693695718.2496586     
  -1100350336.5896680       -116297332.24462372        2222419672.3554707     
  -896146896.20899487       -82264506.898458004        1791093655.0893524     
  -687160288.62410033       -32287790.871555895        1399717666.4513075     
  -473390513.83498526        33632815.836084306        1048291706.4413320     
  -1984999506.4800122       -212182467.07344913        2657979201.5117211     
  -1674539521.0845878       -181650196.69606626        2186753557.9050422     
  -1356904784.4888589       -127202088.98433691        1758121509.9052103     
  -1032095296.6928271       -48838143.938262880        1372083057.5122178     
  -700111057.69649100        53441638.442157269        1028638200.7260685     
  -2693790784.9210863       -297047381.75499892        2612841217.9733462     
  -2264738038.7959132       -251805861.11243057        2144456157.9829447     
  -1826118957.4743567       -174676556.48191100        1721308260.5781586     
  -1377933540.9564111       -65659467.863434136        1343397525.7589831     
  -920181789.24207687        75245404.743006170        1010723953.5254215     
   10.835786480543943        1.7082697893607139        1092816493.4157176     
   7.9555311514314120        1.1195812363276632        1224222890.7573593     
   5.0889717348548320       0.57654572508111523        1351401859.3698814     
   2.2361046164892469        7.9151554815909408E-002   1474353399.2532833     
 -0.60306539981571872      -0.37258630246995339        1593077510.4075675     
  -240020157.65755945        15818936.924789026        1069684470.6712172     
  -252047988.12327787        15519269.039828539        1202587531.6242065     
  -264875856.70188662        12552807.445232257        1330535000.2320235     
  -278503763.39338136        6919552.1410174668        1453526876.4946635     
  -292931708.19776142       -1380496.8728153408        1571563160.4121320     
  -473390513.83498526        33632815.836084306        1048291706.4413320     
  -499526639.36061186        32409340.412507504        1181758053.1913249     
  -527262841.12570757        25852277.524036229        1309540643.9800904     
  -556599119.13027298        13961627.170664936        1431639478.8076267     
  -587535473.37430549       -3262610.6475954652        1548054557.6739354     
  -700111057.69649100        53441638.442157269        1028638200.7260685     
  -742435945.75646818        50670215.237633556        1161734455.4587193     
  -787160948.18249440        39898410.812945664        1288418790.6140900     
  -834286064.97456992        21126225.168094158        1408691206.1921740     
  -883811296.13269830       -5646341.6969335675        1522551702.1929777     
  -920181789.24207687        75245404.743006170        1010723953.5254215     
  -980775907.31084466        70301893.515206814        1142516738.4263868     
  -1044570177.8722435        54691207.311972976        1267169440.1340158     
  -1111564600.9262764        28413346.133291364        1384682058.6483049     
  -1181759176.4729376       -8531690.0208189487        1495054593.9692550     
 -0.60306539981571872      -0.37258630246995339        1593077510.4075675     
  -1.7768467100595500      -0.33846300304576460        1591553584.5842557     
  -2.9733886598303361      -0.38020850204475831        1595159860.6317403     
  -4.1926916151356677      -0.49782436643693162        1603896338.5500185     
  -5.4347528309186153      -0.69130040519843550        1617763018.3390968     
  -292931708.19776142       -1380496.8728153408        1571563160.4121320     
  -279967664.64510089       -2756113.7097041458        1569438026.6262748     
  -267056218.80164534       -4307056.2439415753        1572472483.1140401     
  -254197370.66739136       -6033324.4755166620        1580666529.8754301     
  -241391120.24234137       -7934918.4044400603        1594020166.9104412     
  -587535473.37430549       -3262610.6475954652        1548054557.6739354     
  -561523418.22998834       -5988654.2959452569        1545266851.9580154     
  -535616558.48131454       -9065349.2631054819        1547668124.9185486     
  -509814894.12828290       -12492695.549073249        1555258376.5555289     
  -484118425.17089760       -16270693.153861701        1568037606.8689613     
  -883811296.13269830       -5646341.6969335675        1522551702.1929777     
  -844667262.53150308       -9697622.0971729159        1519040060.5794828     
  -805681022.01239085       -14274879.437684685        1520746786.0452652     
  -766852574.57536495       -19378113.718486905        1527671878.5903254     
  -728181920.22042358       -25007324.939571798        1539815338.2146616     
  -1181759176.4729376       -8531690.0208189487        1495054593.9692550     
  -1129399197.5496466       -13883017.113382459        1490757652.4906702     
  -1077249609.3948781       -19935646.767693043        1491708466.4941890     
  -1025310412.0086361       -26689578.983752131        1497907035.9798112     
  -973581605.39092338       -34144813.761580646        1509353360.9475398     
  -5.4347528309186153      -0.69130040519843550        1617763018.3390968     
  -4.0982885583353443      -0.20074281065268695        1583266780.7976651     
  -2.7980949974608844       0.16891241153035830        1555588881.6225343     
  -1.5341597269126317       0.41770666595937977        1534729320.8137059     
 -0.30649420730326449       0.54560175059211524        1520688098.3711889     
  -241391120.24234137       -7934918.4044400603        1594020166.9104412     
  -223738886.99485910       -8228516.7599812746        1559151111.1637425     
  -205932385.22939420       -8007886.7222447023        1531110110.5621605     
  -187971614.94594276       -7273028.2912189588        1509897165.1056950     
  -169856576.14451614       -6023941.4669463634        1495512274.7943425     
  -484118425.17089760       -16270693.153861701        1568037606.8689613     
  -448786197.78721756       -16849561.687936157        1532975712.8969541     
  -413145433.33130878       -16399973.314580202        1504751590.8488710     
  -377196131.80317020       -14921928.033794671        1483365240.7247221     
  -340938293.20280349       -12415425.845577464        1468816662.5244944     
  -728181920.22042358       -25007324.939571798        1539815338.2146616     
  -675141936.47536850       -25863134.984625459        1504740585.9972990     
  -621639147.10383916       -25176259.608100176        1476513322.4826708     
  -567673552.10583258       -22946698.809982449        1455133547.6707897     
  -513245151.48135233       -19174452.590288639        1440601261.5616436     
  -973581605.39092338       -34144813.761580646        1509353360.9475398     
  -902806103.05931854       -35269236.650074452        1474445730.4647737     
  -831413526.54699123       -34336745.602820098        1446395305.4635603     
  -759403875.85394073       -31347340.619825691        1425202085.9438987     
  -686777150.98016512       -26301021.701079011        1410866071.9057903     
 -0.30649420730326449       0.54560175059211524        1520688098.3711889     
 -0.17650395796945595       0.32124948305907225        1536576863.4122295     
  -2.5395299416477661E-002  0.16728983125509006        1557442764.4447701     
  0.14685382031299996        8.3799771151553265E-002   1583285801.4688168     
  0.34021732317815134        7.0690294277538479E-002   1614105974.4843700     
  -169856576.14451614       -6023941.4669463634        1495512274.7943425     
  -157140325.51897687       -6183614.4924460426        1510895510.2060063     
  -144439303.89297572       -6394050.8497401625        1531120188.3460846     
  -131753511.26650789       -6655250.5388139561        1556186309.2145724     
  -119082947.63957022       -6967213.5596531592        1586093872.8114791     
  -340938293.20280349       -12415425.845577464        1468816662.5244944     
  -315893487.11911732       -12851080.183445171        1483676601.1160111     
  -290879139.05562717       -13388261.255298957        1503242289.1728480     
  -265895249.01233408       -14026969.061143920        1527513726.6950085     
  -240941816.98923457       -14767203.600966305        1556490913.6824901     
  -513245151.48135233       -19174452.590288639        1440601261.5616436     
  -476259484.97692180       -20002396.751738489        1454920136.1422427     
  -439319505.51335067       -20982631.049385607        1473809066.9250727     
  -402425213.09063280       -22115155.483210534        1497268053.9101303     
  -365576607.70877832       -23399970.053246602        1525297097.0974245     
  -686777150.98016512       -26301021.701079011        1410866071.9057903     
  -638238319.09239328       -27637564.197335273        1424626115.2846987     
  -589760403.26613891       -29177160.231976688        1442820521.6027501     
  -541343403.50141001       -30919809.805041939        1465449290.8599343     
  -492987319.79819477       -32865512.916482076        1492512423.0562615     
  0.34021732317815134        7.0690294277538479E-002   1614105974.4843700     
  0.23907753066642679        1.1088428710025119E-002   1606386406.2764387     
  0.14438683765089128       -2.7014356868687035E-002   1603875359.3811073     
   5.6159221046408359E-002  -4.3573901355252381E-002   1606572833.7983701     
  -2.5620348333708343E-002  -3.8641342872711114E-002   1614478829.5282252     
  -119082947.63957022       -6967213.5596531592        1586093872.8114791     
  -104967603.62858552       -6021166.8926061243        1577840058.1163228     
  -90293354.416311085       -3212102.8879248872        1575017360.6425223     
  -75060200.002728850        1459978.4544467628        1577625780.3900683     
  -59268140.387852445        7995077.1344656013        1585665317.3589654     
  -240941816.98923457       -14767203.600966305        1556490913.6824901     
  -212075140.55540088       -12684313.714058012        1548354908.5607650     
  -182090653.72542453       -6875389.1733467579        1545872616.5691476     
  -150988356.49930850        2659570.0211666077        1549044037.7076337     
  -118768248.87705053        15920563.869486071        1557869171.9762223     
  -365576607.70877832       -23399970.053246602        1525297097.0974245     
  -321322610.54135752       -19989440.453233153        1517930957.6097734     
  -275391897.78296292       -10989858.883302763        1516441127.1609828     
  -227784469.43357792        3598774.6565928608        1520827605.7510519     
  -178500325.49321759        23776460.166407540        1531090393.3799746     
  -492987319.79819477       -32865512.916482076        1492512423.0562615     
  -432710013.58647490       -27936547.110189840        1486568205.2633424     
  -370197086.58892012       -15555512.017781094        1486722892.4180288     
  -305448538.80555099        4277592.3606755286        1492976484.5203331     
  -238464370.23634523        31562766.025254130        1505328981.5702505     
  -2.5620348333708343E-002  -3.8641342872711114E-002   1614478829.5282252     
  -1.0410994410892226E-002   1.1744268561316405E-004   1584221024.2664411     
   1.4392790988330831E-003   2.7679987423025139E-002   1557318139.2394621     
   9.9453641293075074E-003   4.4094890284905645E-002   1533770174.4472866     
   1.5105224763308693E-002   4.9355711825208683E-002   1513577129.8899238     
  -59268140.387852445        7995077.1344656013        1585665317.3589654     
  -48491223.064347133        15615698.926678687        1555907219.8210685     
  -36565475.250096448        27065755.688040964        1529325533.4193296     
  -23490896.945115376        42345247.418502957        1505920258.1537647     
  -9267488.1493827254        61454174.118139312        1485691394.0243483     
  -118768248.87705053        15920563.869486071        1557869171.9762223     
  -97724440.241368175        31008799.616312802        1529951084.4053168     
  -74382970.620853126        53755905.312580697        1505030898.8719349     
  -48743840.015500665        84161880.958306596        1483108615.3760700     
  -20807048.425312154        122226726.55348717        1464184233.9177349     
  -178500325.49321759        23776460.166407540        1531090393.3799746     
  -147699651.54147476        46179302.069018744        1506352618.0191805     
  -113452486.11080471        80070448.901386112        1484434235.5972562     
  -75758829.201205552        125449900.66351788        1465335246.1142166     
  -34618680.812679671        182317657.35540521        1449055649.5700574     
  -238464370.23634523        31562766.025254130        1505328981.5702505     
  -198416856.96466291        61127206.284806892        1485111820.6626630     
  -153774021.71995845        106009386.45443255        1467535543.5953090     
  -104535864.50223373        166209306.53412759        1452600150.3681993     
  -50702385.311485410        241726966.52389848        1440305640.9813216     
   1.5105224763308693E-002   4.9355711825208683E-002   1513577129.8899238     
   9.1360069692608872E-003   4.7371767680709560E-002   1403880034.4502470     
   3.9473461129794184E-003   4.7991761663602736E-002   1291443745.8041365     
  -4.3801958397367627E-004   5.1288712288200096E-002   1176268263.9515688     
  -4.0493249778924441E-003   5.7165170033521499E-002   1058353588.8925791     
  -9267488.1493827254        61454174.118139312        1485691394.0243483     
  -9705646.9259391874        80860317.331915617        1376666455.8370414     
  -8196578.9718046114        106757216.31466025        1265565324.9059241     
  -4740284.2869654521        139144871.06641811        1152388001.2310140     
   663237.12856386602        178023281.58714908        1037134484.8123059     
  -20807048.425312154        122226726.55348717        1464184233.9177349     
  -19789078.936316662        161607299.09386876        1358103217.5009909     
  -14876655.986720756        213969383.16958699        1250609008.8030987     
  -6069779.5765168816        279312978.78066385        1141701607.8240564     
   6631550.2942797691        357638085.92705047        1031381014.5638616     
  -34618680.812679671        182317657.35540521        1449055649.5700574     
  -30250296.021988943        242240945.33326012        1348190319.4421127     
  -20040231.040802225        321636500.61276704        1246574797.4956734     
  -3988485.8691059053        420504323.19397324        1144209083.7307162     
   17904939.493105143        538844413.07689810        1041093178.1472847     
  -50702385.311485410        241726966.52389848        1440305640.9813216     
  -41089298.182972848        322761256.05003136        1346927761.6604009     
  -23687304.134060681        429758568.64416564        1253462690.9836307     
   1503596.8352842629        562718904.30640924        1159910428.9510026     
   34483404.725033134        721642263.03666317        1066270975.5625162     
  -2693790784.9210863       -297047381.75499892        2612841217.9733462     
  -2264738038.7959132       -251805861.11243057        2144456157.9829447     
  -1826118957.4743567       -174676556.48191100        1721308260.5781586     
  -1377933540.9564111       -65659467.863434136        1343397525.7589831     
  -920181789.24207687        75245404.743006170        1010723953.5254215     
  -3383903270.9812946       -365447778.10517859        2476643369.2304888     
  -2843694719.5752850       -317258793.39722550        2037440788.6462367     
  -2290437869.0913510       -225575478.42950869        1637825327.0619240     
  -1724132719.5294838       -90397833.202027917        1277796984.4775507     
  -1144779270.8896816        88274142.285236955        957355760.89311934     
  -4020256810.7396913       -417720490.56481159        2326722345.0751133     
  -3385035435.7262025       -371426936.29348421        1920764535.0921469     
  -2733283797.7532382       -270032505.49057853        1548743800.5234404     
  -2065001896.8208015       -113537198.15609014        1210660141.3690038     
  -1380189732.9288886        98058985.709982216        906513557.62883580     
  -4602851404.1962824       -453865519.13390493        2163078145.5072250     
  -3888760187.2486639       -414310289.80121088        1794427397.3206706     
  -3154656743.4600239       -308047637.66511571        1454063680.9627104     
  -2400541072.8303685       -135077562.72563124        1141986996.4333477     
  -1626413175.3596931        104599935.01724887        858197343.73257649     
  -5131687051.3510685       -473882863.81245637        1985710770.5268161     
  -4354868974.1426678       -445908853.92039061        1658429375.3318167     
  -3554556706.2117076       -339620874.95312572        1353784968.3797343     
  -2730750247.5581813       -155018926.91064608        1071777549.6705743     
  -1883449598.1820958        107896990.20703936        812407119.20433664     
  -920181789.24207687        75245404.743006170        1010723953.5254215     
  -980775907.31084466        70301893.515206814        1142516738.4263868     
  -1044570177.8722435        54691207.311972976        1267169440.1340158     
  -1111564600.9262764        28413346.133291364        1384682058.6483049     
  -1181759176.4729376       -8531690.0208189487        1495054593.9692550     
  -1144779270.8896816        88274142.285236955        957355760.89311934     
  -1222404812.6337755        83573016.761483908        1081724459.6332853     
  -1304032106.5739391        65532717.250830114        1200076211.2694547     
  -1389661152.7101674        34153243.753294587        1312411015.8016229     
  -1479291951.0424645       -10565403.731137633        1418728873.2297878     
  -1380189732.9288886        98058985.709982216        906513557.62883580     
  -1471637738.0930538        94562933.966851652        1022522970.5541960     
  -1567889095.1567211        75055709.225377917        1133638572.4648957     
  -1668943804.1198967        39537311.485546231        1239860363.3609328     
  -1774801864.9825742       -11992259.252626181        1341188343.2423120     
  -1626413175.3596931        104599935.01724887        858197343.73257649     
  -1728474683.6886721        103271645.13132489        964912271.18911946     
  -1836141143.6205993        83260183.235580325        1067856523.7203398     
  -1949412555.1554577        44565549.330060005        1167030101.3262422     
  -2068288918.2932675       -12812256.585288882        1262433004.0068188     
  -1883449598.1820958        107896990.20703936        812407119.20433664     
  -1992915649.4206421        109699150.25488102        908892361.53805399     
  -2108788251.9655638        90146139.281474948        1002730065.0357900     
  -2231067405.8168664        49237957.286798358        1093920229.6975391     
  -2359753110.9745436       -13025395.729129791        1182462855.5233085     
  -1181759176.4729376       -8531690.0208189487        1495054593.9692550     
  -1129399197.5496466       -13883017.113382459        1490757652.4906702     
  -1077249609.3948781       -19935646.767693043        1491708466.4941890     
  -1025310412.0086361       -26689578.983752131        1497907035.9798112     
  -973581605.39092338       -34144813.761580646        1509353360.9475398     
  -1479291951.0424645       -10565403.731137633        1418728873.2297878     
  -1413370820.3132455       -15394556.178834796        1414653195.6544681     
  -1347915684.8704083       -21777026.247807682        1415640915.9912493     
  -1282926544.7139606       -29712813.938080490        1421692034.2401333     
  -1218403399.8438976       -39201919.249631107        1432806550.4011197     
  -1774801864.9825742       -11992259.252626181        1341188343.2423120     
  -1695846318.3617184       -16457257.829755902        1337035724.2994201     
  -1617612371.5451066       -23327589.087696552        1337762145.6986268     
  -1540100024.5327389       -32603253.026451647        1343367607.4399362     
  -1463309277.3246131       -44284249.646013856        1353852109.5233471     
  -2068288918.2932675       -12812256.585288882        1262433004.0068188     
  -1976825691.6950653       -17071122.066139221        1257905238.4255180     
  -1886339669.4189649       -24587335.287329793        1258072155.6163194     
  -1796830851.4649663       -35360896.248857617        1262933755.5792210     
  -1708299237.8330674       -49391804.950716734        1272490038.3142226     
  -2359753110.9745436       -13025395.729129791        1182462855.5233085     
  -2256308940.3132830       -17236148.887980461        1177261738.0327694     
  -2154097578.4919801       -25556264.846696854        1176570945.7443287     
  -2053119025.5106409       -37985743.605288386        1180390478.6579881     
  -1953373281.3692586       -54524585.163737297        1188720336.7737429     
  -973581605.39092338       -34144813.761580646        1509353360.9475398     
  -902806103.05931854       -35269236.650074452        1474445730.4647737     
  -831413526.54699123       -34336745.602820098        1446395305.4635603     
  -759403875.85394073       -31347340.619825691        1425202085.9438987     
  -686777150.98016512       -26301021.701079011        1410866071.9057903     
  -1218403399.8438976       -39201919.249631107        1432806550.4011197     
  -1130506344.6995974       -40908639.649996102        1398592712.0131037     
  -1041635462.2937874       -39369269.178668678        1370826469.7329695     
  -951790752.62648344       -34583807.835694730        1349507823.5607126     
  -860972215.69767857       -26552255.621045023        1334636773.4963295     
  -1463309277.3246131       -44284249.646013856        1353852109.5233471     
  -1359460981.8638208       -46924361.307091236        1320748275.1576602     
  -1254282106.0607548       -45129205.160588622        1293682427.5261734     
  -1147772649.9154050       -38898781.206474125        1272654566.6288881     
  -1039932613.4277809       -28233089.444784462        1257664692.4658096     
  -1708299237.8330674       -49391804.950716734        1272490038.3142226     
  -1589670014.5520024       -53316401.621385455        1240912419.8984334     
  -1469353457.8478820       -51616553.548536599        1214963178.8431704     
  -1347349567.7207077       -44292260.732179463        1194642315.1484358     
  -1223658344.1704800       -31343523.172301173        1179949828.8142328     
  -1953373281.3692586       -54524585.163737297        1188720336.7737429     
  -1821133442.7641292       -60084760.592853248        1159085146.2354240     
  -1686849517.6551797       -58831314.342554867        1134668723.6839619     
  -1550521506.0423851       -50764246.412783742        1115471069.1193497     
  -1412149407.9257693       -35883556.803601623        1101492182.5415900     
  -686777150.98016512       -26301021.701079011        1410866071.9057903     
  -638238319.09239328       -27637564.197335273        1424626115.2846987     
  -589760403.26613891       -29177160.231976688        1442820521.6027501     
  -541343403.50141001       -30919809.805041939        1465449290.8599343     
  -492987319.79819477       -32865512.916482076        1492512423.0562615     
  -860972215.69767857       -26552255.621045023        1334636773.4963295     
  -800906418.43442047       -26864658.359468579        1346345444.9540515     
  -741232997.69866157       -28484982.856228888        1362250309.9712000     
  -681951953.49039614       -31413229.111300111        1382351368.5477769     
  -623063285.80962098       -35649397.124667138        1406648620.6837802     
  -1039932613.4277809       -28233089.444784462        1257664692.4658096     
  -969020334.73107314       -27725497.607997894        1266935288.1253705     
  -898831893.02783668       -29630695.749450982        1280163907.9646492     
  -829367288.31807554       -33948683.869156510        1297350551.9836447     
  -760626520.60178375       -40679461.967089832        1318495220.1823530     
  -1223658344.1704800       -31343523.172301173        1179949828.8142328     
  -1142580067.9823525       -30220081.942904353        1186395644.7986608     
  -1062557089.2536793       -32614298.911692858        1196561315.5830917     
  -983589407.98444867       -38526174.078625858        1210446841.1675293     
  -905677024.17466450       -47955707.443706304        1228052221.5519700     
  -1412149407.9257693       -35883556.803601623        1101492182.5415900     
  -1321585618.1882584       -34348411.364215434        1104726514.9739141     
  -1232408586.3761706       -37435792.342897892        1111442532.8265305     
  -1144618312.4895184       -45145699.739703000        1121640236.0994384     
  -1058214796.5282831       -57478133.554564059        1135319624.7926412     
  -492987319.79819477       -32865512.916482076        1492512423.0562615     
  -432710013.58647490       -27936547.110189840        1486568205.2633424     
  -370197086.58892012       -15555512.017781094        1486722892.4180288     
  -305448538.80555099        4277592.3606755286        1492976484.5203331     
  -238464370.23634523        31562766.025254130        1505328981.5702505     
  -623063285.80962098       -35649397.124667138        1406648620.6837802     
  -547302324.83418930       -31878106.663835913        1400739770.7078283     
  -469206721.07686979       -20324673.596717045        1400909675.2976053     
  -388776474.53765404       -989097.92327059805        1407158334.4531178     
  -306011585.21656096        26128620.356425360        1419485748.1743591     
  -760626520.60178375       -40679461.967089832        1318495220.1823530     
  -669439477.38229835       -38083118.607617080        1312737263.6854367     
  -575818769.38486385       -27374559.321634710        1313037911.3723738     
  -479764396.60948324       -8553784.1091682911        1319397163.2431583     
  -381276359.05615091        18379207.029797629        1331815019.2977972     
  -905677024.17466450       -47955707.443706304        1228052221.5519700     
  -799121471.23079491       -46551582.941496134        1222560684.1961687     
  -690033231.51290894       -36705169.192570150        1223107600.6423354     
  -578412305.02101803       -18416466.196954131        1229692970.8904727     
  -464258691.75511795        8314526.0453501046        1242316794.9405806     
  -1058214796.5282831       -57478133.554564059        1135319624.7926412     
  -936348306.37968647       -57283499.665510327        1130210032.2400217     
  -811850107.46101904       -48316503.209556788        1131118743.1074903     
  -684720199.77227223       -30577144.186670423        1138045757.3950446     
  -554958583.31346357       -4065422.5969109833        1150991075.1026919     
  -238464370.23634523        31562766.025254130        1505328981.5702505     
  -198416856.96466291        61127206.284806892        1485111820.6626630     
  -153774021.71995845        106009386.45443255        1467535543.5953090     
  -104535864.50223373        166209306.53412759        1452600150.3681993     
  -50702385.311485410        241726966.52389848        1440305640.9813216     
  -306011585.21656096        26128620.356425360        1419485748.1743591     
  -257337289.41145042        56301814.779416442        1403601752.9240897     
  -202239842.41147318        107885513.18529435        1391572378.6677299     
  -140719244.21663713        180879715.57403684        1383397625.4052866     
  -72775494.826919854        275284421.94571048        1379077493.1367514     
  -381276359.05615091        18379207.029797629        1331815019.2977972     
  -320507460.27855122        50201501.747931987        1322396657.1303349     
  -251487581.08424029        109527064.52177300        1318046653.1104596     
  -174216721.47321069        196355895.35133475        1318765007.2381692     
  -88694881.445479736        310687994.23658150        1324551719.5134578     
  -464258691.75511795        8314526.0453501046        1242316794.9405806     
  -387927369.56596458        42826267.190353766        1241496533.2814069     
  -301517237.73824883        110934040.46389292        1246958366.9234979     
  -205028296.27198291        212637845.86593986        1258702295.8668418     
  -98460545.167154595        347937683.39651966        1276728320.1114421     
  -554958583.31346357       -4065422.5969109833        1150991075.1026919     
  -459597017.27369076        34176111.106681705        1160901381.3773003     
  -352328812.37351346        112106441.01162273        1178307520.1068425     
  -233153968.61292839        229725567.11792135        1203209491.2913132     
  -102072485.99194968        387033489.42553508        1235607294.9307072     
  -50702385.311485410        241726966.52389848        1440305640.9813216     
  -41089298.182972848        322761256.05003136        1346927761.6604009     
  -23687304.134060681        429758568.64416564        1253462690.9836307     
   1503596.8352842629        562718904.30640924        1159910428.9510026     
   34483404.725033134        721642263.03666317        1066270975.5625162     
  -72775494.826919854        275284421.94571048        1379077493.1367514     
  -58216095.662560403        377058929.25527579        1297240896.2202420     
  -34661096.480628431        508818769.95675576        1214510141.9679091     
  -2110497.2811166346        670563944.05015874        1130885230.3797572     
   39435701.935958147        862294451.53545082        1046366161.4557730     
  -88694881.445479736        310687994.23658150        1324551719.5134578     
  -71494787.330898345        432511034.20390844        1255664213.6147161     
  -44092400.101585537        588341717.88700974        1185075584.4001796     
  -6487719.7575368583        778180045.28589582        1112785831.8698506     
   41319253.701236606        1002026016.4005311        1038794956.0237167     
  -98460545.167154595        347937683.39651966        1276728320.1114421     
  -80925373.187983960        489117570.89593011        1222197713.8438220     
  -51981214.996934712        668327412.43493581        1165159018.2804294     
  -11628070.593982697        885567208.01361513        1105612233.4212728     
   40134060.020857453        1140836957.6319211        1043557359.2663519     
  -102072485.99194968        387033489.42553508        1235607294.9307072     
  -86507853.233829439        546878539.33129716        1196841396.9075656     
  -58327541.166655391        748775853.60058045        1154760443.6086695     
  -17531549.790427446        992725432.23336554        1109364435.0340497     
   35880120.894836605        1278727275.2296181        1060653371.1836755     
  -5131687051.3510685       -473882863.81245637        1985710770.5268161     
  -4354868974.1426678       -445908853.92039061        1658429375.3318167     
  -3554556706.2117076       -339620874.95312572        1353784968.3797343     
  -2730750247.5581813       -155018926.91064608        1071777549.6705743     
  -1883449598.1820958        107896990.20703936        812407119.20433664     
  -5720067497.7748985       -543617801.46078753        1884759468.9637651     
  -4856333013.1155252       -486135523.18305826        1538964511.2971268     
  -3969387226.4572272       -351282238.24223030        1230581739.9531615     
  -3059230137.7999892       -139057946.63828647        959611154.93186808     
  -2125861747.1438208        150537351.62876821        726052756.23324323     
  -6460293750.6722050       -658906481.05116296        1785293703.5729756     
  -5467428006.9054327       -559251478.89083958        1420655146.5904665     
  -4451633849.8633585       -383168432.47951388        1108203974.0103800     
  -3412911279.5459805       -130657341.81717193        847940185.83271563     
  -2351260295.9533024        198281793.09616995        639863782.05747426     
  -7352365810.0429888       -819748902.58358216        1687313474.3544483     
  -6188153955.5123806       -665256721.04373217        1303501281.2118332     
  -5001296576.4301071       -435279457.66497874        986651670.55138886     
  -3791793672.7961559       -129817112.44732237        736764642.37312007     
  -2559645244.6105347        251130314.60924649        553840196.67702210     
  -8396283675.8872490       -1026145066.0580428        1590818781.3081863     
  -7018510858.9363804       -804151249.64174008        1187502915.1612263     
  -5618375406.1574717       -507615313.79864049        865924829.57619107     
  -4195877317.5505157       -136537258.52871847        626084524.55308032     
  -2751016593.1155233        309082916.16799605        467982000.09189415     
  -1883449598.1820958        107896990.20703936        812407119.20433664     
  -1992915649.4206421        109699150.25488102        908892361.53805399     
  -2108788251.9655638        90146139.281474948        1002730065.0357900     
  -2231067405.8168664        49237957.286798358        1093920229.6975391     
  -2359753110.9745436       -13025395.729129791        1182462855.5233085     
  -2125861747.1438208        150537351.62876821        726052756.23324323     
  -2245898348.5773644        147980113.30468369        819480997.26622200     
  -2373408475.5027285        120511123.34118688        908431599.68640077     
  -2508392127.9199238        68130381.738257885        992904563.49378347     
  -2650849305.8289390       -9162111.5040762424        1072899888.6883612     
  -2351260295.9533024        198281793.09616995        639863782.05747426     
  -2487096304.0870271        189796499.44859982        728990218.57335508     
  -2631472811.8980284        152842873.54345131        811808916.69962227     
  -2784389819.3863029        87420915.380727649        888319876.43627381     
  -2945847326.5518494       -6469375.0395821333        958523097.78331077     
  -2559645244.6105347        251130314.60924649        553840196.67702210     
  -2716509515.9496369        235148308.68662763        637420025.45945287     
  -2882981261.1514573        187141389.88827884        712862016.07545078     
  -3059060480.2160001        107109558.21418858        780166168.52501905     
  -3244747173.1432624       -4947186.3356312513        839332482.80815279     
  -2751016593.1155233        309082916.16799605        467982000.09189415     
  -2934137984.1651845        284035541.01878703        544770417.92451310     
  -3127933823.2630177        223406672.37567198        611590897.81388700     
  -3332404110.4090180        127196310.23867035        668443439.76001287     
  -3547548845.6031928       -4595545.3922488689        715328043.76289046     
  -2359753110.9745436       -13025395.729129791        1182462855.5233085     
  -2256308940.3132830       -17236148.887980461        1177261738.0327694     
  -2154097578.4919801       -25556264.846696854        1176570945.7443287     
  -2053119025.5106409       -37985743.605288386        1180390478.6579881     
  -1953373281.3692586       -54524585.163737297        1188720336.7737429     
  -2650849305.8289390       -9162111.5040762424        1072899888.6883612     
  -2538341949.8957539       -21208828.311789989        1065528759.8534909     
  -2425774420.3727446       -33054966.486755967        1062427286.0985098     
  -2313146717.2599077       -44700526.028970242        1063595467.4234157     
  -2200458840.5572524       -56145506.938445807        1069033303.8282105     
  -2945847326.5518494       -6469375.0395821333        958523097.78331077     
  -2824964414.2673383       -26558344.172328591        950490437.10552382     
  -2702728345.9632239       -42136793.239719391        946486761.38541460     
  -2579139121.6394992       -53204722.241746545        946512070.62297738     
  -2454196741.2961636       -59762131.178421259        950566364.81822050     
  -3244747173.1432624       -4947186.3356312513        839332482.80815279     
  -3116176333.4280410       -33284696.469601750        832146769.78886521     
  -2984959355.2634239       -52801745.105599165        828749371.60504258     
  -2851096238.6494179       -63498332.243628740        829140288.25668395     
  -2714586983.5860214       -65374457.883687973        833319519.74379015     
  -3547548845.6031928       -4595545.3922488689        715328043.76289046     
  -3411977707.3778553       -41387885.203613758        710497757.90351522     
  -3272467448.2733464       -65049822.084405661        709215116.75739539     
  -3129018068.2896557       -75581356.034592152        711480120.32452416     
  -2981629567.4267979       -72982487.054220438        717292768.60490763     
  -1953373281.3692586       -54524585.163737297        1188720336.7737429     
  -1821133442.7641292       -60084760.592853248        1159085146.2354240     
  -1686849517.6551797       -58831314.342554867        1134668723.6839619     
  -1550521506.0423851       -50764246.412783742        1115471069.1193497     
  -1412149407.9257693       -35883556.803601623        1101492182.5415900     
  -2200458840.5572524       -56145506.938445807        1069033303.8282105     
  -2052161313.6721478       -54815898.371843815        1039193865.0251472     
  -1902544821.1979716       -49089737.841668129        1014897775.9900512     
  -1751609363.1347103       -38967025.347875237        996145036.72291636     
  -1599354939.4823761       -24447760.890495241        982935647.22373974     
  -2454196741.2961636       -59762131.178421259        950566364.81822050     
  -2288914149.6136365       -51264525.660867095        919676703.34987617     
  -2123037713.2567866       -40787437.895575285        894654973.43060005     
  -1956567432.2256100       -28330867.882525802        875501175.06039202     
  -1789503306.5201061       -13894815.621732473        862215308.23926091     
  -2714586983.5860214       -65374457.883687973        833319519.74379015     
  -2531391950.5886073       -49430642.459939241        800533661.20960844     
  -2348328193.8316269       -33924414.504293203        773940316.00561023     
  -2165395713.3150764       -18855774.016756535        753539484.13179064     
  -1982594509.0389547       -4224720.9973086119        739331165.58814657     
  -2981629567.4267979       -72982487.054220438        717292768.60490763     
  -2779594716.5970535       -49314248.769053936        681764738.60435045     
  -2578416262.9224944       -28500667.667830348        652753803.71507835     
  -2378094206.4031153       -10541743.750543118        630259963.93709826     
  -2178628547.0389252        4562522.9827852249        614283219.27040017     
  -1412149407.9257693       -35883556.803601623        1101492182.5415900     
  -1321585618.1882584       -34348411.364215434        1104726514.9739141     
  -1232408586.3761706       -37435792.342897892        1111442532.8265305     
  -1144618312.4895184       -45145699.739703000        1121640236.0994384     
  -1058214796.5282831       -57478133.554564059        1135319624.7926412     
  -1599354939.4823761       -24447760.890495241        982935647.22373974     
  -1501008199.2097683       -25533360.316354692        983594045.84110653     
  -1403606287.5170026       -29768388.341691613        987362431.34177041     
  -1307149204.4040875       -37152844.966534376        994240803.72573781     
  -1211636949.8710113       -47686730.190828681        1004229162.9930118     
  -1789503306.5201061       -13894815.621732473        862215308.23926091     
  -1684435611.5323734       -17919758.658847570        860813357.27817631     
  -1579870815.7789040       -23621032.476818681        862149694.66340470     
  -1475808919.2596974       -30998637.075677752        866224320.39494467     
  -1372249921.9747467       -40052572.455398738        873037234.47279739     
  -1982594509.0389547       -4224720.9973086119        739331165.58814657     
  -1871867855.1560650       -11507606.391633749        736384449.28512621     
  -1761202171.1618626       -18993724.748263240        735804322.79142690     
  -1650597457.0563262       -26683076.067113519        737590786.10705042     
  -1540053712.8394837       -34575660.348260939        741743839.23199618     
  -2178628547.0389252        4562522.9827852249        614283219.27040017     
  -2063304930.0808539       -6296903.5147825480        610307321.86195433     
  -1947600353.6658792       -15886465.156003594        608326315.72584343     
  -1831514817.7940042       -24206161.940888762        608340200.86206555     
  -1715048322.4652267       -31255993.869438291        610348977.27061641     
  -1058214796.5282831       -57478133.554564059        1135319624.7926412     
  -936348306.37968647       -57283499.665510327        1130210032.2400217     
  -811850107.46101904       -48316503.209556788        1131118743.1074903     
  -684720199.77227223       -30577144.186670423        1138045757.3950446     
  -554958583.31346357       -4065422.5969109833        1150991075.1026919     
  -1211636949.8710113       -47686730.190828681        1004229162.9930118     
  -1075666491.7667506       -44959550.693515301        998235335.41708159     
  -938010367.51104867       -36613484.024741471        996487976.93890989     
  -798668577.10390806       -22648530.184502333        998987087.55848551     
  -657641120.54532826       -3064689.1727951467        1005732667.2758049     
  -1372249921.9747467       -40052572.455398738        873037234.47279739     
  -1227237879.6929293       -36311562.483262718        865055455.48516309     
  -1081486213.8783062       -30105140.735108674        859548311.27293694     
  -934994924.53086925       -21433307.210912168        856515801.83612871     
  -787764011.65063345       -10296061.910711527        855957927.17472327     
  -1540053712.8394837       -34575660.348260939        741743839.23199618     
  -1391062470.1582251       -31339535.034744561        730670392.44425142     
  -1242277646.5627847       -28791473.340635061        720299746.10957623     
  -1093699242.0531695       -26931475.265940130        710631900.22797573     
  -945327256.62937987       -25759540.810656905        701666854.79944253     
  -1715048322.4652267       -31255993.869438291        610348977.27061641     
  -1567140263.1626287       -30043468.347952187        595080146.29435098     
  -1420384665.5644858       -32672481.841331601        578742281.44882202     
  -1274781529.6707933       -39143034.349546075        561335382.73402178     
  -1130330855.4815679       -49455125.872634768        542859450.14996076     
  -554958583.31346357       -4065422.5969109833        1150991075.1026919     
  -459597017.27369076        34176111.106681705        1160901381.3773003     
  -352328812.37351346        112106441.01162273        1178307520.1068425     
  -233153968.61292839        229725567.11792135        1203209491.2913132     
  -102072485.99194968        387033489.42553508        1235607294.9307072     
  -657641120.54532826       -3064689.1727951467        1005732667.2758049     
  -544051692.83056152        27227691.790725201        1019717772.8976991     
  -419660053.06613553        93527446.253092915        1042062897.9854492     
  -284466201.25207883        195834574.21424234        1072768042.5390558     
  -138470137.38837087        334149075.67422104        1111833206.5585093     
  -787764011.65063345       -10296061.910711527        855957927.17472327     
  -653477616.51536465        12787898.036402255        872729334.19801521     
  -509493436.14120662        68197808.779808402        898724947.69809103     
  -355811470.52816629        155933670.31948894        933944767.67494321     
  -192431719.67623839        275995482.65546644        978388794.12857199     
  -945327256.62937987       -25759540.810656905        701666854.79944253     
  -787874788.32811892       -9143270.1563126445        719936065.27824986     
  -621828961.59872270        36117528.591793686        748293669.24475825     
  -447189776.44119960        110022855.43366846        786739666.69897687     
  -263957232.85555965        212572710.36926568        835274057.64089322     
  -1130330855.4815679       -49455125.872634768        542859450.14996076     
  -947243208.26881301       -38565812.787416160        561337966.13839936     
  -756666629.43868136       -2713394.3109470606        590769062.62546539     
  -558601118.99118650        58102129.556730241        631152739.61115754     
  -353046676.92631692        143880758.81566745        682488997.09547961     
  -102072485.99194968        387033489.42553508        1235607294.9307072     
  -86507853.233829439        546878539.33129716        1196841396.9075656     
  -58327541.166655391        748775853.60058045        1154760443.6086695     
  -17531549.790427446        992725432.23336554        1109364435.0340497     
   35880120.894836605        1278727275.2296181        1060653371.1836755     
  -138470137.38837087        334149075.67422104        1111833206.5585093     
  -128591177.38894483        483166325.77231610        1090177669.6623442     
  -95533409.792524546        709446267.86040437        1069962316.6446921     
  -39296834.599097431        1012988901.9385061        1051187147.5055367     
   40118548.191320240        1393794228.0065935        1033852162.2449158     
  -192431719.67623839        275995482.65546644        978388794.12857199     
  -174652034.85193732        418260852.22096515        986167268.02865922     
  -123130414.14268231        672999341.40296674        1000141164.9615138     
  -37866857.548491657        1040210950.2014425        1020310484.9271311     
   81138634.930669546        1519895678.6164417        1046675227.9255053     
  -263957232.85555965        212572710.36926568        835274057.64089322     
  -224690425.62280029        352162118.67724311        884810192.00651097     
  -141118554.21714658        639435074.22822452        945296988.55915439     
  -13241618.638591528        1074391577.0221739        1016734447.2987843     
   158940381.11285514        1657031627.0591342        1099122568.2254727     
  -353046676.92631692        143880758.81566745        682488997.09547961     
  -278706349.70153719        284870125.14117217        786106441.59590352     
  -149497830.01589385        608753466.33620572        905429787.43759704     
   34578882.130583644        1115530782.4006865        1040459034.6205596     
   273523786.73790878        1805202073.3346872        1191194183.1447775     
  -8396283675.8872490       -1026145066.0580428        1590818781.3081863     
  -7018510858.9363804       -804151249.64174008        1187502915.1612263     
  -5618375406.1574717       -507615313.79864049        865924829.57619107     
  -4195877317.5505157       -136537258.52871847        626084524.55308032     
  -2751016593.1155233        309082916.16799605        467982000.09189415     
  -9248667540.4857483       -1159145343.1996055        981341944.12994695     
  -7707385152.0423336       -892577241.71287227        761967908.23296249     
  -6146650313.1257143       -561167638.64880466        576346311.75207222     
  -4566463023.7359009       -164916534.00742626        424477154.68726695     
  -2966823283.8728943        296176072.21128476        306360437.03855723     
  -9576644641.8066139       -1134823591.3578823        371840181.85331017     
  -8008953656.5730286       -864811497.21143055        333012759.95898873     
  -6424720406.2210951       -539658519.33712363        279952436.33492416     
  -4823944890.7508039       -159364657.73498559        212659210.98110986     
  -3206627110.1621633        276070087.59499717        131133083.89755465     
  -9380214979.8498325       -953179810.53286171       -237686505.52171186     
  -7923216372.5284700       -720854016.13739753       -99362529.660693735     
  -6452585685.4436007       -443087955.86358166       -23256796.675249726     
  -4968322918.5952196       -119881629.71139431       -9369306.5653937273     
  -3470428071.9833331        248764962.31915307       -57700059.331113748     
  -8659378554.6154156       -614214000.72454977       -847238117.99512625     
  -7450173299.9086609       -460704798.49080276       -535157960.62608314     
  -6230246150.7932377       -271455948.22816110       -333281387.27845740     
  -4999597107.2691574       -46467449.936670780       -241608397.95224476     
  -3758226169.3364058        214260696.38372445       -260138992.64743981     
  -2751016593.1155233        309082916.16799605        467982000.09189415     
  -2934137984.1651845        284035541.01878703        544770417.92451310     
  -3127933823.2630177        223406672.37567198        611590897.81388700     
  -3332404110.4090180        127196310.23867035        668443439.76001287     
  -3547548845.6031928       -4595545.3922488689        715328043.76289046     
  -2966823283.8728943        296176072.21128476        306360437.03855723     
  -3182677183.1060658        234806851.09875560        367278505.85737664     
  -3403355226.6161942        157357149.06304622        421367624.62365979     
  -3628857414.4032869        63826966.104123831        468627793.33741271     
  -3859183746.4673314       -45783697.777977943        509059011.99862808     
  -3206627110.1621633        276070087.59499717        131133083.89755465     
  -3446244980.7482386        181069581.56834316        183006158.10231894     
  -3684836691.8400559        89489607.189208508        231189270.14526314     
  -3922402243.4376249        1330164.4575765133        275682420.02638853     
  -4158941635.5409393       -83408746.626549244        316485607.74568808     
  -3470428071.9833331        248764962.31915307       -57700059.331113748     
  -3724841377.0916996        122823732.42754292       -8046625.3406550344     
  -3972378218.9345965        19804046.754180431        41055834.378694519     
  -4213038597.5120373       -60294094.700998306        89607319.826934591     
  -4446822512.8240128       -117470691.93796086        137607831.00406736     
  -3758226169.3364058        214260696.38372445       -260138992.64743981     
  -4018466372.1364622        60069303.676348209       -205879844.47154680     
  -4265979807.8998299       -51699532.242083549       -149032682.67604753     
  -4500766476.6265278       -121045811.37160850       -89597507.260940105     
  -4722826378.3165483       -147969533.71220827       -27574318.226225153     
  -3547548845.6031928       -4595545.3922488689        715328043.76289046     
  -3411977707.3778553       -41387885.203613758        710497757.90351522     
  -3272467448.2733464       -65049822.084405661        709215116.75739539     
  -3129018068.2896557       -75581356.034592152        711480120.32452416     
  -2981629567.4267979       -72982487.054220438        717292768.60490763     
  -3859183746.4673314       -45783697.777977943        509059011.99862808     
  -3702999408.7070279       -47360547.983747721        510768849.98953658     
  -3547212500.6945677       -50262164.015687227        516660699.15433496     
  -3391823022.4299593       -54488545.873797536        526734559.49303269     
  -3236830973.9132061       -60039693.558073640        540990431.00562453     
  -4158941635.5409393       -83408746.626549244        316485607.74568808     
  -3980331622.6438208       -49226364.546165705        319676260.52201241     
  -3806455590.1215839       -30823917.048710585        327683290.93286920     
  -3637313537.9742222       -28201404.134184122        340506698.97826993     
  -3472905466.2017350       -41358825.802571058        358146484.65820599     
  -4446822512.8240128       -117470691.93796086        137607831.00406736     
  -4243974349.1882472       -46985334.890864849        137219989.50094032     
  -4050196716.5543876       -6735081.1834652424        142282892.09299597     
  -3865489614.9224372        3280069.1842403412        152796538.78022814     
  -3689853044.2923865       -16939883.787711382        168760929.56264409     
  -4722826378.3165483       -147969533.71220827       -27574318.226225153     
  -4493927588.3402996       -40637459.017868280       -36599963.073668227     
  -4278435879.9929848        22004343.580038786       -39540497.365288146     
  -4076351253.2746058        39955874.081487894       -36395921.101083294     
  -3887673708.1851463        13217132.486536026       -27166234.281050805     
  -2981629567.4267979       -72982487.054220438        717292768.60490763     
  -2779594716.5970535       -49314248.769053936        681764738.60435045     
  -2578416262.9224944       -28500667.667830348        652753803.71507835     
  -2378094206.4031153       -10541743.750543118        630259963.93709826     
  -2178628547.0389252        4562522.9827852249        614283219.27040017     
  -3236830973.9132061       -60039693.558073640        540990431.00562453     
  -3022267661.3682551       -47266379.205165267        511622003.23067045     
  -2807008183.1444111       -32172512.589277029        487887971.80203575     
  -2591052539.2416739       -14758093.710422277        469788336.71971965     
  -2374400729.6600447        4976877.4314121008        457323097.98371905     
  -3472905466.2017350       -41358825.802571058        358146484.65820599     
  -3248335688.4129124       -40237034.323310018        336748982.41527599     
  -3021517182.1111269       -31619481.134163260        320103177.75369608     
  -2792449947.2963705       -15506166.235126019        308209070.67346555     
  -2561133983.9686556        8102910.3737883568        301066661.17457753     
  -3689853044.2923865       -16939883.787711382        168760929.56264409     
  -3457798797.7310352       -28226214.123506069        157145676.15815625     
  -3221943259.8226418       -26841573.302496076        149399421.57005677     
  -2982286430.5672007       -12785961.324664831        145522165.79833061     
  -2738828309.9647298        13940621.809943795        145513908.84298164     
  -3887673708.1851463        13217132.486536026       -27166234.281050805     
  -3650656989.3226099       -11233918.605737925       -27187915.540671792     
  -3408286416.2789555       -17838789.094261885       -24223296.748882018     
  -3160561989.0541916       -6597478.9790868759       -18272377.905673154     
  -2907483707.6483021        22490011.739816546       -9335159.0110727437     
  -2178628547.0389252        4562522.9827852249        614283219.27040017     
  -2063304930.0808539       -6296903.5147825480        610307321.86195433     
  -1947600353.6658792       -15886465.156003594        608326315.72584343     
  -1831514817.7940042       -24206161.940888762        608340200.86206555     
  -1715048322.4652267       -31255993.869438291        610348977.27061641     
  -2374400729.6600447        4976877.4314121008        457323097.98371905     
  -2254072291.5891395       -3053903.6326043606        456365712.65852070     
  -2133694133.9790750       -10918952.899452925        456610534.12466866     
  -2013266256.8298633       -18618270.369123936        458057562.38215435     
  -1892788660.1415000       -26151856.041635871        460706797.43098068     
  -2561133983.9686556        8102910.3737883568        301066661.17457753     
  -2438065537.5877366        2221330.9024769068        302741341.36192524     
  -2315278611.5854278       -4598649.8308637142        304825543.85962200     
  -2192773205.9617071       -12357031.826164603        307319268.66766781     
  -2070549320.7165861       -21053815.083463907        310222515.78606081     
  -2738828309.9647298        13940621.809943795        145513908.84298164     
  -2615284668.0766587        9528800.0904456377        149434207.97216454     
  -2492353786.4849248        3074444.0498028994        152971344.93070602     
  -2370035665.1895304       -5422446.3119677305        156125319.71860275     
  -2248330304.1904974       -15961870.994929552        158896132.33584467     
  -2907483707.6483021        22490011.739816546       -9335159.0110727437     
  -2785729683.0558844        18868503.931356668       -3555687.5107589648     
  -2664919658.6775761        12100328.742509723        1047937.3379121629     
  -2545053634.5133538        2185486.1733994484        4475715.5349473637     
  -2426131610.5632343       -10876023.776076078        6727647.0803546449     
  -1715048322.4652267       -31255993.869438291        610348977.27061641     
  -1567140263.1626287       -30043468.347952187        595080146.29435098     
  -1420384665.5644858       -32672481.841331601        578742281.44882202     
  -1274781529.6707933       -39143034.349546075        561335382.73402178     
  -1130330855.4815679       -49455125.872634768        542859450.14996076     
  -1892788660.1415000       -26151856.041635871        460706797.43098068     
  -1746871046.2803853       -26331466.257935166        445086755.52659822     
  -1601186468.2412701       -27287862.547563493        429325897.70675367     
  -1455734926.0241523       -29021044.910519481        413424223.97143835     
  -1310516419.6290236       -31531013.346769750        397381734.32066417     
  -2070549320.7165861       -21053815.083463907        310222515.78606081     
  -1923970101.0003948       -21829945.648594022        295323926.48310101     
  -1776704491.2237351       -20318109.345504642        281212739.21847224     
  -1628752491.3866093       -16518306.174201787        267888953.99218374     
  -1480114101.4890215       -10430536.134670675        255352570.80422625     
  -2248330304.1904974       -15961870.994929552        158896132.33584467     
  -2098437427.3226547       -16538906.519931316        145791659.16385236     
  -1946938734.5118828       -11763222.235164642        134402805.98398608     
  -1793834225.7581725       -1634818.1405994892        124729572.79625630     
  -1639123901.0615423        13846305.763686538        116771959.60065478     
  -2426131610.5632343       -10876023.776076078        6727647.0803546449     
  -2270273025.2471576       -10458348.871934772       -3510046.4311509626     
  -2111889198.1057024       -1623201.2164996862       -11103901.996712491     
  -1950980129.1388574        15629419.190224409       -16053919.616351880     
  -1787545818.3466144        41299512.348265052       -18360099.290048148     
  -1130330855.4815679       -49455125.872634768        542859450.14996076     
  -947243208.26881301       -38565812.787416160        561337966.13839936     
  -756666629.43868136       -2713394.3109470606        590769062.62546539     
  -558601118.99118650        58102129.556730241        631152739.61115754     
  -353046676.92631692        143880758.81566745        682488997.09547961     
  -1310516419.6290236       -31531013.346769750        397381734.32066417     
  -1113017389.0454617       -13054712.276652694        419824601.62706637     
  -911789424.45318687        17851368.822515309        440649724.56971639     
  -706832525.85220623        61187229.950706631        459857103.14861107     
  -498146693.24251610        116952871.10793549        477446737.36374974     
  -1480114101.4890215       -10430536.134670675        255352570.80422625     
  -1304118901.4271722        4858188.7525956035        277373125.55183154     
  -1128154764.9652779        20043368.306688547        285205611.07329422     
  -952221692.10331380        35125002.527670026        278850027.36863130     
  -776319682.84132338        50103091.415417761        258306374.43781945     
  -1639123901.0615423        13846305.763686538        116771959.60065478     
  -1520547745.4139452        15172890.300313413        133983537.91269085     
  -1405762650.9749398        3862604.1416006684        124436722.13619986     
  -1294768617.7445469       -20084552.712470829        88131512.271200567     
  -1187565645.7227530       -56668580.261871696        25067908.317675814     
  -1787545818.3466144        41299512.348265052       -18360099.290048148     
  -1762303921.0057590        17889392.366539001       -10344161.290347483     
  -1744613082.4821761       -30690923.672749519       -41656942.241556741     
  -1734473302.7758369       -104441435.76951796       -112298442.14365031     
  -1731884581.8867960       -203362143.92395842       -222268660.99666661     
  -353046676.92631692        143880758.81566745        682488997.09547961     
  -278706349.70153719        284870125.14117217        786106441.59590352     
  -149497830.01589385        608753466.33620572        905429787.43759704     
   34578882.130583644        1115530782.4006865        1040459034.6205596     
   273523786.73790878        1805202073.3346872        1191194183.1447775     
  -498146693.24251610        116952871.10793549        477446737.36374974     
  -388969106.82878089        222965448.02102864        596856168.44312382     
  -230707656.87562275        492590903.39886236        735429156.65252626     
  -23362343.383054614        925829237.24139190        893165701.99194026     
   233066833.64893180        1522680449.5486822        1070065804.4613979     
  -776319682.84132338        50103091.415417761        258306374.43781945     
  -622425820.69933105        124102583.87789980        386759408.35447735     
  -425232423.93935668        342433858.40032327        537833655.18991280     
  -184739492.56139228        705096914.98269391        711529114.94413257     
   99052973.434566379        1212091753.6250610        907845787.61713076     
  -1187565645.7227530       -56668580.261871696        25067908.317675814     
  -979076491.31319964       -11718467.288234591        155816161.32995197     
  -733072131.20708823        158282331.34060189        312643283.04975885     
  -449552565.40442520        453333815.62461758        495549273.47710907     
  -128517793.90520465        873435985.56380463        704534132.61198854     
  -1731884581.8867960       -203362143.92395842       -222268660.99666661     
  -1458921118.6703701       -184497705.47734624       -95973572.630449519     
  -1154226778.6788306       -59863677.780332804        59858040.232061513     
  -817801561.91216421        170539939.16707683        245226177.59085974     
  -449645468.37036616        506713145.36495781        460130839.44596535     
 </DataArray>
 <DataArray  type="Float64" Name="VM" NumberOfComponents="1" format="ascii">
   8496871325.8715248     
   7290005706.7741499     
   6126307848.8100691     
   4994090105.2491436     
   3895950295.6717978     
   8951281409.8599072     
   7590462782.7808580     
   6242975974.0688457     
   4909506813.5596104     
   3602646790.0126905     
   9085534731.1940613     
   7635292765.6884956     
   6191625720.3204155     
   4760540634.3275766     
   3360879898.3185301     
   8891007616.8322067     
   7420433239.3758583     
   5970213029.3548479     
   4546123574.7886486     
   3170178697.5532188     
   8398027298.1141281     
   6963670001.1369724     
   5587604136.6975937     
   4269318566.9700708     
   3028355712.9028673     
   3895950295.6717978     
   4064508134.5814810     
   4248216057.6198616     
   4444191175.9661818     
   4650852675.7113543     
   3602646790.0126905     
   3787772721.1408920     
   3982952029.9100342     
   4186095638.8876748     
   4395732732.7553854     
   3360879898.3185301     
   3554416215.1063261     
   3751816881.0671215     
   3952019861.3106799     
   4154196655.8307652     
   3170178697.5532188     
   3366981332.2015548     
   3560306506.6062136     
   3750084668.8339748     
   3936512524.9501829     
   3028355712.9028673     
   3227005711.8710251     
   3413914491.8022189     
   3589626091.9670510     
   3755516426.3985491     
   4650852675.7113543     
   4474196402.7747831     
   4290027073.3378034     
   4096960356.4845481     
   3894583346.2432542     
   4395732732.7553854     
   4227364345.9232025     
   4054330234.2941146     
   3876175965.7181964     
   3692998441.3520980     
   4154196655.8307652     
   3994509297.4934320     
   3833386674.6974292     
   3670981088.2251930     
   3507699290.7820897     
   3936512524.9501829     
   3784405633.5096879     
   3634249171.9076653     
   3486397104.5292773     
   3341310084.6989121     
   3755516426.3985491     
   3607840277.0929489     
   3465452275.7901049     
   3328450546.5477314     
   3197086375.9479256     
   3894583346.2432542     
   3645357184.2074404     
   3399661028.0463543     
   3157427038.2836294     
   2918838481.9724779     
   3692998441.3520980     
   3454511968.7093301     
   3219024286.7359934     
   2986569022.9606152     
   2757368077.0721374     
   3507699290.7820897     
   3280670659.1992154     
   3056538104.4660406     
   2835435670.4858422     
   2617660975.4920330     
   3341310084.6989121     
   3127100170.3082380     
   2916183380.3105497     
   2708806988.8021226     
   2505404946.0173850     
   3197086375.9479256     
   2997651499.4792495     
   2802466538.4012446     
   2611906733.2643933     
   2426605618.1577597     
   2918838481.9724779     
   2795218482.4883060     
   2670990996.4067254     
   2546158882.6336684     
   2420739969.7078609     
   2757368077.0721374     
   2632815406.4832392     
   2507927460.9283161     
   2382723738.5630355     
   2257232891.2298293     
   2617660975.4920330     
   2494903046.1965752     
   2372476528.7084131     
   2250476896.4930687     
   2129022973.2945664     
   2505404946.0173850     
   2387211028.4811544     
   2270451874.9550567     
   2155354801.1854849     
   2042201056.9838705     
   2426605618.1577597     
   2315534395.2942367     
   2207406114.2051668     
   2102601227.9481606     
   2001584315.0219429     
   2420739969.7078609     
   2265070118.6099501     
   2111165670.9446433     
   1959038951.9768076     
   1808828834.7424810     
   2257232891.2298293     
   2105415146.0314014     
   1954993319.8303807     
   1805985523.0062990     
   1658469706.0881922     
   2129022973.2945664     
   1980349969.0793440     
   1832548557.0778749     
   1685673982.7504649     
   1539812642.0001936     
   2042201056.9838705     
   1897514369.9376090     
   1753229008.9497972     
   1609508687.4124792     
   1466581845.2589452     
   2001584315.0219429     
   1863359876.3228223     
   1725392848.9359815     
   1588078570.0846047     
   1451992474.4604461     
   1808828834.7424810     
   1771406980.9564183     
   1730976272.5901456     
   1695873695.1881611     
   1684277494.3591628     
   1658469706.0881922     
   1545710688.4691544     
   1424102155.3637557     
   1293880135.3782279     
   1161081836.8904102     
   1539812642.0001936     
   1392082224.3810155     
   1240876163.7500708     
   1083825963.6644578     
   918828131.44205642     
   1466581845.2589452     
   1324086893.2008209     
   1196023350.4281204     
   1086743248.0501628     
   1001975024.2923539     
   1451992474.4604461     
   1344442914.5156331     
   1271818726.1289515     
   1242146659.8901310     
   1262344622.6653073     
   1684277494.3591628     
   1385985358.8409743     
   1130254755.1413758     
   1008840288.9691446     
   1149757233.7972515     
   1161081836.8904102     
   1009995470.7535591     
   985757515.45735860     
   1161082979.1967611     
   1542972566.8999035     
   918828131.44205642     
   963747127.71364272     
   1145204201.6290045     
   1476607811.9018750     
   1957413737.7450411     
   1001975024.2923539     
   1164666942.0194335     
   1425511994.9153810     
   1809024607.3126707     
   2335189942.3684320     
   1262344622.6653073     
   1446413959.7855814     
   1715618549.1780341     
   2110615035.0973721     
   2663950980.4792795     
   8398027298.1141281     
   6963670001.1369724     
   5587604136.6975937     
   4269318566.9700708     
   3028355712.9028673     
   7565927485.9946623     
   6302099038.4168024     
   5093713669.0745821     
   3940910892.1404672     
   2859697834.6188231     
   6890184710.4061623     
   5762173872.4006243     
   4684280618.7873096     
   3657337924.9313188     
   2694852466.5166149     
   6368839569.0209856     
   5344595203.1000261     
   4362115714.2745676     
   3422773256.9014893     
   2538391055.2481933     
   5996340614.6197701     
   5047079179.1042051     
   4128100718.9115911     
   3240961479.1646709     
   2396301054.1507602     
   3028355712.9028673     
   3227005711.8710251     
   3413914491.8022189     
   3589626091.9670510     
   3755516426.3985491     
   2859697834.6188231     
   3048346146.5708032     
   3226553080.0684719     
   3394547961.8128319     
   3553279240.5179424     
   2694852466.5166149     
   2878887491.4944038     
   3054065022.7035704     
   3220437798.4689016     
   3378653593.7052631     
   2538391055.2481933     
   2722673900.9827332     
   2899889100.5692296     
   3070040546.8868771     
   3233595693.3606296     
   2396301054.1507602     
   2584690285.0358920     
   2767962449.3471975     
   2946171034.5643992     
   3119699165.8713975     
   3755516426.3985491     
   3607840277.0929489     
   3465452275.7901049     
   3328450546.5477314     
   3197086375.9479256     
   3553279240.5179424     
   3418383616.5560637     
   3288713404.0457015     
   3164516198.5172634     
   3046154279.7737522     
   3378653593.7052631     
   3258281618.4617257     
   3143269517.9752555     
   3034010917.2407064     
   2930992041.2361474     
   3233595693.3606296     
   3129832105.1120081     
   3031756169.4307518     
   2939889951.9871831     
   2854841876.6035972     
   3119699165.8713975     
   3034826621.5377297     
   2956128610.6109433     
   2884218511.3502154     
   2819805194.3318610     
   3197086375.9479256     
   2997651499.4792495     
   2802466538.4012446     
   2611906733.2643933     
   2426605618.1577597     
   3046154279.7737522     
   2864929785.0725884     
   2689438851.9009967     
   2520303390.3061528     
   2358422066.3569551     
   2930992041.2361474     
   2768001379.2265143     
   2612198696.6208782     
   2464352738.0804935     
   2325488345.0435476     
   2854841876.6035972     
   2709548195.6392937     
   2572691907.0508270     
   2445059013.6255040     
   2327642740.2167263     
   2819805194.3318610     
   2690938486.9907193     
   2571400818.9694123     
   2461871240.7914052     
   2363183386.7768159     
   2426605618.1577597     
   2315534395.2942367     
   2207406114.2051668     
   2102601227.9481606     
   2001584315.0219429     
   2358422066.3569551     
   2260368807.2813411     
   2166325475.2795939     
   2076839290.5126336     
   1992552210.4251466     
   2325488345.0435476     
   2242868403.3560071     
   2165441722.9982071     
   2093862110.2538109     
   2028865189.4083440     
   2327642740.2167263     
   2262238608.8199248     
   2203149423.4892311     
   2151046115.7746768     
   2106653211.6624877     
   2363183386.7768159     
   2315952506.1714330     
   2275963462.2126093     
   2243823762.8130846     
   2220168919.6227794     
   2001584315.0219429     
   1863359876.3228223     
   1725392848.9359815     
   1588078570.0846047     
   1451992474.4604461     
   1992552210.4251466     
   1869245671.2817678     
   1750660124.0308270     
   1637816075.0824380     
   1531980778.5657029     
   2028865189.4083440     
   1925572964.5721836     
   1831510402.4936173     
   1747996801.7672398     
   1676472248.4175315     
   2106653211.6624877     
   2024880153.3981001     
   1955971634.2832966     
   1901110566.5742784     
   1861445772.6998794     
   2220168919.6227794     
   2158359653.4160056     
   2111989146.8552394     
   2081894416.9965127     
   2068835609.9420207     
   1451992474.4604461     
   1344442914.5156331     
   1271818726.1289515     
   1242146659.8901310     
   1262344622.6653073     
   1531980778.5657029     
   1472599858.8056877     
   1445774846.0101602     
   1455390920.2732475     
   1504665722.5956690     
   1676472248.4175315     
   1649400680.1061358     
   1649878914.8849981     
   1680225755.1235225     
   1742999614.5195248     
   1861445772.6998794     
   1852301237.1143599     
   1865957375.4119959     
   1904592958.3780861     
   1971197222.4989183     
   2068835609.9420207     
   2066683506.4368243     
   2083609275.1497838     
   2122224134.4854829     
   2186297177.1525326     
   1262344622.6653073     
   1446413959.7855814     
   1715618549.1780341     
   2110615035.0973721     
   2663950980.4792795     
   1504665722.5956690     
   1613164166.8983071     
   1788794846.6884716     
   2066389627.7713516     
   2476258847.4045186     
   1742999614.5195248     
   1787756477.9573970     
   1884622760.5720515     
   2060573390.2524531     
   2340925284.8946619     
   1971197222.4989183     
   1969156766.3339260     
   2003665275.8280389     
   2093437668.3246133     
   2257189785.3226967     
   2186297177.1525326     
   2156654126.6594906     
   2146661753.0013049     
   2166860287.0131254     
   2228341683.7290173     
   5996340614.6197701     
   5047079179.1042051     
   4128100718.9115911     
   3240961479.1646709     
   2396301054.1507602     
   5774069715.1425056     
   4831445419.7404480     
   3926559785.8113933     
   3060880132.8127866     
   2244056991.5845428     
   5558643949.9506693     
   4626784952.8977890     
   3741858451.1332011     
   2905127027.8709278     
   2124895248.2298412     
   5361809478.4461365     
   4442810005.9795666     
   3581583289.9964752     
   2779072333.5055442     
   2041802272.2428565     
   5198594066.4027281     
   4291648521.5156727     
   3454699503.8062234     
   2688250069.0316629     
   1996578227.4604039     
   2396301054.1507602     
   2584690285.0358920     
   2767962449.3471975     
   2946171034.5643992     
   3119699165.8713975     
   2244056991.5845428     
   2443350018.0925355     
   2636698068.0426116     
   2823995364.9827576     
   3005444228.1389160     
   2124895248.2298412     
   2334626711.4946933     
   2537123936.2911015     
   2732157268.7143078     
   2919784254.3265686     
   2041802272.2428565     
   2261371594.7072010     
   2472003195.8416033     
   2673397469.2233868     
   2865512488.4769769     
   1996578227.4604039     
   2225274738.6434636     
   2443031308.9053574     
   2649528196.5645595     
   2844663397.2204924     
   3119699165.8713975     
   3034826621.5377297     
   2956128610.6109433     
   2884218511.3502154     
   2819805194.3318610     
   3005444228.1389160     
   2936215481.6307812     
   2874150038.9110365     
   2819808317.0160007     
   2773813714.9684691     
   2919784254.3265686     
   2865527903.2440495     
   2819273243.4739995     
   2781486716.4032178     
   2752667826.9713197     
   2865512488.4769769     
   2824858727.1640687     
   2792868584.3463693     
   2769889657.5738373     
   2756280772.4717870     
   2844663397.2204924     
   2815516105.3338218     
   2795526947.6928620     
   2784921025.7929349     
   2783922939.6949244     
   2819805194.3318610     
   2690938486.9907193     
   2571400818.9694123     
   2461871240.7914052     
   2363183386.7768159     
   2773813714.9684691     
   2657955754.9514623     
   2552298465.9218235     
   2457467452.8388944     
   2374197378.1175723     
   2752667826.9713197     
   2649466403.4052582     
   2557244249.6279793     
   2476529254.0922284     
   2407915669.6013165     
   2756280772.4717870     
   2664893120.4180565     
   2585157938.9138341     
   2517478742.6826062     
   2462292300.6370406     
   2783922939.6949244     
   2703041272.0851140     
   2634398898.8350945     
   2578269683.6075320     
   2534940013.8896332     
   2363183386.7768159     
   2315952506.1714330     
   2275963462.2126093     
   2243823762.8130846     
   2220168919.6227794     
   2374197378.1175723     
   2344030178.7315292     
   2321791043.7883883     
   2307939149.5896811     
   2302923145.8788123     
   2407915669.6013165     
   2393382044.9189897     
   2387174612.0194488     
   2389602905.7788486     
   2400948683.5053658     
   2462292300.6370406     
   2461421315.6635475     
   2469068946.1984911     
   2485419252.6579604     
   2510626999.7213507     
   2534940013.8896332     
   2545417713.5928149     
   2564498835.2604208     
   2592276094.4159169     
   2628819954.8199511     
   2220168919.6227794     
   2158359653.4160056     
   2111989146.8552394     
   2081894416.9965127     
   2068835609.9420207     
   2302923145.8788123     
   2255554407.5926528     
   2222643010.3943501     
   2204695456.9993339     
   2202162212.9709320     
   2400948683.5053658     
   2365151700.1018491     
   2342810172.8965425     
   2334217184.6645517     
   2339639021.5134654     
   2510626999.7213507     
   2483812553.5365181     
   2469549618.8893280     
   2468004724.7623167     
   2479342820.7572227     
   2628819954.8199511     
   2608751630.1471906     
   2600493054.5682240     
   2604142861.0860133     
   2619815658.8811436     
   2068835609.9420207     
   2066683506.4368243     
   2083609275.1497838     
   2122224134.4854829     
   2186297177.1525326     
   2202162212.9709320     
   2189263835.3911643     
   2191205841.1040382     
   2209941772.9953809     
   2248359147.1860137     
   2339639021.5134654     
   2316793891.3350592     
   2305325967.6459184     
   2306629362.7242999     
   2322770332.9516482     
   2479342820.7572227     
   2448300343.7729468     
   2425650436.8908434     
   2412330740.9860754     
   2409704534.1424499     
   2619815658.8811436     
   2583003254.2745142     
   2551894912.4545693     
   2527067411.9281187     
   2509322579.9548798     
   2186297177.1525326     
   2156654126.6594906     
   2146661753.0013049     
   2166860287.0131254     
   2228341683.7290173     
   2248359147.1860137     
   2183270182.8619418     
   2134687485.6625271     
   2112296655.7470186     
   2127056457.5784831     
   2322770332.9516482     
   2225573507.1646233     
   2141785222.0342760     
   2079791290.0365131     
   2049791533.9861083     
   2409704534.1424499     
   2283859732.3501129     
   2168602961.2321916     
   2070695509.5646312     
   1998936752.3804004     
   2509322579.9548798     
   2358340174.2784638     
   2215612667.0834370     
   2086141254.3438196     
   1976834175.7712467     
   5198594066.4027281     
   4291648521.5156727     
   3454699503.8062234     
   2688250069.0316629     
   1996578227.4604039     
   4975803725.2202272     
   4108353977.5018415     
   3310248273.8277407     
   2581673109.3867335     
   1924763948.4939630     
   4827088341.5543203     
   3989207408.2991366     
   3218722587.9607210     
   2515685500.8357615     
   1880930016.1437497     
   4750332374.2429266     
   3933697266.2766519     
   3181280912.2693400     
   2493091887.9301314     
   1869313079.3242466     
   4740388109.9176035     
   3938437662.8643789     
   3196525110.5179133     
   2514650452.8782182     
   1892813689.9452825     
   1996578227.4604039     
   2225274738.6434636     
   2443031308.9053574     
   2649528196.5645595     
   2844663397.2204924     
   1924763948.4939630     
   2154130648.3092079     
   2373328815.1550097     
   2582118823.0512867     
   2780405552.5441265     
   1880930016.1437497     
   2111024125.9806356     
   2331736582.8383207     
   2542939898.7919736     
   2744578366.9343987     
   1869313079.3242466     
   2099126236.5608864     
   2320476651.9692693     
   2533329921.3199582     
   2737670323.2039285     
   1892813689.9452825     
   2120416246.5805895     
   2340696681.8716855     
   2553654995.8185687     
   2759291188.4212437     
   2844663397.2204924     
   2815516105.3338218     
   2795526947.6928620     
   2784921025.7929349     
   2783922939.6949244     
   2780405552.5441265     
   2761849682.8834214     
   2752423846.6517506     
   2752257676.5531502     
   2761477540.2570720     
   2744578366.9343987     
   2734141650.9632707     
   2732753481.9546790     
   2740471524.2231407     
   2757350946.3224435     
   2737670323.2039285     
   2732585775.6212831     
   2736456919.9004073     
   2749297924.8822021     
   2771122171.3547273     
   2759291188.4212437     
   2756651671.4683018     
   2762897924.8086634     
   2778029948.4423251     
   2802047742.3692970     
   2783922939.6949244     
   2703041272.0851140     
   2634398898.8350945     
   2578269683.6075320     
   2534940013.8896332     
   2761477540.2570720     
   2689192616.9161611     
   2629009945.0310774     
   2581083977.4890566     
   2545573222.9874077     
   2757350946.3224435     
   2691500456.8098154     
   2637615320.5272679     
   2595763548.8592858     
   2566013899.5287194     
   2771122171.3547273     
   2709454247.0389118     
   2659646160.5809374     
   2621714600.8614259     
   2595676256.8954768     
   2802047742.3692970     
   2742298506.2775726     
   2694358978.6594772     
   2658229159.5150142     
   2633909048.8441978     
   2534940013.8896332     
   2545417713.5928149     
   2564498835.2604208     
   2592276094.4159169     
   2628819954.8199511     
   2545573222.9874077     
   2562825524.3006630     
   2588544632.6807065     
   2622779119.6189198     
   2665564299.5008502     
   2566013899.5287194     
   2588393911.7884521     
   2619180729.2392130     
   2658394607.6241674     
   2706049682.6364627     
   2595676256.8954768     
   2621483425.8667812     
   2655742295.0086179     
   2698457691.7517896     
   2749632872.5689888     
   2633909048.8441978     
   2661429197.1648045     
   2697569997.8988686     
   2742331451.0464015     
   2795713556.6074023     
   2628819954.8199511     
   2608751630.1471906     
   2600493054.5682240     
   2604142861.0860133     
   2619815658.8811436     
   2665564299.5008502     
   2647558859.3378677     
   2640400733.1837630     
   2644138475.7817678     
   2658831542.1275997     
   2706049682.6364627     
   2689731491.6869473     
   2683490035.8387132     
   2687344118.8146491     
   2701318065.1545978     
   2749632872.5689888     
   2734805326.0696664     
   2729452735.3689508     
   2733579166.5856352     
   2747190197.7723932     
   2795713556.6074023     
   2782342872.2587724     
   2777993611.4558702     
   2782665774.1986871     
   2796359360.4872184     
   2619815658.8811436     
   2583003254.2745142     
   2551894912.4545693     
   2527067411.9281187     
   2509322579.9548798     
   2658831542.1275997     
   2614969026.7190218     
   2576626075.6986117     
   2544131121.9572830     
   2517942931.1726565     
   2701318065.1545978     
   2652506906.8783650     
   2609171337.2265849     
   2571457767.9367104     
   2539571203.1576633     
   2747190197.7723932     
   2695532285.6399956     
   2649446927.6962805     
   2608970513.7737560     
   2574153993.5506959     
   2796359360.4872184     
   2743951304.4482832     
   2697354140.7113719     
   2656567869.2764807     
   2621592490.1436262     
   2509322579.9548798     
   2358340174.2784638     
   2215612667.0834370     
   2086141254.3438196     
   1976834175.7712467     
   2517942931.1726565     
   2349420147.3035355     
   2184523631.4408870     
   2026366267.7630465     
   1879534763.7935636     
   2539571203.1576633     
   2358609682.5218134     
   2177442545.5952029     
   1997547404.7903030     
   1821213242.4538314     
   2574153993.5506959     
   2386011103.0874372     
   2194836236.6882238     
   2001009162.3436327     
   1805136691.6984055     
   2621592490.1436262     
   2431591547.3993735     
   2236846182.8498306     
   2037356396.4949560     
   1833122188.3348112     
   4740388109.9176035     
   3938437662.8643789     
   3196525110.5179133     
   2514650452.8782182     
   1892813689.9452825     
   4750332376.1904049     
   3933697266.5069599     
   3181280911.1828218     
   2493091885.9355173     
   1869313076.7657778     
   4827088341.2477102     
   3989207405.5203185     
   3218722583.5817308     
   2515685495.7117891     
   1880930010.9896209     
   4975803719.4649687     
   4108353969.3269677     
   3310248264.5936151     
   2581673100.3822169     
   1924763940.8046756     
   5198594053.3280754     
   4291648506.6393275     
   3454699488.9306178     
   2688250055.8185582     
   1996578217.3625274     
   1892813689.9452825     
   2120416246.5805895     
   2340696681.8716855     
   2553654995.8185687     
   2759291188.4212437     
   1869313076.7657778     
   2099126234.9418533     
   2320476651.1627903     
   2533329921.2331934     
   2737670323.7654209     
   1880930010.9896209     
   2111024122.6771157     
   2331736581.1534967     
   2542939898.5576487     
   2744578368.0221753     
   1924763940.8046756     
   2154130643.3071942     
   2373328812.5411272     
   2582118822.6093211     
   2780405554.1098576     
   1996578217.3625274     
   2225274731.9701195     
   2443031305.3327565     
   2649528195.8594131     
   2844663399.2065568     
   2759291188.4212437     
   2756651671.4683018     
   2762897924.8086634     
   2778029948.4423251     
   2802047742.3692970     
   2737670323.7654209     
   2732585776.3211269     
   2736456920.7338080     
   2749297925.8431935     
   2771122172.4367962     
   2744578368.0221753     
   2734141652.3016534     
   2732753483.5344338     
   2740471526.0328479     
   2757350948.3498087     
   2780405554.1098576     
   2761849684.7752004     
   2752423848.8576651     
   2752257679.0583758     
   2761477543.0457263     
   2844663399.2065568     
   2815516107.6756449     
   2795526950.3782768     
   2784921028.8065534     
   2783922943.0204263     
   2802047742.3692970     
   2742298506.2775726     
   2694358978.6594772     
   2658229159.5150142     
   2633909048.8441978     
   2771122172.4367962     
   2709454247.8494945     
   2659646161.1123538     
   2621714601.1103320     
   2595676256.8624601     
   2757350948.3498087     
   2691500458.3549390     
   2637615321.5759468     
   2595763549.4052739     
   2566013899.5731444     
   2761477543.0457263     
   2689192619.0856214     
   2629009946.5609188     
   2581083978.3693786     
   2545573223.2182941     
   2783922943.0204263     
   2703041274.7374949     
   2634398900.7880311     
   2578269684.8464155     
   2534940014.4113555     
   2633909048.8441978     
   2661429197.1648045     
   2697569997.8988686     
   2742331451.0464015     
   2795713556.6074023     
   2595676256.8624601     
   2621483425.8641000     
   2655742295.0324855     
   2698457691.7981424     
   2749632872.6333899     
   2566013899.5731444     
   2588393911.8749371     
   2619180729.3584499     
   2658394607.7664976     
   2706049682.7917366     
   2545573223.2182941     
   2562825524.5700002     
   2588544632.9713778     
   2622779119.9135909     
   2665564299.7818093     
   2534940014.4113555     
   2545417714.1382995     
   2564498835.8019128     
   2592276094.9256635     
   2628819955.2701211     
   2795713556.6074023     
   2782342872.2587724     
   2777993611.4558702     
   2782665774.1986871     
   2796359360.4872184     
   2749632872.6333899     
   2734805326.1232462     
   2729452735.4193630     
   2733579166.6404037     
   2747190197.8390145     
   2706049682.7917366     
   2689731491.8100796     
   2683490035.9450331     
   2687344118.9193201     
   2701318065.2727289     
   2665564299.7818093     
   2647558859.5525923     
   2640400733.3555174     
   2644138475.9337697     
   2658831542.2830658     
   2628819955.2701211     
   2608751630.4819942     
   2600493054.8192525     
   2604142861.2852831     
   2619815659.0608611     
   2796359360.4872184     
   2743951304.4482832     
   2697354140.7113719     
   2656567869.2764807     
   2621592490.1436262     
   2747190197.8390145     
   2695532285.6870375     
   2649446927.7258444     
   2608970513.7879858     
   2574153993.5515795     
   2701318065.2727289     
   2652506906.9614520     
   2609171337.2788906     
   2571457767.9625430     
   2539571203.1613159     
   2658831542.2830658     
   2614969026.8278122     
   2576626075.7672024     
   2544131121.9923267     
   2517942931.1809230     
   2619815659.0608611     
   2583003254.3994002     
   2551894912.5334835     
   2527067411.9702058     
   2509322579.9697094     
   2621592490.1436262     
   2431591547.3993735     
   2236846182.8498306     
   2037356396.4949560     
   1833122188.3348112     
   2574153993.5515795     
   2386011103.0907578     
   2194836236.6949253     
   2001009162.3550289     
   1805136691.7164779     
   2539571203.1613159     
   2358609682.5298686     
   2177442545.6096039     
   1997547404.8136129     
   1821213242.4895325     
   2517942931.1809230     
   2349420147.3177643     
   2184523631.4638872     
   2026366267.7983370     
   1879534763.8457079     
   2509322579.9697094     
   2358340174.3002234     
   2215612667.1157322     
   2086141254.3908613     
   1976834175.8377824     
   5198594053.3280754     
   4291648506.6393275     
   3454699488.9306178     
   2688250055.8185582     
   1996578217.3625274     
   5361809454.7677650     
   4442809983.1439905     
   3581583269.5052028     
   2779072316.6951480     
   2041802260.3191383     
   5558643917.2313757     
   4626784923.3342409     
   3741858425.9612417     
   2905127008.1332841     
   2124895234.9124866     
   5774069674.6074629     
   4831445384.4356070     
   3926559756.7777004     
   3060880110.8546138     
   2244056977.4878674     
   5996340567.2205095     
   5047079138.8299055     
   4128100686.7053499     
   3240961455.6695561     
   2396301039.9864640     
   1996578217.3625274     
   2225274731.9701195     
   2443031305.3327565     
   2649528195.8594131     
   2844663399.2065568     
   2041802260.3191383     
   2261371586.6003008     
   2472003191.3200684     
   2673397468.1453485     
   2865512490.7568679     
   2124895234.9124866     
   2334626702.2467232     
   2537123930.9823141     
   2732157267.2973223     
   2919784256.8052630     
   2244056977.4878674     
   2443350008.1378422     
   2636698062.2038031     
   2823995363.3072515     
   3005444230.7181311     
   2396301039.9864640     
   2584690274.8937063     
   2767962443.2987161     
   2946171032.7461147     
   3119699168.4570260     
   2844663399.2065568     
   2815516107.6756449     
   2795526950.3782768     
   2784921028.8065534     
   2783922943.0204263     
   2865512490.7568679     
   2824858729.8313236     
   2792868587.3539119     
   2769889660.8691936     
   2756280775.9999585     
   2919784256.8052630     
   2865527906.1446905     
   2819273246.7205853     
   2781486719.9115763     
   2752667830.6521244     
   3005444230.7181311     
   2936215484.6746078     
   2874150042.3209753     
   2819808320.6822314     
   2773813718.7726965     
   3119699168.4570260     
   3034826624.6429019     
   2956128614.1210890     
   2884218515.1364875     
   2819805198.2533188     
   2783922943.0204263     
   2703041274.7374949     
   2634398900.7880311     
   2578269684.8464155     
   2534940014.4113555     
   2756280775.9999585     
   2664893123.1505728     
   2585157940.8469863     
   2517478743.8260117     
   2462292301.0142784     
   2752667830.6521244     
   2649466406.2022290     
   2557244251.5565453     
   2476529255.1822267     
   2407915669.8988099     
   2773813718.7726965     
   2657955757.8110375     
   2552298467.8687420     
   2457467453.9201360     
   2374197378.3983545     
   2819805198.2533188     
   2690938489.9257898     
   2571400820.9648685     
   2461871241.9091992     
   2363183387.0988951     
   2534940014.4113555     
   2545417714.1382995     
   2564498835.8019128     
   2592276094.9256635     
   2628819955.2701211     
   2462292301.0142784     
   2461421316.0478325     
   2469068946.5755382     
   2485419253.0139475     
   2510627000.0428877     
   2407915669.8988099     
   2393382045.1944551     
   2387174612.2704048     
   2389602906.0040078     
   2400948683.7048106     
   2374197378.3983545     
   2344030178.9469624     
   2321791043.9457965     
   2307939149.6986623     
   2302923145.9518318     
   2363183387.0988951     
   2315952506.3692379     
   2275963462.3008404     
   2243823762.8099794     
   2220168919.5513825     
   2628819955.2701211     
   2608751630.4819942     
   2600493054.8192525     
   2604142861.2852831     
   2619815659.0608611     
   2510627000.0428877     
   2483812553.7755075     
   2469549619.0667181     
   2468004724.8997855     
   2479342820.8768616     
   2400948683.7048106     
   2365151700.2484174     
   2342810173.0008545     
   2334217184.7381868     
   2339639021.5685830     
   2302923145.9518318     
   2255554407.6423230     
   2222643010.4210567     
   2204695457.0044136     
   2202162212.9562163     
   2220168919.5513825     
   2158359653.3540711     
   2111989146.7929597     
   2081894416.9245019     
   2068835609.8509560     
   2619815659.0608611     
   2583003254.3994002     
   2551894912.5334835     
   2527067411.9702058     
   2509322579.9697094     
   2479342820.8768616     
   2448300343.8524656     
   2425650436.9368305     
   2412330741.0054083     
   2409704534.1426339     
   2339639021.5685830     
   2316793891.3653512     
   2305325967.6560383     
   2306629362.7190757     
   2322770332.9367065     
   2202162212.9562163     
   2189263835.3676252     
   2191205841.0747986     
   2209941772.9634671     
   2248359147.1553478     
   2068835609.8509560     
   2066683506.3538554     
   2083609275.0769949     
   2122224134.4244275     
   2186297177.1054420     
   2509322579.9697094     
   2358340174.3002234     
   2215612667.1157322     
   2086141254.3908613     
   1976834175.8377824     
   2409704534.1426339     
   2283859732.3610234     
   2168602961.2575245     
   2070695509.6085083     
   1998936752.4469826     
   2322770332.9367065     
   2225573507.1640053     
   2141785222.0516336     
   2079791290.0756075     
   2049791534.0502307     
   2248359147.1553478     
   2183270182.8489981     
   2134687485.6707485     
   2112296655.7795784     
   2127056457.6376173     
   2186297177.1054420     
   2156654126.6332951     
   2146661752.9991035     
   2166860287.0373640     
   2228341683.7807245     
   5996340567.2205095     
   5047079138.8299055     
   4128100686.7053499     
   3240961455.6695561     
   2396301039.9864640     
   6368839513.0795898     
   5344595156.9964695     
   4362115678.3405809     
   3422773231.3578105     
   2538391040.4132743     
   6890184649.0486212     
   5762173822.9028101     
   4684280580.9121189     
   3657337898.4761100     
   2694852451.4496112     
   7565927421.4080677     
   6302098987.0536060     
   5093713630.2772226     
   3940910865.3833156     
   2859697819.5442076     
   8398027231.4525843     
   6963669948.5271187     
   5587604097.2775173     
   4269318540.0593896     
   3028355697.8863254     
   2396301039.9864640     
   2584690274.8937063     
   2767962443.2987161     
   2946171032.7461147     
   3119699168.4570260     
   2538391040.4132743     
   2722673890.2797017     
   2899889094.0678830     
   3070040544.7112927     
   3233595695.6649613     
   2694852451.4496112     
   2878887480.5452967     
   3054065015.9537435     
   3220437796.0381246     
   3378653595.7321239     
   2859697819.5442076     
   3048346135.5462875     
   3226553073.1855288     
   3394547959.1839070     
   3553279242.2615724     
   3028355697.8863254     
   3227005700.8279123     
   3413914484.8264232     
   3589626089.1563692     
   3755516427.8442106     
   3119699168.4570260     
   3034826624.6429019     
   2956128614.1210890     
   2884218515.1364875     
   2819805198.2533188     
   3233595695.6649613     
   3129832108.0549574     
   3031756172.8995042     
   2939889955.8528976     
   2854841880.7207603     
   3378653595.7321239     
   3258281621.2568917     
   3143269521.4305444     
   3034010921.2320786     
   2930992045.6207108     
   3553279242.2615724     
   3418383619.2040124     
   3288713407.4955359     
   3164516202.6523724     
   3046154284.4587259     
   3755516427.8442106     
   3607840279.5817604     
   3465452279.2250810     
   3328450550.8203187     
   3197086380.9324589     
   2819805198.2533188     
   2690938489.9257898     
   2571400820.9648685     
   2461871241.9091992     
   2363183387.0988951     
   2854841880.7207603     
   2709548198.7504368     
   2572691909.1979532     
   2445059014.8697643     
   2327642740.6432443     
   2930992045.6207108     
   2768001382.5480380     
   2612198698.9074144     
   2464352739.3803916     
   2325488345.4309864     
   3046154284.4587259     
   2864929788.6112781     
   2689438854.3004465     
   2520303391.5913324     
   2358422066.5769763     
   3197086380.9324589     
   2997651503.2183561     
   2802466540.8770432     
   2611906734.4713497     
   2426605618.1088314     
   2363183387.0988951     
   2315952506.3692379     
   2275963462.3008404     
   2243823762.8099794     
   2220168919.5513825     
   2327642740.6432443     
   2262238609.0856996     
   2203149423.6050978     
   2151046115.7547498     
   2106653211.5249102     
   2325488345.4309864     
   2242868403.5670438     
   2165441723.0443039     
   2093862110.1488266     
   2028865189.1687913     
   2358422066.5769763     
   2260368807.3241544     
   2166325475.1619458     
   2076839290.2524850     
   1992552210.0416455     
   2426605618.1088314     
   2315534395.0756750     
   2207406113.8431263     
   2102601227.4687154     
   2001584314.4510934     
   2220168919.5513825     
   2158359653.3540711     
   2111989146.7929597     
   2081894416.9245019     
   2068835609.8509560     
   2106653211.5249102     
   2024880153.2851787     
   1955971634.1798363     
   1901110566.4643769     
   1861445772.5669138     
   2028865189.1687913     
   1925572964.3840570     
   1831510402.3379450     
   1747996801.6227400     
   1676472248.2604744     
   1992552210.0416455     
   1869245670.9870331     
   1750660123.8048966     
   1637816074.9018235     
   1531980778.4026079     
   2001584314.4510934     
   1863359875.8865120     
   1725392848.6164560     
   1588078569.8608489     
   1451992474.3071365     
   2068835609.8509560     
   2066683506.3538554     
   2083609275.0769949     
   2122224134.4244275     
   2186297177.1054420     
   1861445772.5669138     
   1852301236.9949424     
   1865957375.3098724     
   1904592958.2964015     
   1971197222.4406233     
   1676472248.2604744     
   1649400679.9625719     
   1649878914.7603152     
   1680225755.0228677     
   1742999614.4472113     
   1531980778.4026079     
   1472599858.6507413     
   1445774845.8697236     
   1455390920.1547756     
   1504665722.5057745     
   1451992474.3071365     
   1344442914.3620365     
   1271818725.9799614     
   1242146659.7545567     
   1262344622.5531192     
   2186297177.1054420     
   2156654126.6332951     
   2146661752.9991035     
   2166860287.0373640     
   2228341683.7807245     
   1971197222.4406233     
   1969156766.2986116     
   2003665275.8182833     
   2093437668.3418996     
   2257189785.3667231     
   1742999614.4472113     
   1787756477.9105558     
   1884622760.5524127     
   2060573390.2600889     
   2340925284.9277592     
   1504665722.5057745     
   1613164166.8371553     
   1788794846.6566622     
   2066389627.7671592     
   2476258847.4247570     
   1262344622.5531192     
   1446413959.7068124     
   1715618549.1319449     
   2110615035.0800257     
   2663950980.4858518     
   8398027231.4525843     
   6963669948.5271187     
   5587604097.2775173     
   4269318540.0593896     
   3028355697.8863254     
   8891007553.9652348     
   7420433189.1102180     
   5970212991.3353243     
   4546123548.7327938     
   3170178683.1014233     
   9085534671.9879189     
   7635292718.0882988     
   6191625684.2496691     
   4760540609.7137918     
   3360879884.9640646     
   8951281355.5868778     
   7590462739.0247831     
   6242975940.9275312     
   4909506791.1027136     
   3602646778.1877131     
   8496871278.9327631     
   7290005668.6968899     
   6126307819.8914175     
   4994090085.7428818     
   3895950285.6936278     
   3028355697.8863254     
   3227005700.8279123     
   3413914484.8264232     
   3589626089.1563692     
   3755516427.8442106     
   3170178683.1014233     
   3366981321.4822488     
   3560306499.7060456     
   3750084665.8338881     
   3936512525.9235444     
   3360879884.9640646     
   3554416205.0972533     
   3751816874.4390621     
   3952019858.1041260     
   4154196656.0896931     
   3602646778.1877131     
   3787772712.1508875     
   3982952023.7025828     
   4186095635.4465141     
   4395732732.0910950     
   3895950285.6936278     
   4064508126.8384352     
   4248216051.9372582     
   4444191172.2540140     
   4650852673.9409103     
   3755516427.8442106     
   3607840279.5817604     
   3465452279.2250810     
   3328450550.8203187     
   3197086380.9324589     
   3936512525.9235444     
   3784405635.7067432     
   3634249175.2573709     
   3486397108.9445367     
   3341310090.0743089     
   4154196656.0896931     
   3994509299.0676517     
   3833386677.5398951     
   3670981092.2729883     
   3507699295.9572968     
   4395732732.0910950     
   4227364346.5821204     
   4054330236.2484651     
   3876175968.9266725     
   3692998445.7636900     
   4650852673.9409103     
   4474196402.2617540     
   4290027074.0674758     
   4096960358.4307728     
   3894583349.3745847     
   3197086380.9324589     
   2997651503.2183561     
   2802466540.8770432     
   2611906734.4713497     
   2426605618.1088314     
   3341310090.0743089     
   3127100174.4080825     
   2916183383.0853109     
   2708806990.2101884     
   2505404946.0260859     
   3507699295.9572968     
   3280670663.2079043     
   3056538107.2493906     
   2835435671.9906325     
   2617660975.6680617     
   3692998445.7636900     
   3454511972.2037139     
   3219024289.2661271     
   2986569024.4840908     
   2757368077.5465183     
   3894583349.3745847     
   3645357186.8057160     
   3399661030.0956936     
   3157427039.7716498     
   2918838482.8845868     
   2426605618.1088314     
   2315534395.0756750     
   2207406113.8431263     
   2102601227.4687154     
   2001584314.4510934     
   2505404946.0260859     
   2387211028.2815032     
   2270451874.5789843     
   2155354800.6657786     
   2042201056.3543315     
   2617660975.6680617     
   2494903046.1149621     
   2372476528.4018273     
   2250476895.9953346     
   2129022972.6406956     
   2757368077.5465183     
   2632815406.6372595     
   2507927460.7911901     
   2382723738.1648245     
   2257232890.6010971     
   2918838482.8845868     
   2795218483.0021257     
   2670990996.5445886     
   2546158882.4181585     
   2420739969.1608081     
   2001584314.4510934     
   1863359875.8865120     
   1725392848.6164560     
   1588078569.8608489     
   1451992474.3071365     
   2042201056.3543315     
   1897514369.4505997     
   1753229008.5975962     
   1609508687.1860747     
   1466581845.1476078     
   2129022972.6406956     
   1980349968.5652332     
   1832548556.7020874     
   1685673982.5112424     
   1539812641.8953300     
   2257232890.6010971     
   2105415145.5269408     
   1954993319.4507031     
   1805985522.7515218     
   1658469705.9579067     
   2420739969.1608081     
   2265070118.1577749     
   2111165670.5860190     
   1959038951.7092688     
   1808828834.5624051     
   1451992474.3071365     
   1344442914.3620365     
   1271818725.9799614     
   1242146659.7545567     
   1262344622.5531192     
   1466581845.1476078     
   1324086893.0894520     
   1196023350.3188784     
   1086743247.9460387     
   1001975024.1968845     
   1539812641.8953300     
   1392082224.2855151     
   1240876163.6646733     
   1083825963.5878620     
   918828131.37107110     
   1658469705.9579067     
   1545710688.3617828     
   1424102155.2798147     
   1293880135.3162000     
   1161081836.8492310     
   1808828834.5624051     
   1771406980.8154988     
   1730976272.4895031     
   1695873695.1275544     
   1684277494.3402162     
   1262344622.5531192     
   1446413959.7068124     
   1715618549.1319449     
   2110615035.0800257     
   2663950980.4858518     
   1001975024.1968845     
   1164666941.9514902     
   1425511994.8768172     
   1809024607.3003254     
   2335189942.3777776     
   918828131.37107110     
   963747127.65934217     
   1145204201.5988133     
   1476607811.8952239     
   1957413737.7576897     
   1161081836.8492310     
   1009995470.7207469     
   985757515.43865740     
   1161082979.1966507     
   1542972566.9162545     
   1684277494.3402162     
   1385985358.8303304     
   1130254755.1387279     
   1008840288.9772979     
   1149757233.8178389     
 </DataArray>
 <DataArray  type="Float64" Name="strain" NumberOfComponents="3" format="ascii">
  0.14125190673824584       -3.3059992856286136E-002  -3.6713651684003645E-002
  0.12186603166927112       -2.9572453308566393E-002  -2.3190178191069055E-002
  0.10248015660029641       -2.6626965073055009E-002  -1.4442193358240818E-002
   8.3094281531321812E-002  -2.4223528149751553E-002  -1.0469697185518934E-002
   6.3708406462347100E-002  -2.2362142538657093E-002  -1.1272689672903180E-002
  0.15157101820307672       -3.1014744929771965E-002  -1.0299748373741258E-002
  0.12844933686998278       -2.7601848431302700E-002  -4.3057094446663502E-003
  0.10532765553688916       -2.4878129300671903E-002  -1.0077943837233927E-003
   8.2205974203795384E-002  -2.2843587537879295E-002  -4.0600319091238513E-004
   5.9084292870701605E-002  -2.1498223142925377E-002  -2.5003358662332720E-003
  0.15393662704808397       -2.8969497003257683E-002   1.6113074915085679E-002
  0.12915850424284542       -2.5631243554039007E-002   1.4430553224670795E-002
  0.10438038143760697       -2.3129293528288714E-002   1.2131272458098558E-002
   7.9602258632368528E-002  -2.1463646926006975E-002   9.2152326153686209E-003
   5.4824135827129999E-002  -2.0634303747193772E-002   5.6824336964807487E-003
  0.14834873327326792       -2.6924249076743456E-002   4.2524818182477372E-002
  0.12399353378785898       -2.3660638676775245E-002   3.3018609816942490E-002
   9.9638334302450143E-002  -2.1380457755905510E-002   2.4975007167224582E-002
   7.5283134817041200E-002  -2.0083706314134576E-002   1.8394010233323582E-002
   5.0927935331632340E-002  -1.9770384351462167E-002   1.3275619015238993E-002
  0.13480733687862845       -2.4879001150229230E-002   6.8935481428433143E-002
  0.11295442550502344       -2.1690033799511454E-002   5.1458460332148681E-002
   9.1101514131418537E-002  -1.9631621983522460E-002   3.7523409743655228E-002
   6.9248602757813527E-002  -1.8703765702262200E-002   2.7130329662952937E-002
   4.7395691384208516E-002  -1.8906464955730506E-002   2.0279220090041294E-002
   6.3708406462347100E-002  -2.2362142538657093E-002  -1.1272689672903180E-002
   6.7274786180207213E-002  -2.1093486976128617E-002  -8.9214599195935884E-003
   7.0841165898067326E-002  -2.0468240198525001E-002  -6.4580829235426629E-003
   7.4407545615927495E-002  -2.0486402205846022E-002  -3.8825586847500426E-003
   7.7973925333787553E-002  -2.1147972998091902E-002  -1.1948872032164770E-003
   5.9084292870701605E-002  -2.1498223142925377E-002  -2.5003358662332720E-003
   6.2694808428421789E-002  -2.0671269144581561E-002  -3.4868707288465695E-004
   6.6305323986142056E-002  -2.0191958571620983E-002   1.7790861574424333E-003
   6.9915839543862240E-002  -2.0060291424042018E-002   3.8829838247486231E-003
   7.3526355101582508E-002  -2.0276267701845874E-002   5.9630059290332049E-003
   5.4824135827129999E-002  -2.0634303747193772E-002   5.6824336964807487E-003
   5.8342764418947701E-002  -2.0249051313034921E-002   7.9302668894105088E-003
   6.1861393010765375E-002  -1.9915676944716298E-002   1.0018201713556329E-002
   6.5380021602583119E-002  -1.9634180642237792E-002   1.1946238168918225E-002
   6.8898650194400751E-002  -1.9404562405599735E-002   1.3714376255496374E-002
   5.0927935331632340E-002  -1.9770384351462167E-002   1.3275619015238993E-002
   5.4218654151784763E-002  -1.9826833481488129E-002   1.5915401967292089E-002
   5.7509372971937214E-002  -1.9639395317811947E-002   1.8259263744798693E-002
   6.0800091792089707E-002  -1.9208069860434010E-002   2.0307204347758880E-002
   6.4090810612242088E-002  -1.8532857109353762E-002   2.2059223776172365E-002
   4.7395691384208516E-002  -1.8906464955730506E-002   2.0279220090041294E-002
   5.0322477626933065E-002  -1.9404615649941170E-002   2.3606718160760209E-002
   5.3249263869657643E-002  -1.9363113690907721E-002   2.6502272251169828E-002
   5.6176050112382192E-002  -1.8781959078629815E-002   2.8965882361270207E-002
   5.9102836355106769E-002  -1.7661151813107678E-002   3.0997548491061178E-002
   7.7973925333787553E-002  -2.1147972998091902E-002  -1.1948872032164770E-003
   7.4695605853631886E-002  -2.1792346953565134E-002  -1.5859984433569396E-003
   7.1417286373476219E-002  -2.1758918450569653E-002  -1.7134215622240934E-003
   6.8138966893320524E-002  -2.1047687489103989E-002  -1.5771565598174941E-003
   6.4860647413164885E-002  -1.9658654069169446E-002  -1.1772034361374750E-003
   7.3526355101582508E-002  -2.0276267701845874E-002   5.9630059290332049E-003
   7.0497979136355804E-002  -2.0436782826405708E-002   5.9461995027413339E-003
   6.7469603171129128E-002  -2.0138732219095595E-002   6.1655919850335528E-003
   6.4441227205902465E-002  -1.9382115879915514E-002   6.6211833759107497E-003
   6.1412851240675859E-002  -1.8166933808864805E-002   7.3129736753718699E-003
   6.8898650194400751E-002  -1.9404562405599735E-002   1.3714376255496374E-002
   6.6092728531414013E-002  -1.9081218699246338E-002   1.3852637916453359E-002
   6.3286806868427289E-002  -1.8518545987621982E-002   1.4199609273306033E-002
   6.0480885205440559E-002  -1.7716544270726706E-002   1.4755290326054049E-002
   5.7674963542453800E-002  -1.6675213548560497E-002   1.5519681074697644E-002
   6.4090810612242088E-002  -1.8532857109353762E-002   2.2059223776172365E-002
   6.1479854038806313E-002  -1.7725654572086830E-002   2.2133316797779502E-002
   5.8868897465370523E-002  -1.6898359756148257E-002   2.2388630302592923E-002
   5.6257940891934671E-002  -1.6050972661537842E-002   2.2825164290613015E-002
   5.3646984318498944E-002  -1.5183493288256023E-002   2.3442918761839279E-002
   5.9102836355106769E-002  -1.7661151813107678E-002   3.0997548491061178E-002
   5.6659355658532834E-002  -1.6370090444927266E-002   3.0788236146719217E-002
   5.4215874961958954E-002  -1.5278173524674310E-002   3.0732655072894327E-002
   5.1772394265385019E-002  -1.4385401052349367E-002   3.0830805269587064E-002
   4.9328913568811084E-002  -1.3691773027951548E-002   3.1082686736797260E-002
   6.4860647413164885E-002  -1.9658654069169446E-002  -1.1772034361374750E-003
   6.0788113519223197E-002  -1.8066052956946743E-002  -1.1781429846053904E-003
   5.6715579625281676E-002  -1.6744118918617323E-002  -1.0496761877340499E-003
   5.2643045731340044E-002  -1.5692851954181589E-002  -7.9180304552350922E-004
   4.8570511837398467E-002  -1.4912252063639553E-002  -4.0452355797437889E-004
   6.1412851240675859E-002  -1.8166933808864805E-002   7.3129736753718699E-003
   5.7488848830695438E-002  -1.6818557070620022E-002   6.8096460041056073E-003
   5.3564846420715045E-002  -1.5662356729856997E-002   6.4739749554223458E-003
   4.9640844010734694E-002  -1.4698332786574717E-002   6.3059605293225851E-003
   4.5716841600754343E-002  -1.3926485240774555E-002   6.3056027258058256E-003
   5.7674963542453800E-002  -1.6675213548560497E-002   1.5519681074697644E-002
   5.3937742893678697E-002  -1.5571061184293522E-002   1.4592455957044920E-002
   5.0200522244903595E-002  -1.4580594541095976E-002   1.3871137739219719E-002
   4.6463301596128492E-002  -1.3703813618967838E-002   1.3355726421221362E-002
   4.2726080947353362E-002  -1.2940718417909114E-002   1.3046222003050334E-002
   5.3646984318498944E-002  -1.5183493288256023E-002   2.3442918761839279E-002
   5.0134795708173044E-002  -1.4323565297967134E-002   2.2170286874212408E-002
   4.6622607097847220E-002  -1.3498832352335302E-002   2.1141812163656661E-002
   4.3110418487521326E-002  -1.2709294451360851E-002   2.0357494630172373E-002
   3.9598229877195502E-002  -1.1954951595044006E-002   1.9817334273759118E-002
   4.9328913568811084E-002  -1.3691773027951548E-002   3.1082686736797260E-002
   4.6080007274178547E-002  -1.3076069411640467E-002   2.9543138755608045E-002
   4.2831100979545900E-002  -1.2417070163574601E-002   2.8285998228734122E-002
   3.9582194684913252E-002  -1.1714775283754079E-002   2.7311265156175463E-002
   3.6333288390280716E-002  -1.0969184772178786E-002   2.6618939537932040E-002
   4.8570511837398467E-002  -1.4912252063639553E-002  -4.0452355797437889E-004
   4.6523170561211469E-002  -1.4243123481594955E-002  -1.5407979235027014E-004
   4.4475829285024471E-002  -1.3526270442653088E-002   4.5410616638097423E-005
   4.2428488008837445E-002  -1.2761692946814118E-002   1.9394766898983562E-004
   4.0381146732650475E-002  -1.1949390994077769E-002   2.9153136470538854E-004
   4.5716841600754343E-002  -1.3926485240774555E-002   6.3056027258058256E-003
   4.3635721798644334E-002  -1.3235236674255635E-002   6.4754823532944261E-003
   4.1554601996534296E-002  -1.2513009668818686E-002   6.6287582855727445E-003
   3.9473482194424273E-002  -1.1759804224464335E-002   6.7654305226412248E-003
   3.7392362392314249E-002  -1.0975620341191927E-002   6.8854990645003111E-003
   4.2726080947353362E-002  -1.2940718417909114E-002   1.3046222003050334E-002
   4.0645532280746771E-002  -1.2227349866915760E-002   1.3118791474422992E-002
   3.8564983614140194E-002  -1.1499748894984285E-002   1.3209106912012492E-002
   3.6484434947533610E-002  -1.0757915502114329E-002   1.3317168315818417E-002
   3.4403886280926999E-002  -1.0001849688305975E-002   1.3442975685841130E-002
   3.9598229877195502E-002  -1.1954951595044006E-002   1.9817334273759118E-002
   3.7552602007518789E-002  -1.1219463059576273E-002   1.9775847571036509E-002
   3.5506974137842012E-002  -1.0486488121149773E-002   1.9786456495957318E-002
   3.3461346268165340E-002  -9.7560267797644346E-003   1.9849161048521191E-002
   3.1415718398488592E-002  -9.0280790354199669E-003   1.9963961228728067E-002
   3.6333288390280716E-002  -1.0969184772178786E-002   2.6618939537932040E-002
   3.4356930978960309E-002  -1.0211576252236843E-002   2.6446650643134895E-002
   3.2380573567639903E-002  -9.4732273473150663E-003   2.6360807037407563E-002
   3.0404216156319552E-002  -8.7541380574143249E-003   2.6361408720749741E-002
   2.8427858744999146E-002  -8.0543083825341810E-003   2.6448455693161343E-002
   4.0381146732650475E-002  -1.1949390994077769E-002   2.9153136470538854E-004
   3.7785592017111624E-002  -1.1177059314724791E-002  -1.5210201658599765E-004
   3.5190037301572663E-002  -1.0532392639033383E-002  -4.8116908787887436E-004
   3.2594482586033785E-002  -1.0015390967006349E-002  -6.9566984917340813E-004
   2.9998927870494851E-002  -9.6260542986412734E-003  -7.9560430046909936E-004
   3.7392362392314249E-002  -1.0975620341191927E-002   6.8854990645003111E-003
   3.4891262597997297E-002  -1.0216538697118027E-002   6.3176385628918030E-003
   3.2390162803680345E-002  -9.5386399703583091E-003   5.8241215937293034E-003
   2.9889063009363337E-002  -8.9419241609139388E-003   5.4049481570114521E-003
   2.7387963215046329E-002  -8.4263912687840836E-003   5.0601182527386657E-003
   3.4403886280926999E-002  -1.0001849688305975E-002   1.3442975685841130E-002
   3.1957018630278500E-002  -9.2560180795120961E-003   1.2797370150264831E-002
   2.9510150979630070E-002  -8.5448873016836235E-003   1.2185885369579874E-002
   2.7063283328981662E-002  -7.8684573548219588E-003   1.1608521343786940E-002
   2.4616415678333115E-002  -7.2267282389267828E-003   1.1065278072885820E-002
   3.1415718398488592E-002  -9.0280790354199669E-003   1.9963961228728067E-002
   2.8982860113955192E-002  -8.2954974619055266E-003   1.9287092745531614E-002
   2.6550001829421885E-002  -7.5511346330084106E-003   1.8604122239673407E-002
   2.4117143544888510E-002  -6.7949905487304299E-003   1.7915049711154020E-002
   2.1684285260355186E-002  -6.0270652090697596E-003   1.7219875159972461E-002
   2.8427858744999146E-002  -8.0543083825341810E-003   2.6448455693161343E-002
   2.5968787049027497E-002  -7.3349768442991792E-003   2.5786806348693014E-002
   2.3509715353055793E-002  -6.5573819643338638E-003   2.5078832204009971E-002
   2.1050643657084117E-002  -5.7215237426382348E-003   2.4324533259111686E-002
   1.8591571961112441E-002  -4.8274021792125144E-003   2.3523909513998520E-002
   2.9998927870494851E-002  -9.6260542986412734E-003  -7.9560430046909936E-004
   2.9461178980908942E-002  -9.1096761453495212E-003  -4.4824698824275089E-004
   2.8923430091323032E-002  -8.2115500185426238E-003  -1.8051341634804929E-003
   2.8385681201737095E-002  -6.9316759182191240E-003  -4.8662658261829916E-003
   2.7847932312151213E-002  -5.2700538443799516E-003  -9.6316419763495809E-003
   2.7387963215046329E-002  -8.4263912687840836E-003   5.0601182527386657E-003
   2.5418326876640418E-002  -7.8556202325672508E-003   5.8059533118468565E-003
   2.3448690538234562E-002  -7.0931899908623919E-003   5.3922579607794674E-003
   2.1479054199828623E-002  -6.1391005436686186E-003   3.8190321995360543E-003
   1.9509417861422795E-002  -4.9933518909865970E-003   1.0862760281176165E-003
   2.4616415678333115E-002  -7.2267282389267828E-003   1.1065278072885820E-002
   2.1759605968395906E-002  -6.6015643197840923E-003   1.2019502110848179E-002
   1.8902796258458712E-002  -5.9748299631812996E-003   1.2358909815923386E-002
   1.6045986548521428E-002  -5.3465251691178980E-003   1.2083501188111287E-002
   1.3189176838584227E-002  -4.7166499375936866E-003   1.1193276227412952E-002
   2.1684285260355186E-002  -6.0270652090697596E-003   1.7219875159972461E-002
   1.8485016256175289E-002  -5.3475084070015999E-003   1.8192399408760968E-002
   1.5285747251995486E-002  -4.8564699355006374E-003   1.9094821401951269E-002
   1.2086478247815653E-002  -4.5539497945668410E-003   1.9927141139543112E-002
   8.8872092436357783E-003  -4.4399479842003320E-003   2.0689358621537063E-002
   1.8591571961112441E-002  -4.8274021792125144E-003   2.3523909513998520E-002
   1.5594557739978643E-002  -4.0934524942188855E-003   2.4324645205585749E-002
   1.2597543518844900E-002  -3.7381099078198643E-003   2.5599992718863152E-002
   9.6005292977110746E-003  -3.7613744200164223E-003   2.7349952053831478E-002
   6.6035150765773598E-003  -4.1632460308074215E-003   2.9574523210489811E-002
   2.7847932312151213E-002  -5.2700538443799516E-003  -9.6316419763495809E-003
   2.3392863450624635E-002  -4.2196438356225663E-003  -4.1588548138511428E-003
   1.8937794589098056E-002  -4.7734059305404308E-003   2.5938484100472836E-003
   1.4482725727571560E-002  -6.9313401291367649E-003   1.0626467695347364E-002
   1.0027656866044898E-002  -1.0693446431412568E-002   1.9939003042045655E-002
   1.9509417861422795E-002  -4.9933518909865970E-003   1.0862760281176165E-003
   1.6259349185898775E-002  -4.7000746684539019E-003   6.7520336583756224E-003
   1.3009280510374810E-002  -6.3033995117077746E-003   1.3547875599238868E-002
   9.7592118348508450E-003  -9.8033264207470217E-003   2.1473801850707075E-002
   6.5091431593269355E-003  -1.5199855395573447E-002   3.0529812412779744E-002
   1.3189176838584227E-002  -4.7166499375936866E-003   1.1193276227412952E-002
   1.0994276598267239E-002  -5.1805055012870138E-003   1.6759574363322982E-002
   8.7993763579503059E-003  -7.8333930928742301E-003   2.3306125059042671E-002
   6.6044761176333941E-003  -1.2675312712356945E-002   3.0832928314570740E-002
   4.4095758773163296E-003  -1.9706264359733883E-002   3.9339984129908689E-002
   8.8872092436357783E-003  -4.4399479842003320E-003   2.0689358621537063E-002
   7.5976456877301646E-003  -5.6609363341194596E-003   2.5863767300990409E-002
   6.3080821318246653E-003  -9.3633866740409077E-003   3.1868596789457138E-002
   5.0185185759191227E-003  -1.5547299003966147E-002   3.8703847086937776E-002
   3.7289550200135663E-003  -2.4212673323894984E-002   4.6369518193431880E-002
   6.6035150765773598E-003  -4.1632460308074215E-003   2.9574523210489811E-002
   6.0694564542875251E-003  -6.1413671669516834E-003   3.4064612471377709E-002
   5.5353978319977182E-003  -1.0893380255208196E-002   3.9235290790483712E-002
   5.0013392097078418E-003  -1.8419285295575891E-002   4.5086558167807433E-002
   4.4672805874180765E-003  -2.8719082288055642E-002   5.1618414603348928E-002
  0.13480733687862845       -2.4879001150229230E-002   6.8935481428433143E-002
  0.11295442550502344       -2.1690033799511454E-002   5.1458460332148681E-002
   9.1101514131418537E-002  -1.9631621983522460E-002   3.7523409743655228E-002
   6.9248602757813527E-002  -1.8703765702262200E-002   2.7130329662952937E-002
   4.7395691384208516E-002  -1.8906464955730506E-002   2.0279220090041294E-002
  0.11844068654997786       -2.3099347587413332E-002   7.3116918221397820E-002
   9.9809616390484718E-002  -1.9853157919638265E-002   5.6485056266505906E-002
   8.1178546230991605E-002  -1.7751825350592790E-002   4.2754906232046502E-002
   6.2547476071498478E-002  -1.6795349880277064E-002   3.1926468118019802E-002
   4.3916405912005324E-002  -1.6983731508690980E-002   2.3999741924425888E-002
  0.10437703097312834       -2.1319694024597408E-002   7.7362728113420168E-002
   8.8327543440388567E-002  -1.8016282039765005E-002   6.1561723735920101E-002
   7.2278055907648894E-002  -1.5872028717663154E-002   4.8022172691494037E-002
   5.6228568374909152E-002  -1.4886934058291957E-002   3.6744074980142150E-002
   4.0179080842169507E-002  -1.5060998061651315E-002   2.7727430601864708E-002
   9.2616370148079746E-002  -1.9540040461781497E-002   8.1672911104500562E-002
   7.8508206654734972E-002  -1.6179406159891767E-002   6.6688462740391002E-002
   6.4400043161390391E-002  -1.3992232084733502E-002   5.3325209121997355E-002
   5.0291879668045714E-002  -1.2978518236306920E-002   4.1583150249319467E-002
   3.6183716174700974E-002  -1.3138264614611664E-002   3.1462286122357519E-002
   8.3158704074832113E-002  -1.7760386898965586E-002   8.6047467194638461E-002
   7.0351606033524028E-002  -1.4342530280018473E-002   7.1865273279918762E-002
   5.7544507992215999E-002  -1.2112435451803863E-002   5.8664015523556684E-002
   4.4737409950907941E-002  -1.1070102414321759E-002   4.6443693925551768E-002
   3.1930311909599884E-002  -1.1215531167572068E-002   3.5204308485904223E-002
   4.7395691384208516E-002  -1.8906464955730506E-002   2.0279220090041294E-002
   5.0322477626933065E-002  -1.9404615649941170E-002   2.3606718160760209E-002
   5.3249263869657643E-002  -1.9363113690907721E-002   2.6502272251169828E-002
   5.6176050112382192E-002  -1.8781959078629815E-002   2.8965882361270207E-002
   5.9102836355106769E-002  -1.7661151813107678E-002   3.0997548491061178E-002
   4.3916405912005324E-002  -1.6983731508690980E-002   2.3999741924425888E-002
   4.6450900335729739E-002  -1.7501686095799898E-002   2.7621534476112972E-002
   4.8985394759454154E-002  -1.7533929501569831E-002   3.0890687370108902E-002
   5.1519889183178624E-002  -1.7080461726000414E-002   3.3807200606413748E-002
   5.4054383606903039E-002  -1.6141282769091547E-002   3.6371074185027552E-002
   4.0179080842169507E-002  -1.5060998061651315E-002   2.7727430601864708E-002
   4.2400587769511930E-002  -1.5598756541658793E-002   3.1589576162614971E-002
   4.4622094696854325E-002  -1.5704745312231989E-002   3.5178386388292231E-002
   4.6843601624196748E-002  -1.5378964373370845E-002   3.8493861278896632E-002
   4.9065108551539144E-002  -1.4621413725075472E-002   4.1536000834428155E-002
   3.6183716174700974E-002  -1.3138264614611664E-002   3.1462286122357519E-002
   3.8171539928279569E-002  -1.3695826987517548E-002   3.5510843220265889E-002
   4.0159363681858157E-002  -1.3875561122894068E-002   3.9365369305719530E-002
   4.2147187435436759E-002  -1.3677467020741456E-002   4.3025864378718588E-002
   4.4135011189015340E-002  -1.3101544681059341E-002   4.6492328439262737E-002
   3.1930311909599884E-002  -1.1215531167572068E-002   3.5204308485904223E-002
   3.3763756812032752E-002  -1.1792897433376359E-002   3.9385335649066044E-002
   3.5597201714465634E-002  -1.2046376933556313E-002   4.3451636122391057E-002
   3.7430646616898530E-002  -1.1975969668111944E-002   4.7403209905879609E-002
   3.9264091519331412E-002  -1.1581675637043265E-002   5.1240056999531491E-002
   5.9102836355106769E-002  -1.7661151813107678E-002   3.0997548491061178E-002
   5.6659355658532834E-002  -1.6370090444927266E-002   3.0788236146719217E-002
   5.4215874961958954E-002  -1.5278173524674310E-002   3.0732655072894327E-002
   5.1772394265385019E-002  -1.4385401052349367E-002   3.0830805269587064E-002
   4.9328913568811084E-002  -1.3691773027951548E-002   3.1082686736797260E-002
   5.4054383606903039E-002  -1.6141282769091547E-002   3.6371074185027552E-002
   5.1769848700138801E-002  -1.5026136723043093E-002   3.6059693327324005E-002
   4.9485313793374633E-002  -1.4044767680054193E-002   3.5912472778722754E-002
   4.7200778886610430E-002  -1.3197175640125333E-002   3.5929412539223507E-002
   4.4916243979846227E-002  -1.2483360603255944E-002   3.6110512608826140E-002
   4.9065108551539144E-002  -1.4621413725075472E-002   4.1536000834428155E-002
   4.6949948473169391E-002  -1.3682183001158837E-002   4.1187918908230994E-002
   4.4834788394799555E-002  -1.2811361835434076E-002   4.1014426329720785E-002
   4.2719628316429746E-002  -1.2008950227901244E-002   4.1015523098897222E-002
   4.0604468238059965E-002  -1.1274948178560229E-002   4.1191209215760277E-002
   4.4135011189015340E-002  -1.3101544681059341E-002   4.6492328439262737E-002
   4.2199654977624575E-002  -1.2338229279274734E-002   4.6172912889439963E-002
   4.0264298766233872E-002  -1.1577955990813849E-002   4.6038515725888705E-002
   3.8328942554843121E-002  -1.0820724815677182E-002   4.6089136948609062E-002
   3.6393586343452397E-002  -1.0066535753864514E-002   4.6324776557600540E-002
   3.9264091519331412E-002  -1.1581675637043265E-002   5.1240056999531491E-002
   3.7518968213504394E-002  -1.0994275557390382E-002   5.1014675270950993E-002
   3.5773844907677432E-002  -1.0344550146193829E-002   5.0984740967226855E-002
   3.4028721601850456E-002  -9.6324994034532284E-003   5.1150254088358479E-002
   3.2283598296023452E-002  -8.8581233291688544E-003   5.1511214634346325E-002
   4.9328913568811084E-002  -1.3691773027951548E-002   3.1082686736797260E-002
   4.6080007274178547E-002  -1.3076069411640467E-002   2.9543138755608045E-002
   4.2831100979545900E-002  -1.2417070163574601E-002   2.8285998228734122E-002
   3.9582194684913252E-002  -1.1714775283754079E-002   2.7311265156175463E-002
   3.6333288390280716E-002  -1.0969184772178786E-002   2.6618939537932040E-002
   4.4916243979846227E-002  -1.2483360603255944E-002   3.6110512608826140E-002
   4.1942712534452115E-002  -1.1833115696652213E-002   3.4689792056880359E-002
   3.8969181089058030E-002  -1.1176234047520300E-002   3.3537413749096218E-002
   3.5995649643663960E-002  -1.0512715655860004E-002   3.2653377685474036E-002
   3.3022118198269862E-002  -9.8425605216715395E-003   3.2037683866013744E-002
   4.0604468238059965E-002  -1.1274948178560229E-002   4.1191209215760277E-002
   3.7892246431750917E-002  -1.0590161981664042E-002   3.9852657203831743E-002
   3.5180024625441911E-002  -9.9353979314661250E-003   3.8768382225911488E-002
   3.2467802819132877E-002  -9.3106560279659877E-003   3.7938384281999478E-002
   2.9755581012823856E-002  -8.7159362711640154E-003   3.7362663372095845E-002
   3.6393586343452397E-002  -1.0066535753864514E-002   4.6324776557600540E-002
   3.3928608966074941E-002  -9.3472082666758299E-003   4.5031734196462718E-002
   3.1463631588697506E-002  -8.6945618154118318E-003   4.3978903659179627E-002
   2.8998654211320068E-002  -8.1085964000719418E-003   4.3166284945751435E-002
   2.6533676833942609E-002  -7.5893120206565745E-003   4.2593878056178112E-002
   3.2283598296023452E-002  -8.8581233291688544E-003   5.1511214634346325E-002
   3.0051800137424145E-002  -8.1042545516876174E-003   5.0227023034772889E-002
   2.7820001978824865E-002  -7.4537256993575524E-003   4.9168978048900663E-002
   2.5588203820225544E-002  -6.9065367721778716E-003   4.8337079676729941E-002
   2.3356405661626251E-002  -6.4626877701491336E-003   4.7731327918260846E-002
   3.6333288390280716E-002  -1.0969184772178786E-002   2.6618939537932040E-002
   3.4356930978960309E-002  -1.0211576252236843E-002   2.6446650643134895E-002
   3.2380573567639903E-002  -9.4732273473150663E-003   2.6360807037407563E-002
   3.0404216156319552E-002  -8.7541380574143249E-003   2.6361408720749741E-002
   2.8427858744999146E-002  -8.0543083825341810E-003   2.6448455693161343E-002
   3.3022118198269862E-002  -9.8425605216715395E-003   3.2037683866013744E-002
   3.1140259544173959E-002  -9.1675458323740577E-003   3.1909992822270972E-002
   2.9258400890078085E-002  -8.4894487753869596E-003   3.1884854003907531E-002
   2.7376542235982279E-002  -7.8082693507107795E-003   3.1962267410923687E-002
   2.5494683581886390E-002  -7.1240075583450801E-003   3.2142233043319424E-002
   2.9755581012823856E-002  -8.7159362711640154E-003   3.7362663372095845E-002
   2.7984328052262433E-002  -8.1235154125112452E-003   3.7301912162117284E-002
   2.6213075091701038E-002  -7.5056702034590611E-003   3.7359820113828199E-002
   2.4441822131139601E-002  -6.8624006440072306E-003   3.7536387227228400E-002
   2.2670569170578220E-002  -6.1937067341559793E-003   3.7831613502317951E-002
   2.6533676833942609E-002  -7.5893120206565745E-003   4.2593878056178112E-002
   2.4889136503225620E-002  -7.0794849926486686E-003   4.2622408662673854E-002
   2.3244596172508583E-002  -6.5218916315309475E-003   4.2785705367168969E-002
   2.1600055841791598E-002  -5.9165319373037390E-003   4.3083768169663472E-002
   1.9955515511074558E-002  -5.2634059099668784E-003   4.3516597070157093E-002
   2.3356405661626251E-002  -6.4626877701491336E-003   4.7731327918260846E-002
   2.1854684897063575E-002  -6.0354545727856479E-003   4.7871482323940728E-002
   2.0352964132500859E-002  -5.5381130596029171E-003   4.8162509763930328E-002
   1.8851243367938190E-002  -4.9706632305999907E-003   4.8604410238228812E-002
   1.7349522603375522E-002  -4.3331050857777775E-003   4.9197183746836903E-002
   2.8427858744999146E-002  -8.0543083825341810E-003   2.6448455693161343E-002
   2.5968787049027497E-002  -7.3349768442991792E-003   2.5786806348693014E-002
   2.3509715353055793E-002  -6.5573819643338638E-003   2.5078832204009971E-002
   2.1050643657084117E-002  -5.7215237426382348E-003   2.4324533259111686E-002
   1.8591571961112441E-002  -4.8274021792125144E-003   2.3523909513998520E-002
   2.5494683581886390E-002  -7.1240075583450801E-003   3.2142233043319424E-002
   2.3027676829285804E-002  -6.4329867664045248E-003   3.1662383680837125E-002
   2.0560670076685286E-002  -5.7315303430034437E-003   3.1212989005312386E-002
   1.8093663324084720E-002  -5.0196382881421697E-003   3.0794049016744984E-002
   1.5626656571484182E-002  -4.2973106018199259E-003   3.0405563715134476E-002
   2.2670569170578220E-002  -6.1937067341559793E-003   3.7831613502317951E-002
   2.0272406848521066E-002  -5.5309966885096484E-003   3.7485736411552173E-002
   1.7874244526463870E-002  -4.9056787216729125E-003   3.7247093494915562E-002
   1.5476082204406681E-002  -4.3177528336456605E-003   3.7115684752408964E-002
   1.3077919882349534E-002  -3.7672190244276704E-003   3.7091510184031562E-002
   1.9955515511074558E-002  -5.2634059099668784E-003   4.3516597070157093E-002
   1.7702977106733117E-002  -4.6290066106148831E-003   4.3256864540837492E-002
   1.5450438702391624E-002  -4.0798271003423259E-003   4.3181145672819665E-002
   1.3197900298050161E-002  -3.6158673791492624E-003   4.3289440466103828E-002
   1.0945361893708691E-002  -3.2371274470353595E-003   4.3581748920689528E-002
   1.7349522603375522E-002  -4.3331050857777775E-003   4.9197183746836903E-002
   1.5319387603921958E-002  -3.7270165327201732E-003   4.8975768068693748E-002
   1.3289252604468449E-002  -3.2539754790119613E-003   4.9015145539024418E-002
   1.1259117605014912E-002  -2.9139819246531418E-003   4.9315316157829442E-002
   9.2289826055614310E-003  -2.7070358696429375E-003   4.9876279925108458E-002
   1.8591571961112441E-002  -4.8274021792125144E-003   2.3523909513998520E-002
   1.5594557739978643E-002  -4.0934524942188855E-003   2.4324645205585749E-002
   1.2597543518844900E-002  -3.7381099078198643E-003   2.5599992718863152E-002
   9.6005292977110746E-003  -3.7613744200164223E-003   2.7349952053831478E-002
   6.6035150765773598E-003  -4.1632460308074215E-003   2.9574523210489811E-002
   1.5626656571484182E-002  -4.2973106018199259E-003   3.0405563715134476E-002
   1.3085530120140076E-002  -3.7869861045070063E-003   3.1197229501277901E-002
   1.0544403668795999E-002  -3.7111036166718459E-003   3.2426059005310592E-002
   8.0032772174518860E-003  -4.0696631383147289E-003   3.4092052227232078E-002
   5.4621507661078150E-003  -4.8626646694356346E-003   3.6195209167042441E-002
   1.3077919882349534E-002  -3.7672190244276704E-003   3.7091510184031562E-002
   1.0955233096993616E-002  -3.4805197147952383E-003   3.7818271153848365E-002
   8.8325463116376984E-003  -3.6840973255236054E-003   3.8944747737753027E-002
   6.7098595262818014E-003  -4.3779518566132575E-003   4.0470939935744563E-002
   4.5871727409258628E-003  -5.5620833080638477E-003   4.2396847747823874E-002
   1.0945361893708691E-002  -3.2371274470353595E-003   4.3581748920689528E-002
   9.2036666705393386E-003  -3.1740533250833591E-003   4.4187770163296940E-002
   7.4619714473701214E-003  -3.6570910343754204E-003   4.5156058916190081E-002
   5.7202762242008331E-003  -4.6862405749120081E-003   4.6486615179368945E-002
   3.9785810010316038E-003  -6.2615019466922828E-003   4.8179438952834275E-002
   9.2289826055614310E-003  -2.7070358696429375E-003   4.9876279925108458E-002
   7.8308308407772642E-003  -2.8675869353714800E-003   5.0305726529623063E-002
   6.4326790759931252E-003  -3.6300847432272354E-003   5.1059992540621879E-002
   5.0345273112090000E-003  -4.9945292932099539E-003   5.2139077958104907E-002
   3.6363755464248748E-003  -6.9609205853203848E-003   5.3542982782072479E-002
   6.6035150765773598E-003  -4.1632460308074215E-003   2.9574523210489811E-002
   6.0694564542875251E-003  -6.1413671669516834E-003   3.4064612471377709E-002
   5.5353978319977182E-003  -1.0893380255208196E-002   3.9235290790483712E-002
   5.0013392097078418E-003  -1.8419285295575891E-002   4.5086558167807433E-002
   4.4672805874180765E-003  -2.8719082288055642E-002   5.1618414603348928E-002
   5.4621507661078150E-003  -4.8626646694356346E-003   3.6195209167042441E-002
   5.5056510203457254E-003  -6.9928207718589763E-003   3.8341774988908284E-002
   5.5491512745835941E-003  -1.1362844007410777E-002   4.0962869505611343E-002
   5.5926515288215878E-003  -1.7972734376089386E-002   4.4058492717151898E-002
   5.6361517830593733E-003  -2.6822491877895649E-002   4.7628644623530336E-002
   4.5871727409258628E-003  -5.5620833080638477E-003   4.2396847747823874E-002
   5.0021715083110735E-003  -7.8442743767667134E-003   4.2733914949651536E-002
   5.4171702756963466E-003  -1.1832307759613275E-002   4.3339450482936054E-002
   5.8321690430816024E-003  -1.7526183456602999E-002   4.4213454347677872E-002
   6.2471678104667749E-003  -2.4925901467735878E-002   4.5355926543876879E-002
   3.9785810010316038E-003  -6.2615019466922828E-003   4.8179438952834275E-002
   4.5590179181837012E-003  -8.6957279816744504E-003   4.7241032353607632E-002
   5.1394548353357935E-003  -1.2301771511815926E-002   4.6365033722458142E-002
   5.7198917524879265E-003  -1.7079632537116331E-002   4.5551443059385119E-002
   6.3003286696399277E-003  -2.3029311057575996E-002   4.4800260364388861E-002
   3.6363755464248748E-003  -6.9609205853203848E-003   5.3542982782072479E-002
   4.1761902499634629E-003  -9.5471815865818543E-003   5.1863127200776793E-002
   4.7160049535020510E-003  -1.2771235264018493E-002   5.0039619224177267E-002
   5.2558196570405974E-003  -1.6633081617630031E-002   4.8072458852273930E-002
   5.7956343605791716E-003  -2.1132720647416114E-002   4.5961646085066921E-002
   8.3158704074832113E-002  -1.7760386898965586E-002   8.6047467194638461E-002
   7.0351606033524028E-002  -1.4342530280018473E-002   7.1865273279918762E-002
   5.7544507992215999E-002  -1.2112435451803863E-002   5.8664015523556684E-002
   4.4737409950907941E-002  -1.1070102414321759E-002   4.6443693925551768E-002
   3.1930311909599884E-002  -1.1215531167572068E-002   3.5204308485904223E-002
   7.4444863379853649E-002  -1.5449831155587068E-002   9.3733386473159763E-002
   6.2741119103873519E-002  -1.2538629130133039E-002   7.7758520684386878E-002
   5.1037374827893459E-002  -1.0639156285468548E-002   6.3009426267912366E-002
   3.9333630551913364E-002  -9.7514126215935762E-003   4.9486103223736422E-002
   2.7629886275933283E-002  -9.8753981385080736E-003   3.7188551551859239E-002
   6.4915678689612052E-002  -1.3139275412208579E-002  0.10082463485321659     
   5.4560123392901158E-002  -1.0734727980247605E-002   8.3233129800333233E-002
   4.4204568096190271E-002  -9.1658771191331992E-003   6.7112231333689487E-002
   3.3849012799479383E-002  -8.4327228288653914E-003   5.2461939453285575E-002
   2.3493457502768461E-002  -8.5352651094441623E-003   3.9282254159121427E-002
   5.4571150004107560E-002  -1.0828719668830103E-002  0.10732121233480892     
   4.5808618900606987E-002  -8.9308268303621152E-003   8.8289100627757966E-002
   3.7046087797106463E-002  -7.6925979527979228E-003   7.0972430720887797E-002
   2.8283556693605945E-002  -7.1140330361372630E-003   5.5371202614198825E-002
   1.9521025590105393E-002  -7.1951320803802926E-003   4.1485416307690662E-002
   4.3411277323339992E-002  -8.5181639254515717E-003  0.11322311891793668     
   3.6486605626991006E-002  -7.1269256804767367E-003   9.2926433166661160E-002
   2.9561933930642048E-002  -6.2193187864624799E-003   7.4590024429507795E-002
   2.2637262234293062E-002  -5.7953432434090513E-003   5.8213892706476478E-002
   1.5712590537944104E-002  -5.8549990513163119E-003   4.3798037997567374E-002
   3.1930311909599884E-002  -1.1215531167572068E-002   3.5204308485904223E-002
   3.3763756812032752E-002  -1.1792897433376359E-002   3.9385335649066044E-002
   3.5597201714465634E-002  -1.2046376933556313E-002   4.3451636122391057E-002
   3.7430646616898530E-002  -1.1975969668111944E-002   4.7403209905879609E-002
   3.9264091519331412E-002  -1.1581675637043265E-002   5.1240056999531491E-002
   2.7629886275933283E-002  -9.8753981385080736E-003   3.7188551551859239E-002
   2.9324269874406103E-002  -1.0363567522343436E-002   4.1812865067685306E-002
   3.1018653472878917E-002  -1.0568375459231158E-002   4.6273782665427893E-002
   3.2713037071351730E-002  -1.0489821949170860E-002   5.0571304345086887E-002
   3.4407420669824551E-002  -1.0127906992163149E-002   5.4705430106662373E-002
   2.3493457502768461E-002  -8.5352651094441623E-003   3.9282254159121427E-002
   2.5000110569034319E-002  -8.9342376113105970E-003   4.4309328708935211E-002
   2.6506763635300183E-002  -9.0903739849058918E-003   4.9124338112418675E-002
   2.8013416701566044E-002  -9.0036742302299980E-003   5.3727282369571722E-002
   2.9520069767831905E-002  -8.6741383472829781E-003   5.8118161480394268E-002
   1.9521025590105393E-002  -7.1951320803802926E-003   4.1485416307690662E-002
   2.0791278895917406E-002  -7.5049077002777159E-003   4.6874726572815814E-002
   2.2061532201729399E-002  -7.6123725105807366E-003   5.2003302463363550E-002
   2.3331785507541388E-002  -7.5175265112890251E-003   5.6871143979334071E-002
   2.4602038813353402E-002  -7.2203697024028346E-003   6.1478251120727093E-002
   1.5712590537944104E-002  -5.8549990513163119E-003   4.3798037997567374E-002
   1.6697774855055358E-002  -6.0755777892448626E-003   4.9509058659327032E-002
   1.7682959172166605E-002  -6.1343710362554704E-003   5.4910675718262553E-002
   1.8668143489277870E-002  -6.0313787923480799E-003   6.0002889174373741E-002
   1.9653327806389120E-002  -5.7666010575226911E-003   6.4785699027660792E-002
   3.9264091519331412E-002  -1.1581675637043265E-002   5.1240056999531491E-002
   3.7518968213504394E-002  -1.0994275557390382E-002   5.1014675270950993E-002
   3.5773844907677432E-002  -1.0344550146193829E-002   5.0984740967226855E-002
   3.4028721601850456E-002  -9.6324994034532284E-003   5.1150254088358479E-002
   3.2283598296023452E-002  -8.8581233291688544E-003   5.1511214634346325E-002
   3.4407420669824551E-002  -1.0127906992163149E-002   5.4705430106662373E-002
   3.2861739202650148E-002  -9.5996097601181440E-003   5.4509226956727830E-002
   3.1316057735475758E-002  -9.0219094249468362E-003   5.4516460059242225E-002
   2.9770376268301361E-002  -8.3948059866492918E-003   5.4727129414205829E-002
   2.8224694801126965E-002  -7.7182994452251186E-003   5.5141235021618495E-002
   2.9520069767831905E-002  -8.6741383472829781E-003   5.8118161480394268E-002
   2.8181818966903055E-002  -8.2049439628459203E-003   5.7938214680688008E-002
   2.6843568165974240E-002  -7.6992687037000171E-003   5.7969692961023840E-002
   2.5505317365045434E-002  -7.1571125698451348E-003   5.8212596321401577E-002
   2.4167066564116574E-002  -6.5784755612815216E-003   5.8666924761821657E-002
   2.4602038813353402E-002  -7.2203697024028346E-003   6.1478251120727093E-002
   2.3479207506263134E-002  -6.8102781655737729E-003   6.1301638442831707E-002
   2.2356376199172870E-002  -6.3766279824531112E-003   6.1344439672571138E-002
   2.1233544892082609E-002  -5.9194191530411991E-003   6.1606654809945774E-002
   2.0110713584992335E-002  -5.4386516773377996E-003   6.2088283854955240E-002
   1.9653327806389120E-002  -5.7666010575226911E-003   6.4785699027660792E-002
   1.8753904820730388E-002  -5.4156123683014312E-003   6.4599498243158637E-002
   1.7854481835071670E-002  -5.0539872612061637E-003   6.4640700193884348E-002
   1.6955058849412952E-002  -4.6817257362370863E-003   6.4909304879838078E-002
   1.6055635863754233E-002  -4.2988277933942443E-003   6.5405312301020258E-002
   3.2283598296023452E-002  -8.8581233291688544E-003   5.1511214634346325E-002
   3.0051800137424145E-002  -8.1042545516876174E-003   5.0227023034772889E-002
   2.7820001978824865E-002  -7.4537256993575524E-003   4.9168978048900663E-002
   2.5588203820225544E-002  -6.9065367721778716E-003   4.8337079676729941E-002
   2.3356405661626251E-002  -6.4626877701491336E-003   4.7731327918260846E-002
   2.8224694801126965E-002  -7.7182994452251186E-003   5.5141235021618495E-002
   2.6227918126160307E-002  -7.0597433899517725E-003   5.3772871549573026E-002
   2.4231141451193622E-002  -6.4864914101061960E-003   5.2648404431091533E-002
   2.2234364776226936E-002  -5.9985435056885798E-003   5.1767833666173838E-002
   2.0237588101260279E-002  -5.5958996766984903E-003   5.1131159254820258E-002
   2.4167066564116574E-002  -6.5784755612815216E-003   5.8666924761821657E-002
   2.2423061112644999E-002  -6.0152322282157611E-003   5.7232425267027195E-002
   2.0679055661173423E-002  -5.5192571208549437E-003   5.6059571865659096E-002
   1.8935050209701834E-002  -5.0905502391988978E-003   5.5148364557717336E-002
   1.7191044758230266E-002  -4.7291115832476804E-003   5.4498803343202090E-002
   2.0110713584992335E-002  -5.4386516773377996E-003   6.2088283854955240E-002
   1.8637229096878351E-002  -4.9707210664797774E-003   6.0605684187134953E-002
   1.7163744608764322E-002  -4.5520228316036394E-003   5.9402480352603482E-002
   1.5690260120650328E-002  -4.1825569727092999E-003   5.8478672351360790E-002
   1.4216775632536307E-002  -3.8623234897971204E-003   5.7834260183406878E-002
   1.6055635863754233E-002  -4.2988277933942443E-003   6.5405312301020258E-002
   1.4870422078860232E-002  -3.9262099047436827E-003   6.3892648309896716E-002
   1.3685208293966265E-002  -3.5847885423523768E-003   6.2677129891924505E-002
   1.2499994509072295E-002  -3.2745637062198234E-003   6.1758757047103777E-002
   1.1314780724178325E-002  -2.9955353963462272E-003   6.1137529775434185E-002
   2.3356405661626251E-002  -6.4626877701491336E-003   4.7731327918260846E-002
   2.1854684897063575E-002  -6.0354545727856479E-003   4.7871482323940728E-002
   2.0352964132500859E-002  -5.5381130596029171E-003   4.8162509763930328E-002
   1.8851243367938190E-002  -4.9706632305999907E-003   4.8604410238228812E-002
   1.7349522603375522E-002  -4.3331050857777775E-003   4.9197183746836903E-002
   2.0237588101260279E-002  -5.5958996766984903E-003   5.1131159254820258E-002
   1.8891900707758896E-002  -5.2092323113562267E-003   5.1410477946564115E-002
   1.7546213314257528E-002  -4.7692137978818661E-003   5.1850990346121534E-002
   1.6200525920756145E-002  -4.2758441362753807E-003   5.2452696453492403E-002
   1.4854838527254777E-002  -3.7291233265367429E-003   5.3215596268676391E-002
   1.7191044758230266E-002  -4.7291115832476804E-003   5.4498803343202090E-002
   1.6011711409294256E-002  -4.3830100499265834E-003   5.4900529153322636E-002
   1.4832378060358285E-002  -4.0003145361610509E-003   5.5473769344760490E-002
   1.3653044711422284E-002  -3.5810250419508298E-003   5.6218523917515716E-002
   1.2473711362486276E-002  -3.1251415672958194E-003   5.7134792871588569E-002
   1.4216775632536307E-002  -3.8623234897971204E-003   5.7834260183406878E-002
   1.3214117001669719E-002  -3.5567877884971066E-003   5.8341635944216166E-002
   1.2211458370803147E-002  -3.2314152744401178E-003   5.9030846759847017E-002
   1.1208799739936548E-002  -2.8862059476261383E-003   5.9901892630299235E-002
   1.0206141109069988E-002  -2.5211598080548403E-003   6.0954773555572689E-002
   1.1314780724178325E-002  -2.9955353963462272E-003   6.1137529775434185E-002
   1.0499117484885204E-002  -2.7305655270674078E-003   6.1733798319244748E-002
   9.6834542455920963E-003  -2.4625160127192125E-003   6.2522222591380905E-002
   8.8677910062989751E-003  -2.1913868533012873E-003   6.3502802591842572E-002
   8.0521277670058677E-003  -1.9171780488138612E-003   6.4675538320629777E-002
   1.7349522603375522E-002  -4.3331050857777775E-003   4.9197183746836903E-002
   1.5319387603921958E-002  -3.7270165327201732E-003   4.8975768068693748E-002
   1.3289252604468449E-002  -3.2539754790119613E-003   4.9015145539024418E-002
   1.1259117605014912E-002  -2.9139819246531418E-003   4.9315316157829442E-002
   9.2289826055614310E-003  -2.7070358696429375E-003   4.9876279925108458E-002
   1.4854838527254777E-002  -3.7291233265367429E-003   5.3215596268676391E-002
   1.3085933267737743E-002  -3.2197476363747257E-003   5.2977629650030889E-002
   1.1317028008220709E-002  -2.8384133334968253E-003   5.3001329362783983E-002
   9.5481227487036954E-003  -2.5851204179039716E-003   5.3286695406935716E-002
   7.7792174891866406E-003  -2.4598688895957066E-003   5.3833727782487073E-002
   1.2473711362486276E-002  -3.1251415672958194E-003   5.7134792871588569E-002
   1.0966909025830508E-002  -2.7124787400286954E-003   5.6885281424504941E-002
   9.4601066891747201E-003  -2.4228511879818004E-003   5.6898309491745014E-002
   7.9533043525189320E-003  -2.2562589111550235E-003   5.7173877073308690E-002
   6.4465020158631647E-003  -2.2127019095481981E-003   5.7711984169196096E-002
   1.0206141109069988E-002  -2.5211598080548403E-003   6.0954773555572689E-002
   8.9623148782002181E-003  -2.2052098436829010E-003   6.0698723392116030E-002
   7.7184886473304574E-003  -2.0072890424666090E-003   6.0706085925907566E-002
   6.4746624164607053E-003  -1.9273974044059644E-003   6.0976861156947768E-002
   5.2308361855909272E-003  -1.9655349295008839E-003   6.1511049085236205E-002
   8.0521277670058677E-003  -1.9171780488138612E-003   6.4675538320629777E-002
   7.0721508248468984E-003  -1.6979409473372176E-003   6.4417955552864337E-002
   6.0921738826879290E-003  -1.5917268969517229E-003   6.4424658665271861E-002
   5.1121969405289597E-003  -1.5985358976569816E-003   6.4695647657852684E-002
   4.1322199983699903E-003  -1.7183679494533477E-003   6.5230922530606694E-002
   9.2289826055614310E-003  -2.7070358696429375E-003   4.9876279925108458E-002
   7.8308308407772642E-003  -2.8675869353714800E-003   5.0305726529623063E-002
   6.4326790759931252E-003  -3.6300847432272354E-003   5.1059992540621879E-002
   5.0345273112090000E-003  -4.9945292932099539E-003   5.2139077958104907E-002
   3.6363755464248748E-003  -6.9609205853203848E-003   5.3542982782072479E-002
   7.7792174891866406E-003  -2.4598688895957066E-003   5.3833727782487073E-002
   6.6795874925198312E-003  -2.6534079651255316E-003   5.3798183110426390E-002
   5.5799574958530357E-003  -3.3564868610469756E-003   5.4034862568115738E-002
   4.4803274991862332E-003  -4.5691055773600178E-003   5.4543766155555728E-002
   3.3806975025194586E-003  -6.2912641140643322E-003   5.5324893872745640E-002
   6.4465020158631647E-003  -2.2127019095481981E-003   5.7711984169196096E-002
   5.5927985105795885E-003  -2.4392289948795276E-003   5.7303855142295884E-002
   4.7390950052960124E-003  -3.0828889788667158E-003   5.7115354968412024E-002
   3.8853915000124258E-003  -4.1436818615096377E-003   5.7146483647544336E-002
   3.0316879947288600E-003  -5.6216076428084460E-003   5.7397241179692443E-002
   5.2308361855909272E-003  -1.9655349295008839E-003   6.1511049085236205E-002
   4.5704638949564981E-003  -2.2250500246334959E-003   6.0822742625231928E-002
   3.9100916043220517E-003  -2.8092910966865670E-003   6.0301469741510308E-002
   3.2497193136876131E-003  -3.7182581456593686E-003   5.9947230434070541E-002
   2.5893470230531762E-003  -4.9519511715524767E-003   5.9760024702912730E-002
   4.1322199983699903E-003  -1.7183679494533477E-003   6.5230922530606694E-002
   3.6125836456505911E-003  -2.0108710543876862E-003   6.4354845559234652E-002
   3.0929472929311641E-003  -2.5356932145058908E-003   6.3593206887410880E-002
   2.5733109402117579E-003  -3.2928344298091342E-003   6.2946006515134684E-002
   2.0536745874923379E-003  -4.2822947002962852E-003   6.2413244442406590E-002
   3.6363755464248748E-003  -6.9609205853203848E-003   5.3542982782072479E-002
   4.1761902499634629E-003  -9.5471815865818543E-003   5.1863127200776793E-002
   4.7160049535020510E-003  -1.2771235264018493E-002   5.0039619224177267E-002
   5.2558196570405974E-003  -1.6633081617630031E-002   4.8072458852273930E-002
   5.7956343605791716E-003  -2.1132720647416114E-002   4.5961646085066921E-002
   3.3806975025194586E-003  -6.2912641140643322E-003   5.5324893872745640E-002
   3.7943440736527834E-003  -8.5565863790945107E-003   5.2961900934245909E-002
   4.2079906447861776E-003  -1.1398696280384590E-002   5.0490224126239491E-002
   4.6216372159195024E-003  -1.4817593817934155E-002   4.7909863448726636E-002
   5.0352837870528688E-003  -1.8813278991742788E-002   4.5220818901706705E-002
   3.0316879947288600E-003  -5.6216076428084460E-003   5.7397241179692443E-002
   3.3541349592540737E-003  -7.5659911716075556E-003   5.4412115923904020E-002
   3.6765819237792735E-003  -1.0026157296750451E-002   5.1353275324406270E-002
   3.9990288883045323E-003  -1.3002106018237886E-002   4.8220719381198852E-002
   4.3214758528297148E-003  -1.6493837336069461E-002   4.5014448094281345E-002
   2.5893470230531762E-003  -4.9519511715524767E-003   5.9760024702912730E-002
   2.8555629067672575E-003  -6.5753959641200732E-003   5.6213772169751167E-002
   3.1217787904813665E-003  -8.6536183131164304E-003   5.2628772818676992E-002
   3.3879946741954903E-003  -1.1186618218542147E-002   4.9005026649690218E-002
   3.6542105579095291E-003  -1.4174395680396135E-002   4.5342533662791534E-002
   2.0536745874923379E-003  -4.2822947002962852E-003   6.2413244442406590E-002
   2.2986279161923973E-003  -5.5848007566330349E-003   5.8366869671787502E-002
   2.5435812448924289E-003  -7.2810793294825760E-003   5.4316716609052351E-002
   2.7885345735925160E-003  -9.3711304188461159E-003   5.0262785254201969E-002
   3.0334879022925199E-003  -1.1854954024722808E-002   4.6205075607236079E-002
   4.3411277323339992E-002  -8.5181639254515717E-003  0.11322311891793668     
   3.6486605626991006E-002  -7.1269256804767367E-003   9.2926433166661160E-002
   2.9561933930642048E-002  -6.2193187864624799E-003   7.4590024429507795E-002
   2.2637262234293062E-002  -5.7953432434090513E-003   5.8213892706476478E-002
   1.5712590537944104E-002  -5.8549990513163119E-003   4.3798037997567374E-002
   3.2022414025083434E-002  -6.3886230344293304E-003  0.11517909815329183     
   2.7000742062223373E-002  -5.3451943147816983E-003   9.4759320444598033E-002
   2.1979070099363326E-002  -4.6644891183132697E-003   7.6185265188760051E-002
   1.6957398136503279E-002  -4.3465074450239824E-003   5.9456932385777504E-002
   1.1935726173643219E-002  -4.3912492949141901E-003   4.4574322035650787E-002
   2.0990913487111941E-002  -4.2590821434071446E-003  0.11672681394942905     
   1.7757686696474307E-002  -3.5634629490866043E-003   9.6304852111098432E-002
   1.4524459905836673E-002  -3.1096594501638652E-003   7.7614058164357125E-002
   1.1291233115199046E-002  -2.8976716466390801E-003   6.0654432109204903E-002
   8.0580063245614224E-003  -2.9274995385120406E-003   4.5425973945641906E-002
   1.0316775709425439E-002  -2.1295412523849033E-003  0.11786626630634858     
   8.7574395297437546E-003  -1.7817315833914965E-003   9.7563028166162441E-002
   7.1981033500620739E-003  -1.5548297820145301E-003   7.8876403356299363E-002
   5.6387671703803975E-003  -1.4488358482539834E-003   6.1806391876758786E-002
   4.0794309906987221E-003  -1.4637497821099882E-003   4.6352993727540925E-002
   6.9202397978695984E-010  -3.6136271752695848E-010  0.11859745522404996     
   5.6203176140856570E-010  -2.1769649971581373E-010   9.8533848609790087E-002
   4.3203953609127765E-010  -1.1386522280609768E-010   7.9972300764586335E-002
   3.0204731250871308E-010  -4.9869074147945724E-011   6.2912811688438985E-002
   1.7205509239559547E-010  -2.5707769246707812E-011   4.7355381381347761E-002
   1.5712590537944104E-002  -5.8549990513163119E-003   4.3798037997567374E-002
   1.6697774855055358E-002  -6.0755777892448626E-003   4.9509058659327032E-002
   1.7682959172166605E-002  -6.1343710362554704E-003   5.4910675718262553E-002
   1.8668143489277870E-002  -6.0313787923480799E-003   6.0002889174373741E-002
   1.9653327806389120E-002  -5.7666010575226911E-003   6.4785699027660792E-002
   1.1935726173643219E-002  -4.3912492949141901E-003   4.4574322035650787E-002
   1.2627283766000572E-002  -4.5566833472130974E-003   5.0341826395339601E-002
   1.3318841358357925E-002  -4.6007782811506026E-003   5.5831480908344763E-002
   1.4010398950715281E-002  -4.5235340967263934E-003   6.1043285574666241E-002
   1.4701956543072624E-002  -4.3249507939405740E-003   6.5977240394304276E-002
   8.0580063245614224E-003  -2.9274995385120406E-003   4.5425973945641906E-002
   8.4874909483054657E-003  -3.0377889051814294E-003   5.1209515630703473E-002
   8.9169755720495073E-003  -3.0671855260456238E-003   5.6746761225222056E-002
   9.3464601957935559E-003  -3.0156894011047070E-003   6.2037710729197490E-002
   9.7759448195375923E-003  -2.8833005303585679E-003   6.7082364142630121E-002
   4.0794309906987221E-003  -1.4637497821099882E-003   4.6352993727540925E-002
   4.2783964019700305E-003  -1.5188944631497683E-003   5.2112126365418850E-002
   4.4773618132413536E-003  -1.5335927709406449E-003   5.7656516668894237E-002
   4.6763272245126785E-003  -1.5078447054831037E-003   6.2986164637967218E-002
   4.8752926357839930E-003  -1.4416502667765341E-003   6.8101070272637829E-002
   1.7205509239559547E-010  -2.5707769246707812E-011   4.7355381381347761E-002
   1.2699427967555188E-010  -2.1117968485029337E-011   5.3049658599485572E-002
   8.1933466955508294E-011  -1.5835763256255575E-011   5.8560747239361527E-002
   3.6872652500741232E-011  -9.8613305021810760E-012   6.3888647300975612E-002
  -8.1881584845788780E-012  -3.1944447087539629E-012   6.9033358784327925E-002
   1.9653327806389120E-002  -5.7666010575226911E-003   6.4785699027660792E-002
   1.8753904820730388E-002  -5.4156123683014312E-003   6.4599498243158637E-002
   1.7854481835071670E-002  -5.0539872612061637E-003   6.4640700193884348E-002
   1.6955058849412952E-002  -4.6817257362370863E-003   6.4909304879838078E-002
   1.6055635863754233E-002  -4.2988277933942443E-003   6.5405312301020258E-002
   1.4701956543072624E-002  -4.3249507939405740E-003   6.5977240394304276E-002
   1.4029299544205252E-002  -4.0617092754151873E-003   6.5825069266642805E-002
   1.3356642545337884E-002  -3.7904904437721376E-003   6.5899027377335620E-002
   1.2683985546470501E-002  -3.5112942990111820E-003   6.6199114726383318E-002
   1.2011328547603131E-002  -3.2241208411325495E-003   6.6725331313785496E-002
   9.7759448195375923E-003  -2.8833005303585679E-003   6.7082364142630121E-002
   9.3287803105881820E-003  -2.7078061825291239E-003   6.6961563567052851E-002
   8.8816158016387682E-003  -2.5269936263379936E-003   6.7065618732956717E-002
   8.4344512926893475E-003  -2.3408628617853870E-003   6.7394529640342121E-002
   7.9872867837399407E-003  -2.1494138888710490E-003   6.7948296289208607E-002
   4.8752926357839930E-003  -1.4416502667765341E-003   6.8101070272637829E-002
   4.6523471198791650E-003  -1.3539030896429979E-003   6.8008981144388886E-002
   4.4294016039743258E-003  -1.2634968089038807E-003   6.8140474260747777E-002
   4.2064560880694882E-003  -1.1704314245594817E-003   6.8495549621714599E-002
   3.9835105721646577E-003  -1.0747069366095624E-003   6.9074207227289394E-002
  -8.1881584845788780E-012  -3.1944447087539629E-012   6.9033358784327925E-002
  -2.7921796819097011E-011   3.2431834995350073E-012   6.8967321998651077E-002
  -4.7655435153615144E-011   8.5301349317390418E-012   6.9123593960708746E-002
  -6.7389071753409802E-011   1.2666385301729477E-011   6.9502174670500808E-002
  -8.7122711822651411E-011   1.5652090734619151E-011   7.0103064128027526E-002
   1.6055635863754233E-002  -4.2988277933942443E-003   6.5405312301020258E-002
   1.4870422078860232E-002  -3.9262099047436827E-003   6.3892648309896716E-002
   1.3685208293966265E-002  -3.5847885423523768E-003   6.2677129891924505E-002
   1.2499994509072295E-002  -3.2745637062198234E-003   6.1758757047103777E-002
   1.1314780724178325E-002  -2.9955353963462272E-003   6.1137529775434185E-002
   1.2011328547603131E-002  -3.2241208411325495E-003   6.6725331313785496E-002
   1.1123049805367324E-002  -2.9446574242715795E-003   6.5205425383751403E-002
   1.0234771063131524E-002  -2.6885914025628621E-003   6.3982243965882007E-002
   9.3464923208957246E-003  -2.4559227760067928E-003   6.3055787060177754E-002
   8.4582135786599177E-003  -2.2466515446032398E-003   6.2426054666638975E-002
   7.9872867837399407E-003  -2.1494138888710490E-003   6.7948296289208607E-002
   7.3955220231761293E-003  -1.9631049437990322E-003   6.6428947551369827E-002
   6.8037572626123196E-003  -1.7923942627733544E-003   6.5205902264709792E-002
   6.2119925020485125E-003  -1.6372818457936530E-003   6.4279160429228738E-002
   5.6202277414846985E-003  -1.4977676928602524E-003   6.3648722044926526E-002
   3.9835105721646577E-003  -1.0747069366095624E-003   6.9074207227289394E-002
   3.6878387322866546E-003  -9.8155246332665147E-004   6.7563214812752237E-002
   3.3921668924086538E-003  -8.9619712298384321E-004   6.6348104788408011E-002
   3.0964950525306529E-003  -8.1864091558051227E-004   6.5428877154256382E-002
   2.8008232126526499E-003  -7.4888384111720940E-004   6.4805531910297504E-002
  -8.7122711822651411E-011   1.5652090734619151E-011   7.0103064128027526E-002
  -6.7301095252325638E-011   1.7145729280798605E-011   6.8608227167898828E-002
  -4.7479478681999865E-011   1.6805681846143727E-011   6.7408851536976483E-002
  -2.7657862111674092E-011   1.4632576400552821E-011   6.6504937235260589E-002
  -7.8362455413483190E-012   1.0625833546384911E-011   6.5896484262751520E-002
   1.1314780724178325E-002  -2.9955353963462272E-003   6.1137529775434185E-002
   1.0499117484885204E-002  -2.7305655270674078E-003   6.1733798319244748E-002
   9.6834542455920963E-003  -2.4625160127192125E-003   6.2522222591380905E-002
   8.8677910062989751E-003  -2.1913868533012873E-003   6.3502802591842572E-002
   8.0521277670058677E-003  -1.9171780488138612E-003   6.4675538320629777E-002
   8.4582135786599177E-003  -2.2466515446032398E-003   6.2426054666638975E-002
   7.8376460882722751E-003  -2.0479241437413864E-003   6.3046539228941878E-002
   7.2170785978846116E-003  -1.8468870088103884E-003   6.3865059560730436E-002
   6.5965111074969551E-003  -1.6435401398102942E-003   6.4881615662004427E-002
   5.9759436171093056E-003  -1.4378835367412357E-003   6.6096207532763629E-002
   5.6202277414846985E-003  -1.4977676928602524E-003   6.3648722044926526E-002
   5.2006360411624361E-003  -1.3652827604154205E-003   6.4292652714721760E-002
   4.7810443408401494E-003  -1.2312580049019944E-003   6.5140499195162280E-002
   4.3614526405178766E-003  -1.0956934263193531E-003   6.6192261486248322E-002
   3.9418609401956003E-003  -9.5858902466838813E-004   6.7447939587979344E-002
   2.8008232126526499E-003  -7.4888384111720940E-004   6.4805531910297504E-002
   2.5880873435556850E-003  -6.8264137708942685E-004   6.5472138776584310E-002
   2.3753514744587123E-003  -6.1562900099316337E-004   6.6348541494676672E-002
   2.1626156053617500E-003  -5.4784671282871907E-004   6.7434740064574131E-002
   1.9498797362647747E-003  -4.7929451259565159E-004   6.8730734486276951E-002
  -7.8362455413483190E-012   1.0625833546384911E-011   6.5896484262751520E-002
  -4.5479800481196264E-012   6.2366778408318169E-012   6.6584997414529945E-002
  -1.2597041465500780E-012   2.9151403513338892E-012   6.7489186459273376E-002
   2.0285648161255665E-012   6.6239375096088793E-013   6.8609051396982063E-002
   5.3168372482481630E-012  -5.2291504459844873E-013   6.9944592227656033E-002
   8.0521277670058677E-003  -1.9171780488138612E-003   6.4675538320629777E-002
   7.0721508248468984E-003  -1.6979409473372176E-003   6.4417955552864337E-002
   6.0921738826879290E-003  -1.5917268969517229E-003   6.4424658665271861E-002
   5.1121969405289597E-003  -1.5985358976569816E-003   6.4695647657852684E-002
   4.1322199983699903E-003  -1.7183679494533477E-003   6.5230922530606694E-002
   5.9759436171093056E-003  -1.4378835367412357E-003   6.6096207532763629E-002
   5.2554296438784148E-003  -1.2734557107555444E-003   6.5777008157072270E-002
   4.5349156706475380E-003  -1.1937951730069951E-003   6.5712448839063575E-002
   3.8144016974166473E-003  -1.1989019234946996E-003   6.5902529578738073E-002
   3.0938877241857843E-003  -1.2887759622191020E-003   6.6347250376095568E-002
   3.9418609401956003E-003  -9.5858902466838813E-004   6.7447939587979344E-002
   3.4711641134026333E-003  -8.4897047417387128E-004   6.7095379367216185E-002
   3.0004672866096663E-003  -7.9586344906194817E-004   6.6987813381645847E-002
   2.5297704598167062E-003  -7.9926794933197695E-004   6.7125241631268151E-002
   2.0590736330237322E-003  -8.5918397498468968E-004   6.7507664116083527E-002
   1.9498797362647747E-003  -4.7929451259565159E-004   6.8730734486276951E-002
   1.7193542334195617E-003  -4.2448523759230916E-004   6.8373069183296248E-002
   1.4888287305743330E-003  -3.9793172511694980E-004   6.8250752293018344E-002
   1.2583032277291052E-003  -3.9963397516964115E-004   6.8363783815442822E-002
   1.0277777248838913E-003  -4.2959198775036067E-004   6.8712163750570265E-002
   5.3168372482481630E-012  -5.2291504459844873E-013   6.9944592227656033E-002
   3.9291833675569876E-012  -1.0105805081650487E-012   6.9610077605312348E-002
   2.5415190785249564E-012  -1.1721734693992403E-012   6.9501265573181314E-002
   1.1538565242164012E-012  -1.0070277944862482E-012   6.9618156131262710E-002
  -2.3379909119825015E-013  -5.1592063954331024E-013   6.9960749279556422E-002
   4.1322199983699903E-003  -1.7183679494533477E-003   6.5230922530606694E-002
   3.6125836456505911E-003  -2.0108710543876862E-003   6.4354845559234652E-002
   3.0929472929311641E-003  -2.5356932145058908E-003   6.3593206887410880E-002
   2.5733109402117579E-003  -3.2928344298091342E-003   6.2946006515134684E-002
   2.0536745874923379E-003  -4.2822947002962852E-003   6.2413244442406590E-002
   3.0938877241857843E-003  -1.2887759622191020E-003   6.6347250376095568E-002
   2.6925573681760434E-003  -1.5081532907772477E-003   6.5275280111599776E-002
   2.2912270121663095E-003  -1.9017699107658492E-003   6.4325483540975725E-002
   1.8898966561565755E-003  -2.4696258221852674E-003   6.3497860664222833E-002
   1.4885663001468347E-003  -3.2117210250355299E-003   6.2792411481341404E-002
   2.0590736330237322E-003  -8.5918397498468968E-004   6.7507664116083527E-002
   1.7837846680470830E-003  -1.0054355271668647E-003   6.6297880322217867E-002
   1.5084957030704234E-003  -1.2678466070259048E-003   6.5218005616547128E-002
   1.2332067380937794E-003  -1.6464172145619523E-003   6.4268039999071214E-002
   9.5791777311711457E-004  -2.1411473497746636E-003   6.3447983469789804E-002
   1.0277777248838913E-003  -4.2959198775036067E-004   6.8712163750570265E-002
   8.8626554526370291E-004  -5.0271776355650943E-004   6.7422646191088745E-002
   7.4475336564351537E-004  -6.3392330328580077E-004   6.6270773114125325E-002
   6.0324118602333434E-004  -8.2320860693836130E-004   6.5256544519679924E-002
   4.6172900640315331E-004  -1.0705736745137417E-003   6.4379960407753026E-002
  -2.3379909119825015E-013  -5.1592063954331024E-013   6.9960749279556422E-002
  -1.7410378694293627E-013   5.4012350148013866E-014   6.8649577718212451E-002
  -1.1441195213457434E-013   4.5413672822292028E-013   6.7483786033710025E-002
  -5.4718382602736426E-014   6.8518801743522317E-013   6.6463374226049088E-002
   4.9751869291014827E-015   7.4706907327026784E-013   6.5588342295230029E-002
   2.0536745874923379E-003  -4.2822947002962852E-003   6.2413244442406590E-002
   2.2986279161923973E-003  -5.5848007566330349E-003   5.8366869671787502E-002
   2.5435812448924289E-003  -7.2810793294825760E-003   5.4316716609052351E-002
   2.7885345735925160E-003  -9.3711304188461159E-003   5.0262785254201969E-002
   3.0334879022925199E-003  -1.1854954024722808E-002   4.6205075607236079E-002
   1.4885663001468347E-003  -3.2117210250355299E-003   6.2792411481341404E-002
   1.7153763267108990E-003  -4.1886005672885918E-003   5.8421580509072812E-002
   1.9421863532749564E-003  -5.4608094969166299E-003   5.4018241224648045E-002
   2.1689963798389791E-003  -7.0283478139203659E-003   4.9582393628066906E-002
   2.3958064064030782E-003  -8.8912155182987451E-003   4.5114037719328426E-002
   9.5791777311711457E-004  -2.1411473497746636E-003   6.3447983469789804E-002
   1.1378544775042347E-003  -2.7924003779443707E-003   5.8851139425011079E-002
   1.3177911818913479E-003  -3.6405396643511556E-003   5.4193057048034315E-002
   1.4977278862784715E-003  -4.6855652089945118E-003   4.9473736338860236E-002
   1.6776645906655674E-003  -5.9274770118749043E-003   4.4693177297489450E-002
   4.6172900640315331E-004  -1.0705736745137417E-003   6.4379960407753026E-002
   5.6606236857240349E-004  -1.3962001886004827E-003   5.9655546419601468E-002
   6.7039573074164673E-004  -1.8202698317852234E-003   5.4841164079211364E-002
   7.7472909291088389E-004  -2.3427826040689319E-003   4.9936813386583553E-002
   8.7906245508014014E-004  -2.9637385054510634E-003   4.4942494341716349E-002
   4.9751869291014827E-015   7.4706907327026784E-013   6.5588342295230029E-002
  -8.4592055582533021E-014   7.4384942649885488E-013   6.0834801492844037E-002
  -1.7416970643502339E-013   7.8012596382848187E-013   5.5962562318179254E-002
  -2.6374388784056180E-013   8.5700196938987006E-013   5.0971624771234653E-002
  -3.5331459979914825E-013   9.7299945878148719E-013   4.5861988852011759E-002
   6.9202397978695984E-010  -3.6136271752695848E-010  0.11859745522404996     
   5.6203176140856570E-010  -2.1769649971581373E-010   9.8533848609790087E-002
   4.3203953609127765E-010  -1.1386522280609768E-010   7.9972300764586335E-002
   3.0204731250871308E-010  -4.9869074147945724E-011   6.2912811688438985E-002
   1.7205509239559547E-010  -2.5707769246707812E-011   4.7355381381347761E-002
  -1.0316774339999411E-002   2.1295407861501858E-003  0.11786626662144364     
  -8.7574384163953828E-003   1.7817312972540633E-003   9.7563028391149914E-002
  -7.1981024927913438E-003   1.5548296261027605E-003   7.8876403498992234E-002
  -5.6387665691873083E-003   1.4488357726961526E-003   6.1806391944970944E-002
  -4.0794306455832693E-003   1.4637497370342811E-003   4.6352993729086078E-002
  -2.0990912161551741E-002   4.2590819336630337E-003  0.11672681445748520     
  -1.7757685615271350E-002   3.5634628122046125E-003   9.6304852468737073E-002
  -1.4524459068990959E-002   3.1096593660706745E-003   7.7614058387205268E-002
  -1.1291232522710561E-002   2.8976715952612371E-003   6.0654432212889998E-002
  -8.0580059764301763E-003   2.9274994997763315E-003   4.5425973945791051E-002
  -3.2022412772632958E-002   6.3886230811759093E-003  0.11517909873217458     
  -2.7000741034596133E-002   5.3451943271551686E-003   9.4759320842551828E-002
  -2.1979069296559295E-002   4.6644891060386787E-003   7.6185265429225782E-002
  -1.6957397558522470E-002   4.3465074178264205E-003   5.9456932492196100E-002
  -1.1935725820485637E-002   4.3912492625184096E-003   4.4574322031462971E-002
  -4.3411276173243113E-002   8.5181642286887849E-003  0.11322311944551167     
  -3.6486604674369739E-002   7.1269258421057247E-003   9.2926433512594275E-002
  -2.9561933175496387E-002   6.2193188460065996E-003   7.4590024625053541E-002
  -2.2637261676623013E-002   5.7953432403914859E-003   5.8213892782889270E-002
  -1.5712590177749647E-002   5.8549990252604878E-003   4.3798037986101601E-002
   1.7205509239559547E-010  -2.5707769246707812E-011   4.7355381381347761E-002
   1.2699427967555188E-010  -2.1117968485029337E-011   5.3049658599485572E-002
   8.1933466955508294E-011  -1.5835763256255575E-011   5.8560747239361527E-002
   3.6872652500741232E-011  -9.8613305021810760E-012   6.3888647300975612E-002
  -8.1881584845788780E-012  -3.1944447087539629E-012   6.9033358784327925E-002
  -4.0794306455832693E-003   1.4637497370342811E-003   4.6352993729086078E-002
  -4.2783961472537737E-003   1.5188944246135316E-003   5.2112126370382289E-002
  -4.4773616489242711E-003   1.5335927409299704E-003   5.7656516676721017E-002
  -4.6763271505947772E-003   1.5078446859838647E-003   6.2986164648102083E-002
  -4.8752926522652798E-003   1.4416502597752179E-003   6.8101070284525722E-002
  -8.0580059764301763E-003   2.9274994997763315E-003   4.5425973945791051E-002
  -8.4874906914060681E-003   3.0377888703448513E-003   5.1209515638290751E-002
  -8.9169754063819738E-003   3.0671854976958082E-003   5.6746761239137251E-002
  -9.3464601213578743E-003   3.0156893818291137E-003   6.2037710748330491E-002
  -9.7759448363337800E-003   2.8833005227449360E-003   6.7082364165870531E-002
  -1.1935725820485637E-002   4.3912492625184096E-003   4.4574322031462971E-002
  -1.2627283505462638E-002   4.5566833160762335E-003   5.0341826403211165E-002
  -1.3318841190439636E-002   4.6007782544615662E-003   5.5831480926610569E-002
  -1.4010398875416637E-002   4.5235340776744190E-003   6.1043285601660877E-002
  -1.4701956560393636E-002   4.3249507857145986E-003   6.5977240428362366E-002
  -1.5712590177749647E-002   5.8549990252604878E-003   4.3798037986101601E-002
  -1.6697774589423446E-002   6.0755777618076712E-003   4.9509058665143435E-002
  -1.7682959001097259E-002   6.1343710112274352E-003   5.4910675739140685E-002
  -1.8668143412771065E-002   6.0313787735195717E-003   6.0002889208093213E-002
  -1.9653327824444865E-002   5.7666010486843722E-003   6.4785699072001046E-002
  -8.1881584845788780E-012  -3.1944447087539629E-012   6.9033358784327925E-002
  -2.7921796819097011E-011   3.2431834995350073E-012   6.8967321998651077E-002
  -4.7655435153615144E-011   8.5301349317390418E-012   6.9123593960708746E-002
  -6.7389071753409802E-011   1.2666385301729477E-011   6.9502174670500808E-002
  -8.7122711822651411E-011   1.5652090734619151E-011   7.0103064128027526E-002
  -4.8752926522652798E-003   1.4416502597752179E-003   6.8101070284525722E-002
  -4.6523471755364944E-003   1.3539030947304354E-003   6.8008981153805242E-002
  -4.4294016988077143E-003   1.2634968232758670E-003   6.8140474268275075E-002
  -4.2064562220789393E-003   1.1704314454116793E-003   6.8495549627935304E-002
  -3.9835107453501557E-003   1.0747069611377058E-003   6.9074207232785789E-002
  -9.7759448363337800E-003   2.8833005227449360E-003   6.7082364165870531E-002
  -9.3287803656867466E-003   2.7078061862175207E-003   6.6961563584847339E-002
  -8.8816158950397149E-003   2.5269936380214811E-003   6.7065618746470435E-002
  -8.4344514243926832E-003   2.3408628781568606E-003   6.7394529650739582E-002
  -7.9872869537456516E-003   2.1494139066234597E-003   6.7948296297654989E-002
  -1.4701956560393636E-002   4.3249507857145986E-003   6.5977240428362366E-002
  -1.4029299598372520E-002   4.0617092777046337E-003   6.5825069291777588E-002
  -1.3356642636351425E-002   3.7904904527672097E-003   6.5899027395294824E-002
  -1.2683985674330314E-002   3.5112943109020427E-003   6.6199114738914100E-002
  -1.2011328712309201E-002   3.2241208521092551E-003   6.6725331322635334E-002
  -1.9653327824444865E-002   5.7666010486843722E-003   6.4785699072001046E-002
  -1.8753904873593862E-002   5.4156123691918578E-003   6.4599498274595712E-002
  -1.7854481922742839E-002   5.0539872675128411E-003   6.4640700214748187E-002
  -1.6955058971891840E-002   4.6817257436473116E-003   6.4909304892458483E-002
  -1.6055636021040820E-002   4.2988277975949396E-003   6.5405312307726726E-002
  -8.7122711822651411E-011   1.5652090734619151E-011   7.0103064128027526E-002
  -6.7301095252325638E-011   1.7145729280798605E-011   6.8608227167898828E-002
  -4.7479478681999865E-011   1.6805681846143727E-011   6.7408851536976483E-002
  -2.7657862111674092E-011   1.4632576400552821E-011   6.6504937235260589E-002
  -7.8362455413483190E-012   1.0625833546384911E-011   6.5896484262751520E-002
  -3.9835107453501557E-003   1.0747069611377058E-003   6.9074207232785789E-002
  -3.6878388661144117E-003   9.8155248897460745E-004   6.7563214817095513E-002
  -3.3921669868786797E-003   8.9619714744289258E-004   6.6348104791026957E-002
  -3.0964951076429513E-003   8.1864093654273121E-004   6.5428877154580123E-002
  -2.8008232284072038E-003   7.4888385627347454E-004   6.4805531907754843E-002
  -7.9872869537456516E-003   2.1494139066234597E-003   6.7948296297654989E-002
  -7.3955221546806119E-003   1.9631049608038187E-003   6.6428947558868010E-002
  -6.8037573556155783E-003   1.7923942780802074E-003   6.5205902270117744E-002
  -6.2119925565505309E-003   1.6372818584526067E-003   6.4279160431404622E-002
  -5.6202277574855051E-003   1.4977677019210600E-003   6.3648722042728090E-002
  -1.2011328712309201E-002   3.2241208521092551E-003   6.6725331322635334E-002
  -1.1123049932999682E-002   2.9446574326330854E-003   6.5205425393216290E-002
  -1.0234771153690151E-002   2.6885914087175257E-003   6.3982243974249065E-002
  -9.3464923743806303E-003   2.4559227803627884E-003   6.3055787065734226E-002
  -8.4582135950710957E-003   2.2466515475686177E-003   6.2426054667671226E-002
  -1.6055636021040820E-002   4.2988277975949396E-003   6.5405312307726726E-002
  -1.4870422201071605E-002   3.9262099044620191E-003   6.3892648320140188E-002
  -1.3685208381102421E-002   3.5847885393546219E-003   6.2677129903420947E-002
  -1.2499994561133218E-002   3.2745637022726093E-003   6.1758757057568947E-002
  -1.1314780741164022E-002   2.9955353932161755E-003   6.1137529782584243E-002
  -7.8362455413483190E-012   1.0625833546384911E-011   6.5896484262751520E-002
  -4.5479800481196264E-012   6.2366778408318169E-012   6.6584997414529945E-002
  -1.2597041465500780E-012   2.9151403513338892E-012   6.7489186459273376E-002
   2.0285648161255665E-012   6.6239375096088793E-013   6.8609051396982063E-002
   5.3168372482481630E-012  -5.2291504459844873E-013   6.9944592227656033E-002
  -2.8008232284072038E-003   7.4888385627347454E-004   6.4805531907754843E-002
  -2.5880873528540509E-003   6.8264138605411695E-004   6.5472138775593602E-002
  -2.3753514773008945E-003   6.1562900530254261E-004   6.6348541494996999E-002
  -2.1626156017477286E-003   5.4784671401897356E-004   6.7434740065964810E-002
  -1.9498797261945713E-003   4.7929451220363184E-004   6.8730734488497425E-002
  -5.6202277574855051E-003   1.4977677019210600E-003   6.3648722042728090E-002
  -5.2006360510680628E-003   1.3652827658715005E-003   6.4292652715027154E-002
  -4.7810443446506248E-003   1.2312580076898200E-003   6.5140499197490084E-002
  -4.3614526382331816E-003   1.0956934273759385E-003   6.6192261490117033E-002
  -3.9418609318157445E-003   9.5858902493006770E-004   6.7447939592907902E-002
  -8.4582135950710957E-003   2.2466515475686177E-003   6.2426054667671226E-002
  -7.8376460991900036E-003   2.0479241456889674E-003   6.3046539232830517E-002
  -7.2170786033089167E-003   1.8468870100769932E-003   6.3865059566753146E-002
  -6.5965111074278273E-003   1.6435401407329884E-003   6.4881615669438980E-002
  -5.9759436115467386E-003   1.4378835376564481E-003   6.6096207540888394E-002
  -1.1314780741164022E-002   2.9955353932161755E-003   6.1137529782584243E-002
  -1.0499117497219879E-002   2.7305655255063788E-003   6.1733798329003609E-002
  -9.6834542532757660E-003   2.4625160124644163E-003   6.2522222602785837E-002
  -8.8677910093316239E-003   2.1913868540896844E-003   6.3502802603930486E-002
  -8.0521277653875026E-003   1.9171780503829394E-003   6.4675538332437998E-002
   5.3168372482481630E-012  -5.2291504459844873E-013   6.9944592227656033E-002
   3.9291833675569876E-012  -1.0105805081650487E-012   6.9610077605312348E-002
   2.5415190785249564E-012  -1.1721734693992403E-012   6.9501265573181314E-002
   1.1538565242164012E-012  -1.0070277944862482E-012   6.9618156131262710E-002
  -2.3379909119825015E-013  -5.1592063954331024E-013   6.9960749279556422E-002
  -1.9498797261945713E-003   4.7929451220363184E-004   6.8730734488497425E-002
  -1.7193542260133948E-003   4.2448523659949222E-004   6.8373069185040658E-002
  -1.4888287258322270E-003   3.9793172394947396E-004   6.8250752294509304E-002
  -1.2583032256510479E-003   3.9963397425442360E-004   6.8363783816902959E-002
  -1.0277777254698688E-003   4.2959198751368888E-004   6.8712163752221833E-002
  -3.9418609318157445E-003   9.5858902493006770E-004   6.7447939592907902E-002
  -3.4711641073530575E-003   8.4897047420937066E-004   6.7095379370966490E-002
  -3.0004672828903419E-003   7.9586344907134343E-004   6.6987813384663059E-002
  -2.5297704584276415E-003   7.9926794951598601E-004   6.7125241633997468E-002
  -2.0590736339649394E-003   8.5918397554335391E-004   6.7507664118969635E-002
  -5.9759436115467386E-003   1.4378835376564481E-003   6.6096207540888394E-002
  -5.2554296400897926E-003   1.2734557118195683E-003   6.5777008163090178E-002
  -4.5349156686328683E-003   1.1937951741931019E-003   6.5712448843642593E-002
  -3.8144016971759297E-003   1.1989019247777705E-003   6.5902529582545583E-002
  -3.0938877257189975E-003   1.2887759635728802E-003   6.6347250379798897E-002
  -8.0521277653875026E-003   1.9171780503829394E-003   6.4675538332437998E-002
  -7.0721508242236331E-003   1.6979409494292108E-003   6.4417955561411500E-002
  -6.0921738830597635E-003   1.5917268993149158E-003   6.4424658671447921E-002
  -5.1121969418958940E-003   1.5985359000390137E-003   6.4695647662547762E-002
  -4.1322200007320245E-003   1.7183679516026285E-003   6.5230922534710856E-002
  -2.3379909119825015E-013  -5.1592063954331024E-013   6.9960749279556422E-002
  -1.7410378694293627E-013   5.4012350148013866E-014   6.8649577718212451E-002
  -1.1441195213457434E-013   4.5413672822292028E-013   6.7483786033710025E-002
  -5.4718382602736426E-014   6.8518801743522317E-013   6.6463374226049088E-002
   4.9751869291014827E-015   7.4706907327026784E-013   6.5588342295230029E-002
  -1.0277777254698688E-003   4.2959198751368888E-004   6.8712163752221833E-002
  -8.8626554570584576E-004   5.0271776409971380E-004   6.7422646192246305E-002
  -7.4475336594181235E-004   6.3392330438449829E-004   6.6270773114837617E-002
  -6.0324118617777114E-004   8.2320860836729293E-004   6.5256544519996476E-002
  -4.6172900641374207E-004   1.0705736760492357E-003   6.4379960407721759E-002
  -2.0590736339649394E-003   8.5918397554335391E-004   6.7507664118969635E-002
  -1.7837846687710334E-003   1.0054355281453875E-003   6.6297880324230396E-002
  -1.5084957035771222E-003   1.2678466083139439E-003   6.5218005617783847E-002
  -1.2332067383832106E-003   1.6464172160492799E-003   6.4268039999629697E-002
  -9.5791777318930509E-004   2.1411473513513468E-003   6.3447983469768515E-002
  -3.0938877257189975E-003   1.2887759635728802E-003   6.6347250379798897E-002
  -2.6925573693696732E-003   1.5081532921910196E-003   6.5275280114164488E-002
  -2.2912270130203425E-003   1.9017699122437920E-003   6.4325483542547773E-002
  -1.8898966566710152E-003   2.4696258237313258E-003   6.3497860664949390E-002
  -1.4885663003216874E-003   3.2117210266534857E-003   6.2792411481369159E-002
  -4.1322200007320245E-003   1.7183679516026285E-003   6.5230922534710856E-002
  -3.6125836475017492E-003   2.0108710562367627E-003   6.4354845562048735E-002
  -3.0929472942714704E-003   2.5356932161736678E-003   6.3593206889130061E-002
  -2.5733109410412004E-003   3.2928344314132954E-003   6.2946006515955305E-002
  -2.0536745878109164E-003   4.2822947019557356E-003   6.2413244442523941E-002
   4.9751869291014827E-015   7.4706907327026784E-013   6.5588342295230029E-002
  -8.4592055582533021E-014   7.4384942649885488E-013   6.0834801492844037E-002
  -1.7416970643502339E-013   7.8012596382848187E-013   5.5962562318179254E-002
  -2.6374388784056180E-013   8.5700196938987006E-013   5.0971624771234653E-002
  -3.5331459979914825E-013   9.7299945878148719E-013   4.5861988852011759E-002
  -4.6172900641374207E-004   1.0705736760492357E-003   6.4379960407721759E-002
  -5.6606236875856447E-004   1.3962001901616228E-003   5.9655546419605132E-002
  -6.7039573110337820E-004   1.8202698334366940E-003   5.4841164079256710E-002
  -7.7472909344818153E-004   2.3427826058751294E-003   4.9936813386677270E-002
  -8.7906245579301434E-004   2.9637385074763323E-003   4.4942494341866590E-002
  -9.5791777318930509E-004   2.1411473513513468E-003   6.3447983469768515E-002
  -1.1378544777412881E-003   2.7924003795793961E-003   5.8851139425042942E-002
  -1.3177911822932807E-003   3.6405396660933870E-003   5.4193057048134277E-002
  -1.4977278868452673E-003   4.6855652108936489E-003   4.9473736339042444E-002
  -1.6776645913972564E-003   5.9274770139794430E-003   4.4693177297767339E-002
  -1.4885663003216874E-003   3.2117210266534857E-003   6.2792411481369159E-002
  -1.7153763270327830E-003   4.1886005689976136E-003   5.8421580509158216E-002
  -1.9421863537438723E-003   5.4608094987501285E-003   5.4018241224812510E-002
  -2.1689963804549647E-003   7.0283478159117504E-003   4.9582393628331035E-002
  -2.3958064071660711E-003   8.8912155204827759E-003   4.5114037719715672E-002
  -2.0536745878109164E-003   4.2822947019557356E-003   6.2413244442523941E-002
  -2.2986279166330378E-003   5.5848007584153869E-003   5.8366869671950705E-002
  -2.5435812454551732E-003   7.2810793314063982E-003   5.4316716609290661E-002
  -2.7885345742773085E-003   9.3711304209304000E-003   5.0262785254543446E-002
  -3.0334879030994299E-003   1.1854954026985887E-002   4.6205075607709034E-002
  -4.3411276173243113E-002   8.5181642286887849E-003  0.11322311944551167     
  -3.6486604674369739E-002   7.1269258421057247E-003   9.2926433512594275E-002
  -2.9561933175496387E-002   6.2193188460065996E-003   7.4590024625053541E-002
  -2.2637261676623013E-002   5.7953432403914859E-003   5.8213892782889270E-002
  -1.5712590177749647E-002   5.8549990252604878E-003   4.3798037986101601E-002
  -5.4571148959162354E-002   1.0828720053153496E-002  0.10732121266665451     
  -4.5808618025935291E-002   8.9308270412560009E-003   8.8289100841336926E-002
  -3.7046087092708305E-002   7.6925980382982762E-003   7.0972430839350037E-002
  -2.8283556159481256E-002   7.1140330442802865E-003   5.5371202660693869E-002
  -1.9521025226254214E-002   7.1951320592023582E-003   4.1485416305368505E-002
  -6.4915677726170795E-002   1.3139275877618262E-002  0.10082463495325492     
  -5.4560122580635959E-002   1.0734728240406277E-002   8.3233129853993032E-002
  -4.4204567435101080E-002   9.1658772305898834E-003   6.7112231356015753E-002
  -3.3849012289566244E-002   8.4327228481691739E-003   5.2461939459323502E-002
  -2.3493457144031386E-002   8.5352650931441454E-003   3.9282254163916216E-002
  -7.4444862474268528E-002   1.5449831702083000E-002   9.3733386305313082E-002
  -6.2741118338471680E-002   1.2538629439556470E-002   7.7758520550562399E-002
  -5.1037374202674825E-002   1.0639156422881525E-002   6.3009426175050787E-002
  -3.9333630066877991E-002   9.7514126520579902E-003   4.9486103178778405E-002
  -2.7629885931081129E-002   9.8753981270859464E-003   3.7188551561744984E-002
  -8.3158703203455531E-002   1.7760387526547738E-002   8.6047466722828703E-002
  -7.0351605299442510E-002   1.4342530638706830E-002   7.1865272931045387E-002
  -5.7544507395429503E-002   1.2112435615173112E-002   5.8664015296455152E-002
  -4.4737409491416462E-002   1.1070102455946806E-002   4.6443693819058218E-002
  -3.1930311587403462E-002   1.1215531161027803E-002   3.5204308498854586E-002
  -1.5712590177749647E-002   5.8549990252604878E-003   4.3798037986101601E-002
  -1.6697774589423446E-002   6.0755777618076712E-003   4.9509058665143435E-002
  -1.7682959001097259E-002   6.1343710112274352E-003   5.4910675739140685E-002
  -1.8668143412771065E-002   6.0313787735195717E-003   6.0002889208093213E-002
  -1.9653327824444865E-002   5.7666010486843722E-003   6.4785699072001046E-002
  -1.9521025226254214E-002   7.1951320592023582E-003   4.1485416305368505E-002
  -2.0791278627703677E-002   7.5049076758602756E-003   4.6874726584109030E-002
  -2.2061532029153137E-002   7.6123724870501980E-003   5.2003302488343034E-002
  -2.3331785430602596E-002   7.5175264927724132E-003   5.6871144018070321E-002
  -2.4602038832052055E-002   7.2203696930266958E-003   6.1478251173290810E-002
  -2.3493457144031386E-002   8.5352650931441454E-003   3.9282254163916216E-002
  -2.5000110304718486E-002   8.9342375899127968E-003   4.4309328724015162E-002
  -2.6506763465405578E-002   9.0903739628732383E-003   4.9124338140145482E-002
  -2.8013416626092677E-002   9.0036742120252547E-003   5.3727282412307092E-002
  -2.9520069786779773E-002   8.6741383373691028E-003   5.8118161540500188E-002
  -2.7629885931081129E-002   9.8753981270859464E-003   3.7188551561744984E-002
  -2.9324269620467826E-002   1.0363567503965443E-002   4.1812865084861844E-002
  -3.1018653309854555E-002   1.0568375438696001E-002   4.6273782694548057E-002
  -3.2713036999241267E-002   1.0489821931278290E-002   5.0571304390803831E-002
  -3.4407420688628017E-002   1.0127906981711524E-002   5.4705430173628819E-002
  -3.1930311587403462E-002   1.1215531161027803E-002   3.5204308498854586E-002
  -3.3763756574951773E-002   1.1792897418017895E-002   3.9385335666649007E-002
  -3.5597201562500104E-002   1.2046376914519069E-002   4.3451636151550899E-002
  -3.7430646550048435E-002   1.1975969650530972E-002   4.7403209953560024E-002
  -3.9264091537596746E-002   1.1581675626053889E-002   5.1240057072676704E-002
  -1.9653327824444865E-002   5.7666010486843722E-003   6.4785699072001046E-002
  -1.8753904873593862E-002   5.4156123691918578E-003   6.4599498274595712E-002
  -1.7854481922742839E-002   5.0539872675128411E-003   6.4640700214748187E-002
  -1.6955058971891840E-002   4.6817257436473116E-003   6.4909304892458483E-002
  -1.6055636021040820E-002   4.2988277975949396E-003   6.5405312307726726E-002
  -2.4602038832052055E-002   7.2203696930266958E-003   6.1478251173290810E-002
  -2.3479207557659920E-002   6.8102781652523148E-003   6.1301638478360287E-002
  -2.2356376283267768E-002   6.3766279868885806E-003   6.1344439692954139E-002
  -2.1233545008875608E-002   5.9194191579351289E-003   6.1606654817072448E-002
  -2.0110713734483473E-002   5.4386516783923033E-003   6.2088283850715187E-002
  -2.9520069786779773E-002   8.6741383373691028E-003   5.8118161540500188E-002
  -2.8181819016879862E-002   8.2049439613126607E-003   5.7938214719641543E-002
  -2.6843568246979962E-002   7.6992687062639245E-003   5.7969692980273831E-002
  -2.5505317477080056E-002   7.1571125722228335E-003   5.8212596322397239E-002
  -2.4167066707180149E-002   6.5784755591895006E-003   5.8666924746011706E-002
  -3.4407420688628017E-002   1.0127906981711524E-002   5.4705430173628819E-002
  -3.2861739251253727E-002   9.5996097573730066E-003   5.4509226998439117E-002
  -3.1316057813879430E-002   9.0219094256393274E-003   5.4516460076707171E-002
  -2.9770376376505151E-002   8.3948059865105382E-003   5.4727129408432912E-002
  -2.8224694939130875E-002   7.7182994399867255E-003   5.5141234993616312E-002
  -3.9264091537596746E-002   1.1581675626053889E-002   5.1240057072676704E-002
  -3.7518968260781480E-002   1.0994275553433408E-002   5.1014675314753344E-002
  -3.5773844983966185E-002   1.0344550145014952E-002   5.0984740982254251E-002
  -3.4028721707150905E-002   9.6324994007983972E-003   5.1150254075179480E-002
  -3.2283598430335625E-002   8.8581233207840060E-003   5.1511214593528865E-002
  -1.6055636021040820E-002   4.2988277975949396E-003   6.5405312307726726E-002
  -1.4870422201071605E-002   3.9262099044620191E-003   6.3892648320140188E-002
  -1.3685208381102421E-002   3.5847885393546219E-003   6.2677129903420947E-002
  -1.2499994561133218E-002   3.2745637022726093E-003   6.1758757057568947E-002
  -1.1314780741164022E-002   2.9955353932161755E-003   6.1137529782584243E-002
  -2.0110713734483473E-002   5.4386516783923033E-003   6.2088283850715187E-002
  -1.8637229213409975E-002   4.9707210626647180E-003   6.0605684187234499E-002
  -1.7163744692336447E-002   4.5520228251577921E-003   5.9402480355095350E-002
  -1.5690260171262918E-002   4.1825569658708386E-003   5.8478672354297545E-002
  -1.4216775650189417E-002   3.8623234848043086E-003   5.7834260184840947E-002
  -2.4167066707180149E-002   6.5784755591895006E-003   5.8666924746011706E-002
  -2.2423061224528223E-002   6.0152322208675835E-003   5.7232425256831948E-002
  -2.0679055741876302E-002   5.5192571109606292E-003   5.6059571859467514E-002
  -1.8935050259224380E-002   5.0905502294691235E-003   5.5148364553918486E-002
  -1.7191044776572427E-002   4.7291115763924974E-003   5.4498803340185087E-002
  -2.8224694939130875E-002   7.7182994399867255E-003   5.5141234993616312E-002
  -2.6227918234426446E-002   7.0597433790702546E-003   5.3772871528932113E-002
  -2.4231141529722017E-002   6.4864913967637994E-003   5.2648404416537384E-002
  -2.2234364825017564E-002   5.9985434930672141E-003   5.1767833656432220E-002
  -2.0237588120313160E-002   5.5958996679807138E-003   5.1131159248616755E-002
  -3.2283598430335625E-002   8.8581233207840060E-003   5.1511214593528865E-002
  -3.0051800243104554E-002   8.1042545372730923E-003   5.0227023003535043E-002
  -2.7820002055873552E-002   7.4537256825666504E-003   4.9168978026305016E-002
  -2.5588203868642502E-002   6.9065367566655302E-003   4.8337079661838492E-002
  -2.3356405681411480E-002   6.4626877595688192E-003   4.7731327910135568E-002
  -1.1314780741164022E-002   2.9955353932161755E-003   6.1137529782584243E-002
  -1.0499117497219879E-002   2.7305655255063788E-003   6.1733798329003609E-002
  -9.6834542532757660E-003   2.4625160124644163E-003   6.2522222602785837E-002
  -8.8677910093316239E-003   2.1913868540896844E-003   6.3502802603930486E-002
  -8.0521277653875026E-003   1.9171780503829394E-003   6.4675538332437998E-002
  -1.4216775650189417E-002   3.8623234848043086E-003   5.7834260184840947E-002
  -1.3214117015442998E-002   3.5567877861809594E-003   5.8341635948008896E-002
  -1.2211458380696549E-002   3.2314152742228264E-003   5.9030846765418671E-002
  -1.1208799745950102E-002   2.8862059489303121E-003   5.9901892637070339E-002
  -1.0206141111203680E-002   2.5211598103036525E-003   6.0954773562963804E-002
  -1.7191044776572427E-002   4.7291115763924974E-003   5.4498803340185087E-002
  -1.6011711424144565E-002   4.3830100468554012E-003   5.4900529152099392E-002
  -1.4832378071716688E-002   4.0003145359816666E-003   5.5473769345134802E-002
  -1.3653044719288810E-002   3.5810250437711029E-003   5.6218523919291268E-002
  -1.2473711366860946E-002   3.1251415702240881E-003   5.7134792874568630E-002
  -2.0237588120313160E-002   5.5958996679807138E-003   5.1131159248616755E-002
  -1.8891900723324688E-002   5.2092323075300234E-003   5.1410477941275304E-002
  -1.7546213326336189E-002   4.7692137977401808E-003   5.1850990341933981E-002
  -1.6200525929347682E-002   4.2758441386118121E-003   5.2452696450592938E-002
  -1.4854838532359211E-002   3.7291233301448845E-003   5.3215596267252030E-002
  -2.3356405681411480E-002   6.4626877595688192E-003   4.7731327910135568E-002
  -2.1854684912983230E-002   6.0354545682043681E-003   4.7871482315536285E-002
  -2.0352964144555022E-002   5.5381130594992223E-003   4.8162509755816318E-002
  -1.8851243376126793E-002   4.9706632334525422E-003   4.8604410230975670E-002
  -1.7349522607698564E-002   4.3331050900653478E-003   4.9197183741014450E-002
  -8.0521277653875026E-003   1.9171780503829394E-003   6.4675538332437998E-002
  -7.0721508242236331E-003   1.6979409494292108E-003   6.4417955561411500E-002
  -6.0921738830597635E-003   1.5917268993149158E-003   6.4424658671447921E-002
  -5.1121969418958940E-003   1.5985359000390137E-003   6.4695647662547762E-002
  -4.1322200007320245E-003   1.7183679516026285E-003   6.5230922534710856E-002
  -1.0206141111203680E-002   2.5211598103036525E-003   6.0954773562963804E-002
  -8.9623148805839763E-003   2.2052098464403480E-003   6.0698723397339227E-002
  -7.7184886499642447E-003   2.0072890454390646E-003   6.0706085929562892E-002
  -6.4746624193445478E-003   1.9273974073004269E-003   6.0976861159635104E-002
  -5.2308361887248092E-003   1.9655349320232274E-003   6.1511049087555558E-002
  -1.2473711366860946E-002   3.1251415702240881E-003   5.7134792874568630E-002
  -1.0966909030000221E-002   2.7124787434512077E-003   5.6885281426368922E-002
  -9.4601066931395573E-003   2.4228511915637407E-003   5.6898309492802862E-002
  -7.9533043562788792E-003   2.2562589145612780E-003   5.7173877073870200E-002
  -6.4465020194181700E-003   2.2127019124440483E-003   5.7711984169571212E-002
  -1.4854838532359211E-002   3.7291233301448845E-003   5.3215596267252030E-002
  -1.3085933272472434E-002   3.2197476404623726E-003   5.2977629648500640E-002
  -1.1317028012585630E-002   2.8384133376883752E-003   5.3001329361167866E-002
  -9.5481227526988625E-003   2.5851204218225211E-003   5.3286695405253812E-002
  -7.7792174928120496E-003   2.4598688928647583E-003   5.3833727780758490E-002
  -1.7349522607698564E-002   4.3331050900653478E-003   4.9197183741014450E-002
  -1.5319387608000556E-002   3.7270165374732600E-003   4.8975768063734271E-002
  -1.3289252608302535E-002   3.2539754838124824E-003   4.9015145534657911E-002
  -1.1259117608604520E-002   2.9139819290835214E-003   4.9315316153785260E-002
  -9.2289826089065052E-003   2.7070358732854682E-003   4.9876279921116651E-002
  -4.1322200007320245E-003   1.7183679516026285E-003   6.5230922534710856E-002
  -3.6125836475017492E-003   2.0108710562367627E-003   6.4354845562048735E-002
  -3.0929472942714704E-003   2.5356932161736678E-003   6.3593206889130061E-002
  -2.5733109410412004E-003   3.2928344314132954E-003   6.2946006515955305E-002
  -2.0536745878109164E-003   4.2822947019557356E-003   6.2413244442523941E-002
  -5.2308361887248092E-003   1.9655349320232274E-003   6.1511049087555558E-002
  -4.5704638974212557E-003   2.2250500267141926E-003   6.0822742626710558E-002
  -3.9100916061176917E-003   2.8092910984789388E-003   6.0301469742268299E-002
  -3.2497193148141364E-003   3.7182581473171328E-003   5.9947230434229087E-002
  -2.5893470235105499E-003   4.9519511732297739E-003   5.9760024702592562E-002
  -6.4465020194181700E-003   2.2127019124440483E-003   5.7711984169571212E-002
  -5.5927985133821800E-003   2.4392289971916226E-003   5.7303855142314508E-002
  -4.7390950073462031E-003   3.0828889807840848E-003   5.7115354968119911E-002
  -3.8853915013101850E-003   4.1436818632216328E-003   5.7146483646987330E-002
  -3.0316879952742362E-003   5.6216076445037566E-003   5.7397241178916508E-002
  -7.7792174928120496E-003   2.4598688928647583E-003   5.3833727780758490E-002
  -6.6795874953845119E-003   2.6534079676690525E-003   5.3798183108860961E-002
  -5.5799574979569456E-003   3.3564868630894598E-003   5.4034862566684910E-002
  -4.4803275005294149E-003   4.5691055791255795E-003   5.4543766154229810E-002
  -3.3806975031018417E-003   6.2912641157777671E-003   5.5324893871495827E-002
  -9.2289826089065052E-003   2.7070358732854682E-003   4.9876279921116651E-002
  -7.8308308434282548E-003   2.8675869381464825E-003   5.0305726526349681E-002
  -6.4326790779500043E-003   3.6300847453946128E-003   5.1059992537963172E-002
  -5.0345273124717468E-003   4.9945292950299980E-003   5.2139077955956903E-002
  -3.6363755469935033E-003   6.9609205870519997E-003   5.3542982780330650E-002
  -2.0536745878109164E-003   4.2822947019557356E-003   6.2413244442523941E-002
  -2.2986279166330378E-003   5.5848007584153869E-003   5.8366869671950705E-002
  -2.5435812454551732E-003   7.2810793314063982E-003   5.4316716609290661E-002
  -2.7885345742773085E-003   9.3711304209304000E-003   5.0262785254543446E-002
  -3.0334879030994299E-003   1.1854954026985887E-002   4.6205075607709034E-002
  -2.5893470235105499E-003   4.9519511732297739E-003   5.9760024702592562E-002
  -2.8555629073190522E-003   6.5753959659007322E-003   5.6213772169543819E-002
  -3.1217787911275857E-003   8.6536183150157375E-003   5.2628772818609393E-002
  -3.3879946749360706E-003   1.1186618220574894E-002   4.9005026649789479E-002
  -3.6542105587446180E-003   1.4174395682577723E-002   4.5342533663083495E-002
  -3.0316879952742362E-003   5.6216076445037566E-003   5.7397241178916508E-002
  -3.3541349598678483E-003   7.5659911733862995E-003   5.4412115923304361E-002
  -3.6765819244614743E-003   1.0026157298624758E-002   5.1353275324007783E-002
  -3.9990288890550934E-003   1.3002106020219280E-002   4.8220719381026865E-002
  -4.3214758536487125E-003   1.6493837338169337E-002   4.5014448094361059E-002
  -3.3806975031018417E-003   6.2912641157777671E-003   5.5324893871495827E-002
  -3.7943440742793833E-003   8.5565863808720888E-003   5.2961900933232282E-002
  -4.2079906454569249E-003   1.1398696282233604E-002   5.0490224125485275E-002
  -4.6216372166344531E-003   1.4817593819863499E-002   4.7909863448255152E-002
  -5.0352837878119804E-003   1.8813278993761062E-002   4.5220818901541920E-002
  -3.6363755469935033E-003   6.9609205870519997E-003   5.3542982780330650E-002
  -4.1761902505536436E-003   9.5471815883574340E-003   5.1863127199327841E-002
  -4.7160049541138255E-003   1.2771235265842951E-002   5.0039619223042342E-002
  -5.2558196576739519E-003   1.6633081619508230E-002   4.8072458851475486E-002
  -5.7956343612341477E-003   2.1132720649352787E-002   4.5961646084625940E-002
  -8.3158703203455531E-002   1.7760387526547738E-002   8.6047466722828703E-002
  -7.0351605299442510E-002   1.4342530638706830E-002   7.1865272931045387E-002
  -5.7544507395429503E-002   1.2112435615173112E-002   5.8664015296455152E-002
  -4.4737409491416462E-002   1.1070102455946806E-002   4.6443693819058218E-002
  -3.1930311587403462E-002   1.1215531161027803E-002   3.5204308498854586E-002
  -9.2616369288944372E-002   1.9540040797861369E-002   8.1672910321763159E-002
  -7.8508205936010128E-002   1.6179406345859987E-002   6.6688462156208828E-002
  -6.4400042583075967E-002   1.3992232161582296E-002   5.3325208731303669E-002
  -5.0291879230141723E-002   1.2978518245028506E-002   4.1583150047047615E-002
  -3.6183715877207520E-002   1.3138264596198573E-002   3.1462286103440540E-002
 -0.10437703010594759        2.1319694069174971E-002   7.7362727154828947E-002
  -8.8327542720636351E-002   1.8016282053013172E-002   6.1561723018920211E-002
  -7.2278055335325081E-002   1.5872028707991565E-002   4.8022172207116465E-002
  -5.6228567950013818E-002   1.4886934034110372E-002   3.6744074719417680E-002
  -4.0179080564702555E-002   1.5060998031369344E-002   2.7727430555823884E-002
 -0.11844068565446524        2.3099347340488574E-002   7.3116917222026095E-002
  -9.9809615653321027E-002   1.9853157760166371E-002   5.6485055519179442E-002
  -8.1178545652176887E-002   1.7751825254400888E-002   4.2754905723893517E-002
  -6.2547475651032650E-002   1.6795349823192071E-002   3.1926467836168537E-002
  -4.3916405649888475E-002   1.6983731466540114E-002   2.3999741856004293E-002
 -0.13480733593449729        2.4879000611802204E-002   6.8935480523354742E-002
 -0.11295442473406431        2.1690033467319569E-002   5.1458459656986477E-002
  -9.1101513533631329E-002   1.9631621800810017E-002   3.7523409281634945E-002
  -6.9248602333198336E-002   1.8703765612273937E-002   2.7130329397300146E-002
  -4.7395691132765372E-002   1.8906464901710884E-002   2.0279220003982079E-002
  -3.1930311587403462E-002   1.1215531161027803E-002   3.5204308498854586E-002
  -3.3763756574951773E-002   1.1792897418017895E-002   3.9385335666649007E-002
  -3.5597201562500104E-002   1.2046376914519069E-002   4.3451636151550899E-002
  -3.7430646550048435E-002   1.1975969650530972E-002   4.7403209953560024E-002
  -3.9264091537596746E-002   1.1581675626053889E-002   5.1240057072676704E-002
  -3.6183715877207520E-002   1.3138264596198573E-002   3.1462286103440540E-002
  -3.8171539709479493E-002   1.3695826964631549E-002   3.5510843214869622E-002
  -4.0159363541751404E-002   1.3875561099866755E-002   3.9365369319744034E-002
  -4.2147187374023357E-002   1.3677467001903918E-002   4.3025864418063949E-002
  -4.4135011206295274E-002   1.3101544670743426E-002   4.6492328509828984E-002
  -4.0179080564702555E-002   1.5060998031369344E-002   2.7727430555823884E-002
  -4.2400587565360123E-002   1.5598756511245135E-002   3.1589576138178720E-002
  -4.4622094566017734E-002   1.5704745285214330E-002   3.5178386390316965E-002
  -4.6843601566675358E-002   1.5378964353276976E-002   3.8493861312238531E-002
  -4.9065108567332913E-002   1.4621413715432879E-002   4.1536000903943465E-002
  -4.3916405649888475E-002   1.6983731466540114E-002   2.3999741856004293E-002
  -4.6450900142593753E-002   1.7501686057858644E-002   2.7621534436576292E-002
  -4.8985394635299016E-002   1.7533929470561933E-002   3.0890687363269536E-002
  -5.1519889128004273E-002   1.7080461704649809E-002   3.3807200636084160E-002
  -5.4054383620709551E-002   1.6141282760122458E-002   3.6371074255019953E-002
  -4.7395691132765372E-002   1.8906464901710884E-002   2.0279220003982079E-002
  -5.0322477441180347E-002   1.9404615604472375E-002   2.3606718110062236E-002
  -5.3249263749595321E-002   1.9363113655909620E-002   2.6502272238601771E-002
  -5.6176050058010324E-002   1.8781959056022930E-002   2.8965882389600558E-002
  -5.9102836366425299E-002   1.7661151804811814E-002   3.0997548563058586E-002
  -3.9264091537596746E-002   1.1581675626053889E-002   5.1240057072676704E-002
  -3.7518968260781480E-002   1.0994275553433408E-002   5.1014675314753344E-002
  -3.5773844983966185E-002   1.0344550145014952E-002   5.0984740982254251E-002
  -3.4028721707150905E-002   9.6324994007983972E-003   5.1150254075179480E-002
  -3.2283598430335625E-002   8.8581233207840060E-003   5.1511214593528865E-002
  -4.4135011206295274E-002   1.3101544670743426E-002   4.6492328509828984E-002
  -4.2199655023370281E-002   1.2338229277615603E-002   4.6172912926984611E-002
  -4.0264298840445301E-002   1.1577955993751124E-002   4.6038515730935425E-002
  -3.8328942657520272E-002   1.0820724819150033E-002   4.6089136921681345E-002
  -3.6393586474595313E-002   1.0066535753812167E-002   4.6324776499222453E-002
  -4.9065108567332913E-002   1.4621413715432879E-002   4.1536000903943465E-002
  -4.6949948516927326E-002   1.3682183001797882E-002   4.1187918941239368E-002
  -4.4834788466521801E-002   1.2811361842487462E-002   4.1014426326701298E-002
  -4.2719628416116262E-002   1.2008950237501724E-002   4.1015523060329018E-002
  -4.0604468365710626E-002   1.1274948186840467E-002   4.1191209142122889E-002
  -5.4054383620709551E-002   1.6141282760122458E-002   3.6371074255019953E-002
  -5.1769848741452670E-002   1.5026136725980174E-002   3.6059693357517492E-002
  -4.9485313862195734E-002   1.4044767691223800E-002   3.5912472769551847E-002
  -4.7200778982938819E-002   1.3197175655853276E-002   3.5929412491122970E-002
  -4.4916244103681918E-002   1.2483360619868641E-002   3.6110512522230909E-002
  -5.9102836366425299E-002   1.7661151804811814E-002   3.0997548563058586E-002
  -5.6659355696946190E-002   1.6370090450162383E-002   3.0788236175818995E-002
  -5.4215875027467081E-002   1.5278173539959972E-002   3.0732655059487135E-002
  -5.1772394357987972E-002   1.4385401074205079E-002   3.0830805214062715E-002
  -4.9328913688508863E-002   1.3691773052896983E-002   3.1082686639545998E-002
  -3.2283598430335625E-002   8.8581233207840060E-003   5.1511214593528865E-002
  -3.0051800243104554E-002   8.1042545372730923E-003   5.0227023003535043E-002
  -2.7820002055873552E-002   7.4537256825666504E-003   4.9168978026305016E-002
  -2.5588203868642502E-002   6.9065367566655302E-003   4.8337079661838492E-002
  -2.3356405681411480E-002   6.4626877595688192E-003   4.7731327910135568E-002
  -3.6393586474595313E-002   1.0066535753812167E-002   4.6324776499222453E-002
  -3.3928609069343245E-002   9.3472082621633423E-003   4.5031734151089714E-002
  -3.1463631664091184E-002   8.6945618086287230E-003   4.3978903626235549E-002
  -2.8998654258839133E-002   8.1085963932089646E-003   4.3166284924659709E-002
  -2.6533676853587124E-002   7.5893120159036265E-003   4.2593878046362055E-002
  -4.0604468365710626E-002   1.1274948186840467E-002   4.1191209142122889E-002
  -3.7892246531922941E-002   1.0590161987053731E-002   3.9852657145161299E-002
  -3.5180024698135234E-002   9.9353979346910107E-003   3.8768382181992668E-002
  -3.2467802864347535E-002   9.3106560297526193E-003   3.7938384252616988E-002
  -2.9755581030559773E-002   8.7159362722383227E-003   3.7362663357034642E-002
  -4.4916244103681918E-002   1.2483360619868641E-002   3.6110512522230909E-002
  -4.1942712630843759E-002   1.1833115711944051E-002   3.4689791985749702E-002
  -3.8969181158005642E-002   1.1176234060753246E-002   3.3537413693576441E-002
  -3.5995649685167490E-002   1.0512715666296107E-002   3.2653377645710926E-002
  -3.3022118212329372E-002   9.8425605285729634E-003   3.2037683842153018E-002
  -4.9328913688508863E-002   1.3691773052896983E-002   3.1082686639545998E-002
  -4.6080007366105624E-002   1.3076069436834370E-002   2.9543138672855185E-002
  -4.2831101043702427E-002   1.2417070186815302E-002   2.8285998160986731E-002
  -3.9582194721299209E-002   1.1714775302839858E-002   2.7311265103940927E-002
  -3.6333288398896019E-002   1.0969184784907715E-002   2.6618939501717342E-002
  -2.3356405681411480E-002   6.4626877595688192E-003   4.7731327910135568E-002
  -2.1854684912983230E-002   6.0354545682043681E-003   4.7871482315536285E-002
  -2.0352964144555022E-002   5.5381130594992223E-003   4.8162509755816318E-002
  -1.8851243376126793E-002   4.9706632334525422E-003   4.8604410230975670E-002
  -1.7349522607698564E-002   4.3331050900653478E-003   4.9197183741014450E-002
  -2.6533676853587124E-002   7.5893120159036265E-003   4.2593878046362055E-002
  -2.4889136518581031E-002   7.0794849907762636E-003   4.2622408653114618E-002
  -2.3244596183574918E-002   6.5218916318901532E-003   4.2785705358143383E-002
  -2.1600055848568788E-002   5.9165319392448651E-003   4.3083768161448641E-002
  -1.9955515513562713E-002   5.2634059128412458E-003   4.3516597063030515E-002
  -2.9755581030559773E-002   8.7159362722383227E-003   3.7362663357034642E-002
  -2.7984328065578656E-002   8.1235154133477427E-003   3.7301912148720973E-002
  -2.6213075100597640E-002   7.5056702042808759E-003   3.7359820102080873E-002
  -2.4441822135616569E-002   6.8624006450371915E-003   3.7536387217114268E-002
  -2.2670569170635452E-002   6.1937067356170883E-003   3.7831613493821220E-002
  -3.3022118212329372E-002   9.8425605285729634E-003   3.2037683842153018E-002
  -3.1140259553976247E-002   9.1675458359197631E-003   3.1909992802355472E-002
  -2.9258400895623062E-002   8.4894487766715918E-003   3.1884853987628498E-002
  -2.7376542237269867E-002   7.8082693508297382E-003   3.1962267397972186E-002
  -2.5494683578916759E-002   7.1240075583930695E-003   3.2142233033386501E-002
  -3.6333288398896019E-002   1.0969184784907715E-002   2.6618939501717342E-002
  -3.4356930983773654E-002   1.0211576258491228E-002   2.6446650614018019E-002
  -3.2380573568651302E-002   9.4732273490626684E-003   2.6360807014786547E-002
  -3.0404216153528958E-002   8.7541380566218754E-003   2.6361408704022843E-002
  -2.8427858738406586E-002   8.0543083811688287E-003   2.6448455681726712E-002
  -1.7349522607698564E-002   4.3331050900653478E-003   4.9197183741014450E-002
  -1.5319387608000556E-002   3.7270165374732600E-003   4.8975768063734271E-002
  -1.3289252608302535E-002   3.2539754838124824E-003   4.9015145534657911E-002
  -1.1259117608604520E-002   2.9139819290835214E-003   4.9315316153785260E-002
  -9.2289826089065052E-003   2.7070358732854682E-003   4.9876279921116651E-002
  -1.9955515513562713E-002   5.2634059128412458E-003   4.3516597063030515E-002
  -1.7702977109311603E-002   4.6290066139418329E-003   4.3256864534740203E-002
  -1.5450438705060437E-002   4.0798271038095524E-003   4.3181145667352760E-002
  -1.3197900300809289E-002   3.6158673824445015E-003   4.3289440460867704E-002
  -1.0945361896558162E-002   3.2371274498467217E-003   4.3581748915284879E-002
  -2.2670569170635452E-002   6.1937067356170883E-003   3.7831613493821220E-002
  -2.0272406849132507E-002   5.5309966904102670E-003   3.7485736404357067E-002
  -1.7874244527629559E-002   4.9056787238063865E-003   3.7247093488493935E-002
  -1.5476082206126595E-002   4.3177528358058111E-003   3.7115684746232246E-002
  -1.3077919884623666E-002   3.7672190264079752E-003   3.7091510177571341E-002
  -2.5494683578916759E-002   7.1240075583930695E-003   3.2142233033386501E-002
  -2.3027676827463359E-002   6.4329867668787150E-003   3.1662383672584227E-002
  -2.0560670076009903E-002   5.7315303438033385E-003   3.1212988998081639E-002
  -1.8093663324556458E-002   5.0196382891668449E-003   3.0794049009878949E-002
  -1.5626656573103047E-002   4.2973106029692842E-003   3.0405563707975841E-002
  -2.8427858738406586E-002   8.0543083811688287E-003   2.6448455681726712E-002
  -2.5968787044304054E-002   7.3349768433472740E-003   2.5786806339421875E-002
  -2.3509715350201438E-002   6.5573819638002351E-003   2.5078832196115619E-002
  -2.1050643656098822E-002   5.7215237425281978E-003   2.4324533251807612E-002
  -1.8591571961996289E-002   4.8274021795305933E-003   2.3523909506498297E-002
  -9.2289826089065052E-003   2.7070358732854682E-003   4.9876279921116651E-002
  -7.8308308434282548E-003   2.8675869381464825E-003   5.0305726526349681E-002
  -6.4326790779500043E-003   3.6300847453946128E-003   5.1059992537963172E-002
  -5.0345273124717468E-003   4.9945292950299980E-003   5.2139077955956903E-002
  -3.6363755469935033E-003   6.9609205870519997E-003   5.3542982780330650E-002
  -1.0945361896558162E-002   3.2371274498467217E-003   4.3581748915284879E-002
  -9.2036666727963179E-003   3.1740533273315608E-003   4.4187770158900297E-002
  -7.4619714490343908E-003   3.6570910362155595E-003   4.5156058912702801E-002
  -5.7202762252725262E-003   4.6862405764977674E-003   4.6486615176692420E-002
  -3.9785810015106199E-003   6.2615019481788714E-003   4.8179438950868736E-002
  -1.3077919884623666E-002   3.7672190264079752E-003   3.7091510177571341E-002
  -1.0955233098771423E-002   3.4805197165168611E-003   3.7818271148580662E-002
  -8.8325463129191525E-003   3.6840973270361732E-003   3.8944747733583945E-002
  -6.7098595270668835E-003   4.3779518579656479E-003   4.0470939932580871E-002
  -4.5871727412146387E-003   5.5620833093056321E-003   4.2396847745571453E-002
  -1.5626656573103047E-002   4.2973106029692842E-003   3.0405563707975841E-002
  -1.3085530121353751E-002   3.7869861057020504E-003   3.1197229495390826E-002
  -1.0544403669604348E-002   3.7111036178568424E-003   3.2426059000606189E-002
  -8.0032772178550027E-003   4.0696631394338059E-003   3.4092052223622334E-002
  -5.4621507661056553E-003   4.8626646704322263E-003   3.6195209164438705E-002
  -1.8591571961996289E-002   4.8274021795305933E-003   2.3523909506498297E-002
  -1.5594557740543136E-002   4.0934524948871287E-003   2.4324645199330641E-002
  -1.2597543519089954E-002   3.7381099086776226E-003   2.5599992713770170E-002
  -9.6005292976367590E-003   3.7613744209014366E-003   2.7349952049816828E-002
  -6.6035150761836192E-003   4.1632460315593756E-003   2.9574523207470782E-002
  -3.6363755469935033E-003   6.9609205870519997E-003   5.3542982780330650E-002
  -4.1761902505536436E-003   9.5471815883574340E-003   5.1863127199327841E-002
  -4.7160049541138255E-003   1.2771235265842951E-002   5.0039619223042342E-002
  -5.2558196576739519E-003   1.6633081619508230E-002   4.8072458851475486E-002
  -5.7956343612341477E-003   2.1132720649352787E-002   4.5961646084625940E-002
  -3.9785810015106199E-003   6.2615019481788714E-003   4.8179438950868736E-002
  -4.5590179186773272E-003   8.6957279831499923E-003   4.7241032352034917E-002
  -5.1394548358440970E-003   1.2301771513302695E-002   4.6365033721269988E-002
  -5.7198917530108216E-003   1.7079632538637257E-002   4.5551443058573254E-002
  -6.3003286701776295E-003   2.3029311059153290E-002   4.4800260363946354E-002
  -4.5871727412146387E-003   5.5620833093056321E-003   4.2396847745571453E-002
  -5.0021715086371148E-003   7.8442743779424395E-003   4.2733914947908569E-002
  -5.4171702760595387E-003   1.1832307760762856E-002   4.3339450481665598E-002
  -5.8321690434820737E-003   1.7526183457766499E-002   4.4213454346842346E-002
  -6.2471678109043832E-003   2.4925901468954015E-002   4.5355926543438563E-002
  -5.4621507661056553E-003   4.8626646704322263E-003   3.6195209164438705E-002
  -5.5056510204328874E-003   6.9928207727347202E-003   3.8341774986948809E-002
  -5.5491512747602324E-003   1.1362844008222808E-002   4.0962869504230025E-002
  -5.5926515290873951E-003   1.7972734376895855E-002   4.4058492716280651E-002
  -5.6361517834147522E-003   2.6822491878754628E-002   4.7628644623103816E-002
  -6.6035150761836192E-003   4.1632460315593756E-003   2.9574523207470782E-002
  -6.0694564540648144E-003   6.1413671675272230E-003   3.4064612469155819E-002
  -5.5353978319459263E-003   1.0893380255682900E-002   3.9235290788962540E-002
  -5.0013392098270382E-003   1.8419285296025191E-002   4.5086558166890917E-002
  -4.4672805877082888E-003   2.8719082288555242E-002   5.1618414602940366E-002
 -0.13480733593449729        2.4879000611802204E-002   6.8935480523354742E-002
 -0.11295442473406431        2.1690033467319569E-002   5.1458459656986477E-002
  -9.1101513533631329E-002   1.9631621800810017E-002   3.7523409281634945E-002
  -6.9248602333198336E-002   1.8703765612273937E-002   2.7130329397300146E-002
  -4.7395691132765372E-002   1.8906464901710884E-002   2.0279220003982079E-002
 -0.14834873229209777        2.6924248649101978E-002   4.2524817578964369E-002
 -0.12399353299214119        2.3660638398330464E-002   3.3018609356761708E-002
  -9.9638333692184555E-002   2.1380457588148494E-002   2.4975006842589798E-002
  -7.5283134392227891E-002   2.0083706218555736E-002   1.8394010036448236E-002
  -5.0927935092271323E-002   1.9770384289552551E-002   1.3275618938337480E-002
 -0.15393662607332081        2.8969496686401697E-002   1.6113074546976774E-002
 -0.12915850345682667        2.5631243329341302E-002   1.4430552931556179E-002
 -0.10438038084033263        2.3129293375486748E-002   1.2131272241180047E-002
  -7.9602258223838471E-002   2.1463646824837590E-002   9.2152324758480939E-003
  -5.4824135607344379E-002   2.0634303677394106E-002   5.6824336355607019E-003
 -0.15157101727816624        3.1014744723701471E-002  -1.0299748572607514E-002
 -0.12844933612812084        2.7601848260352391E-002  -4.3057096186300617E-003
 -0.10532765497807543        2.4878129162824975E-002  -1.0077945225941548E-003
  -8.2205973828030021E-002   2.2843587431119527E-002  -4.0600328450039486E-004
  -5.9084292677984651E-002   2.1498223065235883E-002  -2.5003359043482623E-003
 -0.14125190590663417        3.3059992761001245E-002  -3.6713651779788803E-002
 -0.12186603100602367        2.9572453191363257E-002  -2.3190178293796937E-002
 -0.10248015610541317        2.6626964950163506E-002  -1.4442193448733154E-002
  -8.3094281204802611E-002   2.4223528037401278E-002  -1.0469697244597273E-002
  -6.3708406304192056E-002   2.2362142453077438E-002  -1.1272689681389059E-002
  -4.7395691132765372E-002   1.8906464901710884E-002   2.0279220003982079E-002
  -5.0322477441180347E-002   1.9404615604472375E-002   2.3606718110062236E-002
  -5.3249263749595321E-002   1.9363113655909620E-002   2.6502272238601771E-002
  -5.6176050058010324E-002   1.8781959056022930E-002   2.8965882389600558E-002
  -5.9102836366425299E-002   1.7661151804811814E-002   3.0997548563058586E-002
  -5.0927935092271323E-002   1.9770384289552551E-002   1.3275618938337480E-002
  -5.4218653973928208E-002   1.9826833433842922E-002   1.5915401920486322E-002
  -5.7509372855585141E-002   1.9639395284131743E-002   1.8259263733691924E-002
  -6.0800091737242073E-002   1.9208069840418500E-002   2.0307204377954552E-002
  -6.4090810618898972E-002   1.8532857102703693E-002   2.2059223853273885E-002
  -5.4824135607344379E-002   2.0634303677394106E-002   5.6824336355607019E-003
  -5.8342764253645693E-002   2.0249051263213580E-002   7.9302668511004870E-003
  -6.1861392899946979E-002   1.9915676912353755E-002   1.0018201706294735E-002
  -6.5380021546248293E-002   1.9634180624814399E-002   1.1946238201143503E-002
  -6.8898650192549579E-002   1.9404562400595543E-002   1.3714376335646483E-002
  -5.9084292677984651E-002   2.1498223065235883E-002  -2.5003359043482623E-003
  -6.2694808280332706E-002   2.0671269092584210E-002  -3.4868709809505148E-004
  -6.6305323882680844E-002   2.0191958540575990E-002   1.7790861564100958E-003
  -6.9915839485028969E-002   2.0060291409210215E-002   3.8829838591671658E-003
  -7.3526355087377065E-002   2.0276267698487380E-002   5.9630060101762521E-003
  -6.3708406304192056E-002   2.2362142453077438E-002  -1.1272689681389059E-002
  -6.7274786053989455E-002   2.1093486921954785E-002  -8.9214599271003614E-003
  -7.0841165803786743E-002   2.0468240168797752E-002  -6.4580829159620601E-003
  -7.4407545553584087E-002   2.0486402193605834E-002  -3.8825586479740715E-003
  -7.7973925303381431E-002   2.1147972996379272E-002  -1.1948871231364233E-003
  -5.9102836366425299E-002   1.7661151804811814E-002   3.0997548563058586E-002
  -5.6659355696946190E-002   1.6370090450162383E-002   3.0788236175818995E-002
  -5.4215875027467081E-002   1.5278173539959972E-002   3.0732655059487135E-002
  -5.1772394357987972E-002   1.4385401074205079E-002   3.0830805214062715E-002
  -4.9328913688508863E-002   1.3691773052896983E-002   3.1082686639545998E-002
  -6.4090810618898972E-002   1.8532857102703693E-002   2.2059223853273885E-002
  -6.1479854071865056E-002   1.7725654577139344E-002   2.2133316832879918E-002
  -5.8868897524831022E-002   1.6898359769878052E-002   2.2388630296687848E-002
  -5.6257940977797002E-002   1.6050972680919838E-002   2.2825164244698083E-002
  -5.3646984430763073E-002   1.5183493310264806E-002   2.3442918676910396E-002
  -6.8898650192549579E-002   1.9404562400595543E-002   1.3714376335646483E-002
  -6.6092728554666191E-002   1.9081218704116346E-002   1.3852637955953873E-002
  -6.3286806916782845E-002   1.8518545999796077E-002   1.4199609273757664E-002
  -6.0480885278899443E-002   1.7716544287634708E-002   1.4755290289058365E-002
  -5.7674963641016062E-002   1.6675213567632491E-002   1.5519681001855593E-002
  -7.3526355087377065E-002   2.0276267698487380E-002   5.9630060101762521E-003
  -7.0497979145349804E-002   2.0436782831093493E-002   5.9461995450407479E-003
  -6.7469603203322473E-002   2.0138732229714185E-002   6.1655919906964916E-003
  -6.4441227261295156E-002   1.9382115894349523E-002   6.6211833471432197E-003
  -6.1412851319267887E-002   1.8166933825000078E-002   7.3129736143812442E-003
  -7.7973925303381431E-002   2.1147972996379272E-002  -1.1948871231364233E-003
  -7.4695605843915658E-002   2.1792346958070363E-002  -1.5859983998589566E-003
  -7.1417286384449941E-002   2.1758918459632237E-002  -1.7134215524958196E-003
  -6.8138966924984196E-002   2.1047687501064491E-002  -1.5771565810469429E-003
  -6.4860647465518451E-002   1.9658654082367999E-002  -1.1772034855122016E-003
  -4.9328913688508863E-002   1.3691773052896983E-002   3.1082686639545998E-002
  -4.6080007366105624E-002   1.3076069436834370E-002   2.9543138672855185E-002
  -4.2831101043702427E-002   1.2417070186815302E-002   2.8285998160986731E-002
  -3.9582194721299209E-002   1.1714775302839858E-002   2.7311265103940927E-002
  -3.6333288398896019E-002   1.0969184784907715E-002   2.6618939501717342E-002
  -5.3646984430763073E-002   1.5183493310264806E-002   2.3442918676910396E-002
  -5.0134795793445097E-002   1.4323565320088522E-002   2.2170286806662387E-002
  -4.6622607156127135E-002   1.3498832372567438E-002   2.1141812111421548E-002
  -4.3110418518809125E-002   1.2709294467701332E-002   2.0357494591187852E-002
  -3.9598229881491143E-002   1.1954951605490427E-002   1.9817334245961160E-002
  -5.7674963641016062E-002   1.6675213567632491E-002   1.5519681001855593E-002
  -5.3937742968598656E-002   1.5571061203342729E-002   1.4592455904661961E-002
  -5.0200522296181299E-002   1.4580594558319580E-002   1.3871137702660165E-002
  -4.6463301623763879E-002   1.3703813632563086E-002   1.3355726395850174E-002
  -4.2726080951346536E-002   1.2940718426073083E-002   1.3046221984231693E-002
  -6.1412851319267887E-002   1.8166933825000078E-002   7.3129736143812442E-003
  -5.7488848891566392E-002   1.6818557086596742E-002   6.8096459668534372E-003
  -5.3564846463864883E-002   1.5662356744071609E-002   6.4739749347024599E-003
  -4.9640844036163354E-002   1.4698332797424923E-002   6.3059605179276593E-003
  -4.5716841608461879E-002   1.3926485246656045E-002   6.3056027165292045E-003
  -6.4860647465518451E-002   1.9658654082367999E-002  -1.1772034855122016E-003
  -6.0788113562348145E-002   1.8066052969850754E-002  -1.1781430067624443E-003
  -5.6715579659177950E-002   1.6744118929823748E-002  -1.0496761924515541E-003
  -5.2643045756007756E-002   1.5692851962286175E-002  -7.9180304257917000E-004
  -4.8570511852837450E-002   1.4912252067238452E-002  -4.0452355714648558E-004
  -3.6333288398896019E-002   1.0969184784907715E-002   2.6618939501717342E-002
  -3.4356930983773654E-002   1.0211576258491228E-002   2.6446650614018019E-002
  -3.2380573568651302E-002   9.4732273490626684E-003   2.6360807014786547E-002
  -3.0404216153528958E-002   8.7541380566218754E-003   2.6361408704022843E-002
  -2.8427858738406586E-002   8.0543083811688287E-003   2.6448455681726712E-002
  -3.9598229881491143E-002   1.1954951605490427E-002   1.9817334245961160E-002
  -3.7552602008322639E-002   1.1219463064068957E-002   1.9775847548535896E-002
  -3.5506974135153982E-002   1.0486488121571158E-002   1.9786456478735642E-002
  -3.3461346261985436E-002   9.7560267779972509E-003   1.9849161036560023E-002
  -3.1415718388816821E-002   9.0280790333469030E-003   1.9963961222009163E-002
  -4.2726080951346536E-002   1.2940718426073083E-002   1.3046221984231693E-002
  -4.0645532280974665E-002   1.2227349869646631E-002   1.3118791459016760E-002
  -3.8564983610602815E-002   1.1499748894079412E-002   1.3209106900583620E-002
  -3.6484434940230959E-002   1.0757915499372456E-002   1.3317168308932273E-002
  -3.4403886269859116E-002   1.0001849685525199E-002   1.3442975684062636E-002
  -4.5716841608461879E-002   1.3926485246656045E-002   6.3056027165292045E-003
  -4.3635721801729872E-002   1.3235236675224055E-002   6.4754823454604635E-003
  -4.1554601994997761E-002   1.2513009666588006E-002   6.6287582803305940E-003
  -3.9473482188265671E-002   1.1759804220748191E-002   6.7654305211394521E-003
  -3.7392362381533643E-002   1.0975620337703662E-002   6.8854990678866024E-003
  -4.8570511852837450E-002   1.4912252067238452E-002  -4.0452355714648558E-004
  -4.6523170570588190E-002   1.4243123480802033E-002  -1.5407979213288847E-004
  -4.4475829288338820E-002   1.3526270439096377E-002   4.5410617976193723E-005
  -4.2428488006089560E-002   1.2761692942123426E-002   1.9394767318105244E-004
  -4.0381146723840189E-002   1.1949390989881570E-002   2.9153137348203462E-004
  -2.8427858738406586E-002   8.0543083811688287E-003   2.6448455681726712E-002
  -2.5968787044304054E-002   7.3349768433472740E-003   2.5786806339421875E-002
  -2.3509715350201438E-002   6.5573819638002351E-003   2.5078832196115619E-002
  -2.1050643656098822E-002   5.7215237425281978E-003   2.4324533251807612E-002
  -1.8591571961996289E-002   4.8274021795305933E-003   2.3523909506498297E-002
  -3.1415718388816821E-002   9.0280790333469030E-003   1.9963961222009163E-002
  -2.8982860106716746E-002   8.2954974604363407E-003   1.9287092739485923E-002
  -2.6550001824616684E-002   7.5511346320802919E-003   1.8604122233959325E-002
  -2.4117143542516609E-002   6.7949905482787704E-003   1.7915049705428995E-002
  -2.1684285260416547E-002   6.0270652090322896E-003   1.7219875153895448E-002
  -3.4403886269859116E-002   1.0001849685525199E-002   1.3442975684062636E-002
  -3.1957018621763610E-002   9.2560180775254075E-003   1.2797370147601045E-002
  -2.9510150973668062E-002   8.5448873003602654E-003   1.2185885366133797E-002
  -2.7063283325572479E-002   7.8684573540296829E-003   1.1608521339661296E-002
  -2.4616415677477008E-002   7.2267282385339304E-003   1.1065278068183138E-002
  -3.7392362381533643E-002   1.0975620337703662E-002   6.8854990678866024E-003
  -3.4891262589444590E-002   1.0216538694614419E-002   6.3176385637669363E-003
  -3.2390162797355557E-002   9.5386399686400031E-003   5.8241215926393974E-003
  -2.9889063005266545E-002   8.9419241597808695E-003   5.4049481545044402E-003
  -2.7387963213177473E-002   8.4263912680358211E-003   5.0601182493617072E-003
  -4.0381146723840189E-002   1.1949390989881570E-002   2.9153137348203462E-004
  -3.7785592009759617E-002   1.1177059311703541E-002  -1.5210201201654172E-004
  -3.5190037295679211E-002   1.0532392636920185E-002  -4.8116908652420798E-004
  -3.2594482581598749E-002   1.0015390965531362E-002  -6.9566985004191478E-004
  -2.9998927867518232E-002   9.6260542975374896E-003  -7.9560430256875314E-004
  -1.8591571961996289E-002   4.8274021795305933E-003   2.3523909506498297E-002
  -1.5594557740543136E-002   4.0934524948871287E-003   2.4324645199330641E-002
  -1.2597543519089954E-002   3.7381099086776226E-003   2.5599992713770170E-002
  -9.6005292976367590E-003   3.7613744209014366E-003   2.7349952049816828E-002
  -6.6035150761836192E-003   4.1632460315593756E-003   2.9574523207470782E-002
  -2.1684285260416547E-002   6.0270652090322896E-003   1.7219875153895448E-002
  -1.8485016256041098E-002   5.3475084072830970E-003   1.8192399403839543E-002
  -1.5285747251665691E-002   4.8564699359745223E-003   1.9094821398021045E-002
  -1.2086478247290304E-002   4.5539497951061422E-003   1.9927141136439813E-002
  -8.8872092429149452E-003   4.4399479846781720E-003   2.0689358619095821E-002
  -2.4616415677477008E-002   7.2267282385339304E-003   1.1065278068183138E-002
  -2.1759605967549181E-002   6.6015643196791207E-003   1.2019502107246033E-002
  -1.8902796257621410E-002   5.9748299632711999E-003   1.2358909813176083E-002
  -1.6045986547693580E-002   5.3465251693110699E-003   1.2083501185974024E-002
  -1.3189176837765812E-002   4.7166499377969129E-003   1.1193276225638843E-002
  -2.7387963213177473E-002   8.4263912680358211E-003   5.0601182493617072E-003
  -2.5418326875067322E-002   7.8556202320749502E-003   5.8059533095499369E-003
  -2.3448690536957001E-002   7.0931899905680440E-003   5.3922579592353276E-003
  -2.1479054198846759E-002   6.1391005435148874E-003   3.8190321984186912E-003
  -1.9509417860736525E-002   4.9933518909159036E-003   1.0862760270992852E-003
  -2.9998927867518232E-002   9.6260542975374896E-003  -7.9560430256875314E-004
  -2.9461178978595348E-002   9.1096761444711127E-003  -4.4824698924839090E-004
  -2.8923430089672519E-002   8.2115500178650547E-003  -1.8051341638007923E-003
  -2.8385681200749691E-002   6.9316759177205506E-003  -4.8662658262248470E-003
  -2.7847932311826806E-002   5.2700538440346723E-003  -9.6316419765222205E-003
  -6.6035150761836192E-003   4.1632460315593756E-003   2.9574523207470782E-002
  -6.0694564540648144E-003   6.1413671675272230E-003   3.4064612469155819E-002
  -5.5353978319459263E-003   1.0893380255682900E-002   3.9235290788962540E-002
  -5.0013392098270382E-003   1.8419285296025191E-002   4.5086558166890917E-002
  -4.4672805877082888E-003   2.8719082288555242E-002   5.1618414602940366E-002
  -8.8872092429149452E-003   4.4399479846781720E-003   2.0689358619095821E-002
  -7.5976456872514919E-003   5.6609363344943819E-003   2.5863767299202034E-002
  -6.3080821315880248E-003   9.3633866743591532E-003   3.1868596788276138E-002
  -5.0185185759245368E-003   1.5547299004271806E-002   3.8703847086317411E-002
  -3.7289550202612154E-003   2.4212673324233380E-002   4.6369518193327242E-002
  -1.3189176837765812E-002   4.7166499377969129E-003   1.1193276225638843E-002
  -1.0994276597711683E-002   5.1805055014616519E-003   1.6759574362027352E-002
  -8.7993763576575609E-003   7.8333930930355039E-003   2.3306125058229557E-002
  -6.6044761176033417E-003   1.2675312712518528E-002   3.0832928314245743E-002
  -4.4095758775491989E-003   1.9706264359911518E-002   3.9339984130075667E-002
  -1.9509417860736525E-002   4.9933518909159036E-003   1.0862760270992852E-003
  -1.6259349185445488E-002   4.7000746684287553E-003   6.7520336576312526E-003
  -1.3009280510154479E-002   6.3033995117121391E-003   1.3547875598822885E-002
  -9.7592118348635085E-003   9.8033264207657515E-003   2.1473801850674726E-002
  -6.5091431595724336E-003   1.5199855395589434E-002   3.0529812413186169E-002
  -2.7847932311826806E-002   5.2700538440346723E-003  -9.6316419765222205E-003
  -2.3392863450452772E-002   4.2196438353960808E-003  -4.1588548139861459E-003
  -1.8937794589078849E-002   4.7734059303886078E-003   2.5938484100559989E-003
  -1.4482725727704787E-002   6.9313401290121007E-003   1.0626467695603922E-002
  -1.0027656866330892E-002   1.0693446431267795E-002   1.9939003042658499E-002
 </DataArray>
 </PointData>
 </Piece>
 </UnstructuredGrid>
 </VTKFile>
