 <VTKFile type="UnstructuredGrid"  version="0.1"   >
 <UnstructuredGrid>
 <Piece  NumberOfPoints="          1600 "  NumberOfCells="         1024 ">
 <Points>
 <DataArray  type="Float64" NumberOfComponents="3"  format="ascii" >
   0.0000000000000000        0.0000000000000000        0.0000000000000000     
   3.1250000000000000E-002   0.0000000000000000        0.0000000000000000     
   6.2500000000000000E-002   0.0000000000000000        0.0000000000000000     
   9.3750000000000000E-002   0.0000000000000000        0.0000000000000000     
  0.12500000000000000        0.0000000000000000        0.0000000000000000     
   0.0000000000000000        3.1250000000000000E-002   0.0000000000000000     
   3.1250000000000000E-002   3.1250000000000000E-002   0.0000000000000000     
   6.2500000000000000E-002   3.1250000000000000E-002   0.0000000000000000     
   9.3750000000000000E-002   3.1250000000000000E-002   0.0000000000000000     
  0.12500000000000000        3.1250000000000000E-002   0.0000000000000000     
   0.0000000000000000        6.2500000000000000E-002   0.0000000000000000     
   3.1250000000000000E-002   6.2500000000000000E-002   0.0000000000000000     
   6.2500000000000000E-002   6.2500000000000000E-002   0.0000000000000000     
   9.3750000000000000E-002   6.2500000000000000E-002   0.0000000000000000     
  0.12500000000000000        6.2500000000000000E-002   0.0000000000000000     
   0.0000000000000000        9.3750000000000000E-002   0.0000000000000000     
   3.1250000000000000E-002   9.3750000000000000E-002   0.0000000000000000     
   6.2500000000000000E-002   9.3750000000000000E-002   0.0000000000000000     
   9.3750000000000000E-002   9.3750000000000000E-002   0.0000000000000000     
  0.12500000000000000        9.3750000000000000E-002   0.0000000000000000     
   0.0000000000000000       0.12500000000000000        0.0000000000000000     
   3.1250000000000000E-002  0.12500000000000000        0.0000000000000000     
   6.2500000000000000E-002  0.12500000000000000        0.0000000000000000     
   9.3750000000000000E-002  0.12500000000000000        0.0000000000000000     
  0.12500000000000000       0.12500000000000000        0.0000000000000000     
  0.12500000000000000        0.0000000000000000        0.0000000000000000     
  0.15625000000000000        0.0000000000000000        0.0000000000000000     
  0.18750000000000000        0.0000000000000000        0.0000000000000000     
  0.21875000000000000        0.0000000000000000        0.0000000000000000     
  0.25000000000000000        0.0000000000000000        0.0000000000000000     
  0.12500000000000000        3.1250000000000000E-002   0.0000000000000000     
  0.15625000000000000        3.1250000000000000E-002   0.0000000000000000     
  0.18750000000000000        3.1250000000000000E-002   0.0000000000000000     
  0.21875000000000000        3.1250000000000000E-002   0.0000000000000000     
  0.25000000000000000        3.1250000000000000E-002   0.0000000000000000     
  0.12500000000000000        6.2500000000000000E-002   0.0000000000000000     
  0.15625000000000000        6.2500000000000000E-002   0.0000000000000000     
  0.18750000000000000        6.2500000000000000E-002   0.0000000000000000     
  0.21875000000000000        6.2500000000000000E-002   0.0000000000000000     
  0.25000000000000000        6.2500000000000000E-002   0.0000000000000000     
  0.12500000000000000        9.3750000000000000E-002   0.0000000000000000     
  0.15625000000000000        9.3750000000000000E-002   0.0000000000000000     
  0.18750000000000000        9.3750000000000000E-002   0.0000000000000000     
  0.21875000000000000        9.3750000000000000E-002   0.0000000000000000     
  0.25000000000000000        9.3750000000000000E-002   0.0000000000000000     
  0.12500000000000000       0.12500000000000000        0.0000000000000000     
  0.15625000000000000       0.12500000000000000        0.0000000000000000     
  0.18750000000000000       0.12500000000000000        0.0000000000000000     
  0.21875000000000000       0.12500000000000000        0.0000000000000000     
  0.25000000000000000       0.12500000000000000        0.0000000000000000     
  0.25000000000000000        0.0000000000000000        0.0000000000000000     
  0.28125000000000000        0.0000000000000000        0.0000000000000000     
  0.31250000000000000        0.0000000000000000        0.0000000000000000     
  0.34375000000000000        0.0000000000000000        0.0000000000000000     
  0.37500000000000000        0.0000000000000000        0.0000000000000000     
  0.25000000000000000        3.1250000000000000E-002   0.0000000000000000     
  0.28125000000000000        3.1250000000000000E-002   0.0000000000000000     
  0.31250000000000000        3.1250000000000000E-002   0.0000000000000000     
  0.34375000000000000        3.1250000000000000E-002   0.0000000000000000     
  0.37500000000000000        3.1250000000000000E-002   0.0000000000000000     
  0.25000000000000000        6.2500000000000000E-002   0.0000000000000000     
  0.28125000000000000        6.2500000000000000E-002   0.0000000000000000     
  0.31250000000000000        6.2500000000000000E-002   0.0000000000000000     
  0.34375000000000000        6.2500000000000000E-002   0.0000000000000000     
  0.37500000000000000        6.2500000000000000E-002   0.0000000000000000     
  0.25000000000000000        9.3750000000000000E-002   0.0000000000000000     
  0.28125000000000000        9.3750000000000000E-002   0.0000000000000000     
  0.31250000000000000        9.3750000000000000E-002   0.0000000000000000     
  0.34375000000000000        9.3750000000000000E-002   0.0000000000000000     
  0.37500000000000000        9.3750000000000000E-002   0.0000000000000000     
  0.25000000000000000       0.12500000000000000        0.0000000000000000     
  0.28125000000000000       0.12500000000000000        0.0000000000000000     
  0.31250000000000000       0.12500000000000000        0.0000000000000000     
  0.34375000000000000       0.12500000000000000        0.0000000000000000     
  0.37500000000000000       0.12500000000000000        0.0000000000000000     
  0.37500000000000000        0.0000000000000000        0.0000000000000000     
  0.40625000000000000        0.0000000000000000        0.0000000000000000     
  0.43750000000000000        0.0000000000000000        0.0000000000000000     
  0.46875000000000000        0.0000000000000000        0.0000000000000000     
  0.50000000000000000        0.0000000000000000        0.0000000000000000     
  0.37500000000000000        3.1250000000000000E-002   0.0000000000000000     
  0.40625000000000000        3.1250000000000000E-002   0.0000000000000000     
  0.43750000000000000        3.1250000000000000E-002   0.0000000000000000     
  0.46875000000000000        3.1250000000000000E-002   0.0000000000000000     
  0.50000000000000000        3.1250000000000000E-002   0.0000000000000000     
  0.37500000000000000        6.2500000000000000E-002   0.0000000000000000     
  0.40625000000000000        6.2500000000000000E-002   0.0000000000000000     
  0.43750000000000000        6.2500000000000000E-002   0.0000000000000000     
  0.46875000000000000        6.2500000000000000E-002   0.0000000000000000     
  0.50000000000000000        6.2500000000000000E-002   0.0000000000000000     
  0.37500000000000000        9.3750000000000000E-002   0.0000000000000000     
  0.40625000000000000        9.3750000000000000E-002   0.0000000000000000     
  0.43750000000000000        9.3750000000000000E-002   0.0000000000000000     
  0.46875000000000000        9.3750000000000000E-002   0.0000000000000000     
  0.50000000000000000        9.3750000000000000E-002   0.0000000000000000     
  0.37500000000000000       0.12500000000000000        0.0000000000000000     
  0.40625000000000000       0.12500000000000000        0.0000000000000000     
  0.43750000000000000       0.12500000000000000        0.0000000000000000     
  0.46875000000000000       0.12500000000000000        0.0000000000000000     
  0.50000000000000000       0.12500000000000000        0.0000000000000000     
  0.50000000000000000        0.0000000000000000        0.0000000000000000     
  0.53125000000000000        0.0000000000000000        0.0000000000000000     
  0.56250000000000000        0.0000000000000000        0.0000000000000000     
  0.59375000000000000        0.0000000000000000        0.0000000000000000     
  0.62500000000000000        0.0000000000000000        0.0000000000000000     
  0.50000000000000000        3.1250000000000000E-002   0.0000000000000000     
  0.53125000000000000        3.1250000000000000E-002   0.0000000000000000     
  0.56250000000000000        3.1250000000000000E-002   0.0000000000000000     
  0.59375000000000000        3.1250000000000000E-002   0.0000000000000000     
  0.62500000000000000        3.1250000000000000E-002   0.0000000000000000     
  0.50000000000000000        6.2500000000000000E-002   0.0000000000000000     
  0.53125000000000000        6.2500000000000000E-002   0.0000000000000000     
  0.56250000000000000        6.2500000000000000E-002   0.0000000000000000     
  0.59375000000000000        6.2500000000000000E-002   0.0000000000000000     
  0.62500000000000000        6.2500000000000000E-002   0.0000000000000000     
  0.50000000000000000        9.3750000000000000E-002   0.0000000000000000     
  0.53125000000000000        9.3750000000000000E-002   0.0000000000000000     
  0.56250000000000000        9.3750000000000000E-002   0.0000000000000000     
  0.59375000000000000        9.3750000000000000E-002   0.0000000000000000     
  0.62500000000000000        9.3750000000000000E-002   0.0000000000000000     
  0.50000000000000000       0.12500000000000000        0.0000000000000000     
  0.53125000000000000       0.12500000000000000        0.0000000000000000     
  0.56250000000000000       0.12500000000000000        0.0000000000000000     
  0.59375000000000000       0.12500000000000000        0.0000000000000000     
  0.62500000000000000       0.12500000000000000        0.0000000000000000     
  0.62500000000000000        0.0000000000000000        0.0000000000000000     
  0.65625000000000000        0.0000000000000000        0.0000000000000000     
  0.68750000000000000        0.0000000000000000        0.0000000000000000     
  0.71875000000000000        0.0000000000000000        0.0000000000000000     
  0.75000000000000000        0.0000000000000000        0.0000000000000000     
  0.62500000000000000        3.1250000000000000E-002   0.0000000000000000     
  0.65625000000000000        3.1250000000000000E-002   0.0000000000000000     
  0.68750000000000000        3.1250000000000000E-002   0.0000000000000000     
  0.71875000000000000        3.1250000000000000E-002   0.0000000000000000     
  0.75000000000000000        3.1250000000000000E-002   0.0000000000000000     
  0.62500000000000000        6.2500000000000000E-002   0.0000000000000000     
  0.65625000000000000        6.2500000000000000E-002   0.0000000000000000     
  0.68750000000000000        6.2500000000000000E-002   0.0000000000000000     
  0.71875000000000000        6.2500000000000000E-002   0.0000000000000000     
  0.75000000000000000        6.2500000000000000E-002   0.0000000000000000     
  0.62500000000000000        9.3750000000000000E-002   0.0000000000000000     
  0.65625000000000000        9.3750000000000000E-002   0.0000000000000000     
  0.68750000000000000        9.3750000000000000E-002   0.0000000000000000     
  0.71875000000000000        9.3750000000000000E-002   0.0000000000000000     
  0.75000000000000000        9.3750000000000000E-002   0.0000000000000000     
  0.62500000000000000       0.12500000000000000        0.0000000000000000     
  0.65625000000000000       0.12500000000000000        0.0000000000000000     
  0.68750000000000000       0.12500000000000000        0.0000000000000000     
  0.71875000000000000       0.12500000000000000        0.0000000000000000     
  0.75000000000000000       0.12500000000000000        0.0000000000000000     
  0.75000000000000000        0.0000000000000000        0.0000000000000000     
  0.78125000000000000        0.0000000000000000        0.0000000000000000     
  0.81250000000000000        0.0000000000000000        0.0000000000000000     
  0.84375000000000000        0.0000000000000000        0.0000000000000000     
  0.87500000000000000        0.0000000000000000        0.0000000000000000     
  0.75000000000000000        3.1250000000000000E-002   0.0000000000000000     
  0.78125000000000000        3.1250000000000000E-002   0.0000000000000000     
  0.81250000000000000        3.1250000000000000E-002   0.0000000000000000     
  0.84375000000000000        3.1250000000000000E-002   0.0000000000000000     
  0.87500000000000000        3.1250000000000000E-002   0.0000000000000000     
  0.75000000000000000        6.2500000000000000E-002   0.0000000000000000     
  0.78125000000000000        6.2500000000000000E-002   0.0000000000000000     
  0.81250000000000000        6.2500000000000000E-002   0.0000000000000000     
  0.84375000000000000        6.2500000000000000E-002   0.0000000000000000     
  0.87500000000000000        6.2500000000000000E-002   0.0000000000000000     
  0.75000000000000000        9.3750000000000000E-002   0.0000000000000000     
  0.78125000000000000        9.3750000000000000E-002   0.0000000000000000     
  0.81250000000000000        9.3750000000000000E-002   0.0000000000000000     
  0.84375000000000000        9.3750000000000000E-002   0.0000000000000000     
  0.87500000000000000        9.3750000000000000E-002   0.0000000000000000     
  0.75000000000000000       0.12500000000000000        0.0000000000000000     
  0.78125000000000000       0.12500000000000000        0.0000000000000000     
  0.81250000000000000       0.12500000000000000        0.0000000000000000     
  0.84375000000000000       0.12500000000000000        0.0000000000000000     
  0.87500000000000000       0.12500000000000000        0.0000000000000000     
  0.87500000000000000        0.0000000000000000        0.0000000000000000     
  0.90625000000000000        0.0000000000000000        0.0000000000000000     
  0.93750000000000000        0.0000000000000000        0.0000000000000000     
  0.96875000000000000        0.0000000000000000        0.0000000000000000     
   1.0000000000000000        0.0000000000000000        0.0000000000000000     
  0.87500000000000000        3.1250000000000000E-002   0.0000000000000000     
  0.90625000000000000        3.1250000000000000E-002   0.0000000000000000     
  0.93750000000000000        3.1250000000000000E-002   0.0000000000000000     
  0.96875000000000000        3.1250000000000000E-002   0.0000000000000000     
   1.0000000000000000        3.1250000000000000E-002   0.0000000000000000     
  0.87500000000000000        6.2500000000000000E-002   0.0000000000000000     
  0.90625000000000000        6.2500000000000000E-002   0.0000000000000000     
  0.93750000000000000        6.2500000000000000E-002   0.0000000000000000     
  0.96875000000000000        6.2500000000000000E-002   0.0000000000000000     
   1.0000000000000000        6.2500000000000000E-002   0.0000000000000000     
  0.87500000000000000        9.3750000000000000E-002   0.0000000000000000     
  0.90625000000000000        9.3750000000000000E-002   0.0000000000000000     
  0.93750000000000000        9.3750000000000000E-002   0.0000000000000000     
  0.96875000000000000        9.3750000000000000E-002   0.0000000000000000     
   1.0000000000000000        9.3750000000000000E-002   0.0000000000000000     
  0.87500000000000000       0.12500000000000000        0.0000000000000000     
  0.90625000000000000       0.12500000000000000        0.0000000000000000     
  0.93750000000000000       0.12500000000000000        0.0000000000000000     
  0.96875000000000000       0.12500000000000000        0.0000000000000000     
   1.0000000000000000       0.12500000000000000        0.0000000000000000     
   0.0000000000000000       0.12500000000000000        0.0000000000000000     
   3.1250000000000000E-002  0.12500000000000000        0.0000000000000000     
   6.2500000000000000E-002  0.12500000000000000        0.0000000000000000     
   9.3750000000000000E-002  0.12500000000000000        0.0000000000000000     
  0.12500000000000000       0.12500000000000000        0.0000000000000000     
   0.0000000000000000       0.15625000000000000        0.0000000000000000     
   3.1250000000000000E-002  0.15625000000000000        0.0000000000000000     
   6.2500000000000000E-002  0.15625000000000000        0.0000000000000000     
   9.3750000000000000E-002  0.15625000000000000        0.0000000000000000     
  0.12500000000000000       0.15625000000000000        0.0000000000000000     
   0.0000000000000000       0.18750000000000000        0.0000000000000000     
   3.1250000000000000E-002  0.18750000000000000        0.0000000000000000     
   6.2500000000000000E-002  0.18750000000000000        0.0000000000000000     
   9.3750000000000000E-002  0.18750000000000000        0.0000000000000000     
  0.12500000000000000       0.18750000000000000        0.0000000000000000     
   0.0000000000000000       0.21875000000000000        0.0000000000000000     
   3.1250000000000000E-002  0.21875000000000000        0.0000000000000000     
   6.2500000000000000E-002  0.21875000000000000        0.0000000000000000     
   9.3750000000000000E-002  0.21875000000000000        0.0000000000000000     
  0.12500000000000000       0.21875000000000000        0.0000000000000000     
   0.0000000000000000       0.25000000000000000        0.0000000000000000     
   3.1250000000000000E-002  0.25000000000000000        0.0000000000000000     
   6.2500000000000000E-002  0.25000000000000000        0.0000000000000000     
   9.3750000000000000E-002  0.25000000000000000        0.0000000000000000     
  0.12500000000000000       0.25000000000000000        0.0000000000000000     
  0.12500000000000000       0.12500000000000000        0.0000000000000000     
  0.15625000000000000       0.12500000000000000        0.0000000000000000     
  0.18750000000000000       0.12500000000000000        0.0000000000000000     
  0.21875000000000000       0.12500000000000000        0.0000000000000000     
  0.25000000000000000       0.12500000000000000        0.0000000000000000     
  0.12500000000000000       0.15625000000000000        0.0000000000000000     
  0.15625000000000000       0.15625000000000000        0.0000000000000000     
  0.18750000000000000       0.15625000000000000        0.0000000000000000     
  0.21875000000000000       0.15625000000000000        0.0000000000000000     
  0.25000000000000000       0.15625000000000000        0.0000000000000000     
  0.12500000000000000       0.18750000000000000        0.0000000000000000     
  0.15625000000000000       0.18750000000000000        0.0000000000000000     
  0.18750000000000000       0.18750000000000000        0.0000000000000000     
  0.21875000000000000       0.18750000000000000        0.0000000000000000     
  0.25000000000000000       0.18750000000000000        0.0000000000000000     
  0.12500000000000000       0.21875000000000000        0.0000000000000000     
  0.15625000000000000       0.21875000000000000        0.0000000000000000     
  0.18750000000000000       0.21875000000000000        0.0000000000000000     
  0.21875000000000000       0.21875000000000000        0.0000000000000000     
  0.25000000000000000       0.21875000000000000        0.0000000000000000     
  0.12500000000000000       0.25000000000000000        0.0000000000000000     
  0.15625000000000000       0.25000000000000000        0.0000000000000000     
  0.18750000000000000       0.25000000000000000        0.0000000000000000     
  0.21875000000000000       0.25000000000000000        0.0000000000000000     
  0.25000000000000000       0.25000000000000000        0.0000000000000000     
  0.25000000000000000       0.12500000000000000        0.0000000000000000     
  0.28125000000000000       0.12500000000000000        0.0000000000000000     
  0.31250000000000000       0.12500000000000000        0.0000000000000000     
  0.34375000000000000       0.12500000000000000        0.0000000000000000     
  0.37500000000000000       0.12500000000000000        0.0000000000000000     
  0.25000000000000000       0.15625000000000000        0.0000000000000000     
  0.28125000000000000       0.15625000000000000        0.0000000000000000     
  0.31250000000000000       0.15625000000000000        0.0000000000000000     
  0.34375000000000000       0.15625000000000000        0.0000000000000000     
  0.37500000000000000       0.15625000000000000        0.0000000000000000     
  0.25000000000000000       0.18750000000000000        0.0000000000000000     
  0.28125000000000000       0.18750000000000000        0.0000000000000000     
  0.31250000000000000       0.18750000000000000        0.0000000000000000     
  0.34375000000000000       0.18750000000000000        0.0000000000000000     
  0.37500000000000000       0.18750000000000000        0.0000000000000000     
  0.25000000000000000       0.21875000000000000        0.0000000000000000     
  0.28125000000000000       0.21875000000000000        0.0000000000000000     
  0.31250000000000000       0.21875000000000000        0.0000000000000000     
  0.34375000000000000       0.21875000000000000        0.0000000000000000     
  0.37500000000000000       0.21875000000000000        0.0000000000000000     
  0.25000000000000000       0.25000000000000000        0.0000000000000000     
  0.28125000000000000       0.25000000000000000        0.0000000000000000     
  0.31250000000000000       0.25000000000000000        0.0000000000000000     
  0.34375000000000000       0.25000000000000000        0.0000000000000000     
  0.37500000000000000       0.25000000000000000        0.0000000000000000     
  0.37500000000000000       0.12500000000000000        0.0000000000000000     
  0.40625000000000000       0.12500000000000000        0.0000000000000000     
  0.43750000000000000       0.12500000000000000        0.0000000000000000     
  0.46875000000000000       0.12500000000000000        0.0000000000000000     
  0.50000000000000000       0.12500000000000000        0.0000000000000000     
  0.37500000000000000       0.15625000000000000        0.0000000000000000     
  0.40625000000000000       0.15625000000000000        0.0000000000000000     
  0.43750000000000000       0.15625000000000000        0.0000000000000000     
  0.46875000000000000       0.15625000000000000        0.0000000000000000     
  0.50000000000000000       0.15625000000000000        0.0000000000000000     
  0.37500000000000000       0.18750000000000000        0.0000000000000000     
  0.40625000000000000       0.18750000000000000        0.0000000000000000     
  0.43750000000000000       0.18750000000000000        0.0000000000000000     
  0.46875000000000000       0.18750000000000000        0.0000000000000000     
  0.50000000000000000       0.18750000000000000        0.0000000000000000     
  0.37500000000000000       0.21875000000000000        0.0000000000000000     
  0.40625000000000000       0.21875000000000000        0.0000000000000000     
  0.43750000000000000       0.21875000000000000        0.0000000000000000     
  0.46875000000000000       0.21875000000000000        0.0000000000000000     
  0.50000000000000000       0.21875000000000000        0.0000000000000000     
  0.37500000000000000       0.25000000000000000        0.0000000000000000     
  0.40625000000000000       0.25000000000000000        0.0000000000000000     
  0.43750000000000000       0.25000000000000000        0.0000000000000000     
  0.46875000000000000       0.25000000000000000        0.0000000000000000     
  0.50000000000000000       0.25000000000000000        0.0000000000000000     
  0.50000000000000000       0.12500000000000000        0.0000000000000000     
  0.53125000000000000       0.12500000000000000        0.0000000000000000     
  0.56250000000000000       0.12500000000000000        0.0000000000000000     
  0.59375000000000000       0.12500000000000000        0.0000000000000000     
  0.62500000000000000       0.12500000000000000        0.0000000000000000     
  0.50000000000000000       0.15625000000000000        0.0000000000000000     
  0.53125000000000000       0.15625000000000000        0.0000000000000000     
  0.56250000000000000       0.15625000000000000        0.0000000000000000     
  0.59375000000000000       0.15625000000000000        0.0000000000000000     
  0.62500000000000000       0.15625000000000000        0.0000000000000000     
  0.50000000000000000       0.18750000000000000        0.0000000000000000     
  0.53125000000000000       0.18750000000000000        0.0000000000000000     
  0.56250000000000000       0.18750000000000000        0.0000000000000000     
  0.59375000000000000       0.18750000000000000        0.0000000000000000     
  0.62500000000000000       0.18750000000000000        0.0000000000000000     
  0.50000000000000000       0.21875000000000000        0.0000000000000000     
  0.53125000000000000       0.21875000000000000        0.0000000000000000     
  0.56250000000000000       0.21875000000000000        0.0000000000000000     
  0.59375000000000000       0.21875000000000000        0.0000000000000000     
  0.62500000000000000       0.21875000000000000        0.0000000000000000     
  0.50000000000000000       0.25000000000000000        0.0000000000000000     
  0.53125000000000000       0.25000000000000000        0.0000000000000000     
  0.56250000000000000       0.25000000000000000        0.0000000000000000     
  0.59375000000000000       0.25000000000000000        0.0000000000000000     
  0.62500000000000000       0.25000000000000000        0.0000000000000000     
  0.62500000000000000       0.12500000000000000        0.0000000000000000     
  0.65625000000000000       0.12500000000000000        0.0000000000000000     
  0.68750000000000000       0.12500000000000000        0.0000000000000000     
  0.71875000000000000       0.12500000000000000        0.0000000000000000     
  0.75000000000000000       0.12500000000000000        0.0000000000000000     
  0.62500000000000000       0.15625000000000000        0.0000000000000000     
  0.65625000000000000       0.15625000000000000        0.0000000000000000     
  0.68750000000000000       0.15625000000000000        0.0000000000000000     
  0.71875000000000000       0.15625000000000000        0.0000000000000000     
  0.75000000000000000       0.15625000000000000        0.0000000000000000     
  0.62500000000000000       0.18750000000000000        0.0000000000000000     
  0.65625000000000000       0.18750000000000000        0.0000000000000000     
  0.68750000000000000       0.18750000000000000        0.0000000000000000     
  0.71875000000000000       0.18750000000000000        0.0000000000000000     
  0.75000000000000000       0.18750000000000000        0.0000000000000000     
  0.62500000000000000       0.21875000000000000        0.0000000000000000     
  0.65625000000000000       0.21875000000000000        0.0000000000000000     
  0.68750000000000000       0.21875000000000000        0.0000000000000000     
  0.71875000000000000       0.21875000000000000        0.0000000000000000     
  0.75000000000000000       0.21875000000000000        0.0000000000000000     
  0.62500000000000000       0.25000000000000000        0.0000000000000000     
  0.65625000000000000       0.25000000000000000        0.0000000000000000     
  0.68750000000000000       0.25000000000000000        0.0000000000000000     
  0.71875000000000000       0.25000000000000000        0.0000000000000000     
  0.75000000000000000       0.25000000000000000        0.0000000000000000     
  0.75000000000000000       0.12500000000000000        0.0000000000000000     
  0.78125000000000000       0.12500000000000000        0.0000000000000000     
  0.81250000000000000       0.12500000000000000        0.0000000000000000     
  0.84375000000000000       0.12500000000000000        0.0000000000000000     
  0.87500000000000000       0.12500000000000000        0.0000000000000000     
  0.75000000000000000       0.15625000000000000        0.0000000000000000     
  0.78125000000000000       0.15625000000000000        0.0000000000000000     
  0.81250000000000000       0.15625000000000000        0.0000000000000000     
  0.84375000000000000       0.15625000000000000        0.0000000000000000     
  0.87500000000000000       0.15625000000000000        0.0000000000000000     
  0.75000000000000000       0.18750000000000000        0.0000000000000000     
  0.78125000000000000       0.18750000000000000        0.0000000000000000     
  0.81250000000000000       0.18750000000000000        0.0000000000000000     
  0.84375000000000000       0.18750000000000000        0.0000000000000000     
  0.87500000000000000       0.18750000000000000        0.0000000000000000     
  0.75000000000000000       0.21875000000000000        0.0000000000000000     
  0.78125000000000000       0.21875000000000000        0.0000000000000000     
  0.81250000000000000       0.21875000000000000        0.0000000000000000     
  0.84375000000000000       0.21875000000000000        0.0000000000000000     
  0.87500000000000000       0.21875000000000000        0.0000000000000000     
  0.75000000000000000       0.25000000000000000        0.0000000000000000     
  0.78125000000000000       0.25000000000000000        0.0000000000000000     
  0.81250000000000000       0.25000000000000000        0.0000000000000000     
  0.84375000000000000       0.25000000000000000        0.0000000000000000     
  0.87500000000000000       0.25000000000000000        0.0000000000000000     
  0.87500000000000000       0.12500000000000000        0.0000000000000000     
  0.90625000000000000       0.12500000000000000        0.0000000000000000     
  0.93750000000000000       0.12500000000000000        0.0000000000000000     
  0.96875000000000000       0.12500000000000000        0.0000000000000000     
   1.0000000000000000       0.12500000000000000        0.0000000000000000     
  0.87500000000000000       0.15625000000000000        0.0000000000000000     
  0.90625000000000000       0.15625000000000000        0.0000000000000000     
  0.93750000000000000       0.15625000000000000        0.0000000000000000     
  0.96875000000000000       0.15625000000000000        0.0000000000000000     
   1.0000000000000000       0.15625000000000000        0.0000000000000000     
  0.87500000000000000       0.18750000000000000        0.0000000000000000     
  0.90625000000000000       0.18750000000000000        0.0000000000000000     
  0.93750000000000000       0.18750000000000000        0.0000000000000000     
  0.96875000000000000       0.18750000000000000        0.0000000000000000     
   1.0000000000000000       0.18750000000000000        0.0000000000000000     
  0.87500000000000000       0.21875000000000000        0.0000000000000000     
  0.90625000000000000       0.21875000000000000        0.0000000000000000     
  0.93750000000000000       0.21875000000000000        0.0000000000000000     
  0.96875000000000000       0.21875000000000000        0.0000000000000000     
   1.0000000000000000       0.21875000000000000        0.0000000000000000     
  0.87500000000000000       0.25000000000000000        0.0000000000000000     
  0.90625000000000000       0.25000000000000000        0.0000000000000000     
  0.93750000000000000       0.25000000000000000        0.0000000000000000     
  0.96875000000000000       0.25000000000000000        0.0000000000000000     
   1.0000000000000000       0.25000000000000000        0.0000000000000000     
   0.0000000000000000       0.25000000000000000        0.0000000000000000     
   3.1250000000000000E-002  0.25000000000000000        0.0000000000000000     
   6.2500000000000000E-002  0.25000000000000000        0.0000000000000000     
   9.3750000000000000E-002  0.25000000000000000        0.0000000000000000     
  0.12500000000000000       0.25000000000000000        0.0000000000000000     
   0.0000000000000000       0.28125000000000000        0.0000000000000000     
   3.1250000000000000E-002  0.28125000000000000        0.0000000000000000     
   6.2500000000000000E-002  0.28125000000000000        0.0000000000000000     
   9.3750000000000000E-002  0.28125000000000000        0.0000000000000000     
  0.12500000000000000       0.28125000000000000        0.0000000000000000     
   0.0000000000000000       0.31250000000000000        0.0000000000000000     
   3.1250000000000000E-002  0.31250000000000000        0.0000000000000000     
   6.2500000000000000E-002  0.31250000000000000        0.0000000000000000     
   9.3750000000000000E-002  0.31250000000000000        0.0000000000000000     
  0.12500000000000000       0.31250000000000000        0.0000000000000000     
   0.0000000000000000       0.34375000000000000        0.0000000000000000     
   3.1250000000000000E-002  0.34375000000000000        0.0000000000000000     
   6.2500000000000000E-002  0.34375000000000000        0.0000000000000000     
   9.3750000000000000E-002  0.34375000000000000        0.0000000000000000     
  0.12500000000000000       0.34375000000000000        0.0000000000000000     
   0.0000000000000000       0.37500000000000000        0.0000000000000000     
   3.1250000000000000E-002  0.37500000000000000        0.0000000000000000     
   6.2500000000000000E-002  0.37500000000000000        0.0000000000000000     
   9.3750000000000000E-002  0.37500000000000000        0.0000000000000000     
  0.12500000000000000       0.37500000000000000        0.0000000000000000     
  0.12500000000000000       0.25000000000000000        0.0000000000000000     
  0.15625000000000000       0.25000000000000000        0.0000000000000000     
  0.18750000000000000       0.25000000000000000        0.0000000000000000     
  0.21875000000000000       0.25000000000000000        0.0000000000000000     
  0.25000000000000000       0.25000000000000000        0.0000000000000000     
  0.12500000000000000       0.28125000000000000        0.0000000000000000     
  0.15625000000000000       0.28125000000000000        0.0000000000000000     
  0.18750000000000000       0.28125000000000000        0.0000000000000000     
  0.21875000000000000       0.28125000000000000        0.0000000000000000     
  0.25000000000000000       0.28125000000000000        0.0000000000000000     
  0.12500000000000000       0.31250000000000000        0.0000000000000000     
  0.15625000000000000       0.31250000000000000        0.0000000000000000     
  0.18750000000000000       0.31250000000000000        0.0000000000000000     
  0.21875000000000000       0.31250000000000000        0.0000000000000000     
  0.25000000000000000       0.31250000000000000        0.0000000000000000     
  0.12500000000000000       0.34375000000000000        0.0000000000000000     
  0.15625000000000000       0.34375000000000000        0.0000000000000000     
  0.18750000000000000       0.34375000000000000        0.0000000000000000     
  0.21875000000000000       0.34375000000000000        0.0000000000000000     
  0.25000000000000000       0.34375000000000000        0.0000000000000000     
  0.12500000000000000       0.37500000000000000        0.0000000000000000     
  0.15625000000000000       0.37500000000000000        0.0000000000000000     
  0.18750000000000000       0.37500000000000000        0.0000000000000000     
  0.21875000000000000       0.37500000000000000        0.0000000000000000     
  0.25000000000000000       0.37500000000000000        0.0000000000000000     
  0.25000000000000000       0.25000000000000000        0.0000000000000000     
  0.28125000000000000       0.25000000000000000        0.0000000000000000     
  0.31250000000000000       0.25000000000000000        0.0000000000000000     
  0.34375000000000000       0.25000000000000000        0.0000000000000000     
  0.37500000000000000       0.25000000000000000        0.0000000000000000     
  0.25000000000000000       0.28125000000000000        0.0000000000000000     
  0.28125000000000000       0.28125000000000000        0.0000000000000000     
  0.31250000000000000       0.28125000000000000        0.0000000000000000     
  0.34375000000000000       0.28125000000000000        0.0000000000000000     
  0.37500000000000000       0.28125000000000000        0.0000000000000000     
  0.25000000000000000       0.31250000000000000        0.0000000000000000     
  0.28125000000000000       0.31250000000000000        0.0000000000000000     
  0.31250000000000000       0.31250000000000000        0.0000000000000000     
  0.34375000000000000       0.31250000000000000        0.0000000000000000     
  0.37500000000000000       0.31250000000000000        0.0000000000000000     
  0.25000000000000000       0.34375000000000000        0.0000000000000000     
  0.28125000000000000       0.34375000000000000        0.0000000000000000     
  0.31250000000000000       0.34375000000000000        0.0000000000000000     
  0.34375000000000000       0.34375000000000000        0.0000000000000000     
  0.37500000000000000       0.34375000000000000        0.0000000000000000     
  0.25000000000000000       0.37500000000000000        0.0000000000000000     
  0.28125000000000000       0.37500000000000000        0.0000000000000000     
  0.31250000000000000       0.37500000000000000        0.0000000000000000     
  0.34375000000000000       0.37500000000000000        0.0000000000000000     
  0.37500000000000000       0.37500000000000000        0.0000000000000000     
  0.37500000000000000       0.25000000000000000        0.0000000000000000     
  0.40625000000000000       0.25000000000000000        0.0000000000000000     
  0.43750000000000000       0.25000000000000000        0.0000000000000000     
  0.46875000000000000       0.25000000000000000        0.0000000000000000     
  0.50000000000000000       0.25000000000000000        0.0000000000000000     
  0.37500000000000000       0.28125000000000000        0.0000000000000000     
  0.40625000000000000       0.28125000000000000        0.0000000000000000     
  0.43750000000000000       0.28125000000000000        0.0000000000000000     
  0.46875000000000000       0.28125000000000000        0.0000000000000000     
  0.50000000000000000       0.28125000000000000        0.0000000000000000     
  0.37500000000000000       0.31250000000000000        0.0000000000000000     
  0.40625000000000000       0.31250000000000000        0.0000000000000000     
  0.43750000000000000       0.31250000000000000        0.0000000000000000     
  0.46875000000000000       0.31250000000000000        0.0000000000000000     
  0.50000000000000000       0.31250000000000000        0.0000000000000000     
  0.37500000000000000       0.34375000000000000        0.0000000000000000     
  0.40625000000000000       0.34375000000000000        0.0000000000000000     
  0.43750000000000000       0.34375000000000000        0.0000000000000000     
  0.46875000000000000       0.34375000000000000        0.0000000000000000     
  0.50000000000000000       0.34375000000000000        0.0000000000000000     
  0.37500000000000000       0.37500000000000000        0.0000000000000000     
  0.40625000000000000       0.37500000000000000        0.0000000000000000     
  0.43750000000000000       0.37500000000000000        0.0000000000000000     
  0.46875000000000000       0.37500000000000000        0.0000000000000000     
  0.50000000000000000       0.37500000000000000        0.0000000000000000     
  0.50000000000000000       0.25000000000000000        0.0000000000000000     
  0.53125000000000000       0.25000000000000000        0.0000000000000000     
  0.56250000000000000       0.25000000000000000        0.0000000000000000     
  0.59375000000000000       0.25000000000000000        0.0000000000000000     
  0.62500000000000000       0.25000000000000000        0.0000000000000000     
  0.50000000000000000       0.28125000000000000        0.0000000000000000     
  0.53125000000000000       0.28125000000000000        0.0000000000000000     
  0.56250000000000000       0.28125000000000000        0.0000000000000000     
  0.59375000000000000       0.28125000000000000        0.0000000000000000     
  0.62500000000000000       0.28125000000000000        0.0000000000000000     
  0.50000000000000000       0.31250000000000000        0.0000000000000000     
  0.53125000000000000       0.31250000000000000        0.0000000000000000     
  0.56250000000000000       0.31250000000000000        0.0000000000000000     
  0.59375000000000000       0.31250000000000000        0.0000000000000000     
  0.62500000000000000       0.31250000000000000        0.0000000000000000     
  0.50000000000000000       0.34375000000000000        0.0000000000000000     
  0.53125000000000000       0.34375000000000000        0.0000000000000000     
  0.56250000000000000       0.34375000000000000        0.0000000000000000     
  0.59375000000000000       0.34375000000000000        0.0000000000000000     
  0.62500000000000000       0.34375000000000000        0.0000000000000000     
  0.50000000000000000       0.37500000000000000        0.0000000000000000     
  0.53125000000000000       0.37500000000000000        0.0000000000000000     
  0.56250000000000000       0.37500000000000000        0.0000000000000000     
  0.59375000000000000       0.37500000000000000        0.0000000000000000     
  0.62500000000000000       0.37500000000000000        0.0000000000000000     
  0.62500000000000000       0.25000000000000000        0.0000000000000000     
  0.65625000000000000       0.25000000000000000        0.0000000000000000     
  0.68750000000000000       0.25000000000000000        0.0000000000000000     
  0.71875000000000000       0.25000000000000000        0.0000000000000000     
  0.75000000000000000       0.25000000000000000        0.0000000000000000     
  0.62500000000000000       0.28125000000000000        0.0000000000000000     
  0.65625000000000000       0.28125000000000000        0.0000000000000000     
  0.68750000000000000       0.28125000000000000        0.0000000000000000     
  0.71875000000000000       0.28125000000000000        0.0000000000000000     
  0.75000000000000000       0.28125000000000000        0.0000000000000000     
  0.62500000000000000       0.31250000000000000        0.0000000000000000     
  0.65625000000000000       0.31250000000000000        0.0000000000000000     
  0.68750000000000000       0.31250000000000000        0.0000000000000000     
  0.71875000000000000       0.31250000000000000        0.0000000000000000     
  0.75000000000000000       0.31250000000000000        0.0000000000000000     
  0.62500000000000000       0.34375000000000000        0.0000000000000000     
  0.65625000000000000       0.34375000000000000        0.0000000000000000     
  0.68750000000000000       0.34375000000000000        0.0000000000000000     
  0.71875000000000000       0.34375000000000000        0.0000000000000000     
  0.75000000000000000       0.34375000000000000        0.0000000000000000     
  0.62500000000000000       0.37500000000000000        0.0000000000000000     
  0.65625000000000000       0.37500000000000000        0.0000000000000000     
  0.68750000000000000       0.37500000000000000        0.0000000000000000     
  0.71875000000000000       0.37500000000000000        0.0000000000000000     
  0.75000000000000000       0.37500000000000000        0.0000000000000000     
  0.75000000000000000       0.25000000000000000        0.0000000000000000     
  0.78125000000000000       0.25000000000000000        0.0000000000000000     
  0.81250000000000000       0.25000000000000000        0.0000000000000000     
  0.84375000000000000       0.25000000000000000        0.0000000000000000     
  0.87500000000000000       0.25000000000000000        0.0000000000000000     
  0.75000000000000000       0.28125000000000000        0.0000000000000000     
  0.78125000000000000       0.28125000000000000        0.0000000000000000     
  0.81250000000000000       0.28125000000000000        0.0000000000000000     
  0.84375000000000000       0.28125000000000000        0.0000000000000000     
  0.87500000000000000       0.28125000000000000        0.0000000000000000     
  0.75000000000000000       0.31250000000000000        0.0000000000000000     
  0.78125000000000000       0.31250000000000000        0.0000000000000000     
  0.81250000000000000       0.31250000000000000        0.0000000000000000     
  0.84375000000000000       0.31250000000000000        0.0000000000000000     
  0.87500000000000000       0.31250000000000000        0.0000000000000000     
  0.75000000000000000       0.34375000000000000        0.0000000000000000     
  0.78125000000000000       0.34375000000000000        0.0000000000000000     
  0.81250000000000000       0.34375000000000000        0.0000000000000000     
  0.84375000000000000       0.34375000000000000        0.0000000000000000     
  0.87500000000000000       0.34375000000000000        0.0000000000000000     
  0.75000000000000000       0.37500000000000000        0.0000000000000000     
  0.78125000000000000       0.37500000000000000        0.0000000000000000     
  0.81250000000000000       0.37500000000000000        0.0000000000000000     
  0.84375000000000000       0.37500000000000000        0.0000000000000000     
  0.87500000000000000       0.37500000000000000        0.0000000000000000     
  0.87500000000000000       0.25000000000000000        0.0000000000000000     
  0.90625000000000000       0.25000000000000000        0.0000000000000000     
  0.93750000000000000       0.25000000000000000        0.0000000000000000     
  0.96875000000000000       0.25000000000000000        0.0000000000000000     
   1.0000000000000000       0.25000000000000000        0.0000000000000000     
  0.87500000000000000       0.28125000000000000        0.0000000000000000     
  0.90625000000000000       0.28125000000000000        0.0000000000000000     
  0.93750000000000000       0.28125000000000000        0.0000000000000000     
  0.96875000000000000       0.28125000000000000        0.0000000000000000     
   1.0000000000000000       0.28125000000000000        0.0000000000000000     
  0.87500000000000000       0.31250000000000000        0.0000000000000000     
  0.90625000000000000       0.31250000000000000        0.0000000000000000     
  0.93750000000000000       0.31250000000000000        0.0000000000000000     
  0.96875000000000000       0.31250000000000000        0.0000000000000000     
   1.0000000000000000       0.31250000000000000        0.0000000000000000     
  0.87500000000000000       0.34375000000000000        0.0000000000000000     
  0.90625000000000000       0.34375000000000000        0.0000000000000000     
  0.93750000000000000       0.34375000000000000        0.0000000000000000     
  0.96875000000000000       0.34375000000000000        0.0000000000000000     
   1.0000000000000000       0.34375000000000000        0.0000000000000000     
  0.87500000000000000       0.37500000000000000        0.0000000000000000     
  0.90625000000000000       0.37500000000000000        0.0000000000000000     
  0.93750000000000000       0.37500000000000000        0.0000000000000000     
  0.96875000000000000       0.37500000000000000        0.0000000000000000     
   1.0000000000000000       0.37500000000000000        0.0000000000000000     
   0.0000000000000000       0.37500000000000000        0.0000000000000000     
   3.1250000000000000E-002  0.37500000000000000        0.0000000000000000     
   6.2500000000000000E-002  0.37500000000000000        0.0000000000000000     
   9.3750000000000000E-002  0.37500000000000000        0.0000000000000000     
  0.12500000000000000       0.37500000000000000        0.0000000000000000     
   0.0000000000000000       0.40625000000000000        0.0000000000000000     
   3.1250000000000000E-002  0.40625000000000000        0.0000000000000000     
   6.2500000000000000E-002  0.40625000000000000        0.0000000000000000     
   9.3750000000000000E-002  0.40625000000000000        0.0000000000000000     
  0.12500000000000000       0.40625000000000000        0.0000000000000000     
   0.0000000000000000       0.43750000000000000        0.0000000000000000     
   3.1250000000000000E-002  0.43750000000000000        0.0000000000000000     
   6.2500000000000000E-002  0.43750000000000000        0.0000000000000000     
   9.3750000000000000E-002  0.43750000000000000        0.0000000000000000     
  0.12500000000000000       0.43750000000000000        0.0000000000000000     
   0.0000000000000000       0.46875000000000000        0.0000000000000000     
   3.1250000000000000E-002  0.46875000000000000        0.0000000000000000     
   6.2500000000000000E-002  0.46875000000000000        0.0000000000000000     
   9.3750000000000000E-002  0.46875000000000000        0.0000000000000000     
  0.12500000000000000       0.46875000000000000        0.0000000000000000     
   0.0000000000000000       0.50000000000000000        0.0000000000000000     
   3.1250000000000000E-002  0.50000000000000000        0.0000000000000000     
   6.2500000000000000E-002  0.50000000000000000        0.0000000000000000     
   9.3750000000000000E-002  0.50000000000000000        0.0000000000000000     
  0.12500000000000000       0.50000000000000000        0.0000000000000000     
  0.12500000000000000       0.37500000000000000        0.0000000000000000     
  0.15625000000000000       0.37500000000000000        0.0000000000000000     
  0.18750000000000000       0.37500000000000000        0.0000000000000000     
  0.21875000000000000       0.37500000000000000        0.0000000000000000     
  0.25000000000000000       0.37500000000000000        0.0000000000000000     
  0.12500000000000000       0.40625000000000000        0.0000000000000000     
  0.15625000000000000       0.40625000000000000        0.0000000000000000     
  0.18750000000000000       0.40625000000000000        0.0000000000000000     
  0.21875000000000000       0.40625000000000000        0.0000000000000000     
  0.25000000000000000       0.40625000000000000        0.0000000000000000     
  0.12500000000000000       0.43750000000000000        0.0000000000000000     
  0.15625000000000000       0.43750000000000000        0.0000000000000000     
  0.18750000000000000       0.43750000000000000        0.0000000000000000     
  0.21875000000000000       0.43750000000000000        0.0000000000000000     
  0.25000000000000000       0.43750000000000000        0.0000000000000000     
  0.12500000000000000       0.46875000000000000        0.0000000000000000     
  0.15625000000000000       0.46875000000000000        0.0000000000000000     
  0.18750000000000000       0.46875000000000000        0.0000000000000000     
  0.21875000000000000       0.46875000000000000        0.0000000000000000     
  0.25000000000000000       0.46875000000000000        0.0000000000000000     
  0.12500000000000000       0.50000000000000000        0.0000000000000000     
  0.15625000000000000       0.50000000000000000        0.0000000000000000     
  0.18750000000000000       0.50000000000000000        0.0000000000000000     
  0.21875000000000000       0.50000000000000000        0.0000000000000000     
  0.25000000000000000       0.50000000000000000        0.0000000000000000     
  0.25000000000000000       0.37500000000000000        0.0000000000000000     
  0.28125000000000000       0.37500000000000000        0.0000000000000000     
  0.31250000000000000       0.37500000000000000        0.0000000000000000     
  0.34375000000000000       0.37500000000000000        0.0000000000000000     
  0.37500000000000000       0.37500000000000000        0.0000000000000000     
  0.25000000000000000       0.40625000000000000        0.0000000000000000     
  0.28125000000000000       0.40625000000000000        0.0000000000000000     
  0.31250000000000000       0.40625000000000000        0.0000000000000000     
  0.34375000000000000       0.40625000000000000        0.0000000000000000     
  0.37500000000000000       0.40625000000000000        0.0000000000000000     
  0.25000000000000000       0.43750000000000000        0.0000000000000000     
  0.28125000000000000       0.43750000000000000        0.0000000000000000     
  0.31250000000000000       0.43750000000000000        0.0000000000000000     
  0.34375000000000000       0.43750000000000000        0.0000000000000000     
  0.37500000000000000       0.43750000000000000        0.0000000000000000     
  0.25000000000000000       0.46875000000000000        0.0000000000000000     
  0.28125000000000000       0.46875000000000000        0.0000000000000000     
  0.31250000000000000       0.46875000000000000        0.0000000000000000     
  0.34375000000000000       0.46875000000000000        0.0000000000000000     
  0.37500000000000000       0.46875000000000000        0.0000000000000000     
  0.25000000000000000       0.50000000000000000        0.0000000000000000     
  0.28125000000000000       0.50000000000000000        0.0000000000000000     
  0.31250000000000000       0.50000000000000000        0.0000000000000000     
  0.34375000000000000       0.50000000000000000        0.0000000000000000     
  0.37500000000000000       0.50000000000000000        0.0000000000000000     
  0.37500000000000000       0.37500000000000000        0.0000000000000000     
  0.40625000000000000       0.37500000000000000        0.0000000000000000     
  0.43750000000000000       0.37500000000000000        0.0000000000000000     
  0.46875000000000000       0.37500000000000000        0.0000000000000000     
  0.50000000000000000       0.37500000000000000        0.0000000000000000     
  0.37500000000000000       0.40625000000000000        0.0000000000000000     
  0.40625000000000000       0.40625000000000000        0.0000000000000000     
  0.43750000000000000       0.40625000000000000        0.0000000000000000     
  0.46875000000000000       0.40625000000000000        0.0000000000000000     
  0.50000000000000000       0.40625000000000000        0.0000000000000000     
  0.37500000000000000       0.43750000000000000        0.0000000000000000     
  0.40625000000000000       0.43750000000000000        0.0000000000000000     
  0.43750000000000000       0.43750000000000000        0.0000000000000000     
  0.46875000000000000       0.43750000000000000        0.0000000000000000     
  0.50000000000000000       0.43750000000000000        0.0000000000000000     
  0.37500000000000000       0.46875000000000000        0.0000000000000000     
  0.40625000000000000       0.46875000000000000        0.0000000000000000     
  0.43750000000000000       0.46875000000000000        0.0000000000000000     
  0.46875000000000000       0.46875000000000000        0.0000000000000000     
  0.50000000000000000       0.46875000000000000        0.0000000000000000     
  0.37500000000000000       0.50000000000000000        0.0000000000000000     
  0.40625000000000000       0.50000000000000000        0.0000000000000000     
  0.43750000000000000       0.50000000000000000        0.0000000000000000     
  0.46875000000000000       0.50000000000000000        0.0000000000000000     
  0.50000000000000000       0.50000000000000000        0.0000000000000000     
  0.50000000000000000       0.37500000000000000        0.0000000000000000     
  0.53125000000000000       0.37500000000000000        0.0000000000000000     
  0.56250000000000000       0.37500000000000000        0.0000000000000000     
  0.59375000000000000       0.37500000000000000        0.0000000000000000     
  0.62500000000000000       0.37500000000000000        0.0000000000000000     
  0.50000000000000000       0.40625000000000000        0.0000000000000000     
  0.53125000000000000       0.40625000000000000        0.0000000000000000     
  0.56250000000000000       0.40625000000000000        0.0000000000000000     
  0.59375000000000000       0.40625000000000000        0.0000000000000000     
  0.62500000000000000       0.40625000000000000        0.0000000000000000     
  0.50000000000000000       0.43750000000000000        0.0000000000000000     
  0.53125000000000000       0.43750000000000000        0.0000000000000000     
  0.56250000000000000       0.43750000000000000        0.0000000000000000     
  0.59375000000000000       0.43750000000000000        0.0000000000000000     
  0.62500000000000000       0.43750000000000000        0.0000000000000000     
  0.50000000000000000       0.46875000000000000        0.0000000000000000     
  0.53125000000000000       0.46875000000000000        0.0000000000000000     
  0.56250000000000000       0.46875000000000000        0.0000000000000000     
  0.59375000000000000       0.46875000000000000        0.0000000000000000     
  0.62500000000000000       0.46875000000000000        0.0000000000000000     
  0.50000000000000000       0.50000000000000000        0.0000000000000000     
  0.53125000000000000       0.50000000000000000        0.0000000000000000     
  0.56250000000000000       0.50000000000000000        0.0000000000000000     
  0.59375000000000000       0.50000000000000000        0.0000000000000000     
  0.62500000000000000       0.50000000000000000        0.0000000000000000     
  0.62500000000000000       0.37500000000000000        0.0000000000000000     
  0.65625000000000000       0.37500000000000000        0.0000000000000000     
  0.68750000000000000       0.37500000000000000        0.0000000000000000     
  0.71875000000000000       0.37500000000000000        0.0000000000000000     
  0.75000000000000000       0.37500000000000000        0.0000000000000000     
  0.62500000000000000       0.40625000000000000        0.0000000000000000     
  0.65625000000000000       0.40625000000000000        0.0000000000000000     
  0.68750000000000000       0.40625000000000000        0.0000000000000000     
  0.71875000000000000       0.40625000000000000        0.0000000000000000     
  0.75000000000000000       0.40625000000000000        0.0000000000000000     
  0.62500000000000000       0.43750000000000000        0.0000000000000000     
  0.65625000000000000       0.43750000000000000        0.0000000000000000     
  0.68750000000000000       0.43750000000000000        0.0000000000000000     
  0.71875000000000000       0.43750000000000000        0.0000000000000000     
  0.75000000000000000       0.43750000000000000        0.0000000000000000     
  0.62500000000000000       0.46875000000000000        0.0000000000000000     
  0.65625000000000000       0.46875000000000000        0.0000000000000000     
  0.68750000000000000       0.46875000000000000        0.0000000000000000     
  0.71875000000000000       0.46875000000000000        0.0000000000000000     
  0.75000000000000000       0.46875000000000000        0.0000000000000000     
  0.62500000000000000       0.50000000000000000        0.0000000000000000     
  0.65625000000000000       0.50000000000000000        0.0000000000000000     
  0.68750000000000000       0.50000000000000000        0.0000000000000000     
  0.71875000000000000       0.50000000000000000        0.0000000000000000     
  0.75000000000000000       0.50000000000000000        0.0000000000000000     
  0.75000000000000000       0.37500000000000000        0.0000000000000000     
  0.78125000000000000       0.37500000000000000        0.0000000000000000     
  0.81250000000000000       0.37500000000000000        0.0000000000000000     
  0.84375000000000000       0.37500000000000000        0.0000000000000000     
  0.87500000000000000       0.37500000000000000        0.0000000000000000     
  0.75000000000000000       0.40625000000000000        0.0000000000000000     
  0.78125000000000000       0.40625000000000000        0.0000000000000000     
  0.81250000000000000       0.40625000000000000        0.0000000000000000     
  0.84375000000000000       0.40625000000000000        0.0000000000000000     
  0.87500000000000000       0.40625000000000000        0.0000000000000000     
  0.75000000000000000       0.43750000000000000        0.0000000000000000     
  0.78125000000000000       0.43750000000000000        0.0000000000000000     
  0.81250000000000000       0.43750000000000000        0.0000000000000000     
  0.84375000000000000       0.43750000000000000        0.0000000000000000     
  0.87500000000000000       0.43750000000000000        0.0000000000000000     
  0.75000000000000000       0.46875000000000000        0.0000000000000000     
  0.78125000000000000       0.46875000000000000        0.0000000000000000     
  0.81250000000000000       0.46875000000000000        0.0000000000000000     
  0.84375000000000000       0.46875000000000000        0.0000000000000000     
  0.87500000000000000       0.46875000000000000        0.0000000000000000     
  0.75000000000000000       0.50000000000000000        0.0000000000000000     
  0.78125000000000000       0.50000000000000000        0.0000000000000000     
  0.81250000000000000       0.50000000000000000        0.0000000000000000     
  0.84375000000000000       0.50000000000000000        0.0000000000000000     
  0.87500000000000000       0.50000000000000000        0.0000000000000000     
  0.87500000000000000       0.37500000000000000        0.0000000000000000     
  0.90625000000000000       0.37500000000000000        0.0000000000000000     
  0.93750000000000000       0.37500000000000000        0.0000000000000000     
  0.96875000000000000       0.37500000000000000        0.0000000000000000     
   1.0000000000000000       0.37500000000000000        0.0000000000000000     
  0.87500000000000000       0.40625000000000000        0.0000000000000000     
  0.90625000000000000       0.40625000000000000        0.0000000000000000     
  0.93750000000000000       0.40625000000000000        0.0000000000000000     
  0.96875000000000000       0.40625000000000000        0.0000000000000000     
   1.0000000000000000       0.40625000000000000        0.0000000000000000     
  0.87500000000000000       0.43750000000000000        0.0000000000000000     
  0.90625000000000000       0.43750000000000000        0.0000000000000000     
  0.93750000000000000       0.43750000000000000        0.0000000000000000     
  0.96875000000000000       0.43750000000000000        0.0000000000000000     
   1.0000000000000000       0.43750000000000000        0.0000000000000000     
  0.87500000000000000       0.46875000000000000        0.0000000000000000     
  0.90625000000000000       0.46875000000000000        0.0000000000000000     
  0.93750000000000000       0.46875000000000000        0.0000000000000000     
  0.96875000000000000       0.46875000000000000        0.0000000000000000     
   1.0000000000000000       0.46875000000000000        0.0000000000000000     
  0.87500000000000000       0.50000000000000000        0.0000000000000000     
  0.90625000000000000       0.50000000000000000        0.0000000000000000     
  0.93750000000000000       0.50000000000000000        0.0000000000000000     
  0.96875000000000000       0.50000000000000000        0.0000000000000000     
   1.0000000000000000       0.50000000000000000        0.0000000000000000     
   0.0000000000000000       0.50000000000000000        0.0000000000000000     
   3.1250000000000000E-002  0.50000000000000000        0.0000000000000000     
   6.2500000000000000E-002  0.50000000000000000        0.0000000000000000     
   9.3750000000000000E-002  0.50000000000000000        0.0000000000000000     
  0.12500000000000000       0.50000000000000000        0.0000000000000000     
   0.0000000000000000       0.53125000000000000        0.0000000000000000     
   3.1250000000000000E-002  0.53125000000000000        0.0000000000000000     
   6.2500000000000000E-002  0.53125000000000000        0.0000000000000000     
   9.3750000000000000E-002  0.53125000000000000        0.0000000000000000     
  0.12500000000000000       0.53125000000000000        0.0000000000000000     
   0.0000000000000000       0.56250000000000000        0.0000000000000000     
   3.1250000000000000E-002  0.56250000000000000        0.0000000000000000     
   6.2500000000000000E-002  0.56250000000000000        0.0000000000000000     
   9.3750000000000000E-002  0.56250000000000000        0.0000000000000000     
  0.12500000000000000       0.56250000000000000        0.0000000000000000     
   0.0000000000000000       0.59375000000000000        0.0000000000000000     
   3.1250000000000000E-002  0.59375000000000000        0.0000000000000000     
   6.2500000000000000E-002  0.59375000000000000        0.0000000000000000     
   9.3750000000000000E-002  0.59375000000000000        0.0000000000000000     
  0.12500000000000000       0.59375000000000000        0.0000000000000000     
   0.0000000000000000       0.62500000000000000        0.0000000000000000     
   3.1250000000000000E-002  0.62500000000000000        0.0000000000000000     
   6.2500000000000000E-002  0.62500000000000000        0.0000000000000000     
   9.3750000000000000E-002  0.62500000000000000        0.0000000000000000     
  0.12500000000000000       0.62500000000000000        0.0000000000000000     
  0.12500000000000000       0.50000000000000000        0.0000000000000000     
  0.15625000000000000       0.50000000000000000        0.0000000000000000     
  0.18750000000000000       0.50000000000000000        0.0000000000000000     
  0.21875000000000000       0.50000000000000000        0.0000000000000000     
  0.25000000000000000       0.50000000000000000        0.0000000000000000     
  0.12500000000000000       0.53125000000000000        0.0000000000000000     
  0.15625000000000000       0.53125000000000000        0.0000000000000000     
  0.18750000000000000       0.53125000000000000        0.0000000000000000     
  0.21875000000000000       0.53125000000000000        0.0000000000000000     
  0.25000000000000000       0.53125000000000000        0.0000000000000000     
  0.12500000000000000       0.56250000000000000        0.0000000000000000     
  0.15625000000000000       0.56250000000000000        0.0000000000000000     
  0.18750000000000000       0.56250000000000000        0.0000000000000000     
  0.21875000000000000       0.56250000000000000        0.0000000000000000     
  0.25000000000000000       0.56250000000000000        0.0000000000000000     
  0.12500000000000000       0.59375000000000000        0.0000000000000000     
  0.15625000000000000       0.59375000000000000        0.0000000000000000     
  0.18750000000000000       0.59375000000000000        0.0000000000000000     
  0.21875000000000000       0.59375000000000000        0.0000000000000000     
  0.25000000000000000       0.59375000000000000        0.0000000000000000     
  0.12500000000000000       0.62500000000000000        0.0000000000000000     
  0.15625000000000000       0.62500000000000000        0.0000000000000000     
  0.18750000000000000       0.62500000000000000        0.0000000000000000     
  0.21875000000000000       0.62500000000000000        0.0000000000000000     
  0.25000000000000000       0.62500000000000000        0.0000000000000000     
  0.25000000000000000       0.50000000000000000        0.0000000000000000     
  0.28125000000000000       0.50000000000000000        0.0000000000000000     
  0.31250000000000000       0.50000000000000000        0.0000000000000000     
  0.34375000000000000       0.50000000000000000        0.0000000000000000     
  0.37500000000000000       0.50000000000000000        0.0000000000000000     
  0.25000000000000000       0.53125000000000000        0.0000000000000000     
  0.28125000000000000       0.53125000000000000        0.0000000000000000     
  0.31250000000000000       0.53125000000000000        0.0000000000000000     
  0.34375000000000000       0.53125000000000000        0.0000000000000000     
  0.37500000000000000       0.53125000000000000        0.0000000000000000     
  0.25000000000000000       0.56250000000000000        0.0000000000000000     
  0.28125000000000000       0.56250000000000000        0.0000000000000000     
  0.31250000000000000       0.56250000000000000        0.0000000000000000     
  0.34375000000000000       0.56250000000000000        0.0000000000000000     
  0.37500000000000000       0.56250000000000000        0.0000000000000000     
  0.25000000000000000       0.59375000000000000        0.0000000000000000     
  0.28125000000000000       0.59375000000000000        0.0000000000000000     
  0.31250000000000000       0.59375000000000000        0.0000000000000000     
  0.34375000000000000       0.59375000000000000        0.0000000000000000     
  0.37500000000000000       0.59375000000000000        0.0000000000000000     
  0.25000000000000000       0.62500000000000000        0.0000000000000000     
  0.28125000000000000       0.62500000000000000        0.0000000000000000     
  0.31250000000000000       0.62500000000000000        0.0000000000000000     
  0.34375000000000000       0.62500000000000000        0.0000000000000000     
  0.37500000000000000       0.62500000000000000        0.0000000000000000     
  0.37500000000000000       0.50000000000000000        0.0000000000000000     
  0.40625000000000000       0.50000000000000000        0.0000000000000000     
  0.43750000000000000       0.50000000000000000        0.0000000000000000     
  0.46875000000000000       0.50000000000000000        0.0000000000000000     
  0.50000000000000000       0.50000000000000000        0.0000000000000000     
  0.37500000000000000       0.53125000000000000        0.0000000000000000     
  0.40625000000000000       0.53125000000000000        0.0000000000000000     
  0.43750000000000000       0.53125000000000000        0.0000000000000000     
  0.46875000000000000       0.53125000000000000        0.0000000000000000     
  0.50000000000000000       0.53125000000000000        0.0000000000000000     
  0.37500000000000000       0.56250000000000000        0.0000000000000000     
  0.40625000000000000       0.56250000000000000        0.0000000000000000     
  0.43750000000000000       0.56250000000000000        0.0000000000000000     
  0.46875000000000000       0.56250000000000000        0.0000000000000000     
  0.50000000000000000       0.56250000000000000        0.0000000000000000     
  0.37500000000000000       0.59375000000000000        0.0000000000000000     
  0.40625000000000000       0.59375000000000000        0.0000000000000000     
  0.43750000000000000       0.59375000000000000        0.0000000000000000     
  0.46875000000000000       0.59375000000000000        0.0000000000000000     
  0.50000000000000000       0.59375000000000000        0.0000000000000000     
  0.37500000000000000       0.62500000000000000        0.0000000000000000     
  0.40625000000000000       0.62500000000000000        0.0000000000000000     
  0.43750000000000000       0.62500000000000000        0.0000000000000000     
  0.46875000000000000       0.62500000000000000        0.0000000000000000     
  0.50000000000000000       0.62500000000000000        0.0000000000000000     
  0.50000000000000000       0.50000000000000000        0.0000000000000000     
  0.53125000000000000       0.50000000000000000        0.0000000000000000     
  0.56250000000000000       0.50000000000000000        0.0000000000000000     
  0.59375000000000000       0.50000000000000000        0.0000000000000000     
  0.62500000000000000       0.50000000000000000        0.0000000000000000     
  0.50000000000000000       0.53125000000000000        0.0000000000000000     
  0.53125000000000000       0.53125000000000000        0.0000000000000000     
  0.56250000000000000       0.53125000000000000        0.0000000000000000     
  0.59375000000000000       0.53125000000000000        0.0000000000000000     
  0.62500000000000000       0.53125000000000000        0.0000000000000000     
  0.50000000000000000       0.56250000000000000        0.0000000000000000     
  0.53125000000000000       0.56250000000000000        0.0000000000000000     
  0.56250000000000000       0.56250000000000000        0.0000000000000000     
  0.59375000000000000       0.56250000000000000        0.0000000000000000     
  0.62500000000000000       0.56250000000000000        0.0000000000000000     
  0.50000000000000000       0.59375000000000000        0.0000000000000000     
  0.53125000000000000       0.59375000000000000        0.0000000000000000     
  0.56250000000000000       0.59375000000000000        0.0000000000000000     
  0.59375000000000000       0.59375000000000000        0.0000000000000000     
  0.62500000000000000       0.59375000000000000        0.0000000000000000     
  0.50000000000000000       0.62500000000000000        0.0000000000000000     
  0.53125000000000000       0.62500000000000000        0.0000000000000000     
  0.56250000000000000       0.62500000000000000        0.0000000000000000     
  0.59375000000000000       0.62500000000000000        0.0000000000000000     
  0.62500000000000000       0.62500000000000000        0.0000000000000000     
  0.62500000000000000       0.50000000000000000        0.0000000000000000     
  0.65625000000000000       0.50000000000000000        0.0000000000000000     
  0.68750000000000000       0.50000000000000000        0.0000000000000000     
  0.71875000000000000       0.50000000000000000        0.0000000000000000     
  0.75000000000000000       0.50000000000000000        0.0000000000000000     
  0.62500000000000000       0.53125000000000000        0.0000000000000000     
  0.65625000000000000       0.53125000000000000        0.0000000000000000     
  0.68750000000000000       0.53125000000000000        0.0000000000000000     
  0.71875000000000000       0.53125000000000000        0.0000000000000000     
  0.75000000000000000       0.53125000000000000        0.0000000000000000     
  0.62500000000000000       0.56250000000000000        0.0000000000000000     
  0.65625000000000000       0.56250000000000000        0.0000000000000000     
  0.68750000000000000       0.56250000000000000        0.0000000000000000     
  0.71875000000000000       0.56250000000000000        0.0000000000000000     
  0.75000000000000000       0.56250000000000000        0.0000000000000000     
  0.62500000000000000       0.59375000000000000        0.0000000000000000     
  0.65625000000000000       0.59375000000000000        0.0000000000000000     
  0.68750000000000000       0.59375000000000000        0.0000000000000000     
  0.71875000000000000       0.59375000000000000        0.0000000000000000     
  0.75000000000000000       0.59375000000000000        0.0000000000000000     
  0.62500000000000000       0.62500000000000000        0.0000000000000000     
  0.65625000000000000       0.62500000000000000        0.0000000000000000     
  0.68750000000000000       0.62500000000000000        0.0000000000000000     
  0.71875000000000000       0.62500000000000000        0.0000000000000000     
  0.75000000000000000       0.62500000000000000        0.0000000000000000     
  0.75000000000000000       0.50000000000000000        0.0000000000000000     
  0.78125000000000000       0.50000000000000000        0.0000000000000000     
  0.81250000000000000       0.50000000000000000        0.0000000000000000     
  0.84375000000000000       0.50000000000000000        0.0000000000000000     
  0.87500000000000000       0.50000000000000000        0.0000000000000000     
  0.75000000000000000       0.53125000000000000        0.0000000000000000     
  0.78125000000000000       0.53125000000000000        0.0000000000000000     
  0.81250000000000000       0.53125000000000000        0.0000000000000000     
  0.84375000000000000       0.53125000000000000        0.0000000000000000     
  0.87500000000000000       0.53125000000000000        0.0000000000000000     
  0.75000000000000000       0.56250000000000000        0.0000000000000000     
  0.78125000000000000       0.56250000000000000        0.0000000000000000     
  0.81250000000000000       0.56250000000000000        0.0000000000000000     
  0.84375000000000000       0.56250000000000000        0.0000000000000000     
  0.87500000000000000       0.56250000000000000        0.0000000000000000     
  0.75000000000000000       0.59375000000000000        0.0000000000000000     
  0.78125000000000000       0.59375000000000000        0.0000000000000000     
  0.81250000000000000       0.59375000000000000        0.0000000000000000     
  0.84375000000000000       0.59375000000000000        0.0000000000000000     
  0.87500000000000000       0.59375000000000000        0.0000000000000000     
  0.75000000000000000       0.62500000000000000        0.0000000000000000     
  0.78125000000000000       0.62500000000000000        0.0000000000000000     
  0.81250000000000000       0.62500000000000000        0.0000000000000000     
  0.84375000000000000       0.62500000000000000        0.0000000000000000     
  0.87500000000000000       0.62500000000000000        0.0000000000000000     
  0.87500000000000000       0.50000000000000000        0.0000000000000000     
  0.90625000000000000       0.50000000000000000        0.0000000000000000     
  0.93750000000000000       0.50000000000000000        0.0000000000000000     
  0.96875000000000000       0.50000000000000000        0.0000000000000000     
   1.0000000000000000       0.50000000000000000        0.0000000000000000     
  0.87500000000000000       0.53125000000000000        0.0000000000000000     
  0.90625000000000000       0.53125000000000000        0.0000000000000000     
  0.93750000000000000       0.53125000000000000        0.0000000000000000     
  0.96875000000000000       0.53125000000000000        0.0000000000000000     
   1.0000000000000000       0.53125000000000000        0.0000000000000000     
  0.87500000000000000       0.56250000000000000        0.0000000000000000     
  0.90625000000000000       0.56250000000000000        0.0000000000000000     
  0.93750000000000000       0.56250000000000000        0.0000000000000000     
  0.96875000000000000       0.56250000000000000        0.0000000000000000     
   1.0000000000000000       0.56250000000000000        0.0000000000000000     
  0.87500000000000000       0.59375000000000000        0.0000000000000000     
  0.90625000000000000       0.59375000000000000        0.0000000000000000     
  0.93750000000000000       0.59375000000000000        0.0000000000000000     
  0.96875000000000000       0.59375000000000000        0.0000000000000000     
   1.0000000000000000       0.59375000000000000        0.0000000000000000     
  0.87500000000000000       0.62500000000000000        0.0000000000000000     
  0.90625000000000000       0.62500000000000000        0.0000000000000000     
  0.93750000000000000       0.62500000000000000        0.0000000000000000     
  0.96875000000000000       0.62500000000000000        0.0000000000000000     
   1.0000000000000000       0.62500000000000000        0.0000000000000000     
   0.0000000000000000       0.62500000000000000        0.0000000000000000     
   3.1250000000000000E-002  0.62500000000000000        0.0000000000000000     
   6.2500000000000000E-002  0.62500000000000000        0.0000000000000000     
   9.3750000000000000E-002  0.62500000000000000        0.0000000000000000     
  0.12500000000000000       0.62500000000000000        0.0000000000000000     
   0.0000000000000000       0.65625000000000000        0.0000000000000000     
   3.1250000000000000E-002  0.65625000000000000        0.0000000000000000     
   6.2500000000000000E-002  0.65625000000000000        0.0000000000000000     
   9.3750000000000000E-002  0.65625000000000000        0.0000000000000000     
  0.12500000000000000       0.65625000000000000        0.0000000000000000     
   0.0000000000000000       0.68750000000000000        0.0000000000000000     
   3.1250000000000000E-002  0.68750000000000000        0.0000000000000000     
   6.2500000000000000E-002  0.68750000000000000        0.0000000000000000     
   9.3750000000000000E-002  0.68750000000000000        0.0000000000000000     
  0.12500000000000000       0.68750000000000000        0.0000000000000000     
   0.0000000000000000       0.71875000000000000        0.0000000000000000     
   3.1250000000000000E-002  0.71875000000000000        0.0000000000000000     
   6.2500000000000000E-002  0.71875000000000000        0.0000000000000000     
   9.3750000000000000E-002  0.71875000000000000        0.0000000000000000     
  0.12500000000000000       0.71875000000000000        0.0000000000000000     
   0.0000000000000000       0.75000000000000000        0.0000000000000000     
   3.1250000000000000E-002  0.75000000000000000        0.0000000000000000     
   6.2500000000000000E-002  0.75000000000000000        0.0000000000000000     
   9.3750000000000000E-002  0.75000000000000000        0.0000000000000000     
  0.12500000000000000       0.75000000000000000        0.0000000000000000     
  0.12500000000000000       0.62500000000000000        0.0000000000000000     
  0.15625000000000000       0.62500000000000000        0.0000000000000000     
  0.18750000000000000       0.62500000000000000        0.0000000000000000     
  0.21875000000000000       0.62500000000000000        0.0000000000000000     
  0.25000000000000000       0.62500000000000000        0.0000000000000000     
  0.12500000000000000       0.65625000000000000        0.0000000000000000     
  0.15625000000000000       0.65625000000000000        0.0000000000000000     
  0.18750000000000000       0.65625000000000000        0.0000000000000000     
  0.21875000000000000       0.65625000000000000        0.0000000000000000     
  0.25000000000000000       0.65625000000000000        0.0000000000000000     
  0.12500000000000000       0.68750000000000000        0.0000000000000000     
  0.15625000000000000       0.68750000000000000        0.0000000000000000     
  0.18750000000000000       0.68750000000000000        0.0000000000000000     
  0.21875000000000000       0.68750000000000000        0.0000000000000000     
  0.25000000000000000       0.68750000000000000        0.0000000000000000     
  0.12500000000000000       0.71875000000000000        0.0000000000000000     
  0.15625000000000000       0.71875000000000000        0.0000000000000000     
  0.18750000000000000       0.71875000000000000        0.0000000000000000     
  0.21875000000000000       0.71875000000000000        0.0000000000000000     
  0.25000000000000000       0.71875000000000000        0.0000000000000000     
  0.12500000000000000       0.75000000000000000        0.0000000000000000     
  0.15625000000000000       0.75000000000000000        0.0000000000000000     
  0.18750000000000000       0.75000000000000000        0.0000000000000000     
  0.21875000000000000       0.75000000000000000        0.0000000000000000     
  0.25000000000000000       0.75000000000000000        0.0000000000000000     
  0.25000000000000000       0.62500000000000000        0.0000000000000000     
  0.28125000000000000       0.62500000000000000        0.0000000000000000     
  0.31250000000000000       0.62500000000000000        0.0000000000000000     
  0.34375000000000000       0.62500000000000000        0.0000000000000000     
  0.37500000000000000       0.62500000000000000        0.0000000000000000     
  0.25000000000000000       0.65625000000000000        0.0000000000000000     
  0.28125000000000000       0.65625000000000000        0.0000000000000000     
  0.31250000000000000       0.65625000000000000        0.0000000000000000     
  0.34375000000000000       0.65625000000000000        0.0000000000000000     
  0.37500000000000000       0.65625000000000000        0.0000000000000000     
  0.25000000000000000       0.68750000000000000        0.0000000000000000     
  0.28125000000000000       0.68750000000000000        0.0000000000000000     
  0.31250000000000000       0.68750000000000000        0.0000000000000000     
  0.34375000000000000       0.68750000000000000        0.0000000000000000     
  0.37500000000000000       0.68750000000000000        0.0000000000000000     
  0.25000000000000000       0.71875000000000000        0.0000000000000000     
  0.28125000000000000       0.71875000000000000        0.0000000000000000     
  0.31250000000000000       0.71875000000000000        0.0000000000000000     
  0.34375000000000000       0.71875000000000000        0.0000000000000000     
  0.37500000000000000       0.71875000000000000        0.0000000000000000     
  0.25000000000000000       0.75000000000000000        0.0000000000000000     
  0.28125000000000000       0.75000000000000000        0.0000000000000000     
  0.31250000000000000       0.75000000000000000        0.0000000000000000     
  0.34375000000000000       0.75000000000000000        0.0000000000000000     
  0.37500000000000000       0.75000000000000000        0.0000000000000000     
  0.37500000000000000       0.62500000000000000        0.0000000000000000     
  0.40625000000000000       0.62500000000000000        0.0000000000000000     
  0.43750000000000000       0.62500000000000000        0.0000000000000000     
  0.46875000000000000       0.62500000000000000        0.0000000000000000     
  0.50000000000000000       0.62500000000000000        0.0000000000000000     
  0.37500000000000000       0.65625000000000000        0.0000000000000000     
  0.40625000000000000       0.65625000000000000        0.0000000000000000     
  0.43750000000000000       0.65625000000000000        0.0000000000000000     
  0.46875000000000000       0.65625000000000000        0.0000000000000000     
  0.50000000000000000       0.65625000000000000        0.0000000000000000     
  0.37500000000000000       0.68750000000000000        0.0000000000000000     
  0.40625000000000000       0.68750000000000000        0.0000000000000000     
  0.43750000000000000       0.68750000000000000        0.0000000000000000     
  0.46875000000000000       0.68750000000000000        0.0000000000000000     
  0.50000000000000000       0.68750000000000000        0.0000000000000000     
  0.37500000000000000       0.71875000000000000        0.0000000000000000     
  0.40625000000000000       0.71875000000000000        0.0000000000000000     
  0.43750000000000000       0.71875000000000000        0.0000000000000000     
  0.46875000000000000       0.71875000000000000        0.0000000000000000     
  0.50000000000000000       0.71875000000000000        0.0000000000000000     
  0.37500000000000000       0.75000000000000000        0.0000000000000000     
  0.40625000000000000       0.75000000000000000        0.0000000000000000     
  0.43750000000000000       0.75000000000000000        0.0000000000000000     
  0.46875000000000000       0.75000000000000000        0.0000000000000000     
  0.50000000000000000       0.75000000000000000        0.0000000000000000     
  0.50000000000000000       0.62500000000000000        0.0000000000000000     
  0.53125000000000000       0.62500000000000000        0.0000000000000000     
  0.56250000000000000       0.62500000000000000        0.0000000000000000     
  0.59375000000000000       0.62500000000000000        0.0000000000000000     
  0.62500000000000000       0.62500000000000000        0.0000000000000000     
  0.50000000000000000       0.65625000000000000        0.0000000000000000     
  0.53125000000000000       0.65625000000000000        0.0000000000000000     
  0.56250000000000000       0.65625000000000000        0.0000000000000000     
  0.59375000000000000       0.65625000000000000        0.0000000000000000     
  0.62500000000000000       0.65625000000000000        0.0000000000000000     
  0.50000000000000000       0.68750000000000000        0.0000000000000000     
  0.53125000000000000       0.68750000000000000        0.0000000000000000     
  0.56250000000000000       0.68750000000000000        0.0000000000000000     
  0.59375000000000000       0.68750000000000000        0.0000000000000000     
  0.62500000000000000       0.68750000000000000        0.0000000000000000     
  0.50000000000000000       0.71875000000000000        0.0000000000000000     
  0.53125000000000000       0.71875000000000000        0.0000000000000000     
  0.56250000000000000       0.71875000000000000        0.0000000000000000     
  0.59375000000000000       0.71875000000000000        0.0000000000000000     
  0.62500000000000000       0.71875000000000000        0.0000000000000000     
  0.50000000000000000       0.75000000000000000        0.0000000000000000     
  0.53125000000000000       0.75000000000000000        0.0000000000000000     
  0.56250000000000000       0.75000000000000000        0.0000000000000000     
  0.59375000000000000       0.75000000000000000        0.0000000000000000     
  0.62500000000000000       0.75000000000000000        0.0000000000000000     
  0.62500000000000000       0.62500000000000000        0.0000000000000000     
  0.65625000000000000       0.62500000000000000        0.0000000000000000     
  0.68750000000000000       0.62500000000000000        0.0000000000000000     
  0.71875000000000000       0.62500000000000000        0.0000000000000000     
  0.75000000000000000       0.62500000000000000        0.0000000000000000     
  0.62500000000000000       0.65625000000000000        0.0000000000000000     
  0.65625000000000000       0.65625000000000000        0.0000000000000000     
  0.68750000000000000       0.65625000000000000        0.0000000000000000     
  0.71875000000000000       0.65625000000000000        0.0000000000000000     
  0.75000000000000000       0.65625000000000000        0.0000000000000000     
  0.62500000000000000       0.68750000000000000        0.0000000000000000     
  0.65625000000000000       0.68750000000000000        0.0000000000000000     
  0.68750000000000000       0.68750000000000000        0.0000000000000000     
  0.71875000000000000       0.68750000000000000        0.0000000000000000     
  0.75000000000000000       0.68750000000000000        0.0000000000000000     
  0.62500000000000000       0.71875000000000000        0.0000000000000000     
  0.65625000000000000       0.71875000000000000        0.0000000000000000     
  0.68750000000000000       0.71875000000000000        0.0000000000000000     
  0.71875000000000000       0.71875000000000000        0.0000000000000000     
  0.75000000000000000       0.71875000000000000        0.0000000000000000     
  0.62500000000000000       0.75000000000000000        0.0000000000000000     
  0.65625000000000000       0.75000000000000000        0.0000000000000000     
  0.68750000000000000       0.75000000000000000        0.0000000000000000     
  0.71875000000000000       0.75000000000000000        0.0000000000000000     
  0.75000000000000000       0.75000000000000000        0.0000000000000000     
  0.75000000000000000       0.62500000000000000        0.0000000000000000     
  0.78125000000000000       0.62500000000000000        0.0000000000000000     
  0.81250000000000000       0.62500000000000000        0.0000000000000000     
  0.84375000000000000       0.62500000000000000        0.0000000000000000     
  0.87500000000000000       0.62500000000000000        0.0000000000000000     
  0.75000000000000000       0.65625000000000000        0.0000000000000000     
  0.78125000000000000       0.65625000000000000        0.0000000000000000     
  0.81250000000000000       0.65625000000000000        0.0000000000000000     
  0.84375000000000000       0.65625000000000000        0.0000000000000000     
  0.87500000000000000       0.65625000000000000        0.0000000000000000     
  0.75000000000000000       0.68750000000000000        0.0000000000000000     
  0.78125000000000000       0.68750000000000000        0.0000000000000000     
  0.81250000000000000       0.68750000000000000        0.0000000000000000     
  0.84375000000000000       0.68750000000000000        0.0000000000000000     
  0.87500000000000000       0.68750000000000000        0.0000000000000000     
  0.75000000000000000       0.71875000000000000        0.0000000000000000     
  0.78125000000000000       0.71875000000000000        0.0000000000000000     
  0.81250000000000000       0.71875000000000000        0.0000000000000000     
  0.84375000000000000       0.71875000000000000        0.0000000000000000     
  0.87500000000000000       0.71875000000000000        0.0000000000000000     
  0.75000000000000000       0.75000000000000000        0.0000000000000000     
  0.78125000000000000       0.75000000000000000        0.0000000000000000     
  0.81250000000000000       0.75000000000000000        0.0000000000000000     
  0.84375000000000000       0.75000000000000000        0.0000000000000000     
  0.87500000000000000       0.75000000000000000        0.0000000000000000     
  0.87500000000000000       0.62500000000000000        0.0000000000000000     
  0.90625000000000000       0.62500000000000000        0.0000000000000000     
  0.93750000000000000       0.62500000000000000        0.0000000000000000     
  0.96875000000000000       0.62500000000000000        0.0000000000000000     
   1.0000000000000000       0.62500000000000000        0.0000000000000000     
  0.87500000000000000       0.65625000000000000        0.0000000000000000     
  0.90625000000000000       0.65625000000000000        0.0000000000000000     
  0.93750000000000000       0.65625000000000000        0.0000000000000000     
  0.96875000000000000       0.65625000000000000        0.0000000000000000     
   1.0000000000000000       0.65625000000000000        0.0000000000000000     
  0.87500000000000000       0.68750000000000000        0.0000000000000000     
  0.90625000000000000       0.68750000000000000        0.0000000000000000     
  0.93750000000000000       0.68750000000000000        0.0000000000000000     
  0.96875000000000000       0.68750000000000000        0.0000000000000000     
   1.0000000000000000       0.68750000000000000        0.0000000000000000     
  0.87500000000000000       0.71875000000000000        0.0000000000000000     
  0.90625000000000000       0.71875000000000000        0.0000000000000000     
  0.93750000000000000       0.71875000000000000        0.0000000000000000     
  0.96875000000000000       0.71875000000000000        0.0000000000000000     
   1.0000000000000000       0.71875000000000000        0.0000000000000000     
  0.87500000000000000       0.75000000000000000        0.0000000000000000     
  0.90625000000000000       0.75000000000000000        0.0000000000000000     
  0.93750000000000000       0.75000000000000000        0.0000000000000000     
  0.96875000000000000       0.75000000000000000        0.0000000000000000     
   1.0000000000000000       0.75000000000000000        0.0000000000000000     
   0.0000000000000000       0.75000000000000000        0.0000000000000000     
   3.1250000000000000E-002  0.75000000000000000        0.0000000000000000     
   6.2500000000000000E-002  0.75000000000000000        0.0000000000000000     
   9.3750000000000000E-002  0.75000000000000000        0.0000000000000000     
  0.12500000000000000       0.75000000000000000        0.0000000000000000     
   0.0000000000000000       0.78125000000000000        0.0000000000000000     
   3.1250000000000000E-002  0.78125000000000000        0.0000000000000000     
   6.2500000000000000E-002  0.78125000000000000        0.0000000000000000     
   9.3750000000000000E-002  0.78125000000000000        0.0000000000000000     
  0.12500000000000000       0.78125000000000000        0.0000000000000000     
   0.0000000000000000       0.81250000000000000        0.0000000000000000     
   3.1250000000000000E-002  0.81250000000000000        0.0000000000000000     
   6.2500000000000000E-002  0.81250000000000000        0.0000000000000000     
   9.3750000000000000E-002  0.81250000000000000        0.0000000000000000     
  0.12500000000000000       0.81250000000000000        0.0000000000000000     
   0.0000000000000000       0.84375000000000000        0.0000000000000000     
   3.1250000000000000E-002  0.84375000000000000        0.0000000000000000     
   6.2500000000000000E-002  0.84375000000000000        0.0000000000000000     
   9.3750000000000000E-002  0.84375000000000000        0.0000000000000000     
  0.12500000000000000       0.84375000000000000        0.0000000000000000     
   0.0000000000000000       0.87500000000000000        0.0000000000000000     
   3.1250000000000000E-002  0.87500000000000000        0.0000000000000000     
   6.2500000000000000E-002  0.87500000000000000        0.0000000000000000     
   9.3750000000000000E-002  0.87500000000000000        0.0000000000000000     
  0.12500000000000000       0.87500000000000000        0.0000000000000000     
  0.12500000000000000       0.75000000000000000        0.0000000000000000     
  0.15625000000000000       0.75000000000000000        0.0000000000000000     
  0.18750000000000000       0.75000000000000000        0.0000000000000000     
  0.21875000000000000       0.75000000000000000        0.0000000000000000     
  0.25000000000000000       0.75000000000000000        0.0000000000000000     
  0.12500000000000000       0.78125000000000000        0.0000000000000000     
  0.15625000000000000       0.78125000000000000        0.0000000000000000     
  0.18750000000000000       0.78125000000000000        0.0000000000000000     
  0.21875000000000000       0.78125000000000000        0.0000000000000000     
  0.25000000000000000       0.78125000000000000        0.0000000000000000     
  0.12500000000000000       0.81250000000000000        0.0000000000000000     
  0.15625000000000000       0.81250000000000000        0.0000000000000000     
  0.18750000000000000       0.81250000000000000        0.0000000000000000     
  0.21875000000000000       0.81250000000000000        0.0000000000000000     
  0.25000000000000000       0.81250000000000000        0.0000000000000000     
  0.12500000000000000       0.84375000000000000        0.0000000000000000     
  0.15625000000000000       0.84375000000000000        0.0000000000000000     
  0.18750000000000000       0.84375000000000000        0.0000000000000000     
  0.21875000000000000       0.84375000000000000        0.0000000000000000     
  0.25000000000000000       0.84375000000000000        0.0000000000000000     
  0.12500000000000000       0.87500000000000000        0.0000000000000000     
  0.15625000000000000       0.87500000000000000        0.0000000000000000     
  0.18750000000000000       0.87500000000000000        0.0000000000000000     
  0.21875000000000000       0.87500000000000000        0.0000000000000000     
  0.25000000000000000       0.87500000000000000        0.0000000000000000     
  0.25000000000000000       0.75000000000000000        0.0000000000000000     
  0.28125000000000000       0.75000000000000000        0.0000000000000000     
  0.31250000000000000       0.75000000000000000        0.0000000000000000     
  0.34375000000000000       0.75000000000000000        0.0000000000000000     
  0.37500000000000000       0.75000000000000000        0.0000000000000000     
  0.25000000000000000       0.78125000000000000        0.0000000000000000     
  0.28125000000000000       0.78125000000000000        0.0000000000000000     
  0.31250000000000000       0.78125000000000000        0.0000000000000000     
  0.34375000000000000       0.78125000000000000        0.0000000000000000     
  0.37500000000000000       0.78125000000000000        0.0000000000000000     
  0.25000000000000000       0.81250000000000000        0.0000000000000000     
  0.28125000000000000       0.81250000000000000        0.0000000000000000     
  0.31250000000000000       0.81250000000000000        0.0000000000000000     
  0.34375000000000000       0.81250000000000000        0.0000000000000000     
  0.37500000000000000       0.81250000000000000        0.0000000000000000     
  0.25000000000000000       0.84375000000000000        0.0000000000000000     
  0.28125000000000000       0.84375000000000000        0.0000000000000000     
  0.31250000000000000       0.84375000000000000        0.0000000000000000     
  0.34375000000000000       0.84375000000000000        0.0000000000000000     
  0.37500000000000000       0.84375000000000000        0.0000000000000000     
  0.25000000000000000       0.87500000000000000        0.0000000000000000     
  0.28125000000000000       0.87500000000000000        0.0000000000000000     
  0.31250000000000000       0.87500000000000000        0.0000000000000000     
  0.34375000000000000       0.87500000000000000        0.0000000000000000     
  0.37500000000000000       0.87500000000000000        0.0000000000000000     
  0.37500000000000000       0.75000000000000000        0.0000000000000000     
  0.40625000000000000       0.75000000000000000        0.0000000000000000     
  0.43750000000000000       0.75000000000000000        0.0000000000000000     
  0.46875000000000000       0.75000000000000000        0.0000000000000000     
  0.50000000000000000       0.75000000000000000        0.0000000000000000     
  0.37500000000000000       0.78125000000000000        0.0000000000000000     
  0.40625000000000000       0.78125000000000000        0.0000000000000000     
  0.43750000000000000       0.78125000000000000        0.0000000000000000     
  0.46875000000000000       0.78125000000000000        0.0000000000000000     
  0.50000000000000000       0.78125000000000000        0.0000000000000000     
  0.37500000000000000       0.81250000000000000        0.0000000000000000     
  0.40625000000000000       0.81250000000000000        0.0000000000000000     
  0.43750000000000000       0.81250000000000000        0.0000000000000000     
  0.46875000000000000       0.81250000000000000        0.0000000000000000     
  0.50000000000000000       0.81250000000000000        0.0000000000000000     
  0.37500000000000000       0.84375000000000000        0.0000000000000000     
  0.40625000000000000       0.84375000000000000        0.0000000000000000     
  0.43750000000000000       0.84375000000000000        0.0000000000000000     
  0.46875000000000000       0.84375000000000000        0.0000000000000000     
  0.50000000000000000       0.84375000000000000        0.0000000000000000     
  0.37500000000000000       0.87500000000000000        0.0000000000000000     
  0.40625000000000000       0.87500000000000000        0.0000000000000000     
  0.43750000000000000       0.87500000000000000        0.0000000000000000     
  0.46875000000000000       0.87500000000000000        0.0000000000000000     
  0.50000000000000000       0.87500000000000000        0.0000000000000000     
  0.50000000000000000       0.75000000000000000        0.0000000000000000     
  0.53125000000000000       0.75000000000000000        0.0000000000000000     
  0.56250000000000000       0.75000000000000000        0.0000000000000000     
  0.59375000000000000       0.75000000000000000        0.0000000000000000     
  0.62500000000000000       0.75000000000000000        0.0000000000000000     
  0.50000000000000000       0.78125000000000000        0.0000000000000000     
  0.53125000000000000       0.78125000000000000        0.0000000000000000     
  0.56250000000000000       0.78125000000000000        0.0000000000000000     
  0.59375000000000000       0.78125000000000000        0.0000000000000000     
  0.62500000000000000       0.78125000000000000        0.0000000000000000     
  0.50000000000000000       0.81250000000000000        0.0000000000000000     
  0.53125000000000000       0.81250000000000000        0.0000000000000000     
  0.56250000000000000       0.81250000000000000        0.0000000000000000     
  0.59375000000000000       0.81250000000000000        0.0000000000000000     
  0.62500000000000000       0.81250000000000000        0.0000000000000000     
  0.50000000000000000       0.84375000000000000        0.0000000000000000     
  0.53125000000000000       0.84375000000000000        0.0000000000000000     
  0.56250000000000000       0.84375000000000000        0.0000000000000000     
  0.59375000000000000       0.84375000000000000        0.0000000000000000     
  0.62500000000000000       0.84375000000000000        0.0000000000000000     
  0.50000000000000000       0.87500000000000000        0.0000000000000000     
  0.53125000000000000       0.87500000000000000        0.0000000000000000     
  0.56250000000000000       0.87500000000000000        0.0000000000000000     
  0.59375000000000000       0.87500000000000000        0.0000000000000000     
  0.62500000000000000       0.87500000000000000        0.0000000000000000     
  0.62500000000000000       0.75000000000000000        0.0000000000000000     
  0.65625000000000000       0.75000000000000000        0.0000000000000000     
  0.68750000000000000       0.75000000000000000        0.0000000000000000     
  0.71875000000000000       0.75000000000000000        0.0000000000000000     
  0.75000000000000000       0.75000000000000000        0.0000000000000000     
  0.62500000000000000       0.78125000000000000        0.0000000000000000     
  0.65625000000000000       0.78125000000000000        0.0000000000000000     
  0.68750000000000000       0.78125000000000000        0.0000000000000000     
  0.71875000000000000       0.78125000000000000        0.0000000000000000     
  0.75000000000000000       0.78125000000000000        0.0000000000000000     
  0.62500000000000000       0.81250000000000000        0.0000000000000000     
  0.65625000000000000       0.81250000000000000        0.0000000000000000     
  0.68750000000000000       0.81250000000000000        0.0000000000000000     
  0.71875000000000000       0.81250000000000000        0.0000000000000000     
  0.75000000000000000       0.81250000000000000        0.0000000000000000     
  0.62500000000000000       0.84375000000000000        0.0000000000000000     
  0.65625000000000000       0.84375000000000000        0.0000000000000000     
  0.68750000000000000       0.84375000000000000        0.0000000000000000     
  0.71875000000000000       0.84375000000000000        0.0000000000000000     
  0.75000000000000000       0.84375000000000000        0.0000000000000000     
  0.62500000000000000       0.87500000000000000        0.0000000000000000     
  0.65625000000000000       0.87500000000000000        0.0000000000000000     
  0.68750000000000000       0.87500000000000000        0.0000000000000000     
  0.71875000000000000       0.87500000000000000        0.0000000000000000     
  0.75000000000000000       0.87500000000000000        0.0000000000000000     
  0.75000000000000000       0.75000000000000000        0.0000000000000000     
  0.78125000000000000       0.75000000000000000        0.0000000000000000     
  0.81250000000000000       0.75000000000000000        0.0000000000000000     
  0.84375000000000000       0.75000000000000000        0.0000000000000000     
  0.87500000000000000       0.75000000000000000        0.0000000000000000     
  0.75000000000000000       0.78125000000000000        0.0000000000000000     
  0.78125000000000000       0.78125000000000000        0.0000000000000000     
  0.81250000000000000       0.78125000000000000        0.0000000000000000     
  0.84375000000000000       0.78125000000000000        0.0000000000000000     
  0.87500000000000000       0.78125000000000000        0.0000000000000000     
  0.75000000000000000       0.81250000000000000        0.0000000000000000     
  0.78125000000000000       0.81250000000000000        0.0000000000000000     
  0.81250000000000000       0.81250000000000000        0.0000000000000000     
  0.84375000000000000       0.81250000000000000        0.0000000000000000     
  0.87500000000000000       0.81250000000000000        0.0000000000000000     
  0.75000000000000000       0.84375000000000000        0.0000000000000000     
  0.78125000000000000       0.84375000000000000        0.0000000000000000     
  0.81250000000000000       0.84375000000000000        0.0000000000000000     
  0.84375000000000000       0.84375000000000000        0.0000000000000000     
  0.87500000000000000       0.84375000000000000        0.0000000000000000     
  0.75000000000000000       0.87500000000000000        0.0000000000000000     
  0.78125000000000000       0.87500000000000000        0.0000000000000000     
  0.81250000000000000       0.87500000000000000        0.0000000000000000     
  0.84375000000000000       0.87500000000000000        0.0000000000000000     
  0.87500000000000000       0.87500000000000000        0.0000000000000000     
  0.87500000000000000       0.75000000000000000        0.0000000000000000     
  0.90625000000000000       0.75000000000000000        0.0000000000000000     
  0.93750000000000000       0.75000000000000000        0.0000000000000000     
  0.96875000000000000       0.75000000000000000        0.0000000000000000     
   1.0000000000000000       0.75000000000000000        0.0000000000000000     
  0.87500000000000000       0.78125000000000000        0.0000000000000000     
  0.90625000000000000       0.78125000000000000        0.0000000000000000     
  0.93750000000000000       0.78125000000000000        0.0000000000000000     
  0.96875000000000000       0.78125000000000000        0.0000000000000000     
   1.0000000000000000       0.78125000000000000        0.0000000000000000     
  0.87500000000000000       0.81250000000000000        0.0000000000000000     
  0.90625000000000000       0.81250000000000000        0.0000000000000000     
  0.93750000000000000       0.81250000000000000        0.0000000000000000     
  0.96875000000000000       0.81250000000000000        0.0000000000000000     
   1.0000000000000000       0.81250000000000000        0.0000000000000000     
  0.87500000000000000       0.84375000000000000        0.0000000000000000     
  0.90625000000000000       0.84375000000000000        0.0000000000000000     
  0.93750000000000000       0.84375000000000000        0.0000000000000000     
  0.96875000000000000       0.84375000000000000        0.0000000000000000     
   1.0000000000000000       0.84375000000000000        0.0000000000000000     
  0.87500000000000000       0.87500000000000000        0.0000000000000000     
  0.90625000000000000       0.87500000000000000        0.0000000000000000     
  0.93750000000000000       0.87500000000000000        0.0000000000000000     
  0.96875000000000000       0.87500000000000000        0.0000000000000000     
   1.0000000000000000       0.87500000000000000        0.0000000000000000     
   0.0000000000000000       0.87500000000000000        0.0000000000000000     
   3.1250000000000000E-002  0.87500000000000000        0.0000000000000000     
   6.2500000000000000E-002  0.87500000000000000        0.0000000000000000     
   9.3750000000000000E-002  0.87500000000000000        0.0000000000000000     
  0.12500000000000000       0.87500000000000000        0.0000000000000000     
   0.0000000000000000       0.90625000000000000        0.0000000000000000     
   3.1250000000000000E-002  0.90625000000000000        0.0000000000000000     
   6.2500000000000000E-002  0.90625000000000000        0.0000000000000000     
   9.3750000000000000E-002  0.90625000000000000        0.0000000000000000     
  0.12500000000000000       0.90625000000000000        0.0000000000000000     
   0.0000000000000000       0.93750000000000000        0.0000000000000000     
   3.1250000000000000E-002  0.93750000000000000        0.0000000000000000     
   6.2500000000000000E-002  0.93750000000000000        0.0000000000000000     
   9.3750000000000000E-002  0.93750000000000000        0.0000000000000000     
  0.12500000000000000       0.93750000000000000        0.0000000000000000     
   0.0000000000000000       0.96875000000000000        0.0000000000000000     
   3.1250000000000000E-002  0.96875000000000000        0.0000000000000000     
   6.2500000000000000E-002  0.96875000000000000        0.0000000000000000     
   9.3750000000000000E-002  0.96875000000000000        0.0000000000000000     
  0.12500000000000000       0.96875000000000000        0.0000000000000000     
   0.0000000000000000        1.0000000000000000        0.0000000000000000     
   3.1250000000000000E-002   1.0000000000000000        0.0000000000000000     
   6.2500000000000000E-002   1.0000000000000000        0.0000000000000000     
   9.3750000000000000E-002   1.0000000000000000        0.0000000000000000     
  0.12500000000000000        1.0000000000000000        0.0000000000000000     
  0.12500000000000000       0.87500000000000000        0.0000000000000000     
  0.15625000000000000       0.87500000000000000        0.0000000000000000     
  0.18750000000000000       0.87500000000000000        0.0000000000000000     
  0.21875000000000000       0.87500000000000000        0.0000000000000000     
  0.25000000000000000       0.87500000000000000        0.0000000000000000     
  0.12500000000000000       0.90625000000000000        0.0000000000000000     
  0.15625000000000000       0.90625000000000000        0.0000000000000000     
  0.18750000000000000       0.90625000000000000        0.0000000000000000     
  0.21875000000000000       0.90625000000000000        0.0000000000000000     
  0.25000000000000000       0.90625000000000000        0.0000000000000000     
  0.12500000000000000       0.93750000000000000        0.0000000000000000     
  0.15625000000000000       0.93750000000000000        0.0000000000000000     
  0.18750000000000000       0.93750000000000000        0.0000000000000000     
  0.21875000000000000       0.93750000000000000        0.0000000000000000     
  0.25000000000000000       0.93750000000000000        0.0000000000000000     
  0.12500000000000000       0.96875000000000000        0.0000000000000000     
  0.15625000000000000       0.96875000000000000        0.0000000000000000     
  0.18750000000000000       0.96875000000000000        0.0000000000000000     
  0.21875000000000000       0.96875000000000000        0.0000000000000000     
  0.25000000000000000       0.96875000000000000        0.0000000000000000     
  0.12500000000000000        1.0000000000000000        0.0000000000000000     
  0.15625000000000000        1.0000000000000000        0.0000000000000000     
  0.18750000000000000        1.0000000000000000        0.0000000000000000     
  0.21875000000000000        1.0000000000000000        0.0000000000000000     
  0.25000000000000000        1.0000000000000000        0.0000000000000000     
  0.25000000000000000       0.87500000000000000        0.0000000000000000     
  0.28125000000000000       0.87500000000000000        0.0000000000000000     
  0.31250000000000000       0.87500000000000000        0.0000000000000000     
  0.34375000000000000       0.87500000000000000        0.0000000000000000     
  0.37500000000000000       0.87500000000000000        0.0000000000000000     
  0.25000000000000000       0.90625000000000000        0.0000000000000000     
  0.28125000000000000       0.90625000000000000        0.0000000000000000     
  0.31250000000000000       0.90625000000000000        0.0000000000000000     
  0.34375000000000000       0.90625000000000000        0.0000000000000000     
  0.37500000000000000       0.90625000000000000        0.0000000000000000     
  0.25000000000000000       0.93750000000000000        0.0000000000000000     
  0.28125000000000000       0.93750000000000000        0.0000000000000000     
  0.31250000000000000       0.93750000000000000        0.0000000000000000     
  0.34375000000000000       0.93750000000000000        0.0000000000000000     
  0.37500000000000000       0.93750000000000000        0.0000000000000000     
  0.25000000000000000       0.96875000000000000        0.0000000000000000     
  0.28125000000000000       0.96875000000000000        0.0000000000000000     
  0.31250000000000000       0.96875000000000000        0.0000000000000000     
  0.34375000000000000       0.96875000000000000        0.0000000000000000     
  0.37500000000000000       0.96875000000000000        0.0000000000000000     
  0.25000000000000000        1.0000000000000000        0.0000000000000000     
  0.28125000000000000        1.0000000000000000        0.0000000000000000     
  0.31250000000000000        1.0000000000000000        0.0000000000000000     
  0.34375000000000000        1.0000000000000000        0.0000000000000000     
  0.37500000000000000        1.0000000000000000        0.0000000000000000     
  0.37500000000000000       0.87500000000000000        0.0000000000000000     
  0.40625000000000000       0.87500000000000000        0.0000000000000000     
  0.43750000000000000       0.87500000000000000        0.0000000000000000     
  0.46875000000000000       0.87500000000000000        0.0000000000000000     
  0.50000000000000000       0.87500000000000000        0.0000000000000000     
  0.37500000000000000       0.90625000000000000        0.0000000000000000     
  0.40625000000000000       0.90625000000000000        0.0000000000000000     
  0.43750000000000000       0.90625000000000000        0.0000000000000000     
  0.46875000000000000       0.90625000000000000        0.0000000000000000     
  0.50000000000000000       0.90625000000000000        0.0000000000000000     
  0.37500000000000000       0.93750000000000000        0.0000000000000000     
  0.40625000000000000       0.93750000000000000        0.0000000000000000     
  0.43750000000000000       0.93750000000000000        0.0000000000000000     
  0.46875000000000000       0.93750000000000000        0.0000000000000000     
  0.50000000000000000       0.93750000000000000        0.0000000000000000     
  0.37500000000000000       0.96875000000000000        0.0000000000000000     
  0.40625000000000000       0.96875000000000000        0.0000000000000000     
  0.43750000000000000       0.96875000000000000        0.0000000000000000     
  0.46875000000000000       0.96875000000000000        0.0000000000000000     
  0.50000000000000000       0.96875000000000000        0.0000000000000000     
  0.37500000000000000        1.0000000000000000        0.0000000000000000     
  0.40625000000000000        1.0000000000000000        0.0000000000000000     
  0.43750000000000000        1.0000000000000000        0.0000000000000000     
  0.46875000000000000        1.0000000000000000        0.0000000000000000     
  0.50000000000000000        1.0000000000000000        0.0000000000000000     
  0.50000000000000000       0.87500000000000000        0.0000000000000000     
  0.53125000000000000       0.87500000000000000        0.0000000000000000     
  0.56250000000000000       0.87500000000000000        0.0000000000000000     
  0.59375000000000000       0.87500000000000000        0.0000000000000000     
  0.62500000000000000       0.87500000000000000        0.0000000000000000     
  0.50000000000000000       0.90625000000000000        0.0000000000000000     
  0.53125000000000000       0.90625000000000000        0.0000000000000000     
  0.56250000000000000       0.90625000000000000        0.0000000000000000     
  0.59375000000000000       0.90625000000000000        0.0000000000000000     
  0.62500000000000000       0.90625000000000000        0.0000000000000000     
  0.50000000000000000       0.93750000000000000        0.0000000000000000     
  0.53125000000000000       0.93750000000000000        0.0000000000000000     
  0.56250000000000000       0.93750000000000000        0.0000000000000000     
  0.59375000000000000       0.93750000000000000        0.0000000000000000     
  0.62500000000000000       0.93750000000000000        0.0000000000000000     
  0.50000000000000000       0.96875000000000000        0.0000000000000000     
  0.53125000000000000       0.96875000000000000        0.0000000000000000     
  0.56250000000000000       0.96875000000000000        0.0000000000000000     
  0.59375000000000000       0.96875000000000000        0.0000000000000000     
  0.62500000000000000       0.96875000000000000        0.0000000000000000     
  0.50000000000000000        1.0000000000000000        0.0000000000000000     
  0.53125000000000000        1.0000000000000000        0.0000000000000000     
  0.56250000000000000        1.0000000000000000        0.0000000000000000     
  0.59375000000000000        1.0000000000000000        0.0000000000000000     
  0.62500000000000000        1.0000000000000000        0.0000000000000000     
  0.62500000000000000       0.87500000000000000        0.0000000000000000     
  0.65625000000000000       0.87500000000000000        0.0000000000000000     
  0.68750000000000000       0.87500000000000000        0.0000000000000000     
  0.71875000000000000       0.87500000000000000        0.0000000000000000     
  0.75000000000000000       0.87500000000000000        0.0000000000000000     
  0.62500000000000000       0.90625000000000000        0.0000000000000000     
  0.65625000000000000       0.90625000000000000        0.0000000000000000     
  0.68750000000000000       0.90625000000000000        0.0000000000000000     
  0.71875000000000000       0.90625000000000000        0.0000000000000000     
  0.75000000000000000       0.90625000000000000        0.0000000000000000     
  0.62500000000000000       0.93750000000000000        0.0000000000000000     
  0.65625000000000000       0.93750000000000000        0.0000000000000000     
  0.68750000000000000       0.93750000000000000        0.0000000000000000     
  0.71875000000000000       0.93750000000000000        0.0000000000000000     
  0.75000000000000000       0.93750000000000000        0.0000000000000000     
  0.62500000000000000       0.96875000000000000        0.0000000000000000     
  0.65625000000000000       0.96875000000000000        0.0000000000000000     
  0.68750000000000000       0.96875000000000000        0.0000000000000000     
  0.71875000000000000       0.96875000000000000        0.0000000000000000     
  0.75000000000000000       0.96875000000000000        0.0000000000000000     
  0.62500000000000000        1.0000000000000000        0.0000000000000000     
  0.65625000000000000        1.0000000000000000        0.0000000000000000     
  0.68750000000000000        1.0000000000000000        0.0000000000000000     
  0.71875000000000000        1.0000000000000000        0.0000000000000000     
  0.75000000000000000        1.0000000000000000        0.0000000000000000     
  0.75000000000000000       0.87500000000000000        0.0000000000000000     
  0.78125000000000000       0.87500000000000000        0.0000000000000000     
  0.81250000000000000       0.87500000000000000        0.0000000000000000     
  0.84375000000000000       0.87500000000000000        0.0000000000000000     
  0.87500000000000000       0.87500000000000000        0.0000000000000000     
  0.75000000000000000       0.90625000000000000        0.0000000000000000     
  0.78125000000000000       0.90625000000000000        0.0000000000000000     
  0.81250000000000000       0.90625000000000000        0.0000000000000000     
  0.84375000000000000       0.90625000000000000        0.0000000000000000     
  0.87500000000000000       0.90625000000000000        0.0000000000000000     
  0.75000000000000000       0.93750000000000000        0.0000000000000000     
  0.78125000000000000       0.93750000000000000        0.0000000000000000     
  0.81250000000000000       0.93750000000000000        0.0000000000000000     
  0.84375000000000000       0.93750000000000000        0.0000000000000000     
  0.87500000000000000       0.93750000000000000        0.0000000000000000     
  0.75000000000000000       0.96875000000000000        0.0000000000000000     
  0.78125000000000000       0.96875000000000000        0.0000000000000000     
  0.81250000000000000       0.96875000000000000        0.0000000000000000     
  0.84375000000000000       0.96875000000000000        0.0000000000000000     
  0.87500000000000000       0.96875000000000000        0.0000000000000000     
  0.75000000000000000        1.0000000000000000        0.0000000000000000     
  0.78125000000000000        1.0000000000000000        0.0000000000000000     
  0.81250000000000000        1.0000000000000000        0.0000000000000000     
  0.84375000000000000        1.0000000000000000        0.0000000000000000     
  0.87500000000000000        1.0000000000000000        0.0000000000000000     
  0.87500000000000000       0.87500000000000000        0.0000000000000000     
  0.90625000000000000       0.87500000000000000        0.0000000000000000     
  0.93750000000000000       0.87500000000000000        0.0000000000000000     
  0.96875000000000000       0.87500000000000000        0.0000000000000000     
   1.0000000000000000       0.87500000000000000        0.0000000000000000     
  0.87500000000000000       0.90625000000000000        0.0000000000000000     
  0.90625000000000000       0.90625000000000000        0.0000000000000000     
  0.93750000000000000       0.90625000000000000        0.0000000000000000     
  0.96875000000000000       0.90625000000000000        0.0000000000000000     
   1.0000000000000000       0.90625000000000000        0.0000000000000000     
  0.87500000000000000       0.93750000000000000        0.0000000000000000     
  0.90625000000000000       0.93750000000000000        0.0000000000000000     
  0.93750000000000000       0.93750000000000000        0.0000000000000000     
  0.96875000000000000       0.93750000000000000        0.0000000000000000     
   1.0000000000000000       0.93750000000000000        0.0000000000000000     
  0.87500000000000000       0.96875000000000000        0.0000000000000000     
  0.90625000000000000       0.96875000000000000        0.0000000000000000     
  0.93750000000000000       0.96875000000000000        0.0000000000000000     
  0.96875000000000000       0.96875000000000000        0.0000000000000000     
   1.0000000000000000       0.96875000000000000        0.0000000000000000     
  0.87500000000000000        1.0000000000000000        0.0000000000000000     
  0.90625000000000000        1.0000000000000000        0.0000000000000000     
  0.93750000000000000        1.0000000000000000        0.0000000000000000     
  0.96875000000000000        1.0000000000000000        0.0000000000000000     
   1.0000000000000000        1.0000000000000000        0.0000000000000000     
 </DataArray>
 </Points>
 <Cells>
 <DataArray  type="Int32"  Name="connectivity"  format="ascii">
           0           1           6           5
           1           2           7           6
           2           3           8           7
           3           4           9           8
           5           6          11          10
           6           7          12          11
           7           8          13          12
           8           9          14          13
          10          11          16          15
          11          12          17          16
          12          13          18          17
          13          14          19          18
          15          16          21          20
          16          17          22          21
          17          18          23          22
          18          19          24          23
          25          26          31          30
          26          27          32          31
          27          28          33          32
          28          29          34          33
          30          31          36          35
          31          32          37          36
          32          33          38          37
          33          34          39          38
          35          36          41          40
          36          37          42          41
          37          38          43          42
          38          39          44          43
          40          41          46          45
          41          42          47          46
          42          43          48          47
          43          44          49          48
          50          51          56          55
          51          52          57          56
          52          53          58          57
          53          54          59          58
          55          56          61          60
          56          57          62          61
          57          58          63          62
          58          59          64          63
          60          61          66          65
          61          62          67          66
          62          63          68          67
          63          64          69          68
          65          66          71          70
          66          67          72          71
          67          68          73          72
          68          69          74          73
          75          76          81          80
          76          77          82          81
          77          78          83          82
          78          79          84          83
          80          81          86          85
          81          82          87          86
          82          83          88          87
          83          84          89          88
          85          86          91          90
          86          87          92          91
          87          88          93          92
          88          89          94          93
          90          91          96          95
          91          92          97          96
          92          93          98          97
          93          94          99          98
         100         101         106         105
         101         102         107         106
         102         103         108         107
         103         104         109         108
         105         106         111         110
         106         107         112         111
         107         108         113         112
         108         109         114         113
         110         111         116         115
         111         112         117         116
         112         113         118         117
         113         114         119         118
         115         116         121         120
         116         117         122         121
         117         118         123         122
         118         119         124         123
         125         126         131         130
         126         127         132         131
         127         128         133         132
         128         129         134         133
         130         131         136         135
         131         132         137         136
         132         133         138         137
         133         134         139         138
         135         136         141         140
         136         137         142         141
         137         138         143         142
         138         139         144         143
         140         141         146         145
         141         142         147         146
         142         143         148         147
         143         144         149         148
         150         151         156         155
         151         152         157         156
         152         153         158         157
         153         154         159         158
         155         156         161         160
         156         157         162         161
         157         158         163         162
         158         159         164         163
         160         161         166         165
         161         162         167         166
         162         163         168         167
         163         164         169         168
         165         166         171         170
         166         167         172         171
         167         168         173         172
         168         169         174         173
         175         176         181         180
         176         177         182         181
         177         178         183         182
         178         179         184         183
         180         181         186         185
         181         182         187         186
         182         183         188         187
         183         184         189         188
         185         186         191         190
         186         187         192         191
         187         188         193         192
         188         189         194         193
         190         191         196         195
         191         192         197         196
         192         193         198         197
         193         194         199         198
         200         201         206         205
         201         202         207         206
         202         203         208         207
         203         204         209         208
         205         206         211         210
         206         207         212         211
         207         208         213         212
         208         209         214         213
         210         211         216         215
         211         212         217         216
         212         213         218         217
         213         214         219         218
         215         216         221         220
         216         217         222         221
         217         218         223         222
         218         219         224         223
         225         226         231         230
         226         227         232         231
         227         228         233         232
         228         229         234         233
         230         231         236         235
         231         232         237         236
         232         233         238         237
         233         234         239         238
         235         236         241         240
         236         237         242         241
         237         238         243         242
         238         239         244         243
         240         241         246         245
         241         242         247         246
         242         243         248         247
         243         244         249         248
         250         251         256         255
         251         252         257         256
         252         253         258         257
         253         254         259         258
         255         256         261         260
         256         257         262         261
         257         258         263         262
         258         259         264         263
         260         261         266         265
         261         262         267         266
         262         263         268         267
         263         264         269         268
         265         266         271         270
         266         267         272         271
         267         268         273         272
         268         269         274         273
         275         276         281         280
         276         277         282         281
         277         278         283         282
         278         279         284         283
         280         281         286         285
         281         282         287         286
         282         283         288         287
         283         284         289         288
         285         286         291         290
         286         287         292         291
         287         288         293         292
         288         289         294         293
         290         291         296         295
         291         292         297         296
         292         293         298         297
         293         294         299         298
         300         301         306         305
         301         302         307         306
         302         303         308         307
         303         304         309         308
         305         306         311         310
         306         307         312         311
         307         308         313         312
         308         309         314         313
         310         311         316         315
         311         312         317         316
         312         313         318         317
         313         314         319         318
         315         316         321         320
         316         317         322         321
         317         318         323         322
         318         319         324         323
         325         326         331         330
         326         327         332         331
         327         328         333         332
         328         329         334         333
         330         331         336         335
         331         332         337         336
         332         333         338         337
         333         334         339         338
         335         336         341         340
         336         337         342         341
         337         338         343         342
         338         339         344         343
         340         341         346         345
         341         342         347         346
         342         343         348         347
         343         344         349         348
         350         351         356         355
         351         352         357         356
         352         353         358         357
         353         354         359         358
         355         356         361         360
         356         357         362         361
         357         358         363         362
         358         359         364         363
         360         361         366         365
         361         362         367         366
         362         363         368         367
         363         364         369         368
         365         366         371         370
         366         367         372         371
         367         368         373         372
         368         369         374         373
         375         376         381         380
         376         377         382         381
         377         378         383         382
         378         379         384         383
         380         381         386         385
         381         382         387         386
         382         383         388         387
         383         384         389         388
         385         386         391         390
         386         387         392         391
         387         388         393         392
         388         389         394         393
         390         391         396         395
         391         392         397         396
         392         393         398         397
         393         394         399         398
         400         401         406         405
         401         402         407         406
         402         403         408         407
         403         404         409         408
         405         406         411         410
         406         407         412         411
         407         408         413         412
         408         409         414         413
         410         411         416         415
         411         412         417         416
         412         413         418         417
         413         414         419         418
         415         416         421         420
         416         417         422         421
         417         418         423         422
         418         419         424         423
         425         426         431         430
         426         427         432         431
         427         428         433         432
         428         429         434         433
         430         431         436         435
         431         432         437         436
         432         433         438         437
         433         434         439         438
         435         436         441         440
         436         437         442         441
         437         438         443         442
         438         439         444         443
         440         441         446         445
         441         442         447         446
         442         443         448         447
         443         444         449         448
         450         451         456         455
         451         452         457         456
         452         453         458         457
         453         454         459         458
         455         456         461         460
         456         457         462         461
         457         458         463         462
         458         459         464         463
         460         461         466         465
         461         462         467         466
         462         463         468         467
         463         464         469         468
         465         466         471         470
         466         467         472         471
         467         468         473         472
         468         469         474         473
         475         476         481         480
         476         477         482         481
         477         478         483         482
         478         479         484         483
         480         481         486         485
         481         482         487         486
         482         483         488         487
         483         484         489         488
         485         486         491         490
         486         487         492         491
         487         488         493         492
         488         489         494         493
         490         491         496         495
         491         492         497         496
         492         493         498         497
         493         494         499         498
         500         501         506         505
         501         502         507         506
         502         503         508         507
         503         504         509         508
         505         506         511         510
         506         507         512         511
         507         508         513         512
         508         509         514         513
         510         511         516         515
         511         512         517         516
         512         513         518         517
         513         514         519         518
         515         516         521         520
         516         517         522         521
         517         518         523         522
         518         519         524         523
         525         526         531         530
         526         527         532         531
         527         528         533         532
         528         529         534         533
         530         531         536         535
         531         532         537         536
         532         533         538         537
         533         534         539         538
         535         536         541         540
         536         537         542         541
         537         538         543         542
         538         539         544         543
         540         541         546         545
         541         542         547         546
         542         543         548         547
         543         544         549         548
         550         551         556         555
         551         552         557         556
         552         553         558         557
         553         554         559         558
         555         556         561         560
         556         557         562         561
         557         558         563         562
         558         559         564         563
         560         561         566         565
         561         562         567         566
         562         563         568         567
         563         564         569         568
         565         566         571         570
         566         567         572         571
         567         568         573         572
         568         569         574         573
         575         576         581         580
         576         577         582         581
         577         578         583         582
         578         579         584         583
         580         581         586         585
         581         582         587         586
         582         583         588         587
         583         584         589         588
         585         586         591         590
         586         587         592         591
         587         588         593         592
         588         589         594         593
         590         591         596         595
         591         592         597         596
         592         593         598         597
         593         594         599         598
         600         601         606         605
         601         602         607         606
         602         603         608         607
         603         604         609         608
         605         606         611         610
         606         607         612         611
         607         608         613         612
         608         609         614         613
         610         611         616         615
         611         612         617         616
         612         613         618         617
         613         614         619         618
         615         616         621         620
         616         617         622         621
         617         618         623         622
         618         619         624         623
         625         626         631         630
         626         627         632         631
         627         628         633         632
         628         629         634         633
         630         631         636         635
         631         632         637         636
         632         633         638         637
         633         634         639         638
         635         636         641         640
         636         637         642         641
         637         638         643         642
         638         639         644         643
         640         641         646         645
         641         642         647         646
         642         643         648         647
         643         644         649         648
         650         651         656         655
         651         652         657         656
         652         653         658         657
         653         654         659         658
         655         656         661         660
         656         657         662         661
         657         658         663         662
         658         659         664         663
         660         661         666         665
         661         662         667         666
         662         663         668         667
         663         664         669         668
         665         666         671         670
         666         667         672         671
         667         668         673         672
         668         669         674         673
         675         676         681         680
         676         677         682         681
         677         678         683         682
         678         679         684         683
         680         681         686         685
         681         682         687         686
         682         683         688         687
         683         684         689         688
         685         686         691         690
         686         687         692         691
         687         688         693         692
         688         689         694         693
         690         691         696         695
         691         692         697         696
         692         693         698         697
         693         694         699         698
         700         701         706         705
         701         702         707         706
         702         703         708         707
         703         704         709         708
         705         706         711         710
         706         707         712         711
         707         708         713         712
         708         709         714         713
         710         711         716         715
         711         712         717         716
         712         713         718         717
         713         714         719         718
         715         716         721         720
         716         717         722         721
         717         718         723         722
         718         719         724         723
         725         726         731         730
         726         727         732         731
         727         728         733         732
         728         729         734         733
         730         731         736         735
         731         732         737         736
         732         733         738         737
         733         734         739         738
         735         736         741         740
         736         737         742         741
         737         738         743         742
         738         739         744         743
         740         741         746         745
         741         742         747         746
         742         743         748         747
         743         744         749         748
         750         751         756         755
         751         752         757         756
         752         753         758         757
         753         754         759         758
         755         756         761         760
         756         757         762         761
         757         758         763         762
         758         759         764         763
         760         761         766         765
         761         762         767         766
         762         763         768         767
         763         764         769         768
         765         766         771         770
         766         767         772         771
         767         768         773         772
         768         769         774         773
         775         776         781         780
         776         777         782         781
         777         778         783         782
         778         779         784         783
         780         781         786         785
         781         782         787         786
         782         783         788         787
         783         784         789         788
         785         786         791         790
         786         787         792         791
         787         788         793         792
         788         789         794         793
         790         791         796         795
         791         792         797         796
         792         793         798         797
         793         794         799         798
         800         801         806         805
         801         802         807         806
         802         803         808         807
         803         804         809         808
         805         806         811         810
         806         807         812         811
         807         808         813         812
         808         809         814         813
         810         811         816         815
         811         812         817         816
         812         813         818         817
         813         814         819         818
         815         816         821         820
         816         817         822         821
         817         818         823         822
         818         819         824         823
         825         826         831         830
         826         827         832         831
         827         828         833         832
         828         829         834         833
         830         831         836         835
         831         832         837         836
         832         833         838         837
         833         834         839         838
         835         836         841         840
         836         837         842         841
         837         838         843         842
         838         839         844         843
         840         841         846         845
         841         842         847         846
         842         843         848         847
         843         844         849         848
         850         851         856         855
         851         852         857         856
         852         853         858         857
         853         854         859         858
         855         856         861         860
         856         857         862         861
         857         858         863         862
         858         859         864         863
         860         861         866         865
         861         862         867         866
         862         863         868         867
         863         864         869         868
         865         866         871         870
         866         867         872         871
         867         868         873         872
         868         869         874         873
         875         876         881         880
         876         877         882         881
         877         878         883         882
         878         879         884         883
         880         881         886         885
         881         882         887         886
         882         883         888         887
         883         884         889         888
         885         886         891         890
         886         887         892         891
         887         888         893         892
         888         889         894         893
         890         891         896         895
         891         892         897         896
         892         893         898         897
         893         894         899         898
         900         901         906         905
         901         902         907         906
         902         903         908         907
         903         904         909         908
         905         906         911         910
         906         907         912         911
         907         908         913         912
         908         909         914         913
         910         911         916         915
         911         912         917         916
         912         913         918         917
         913         914         919         918
         915         916         921         920
         916         917         922         921
         917         918         923         922
         918         919         924         923
         925         926         931         930
         926         927         932         931
         927         928         933         932
         928         929         934         933
         930         931         936         935
         931         932         937         936
         932         933         938         937
         933         934         939         938
         935         936         941         940
         936         937         942         941
         937         938         943         942
         938         939         944         943
         940         941         946         945
         941         942         947         946
         942         943         948         947
         943         944         949         948
         950         951         956         955
         951         952         957         956
         952         953         958         957
         953         954         959         958
         955         956         961         960
         956         957         962         961
         957         958         963         962
         958         959         964         963
         960         961         966         965
         961         962         967         966
         962         963         968         967
         963         964         969         968
         965         966         971         970
         966         967         972         971
         967         968         973         972
         968         969         974         973
         975         976         981         980
         976         977         982         981
         977         978         983         982
         978         979         984         983
         980         981         986         985
         981         982         987         986
         982         983         988         987
         983         984         989         988
         985         986         991         990
         986         987         992         991
         987         988         993         992
         988         989         994         993
         990         991         996         995
         991         992         997         996
         992         993         998         997
         993         994         999         998
        1000        1001        1006        1005
        1001        1002        1007        1006
        1002        1003        1008        1007
        1003        1004        1009        1008
        1005        1006        1011        1010
        1006        1007        1012        1011
        1007        1008        1013        1012
        1008        1009        1014        1013
        1010        1011        1016        1015
        1011        1012        1017        1016
        1012        1013        1018        1017
        1013        1014        1019        1018
        1015        1016        1021        1020
        1016        1017        1022        1021
        1017        1018        1023        1022
        1018        1019        1024        1023
        1025        1026        1031        1030
        1026        1027        1032        1031
        1027        1028        1033        1032
        1028        1029        1034        1033
        1030        1031        1036        1035
        1031        1032        1037        1036
        1032        1033        1038        1037
        1033        1034        1039        1038
        1035        1036        1041        1040
        1036        1037        1042        1041
        1037        1038        1043        1042
        1038        1039        1044        1043
        1040        1041        1046        1045
        1041        1042        1047        1046
        1042        1043        1048        1047
        1043        1044        1049        1048
        1050        1051        1056        1055
        1051        1052        1057        1056
        1052        1053        1058        1057
        1053        1054        1059        1058
        1055        1056        1061        1060
        1056        1057        1062        1061
        1057        1058        1063        1062
        1058        1059        1064        1063
        1060        1061        1066        1065
        1061        1062        1067        1066
        1062        1063        1068        1067
        1063        1064        1069        1068
        1065        1066        1071        1070
        1066        1067        1072        1071
        1067        1068        1073        1072
        1068        1069        1074        1073
        1075        1076        1081        1080
        1076        1077        1082        1081
        1077        1078        1083        1082
        1078        1079        1084        1083
        1080        1081        1086        1085
        1081        1082        1087        1086
        1082        1083        1088        1087
        1083        1084        1089        1088
        1085        1086        1091        1090
        1086        1087        1092        1091
        1087        1088        1093        1092
        1088        1089        1094        1093
        1090        1091        1096        1095
        1091        1092        1097        1096
        1092        1093        1098        1097
        1093        1094        1099        1098
        1100        1101        1106        1105
        1101        1102        1107        1106
        1102        1103        1108        1107
        1103        1104        1109        1108
        1105        1106        1111        1110
        1106        1107        1112        1111
        1107        1108        1113        1112
        1108        1109        1114        1113
        1110        1111        1116        1115
        1111        1112        1117        1116
        1112        1113        1118        1117
        1113        1114        1119        1118
        1115        1116        1121        1120
        1116        1117        1122        1121
        1117        1118        1123        1122
        1118        1119        1124        1123
        1125        1126        1131        1130
        1126        1127        1132        1131
        1127        1128        1133        1132
        1128        1129        1134        1133
        1130        1131        1136        1135
        1131        1132        1137        1136
        1132        1133        1138        1137
        1133        1134        1139        1138
        1135        1136        1141        1140
        1136        1137        1142        1141
        1137        1138        1143        1142
        1138        1139        1144        1143
        1140        1141        1146        1145
        1141        1142        1147        1146
        1142        1143        1148        1147
        1143        1144        1149        1148
        1150        1151        1156        1155
        1151        1152        1157        1156
        1152        1153        1158        1157
        1153        1154        1159        1158
        1155        1156        1161        1160
        1156        1157        1162        1161
        1157        1158        1163        1162
        1158        1159        1164        1163
        1160        1161        1166        1165
        1161        1162        1167        1166
        1162        1163        1168        1167
        1163        1164        1169        1168
        1165        1166        1171        1170
        1166        1167        1172        1171
        1167        1168        1173        1172
        1168        1169        1174        1173
        1175        1176        1181        1180
        1176        1177        1182        1181
        1177        1178        1183        1182
        1178        1179        1184        1183
        1180        1181        1186        1185
        1181        1182        1187        1186
        1182        1183        1188        1187
        1183        1184        1189        1188
        1185        1186        1191        1190
        1186        1187        1192        1191
        1187        1188        1193        1192
        1188        1189        1194        1193
        1190        1191        1196        1195
        1191        1192        1197        1196
        1192        1193        1198        1197
        1193        1194        1199        1198
        1200        1201        1206        1205
        1201        1202        1207        1206
        1202        1203        1208        1207
        1203        1204        1209        1208
        1205        1206        1211        1210
        1206        1207        1212        1211
        1207        1208        1213        1212
        1208        1209        1214        1213
        1210        1211        1216        1215
        1211        1212        1217        1216
        1212        1213        1218        1217
        1213        1214        1219        1218
        1215        1216        1221        1220
        1216        1217        1222        1221
        1217        1218        1223        1222
        1218        1219        1224        1223
        1225        1226        1231        1230
        1226        1227        1232        1231
        1227        1228        1233        1232
        1228        1229        1234        1233
        1230        1231        1236        1235
        1231        1232        1237        1236
        1232        1233        1238        1237
        1233        1234        1239        1238
        1235        1236        1241        1240
        1236        1237        1242        1241
        1237        1238        1243        1242
        1238        1239        1244        1243
        1240        1241        1246        1245
        1241        1242        1247        1246
        1242        1243        1248        1247
        1243        1244        1249        1248
        1250        1251        1256        1255
        1251        1252        1257        1256
        1252        1253        1258        1257
        1253        1254        1259        1258
        1255        1256        1261        1260
        1256        1257        1262        1261
        1257        1258        1263        1262
        1258        1259        1264        1263
        1260        1261        1266        1265
        1261        1262        1267        1266
        1262        1263        1268        1267
        1263        1264        1269        1268
        1265        1266        1271        1270
        1266        1267        1272        1271
        1267        1268        1273        1272
        1268        1269        1274        1273
        1275        1276        1281        1280
        1276        1277        1282        1281
        1277        1278        1283        1282
        1278        1279        1284        1283
        1280        1281        1286        1285
        1281        1282        1287        1286
        1282        1283        1288        1287
        1283        1284        1289        1288
        1285        1286        1291        1290
        1286        1287        1292        1291
        1287        1288        1293        1292
        1288        1289        1294        1293
        1290        1291        1296        1295
        1291        1292        1297        1296
        1292        1293        1298        1297
        1293        1294        1299        1298
        1300        1301        1306        1305
        1301        1302        1307        1306
        1302        1303        1308        1307
        1303        1304        1309        1308
        1305        1306        1311        1310
        1306        1307        1312        1311
        1307        1308        1313        1312
        1308        1309        1314        1313
        1310        1311        1316        1315
        1311        1312        1317        1316
        1312        1313        1318        1317
        1313        1314        1319        1318
        1315        1316        1321        1320
        1316        1317        1322        1321
        1317        1318        1323        1322
        1318        1319        1324        1323
        1325        1326        1331        1330
        1326        1327        1332        1331
        1327        1328        1333        1332
        1328        1329        1334        1333
        1330        1331        1336        1335
        1331        1332        1337        1336
        1332        1333        1338        1337
        1333        1334        1339        1338
        1335        1336        1341        1340
        1336        1337        1342        1341
        1337        1338        1343        1342
        1338        1339        1344        1343
        1340        1341        1346        1345
        1341        1342        1347        1346
        1342        1343        1348        1347
        1343        1344        1349        1348
        1350        1351        1356        1355
        1351        1352        1357        1356
        1352        1353        1358        1357
        1353        1354        1359        1358
        1355        1356        1361        1360
        1356        1357        1362        1361
        1357        1358        1363        1362
        1358        1359        1364        1363
        1360        1361        1366        1365
        1361        1362        1367        1366
        1362        1363        1368        1367
        1363        1364        1369        1368
        1365        1366        1371        1370
        1366        1367        1372        1371
        1367        1368        1373        1372
        1368        1369        1374        1373
        1375        1376        1381        1380
        1376        1377        1382        1381
        1377        1378        1383        1382
        1378        1379        1384        1383
        1380        1381        1386        1385
        1381        1382        1387        1386
        1382        1383        1388        1387
        1383        1384        1389        1388
        1385        1386        1391        1390
        1386        1387        1392        1391
        1387        1388        1393        1392
        1388        1389        1394        1393
        1390        1391        1396        1395
        1391        1392        1397        1396
        1392        1393        1398        1397
        1393        1394        1399        1398
        1400        1401        1406        1405
        1401        1402        1407        1406
        1402        1403        1408        1407
        1403        1404        1409        1408
        1405        1406        1411        1410
        1406        1407        1412        1411
        1407        1408        1413        1412
        1408        1409        1414        1413
        1410        1411        1416        1415
        1411        1412        1417        1416
        1412        1413        1418        1417
        1413        1414        1419        1418
        1415        1416        1421        1420
        1416        1417        1422        1421
        1417        1418        1423        1422
        1418        1419        1424        1423
        1425        1426        1431        1430
        1426        1427        1432        1431
        1427        1428        1433        1432
        1428        1429        1434        1433
        1430        1431        1436        1435
        1431        1432        1437        1436
        1432        1433        1438        1437
        1433        1434        1439        1438
        1435        1436        1441        1440
        1436        1437        1442        1441
        1437        1438        1443        1442
        1438        1439        1444        1443
        1440        1441        1446        1445
        1441        1442        1447        1446
        1442        1443        1448        1447
        1443        1444        1449        1448
        1450        1451        1456        1455
        1451        1452        1457        1456
        1452        1453        1458        1457
        1453        1454        1459        1458
        1455        1456        1461        1460
        1456        1457        1462        1461
        1457        1458        1463        1462
        1458        1459        1464        1463
        1460        1461        1466        1465
        1461        1462        1467        1466
        1462        1463        1468        1467
        1463        1464        1469        1468
        1465        1466        1471        1470
        1466        1467        1472        1471
        1467        1468        1473        1472
        1468        1469        1474        1473
        1475        1476        1481        1480
        1476        1477        1482        1481
        1477        1478        1483        1482
        1478        1479        1484        1483
        1480        1481        1486        1485
        1481        1482        1487        1486
        1482        1483        1488        1487
        1483        1484        1489        1488
        1485        1486        1491        1490
        1486        1487        1492        1491
        1487        1488        1493        1492
        1488        1489        1494        1493
        1490        1491        1496        1495
        1491        1492        1497        1496
        1492        1493        1498        1497
        1493        1494        1499        1498
        1500        1501        1506        1505
        1501        1502        1507        1506
        1502        1503        1508        1507
        1503        1504        1509        1508
        1505        1506        1511        1510
        1506        1507        1512        1511
        1507        1508        1513        1512
        1508        1509        1514        1513
        1510        1511        1516        1515
        1511        1512        1517        1516
        1512        1513        1518        1517
        1513        1514        1519        1518
        1515        1516        1521        1520
        1516        1517        1522        1521
        1517        1518        1523        1522
        1518        1519        1524        1523
        1525        1526        1531        1530
        1526        1527        1532        1531
        1527        1528        1533        1532
        1528        1529        1534        1533
        1530        1531        1536        1535
        1531        1532        1537        1536
        1532        1533        1538        1537
        1533        1534        1539        1538
        1535        1536        1541        1540
        1536        1537        1542        1541
        1537        1538        1543        1542
        1538        1539        1544        1543
        1540        1541        1546        1545
        1541        1542        1547        1546
        1542        1543        1548        1547
        1543        1544        1549        1548
        1550        1551        1556        1555
        1551        1552        1557        1556
        1552        1553        1558        1557
        1553        1554        1559        1558
        1555        1556        1561        1560
        1556        1557        1562        1561
        1557        1558        1563        1562
        1558        1559        1564        1563
        1560        1561        1566        1565
        1561        1562        1567        1566
        1562        1563        1568        1567
        1563        1564        1569        1568
        1565        1566        1571        1570
        1566        1567        1572        1571
        1567        1568        1573        1572
        1568        1569        1574        1573
        1575        1576        1581        1580
        1576        1577        1582        1581
        1577        1578        1583        1582
        1578        1579        1584        1583
        1580        1581        1586        1585
        1581        1582        1587        1586
        1582        1583        1588        1587
        1583        1584        1589        1588
        1585        1586        1591        1590
        1586        1587        1592        1591
        1587        1588        1593        1592
        1588        1589        1594        1593
        1590        1591        1596        1595
        1591        1592        1597        1596
        1592        1593        1598        1597
        1593        1594        1599        1598
 </DataArray>
 <DataArray  type="Int32"  Name="offsets"  format="ascii"> 
           4
           8
          12
          16
          20
          24
          28
          32
          36
          40
          44
          48
          52
          56
          60
          64
          68
          72
          76
          80
          84
          88
          92
          96
         100
         104
         108
         112
         116
         120
         124
         128
         132
         136
         140
         144
         148
         152
         156
         160
         164
         168
         172
         176
         180
         184
         188
         192
         196
         200
         204
         208
         212
         216
         220
         224
         228
         232
         236
         240
         244
         248
         252
         256
         260
         264
         268
         272
         276
         280
         284
         288
         292
         296
         300
         304
         308
         312
         316
         320
         324
         328
         332
         336
         340
         344
         348
         352
         356
         360
         364
         368
         372
         376
         380
         384
         388
         392
         396
         400
         404
         408
         412
         416
         420
         424
         428
         432
         436
         440
         444
         448
         452
         456
         460
         464
         468
         472
         476
         480
         484
         488
         492
         496
         500
         504
         508
         512
         516
         520
         524
         528
         532
         536
         540
         544
         548
         552
         556
         560
         564
         568
         572
         576
         580
         584
         588
         592
         596
         600
         604
         608
         612
         616
         620
         624
         628
         632
         636
         640
         644
         648
         652
         656
         660
         664
         668
         672
         676
         680
         684
         688
         692
         696
         700
         704
         708
         712
         716
         720
         724
         728
         732
         736
         740
         744
         748
         752
         756
         760
         764
         768
         772
         776
         780
         784
         788
         792
         796
         800
         804
         808
         812
         816
         820
         824
         828
         832
         836
         840
         844
         848
         852
         856
         860
         864
         868
         872
         876
         880
         884
         888
         892
         896
         900
         904
         908
         912
         916
         920
         924
         928
         932
         936
         940
         944
         948
         952
         956
         960
         964
         968
         972
         976
         980
         984
         988
         992
         996
        1000
        1004
        1008
        1012
        1016
        1020
        1024
        1028
        1032
        1036
        1040
        1044
        1048
        1052
        1056
        1060
        1064
        1068
        1072
        1076
        1080
        1084
        1088
        1092
        1096
        1100
        1104
        1108
        1112
        1116
        1120
        1124
        1128
        1132
        1136
        1140
        1144
        1148
        1152
        1156
        1160
        1164
        1168
        1172
        1176
        1180
        1184
        1188
        1192
        1196
        1200
        1204
        1208
        1212
        1216
        1220
        1224
        1228
        1232
        1236
        1240
        1244
        1248
        1252
        1256
        1260
        1264
        1268
        1272
        1276
        1280
        1284
        1288
        1292
        1296
        1300
        1304
        1308
        1312
        1316
        1320
        1324
        1328
        1332
        1336
        1340
        1344
        1348
        1352
        1356
        1360
        1364
        1368
        1372
        1376
        1380
        1384
        1388
        1392
        1396
        1400
        1404
        1408
        1412
        1416
        1420
        1424
        1428
        1432
        1436
        1440
        1444
        1448
        1452
        1456
        1460
        1464
        1468
        1472
        1476
        1480
        1484
        1488
        1492
        1496
        1500
        1504
        1508
        1512
        1516
        1520
        1524
        1528
        1532
        1536
        1540
        1544
        1548
        1552
        1556
        1560
        1564
        1568
        1572
        1576
        1580
        1584
        1588
        1592
        1596
        1600
        1604
        1608
        1612
        1616
        1620
        1624
        1628
        1632
        1636
        1640
        1644
        1648
        1652
        1656
        1660
        1664
        1668
        1672
        1676
        1680
        1684
        1688
        1692
        1696
        1700
        1704
        1708
        1712
        1716
        1720
        1724
        1728
        1732
        1736
        1740
        1744
        1748
        1752
        1756
        1760
        1764
        1768
        1772
        1776
        1780
        1784
        1788
        1792
        1796
        1800
        1804
        1808
        1812
        1816
        1820
        1824
        1828
        1832
        1836
        1840
        1844
        1848
        1852
        1856
        1860
        1864
        1868
        1872
        1876
        1880
        1884
        1888
        1892
        1896
        1900
        1904
        1908
        1912
        1916
        1920
        1924
        1928
        1932
        1936
        1940
        1944
        1948
        1952
        1956
        1960
        1964
        1968
        1972
        1976
        1980
        1984
        1988
        1992
        1996
        2000
        2004
        2008
        2012
        2016
        2020
        2024
        2028
        2032
        2036
        2040
        2044
        2048
        2052
        2056
        2060
        2064
        2068
        2072
        2076
        2080
        2084
        2088
        2092
        2096
        2100
        2104
        2108
        2112
        2116
        2120
        2124
        2128
        2132
        2136
        2140
        2144
        2148
        2152
        2156
        2160
        2164
        2168
        2172
        2176
        2180
        2184
        2188
        2192
        2196
        2200
        2204
        2208
        2212
        2216
        2220
        2224
        2228
        2232
        2236
        2240
        2244
        2248
        2252
        2256
        2260
        2264
        2268
        2272
        2276
        2280
        2284
        2288
        2292
        2296
        2300
        2304
        2308
        2312
        2316
        2320
        2324
        2328
        2332
        2336
        2340
        2344
        2348
        2352
        2356
        2360
        2364
        2368
        2372
        2376
        2380
        2384
        2388
        2392
        2396
        2400
        2404
        2408
        2412
        2416
        2420
        2424
        2428
        2432
        2436
        2440
        2444
        2448
        2452
        2456
        2460
        2464
        2468
        2472
        2476
        2480
        2484
        2488
        2492
        2496
        2500
        2504
        2508
        2512
        2516
        2520
        2524
        2528
        2532
        2536
        2540
        2544
        2548
        2552
        2556
        2560
        2564
        2568
        2572
        2576
        2580
        2584
        2588
        2592
        2596
        2600
        2604
        2608
        2612
        2616
        2620
        2624
        2628
        2632
        2636
        2640
        2644
        2648
        2652
        2656
        2660
        2664
        2668
        2672
        2676
        2680
        2684
        2688
        2692
        2696
        2700
        2704
        2708
        2712
        2716
        2720
        2724
        2728
        2732
        2736
        2740
        2744
        2748
        2752
        2756
        2760
        2764
        2768
        2772
        2776
        2780
        2784
        2788
        2792
        2796
        2800
        2804
        2808
        2812
        2816
        2820
        2824
        2828
        2832
        2836
        2840
        2844
        2848
        2852
        2856
        2860
        2864
        2868
        2872
        2876
        2880
        2884
        2888
        2892
        2896
        2900
        2904
        2908
        2912
        2916
        2920
        2924
        2928
        2932
        2936
        2940
        2944
        2948
        2952
        2956
        2960
        2964
        2968
        2972
        2976
        2980
        2984
        2988
        2992
        2996
        3000
        3004
        3008
        3012
        3016
        3020
        3024
        3028
        3032
        3036
        3040
        3044
        3048
        3052
        3056
        3060
        3064
        3068
        3072
        3076
        3080
        3084
        3088
        3092
        3096
        3100
        3104
        3108
        3112
        3116
        3120
        3124
        3128
        3132
        3136
        3140
        3144
        3148
        3152
        3156
        3160
        3164
        3168
        3172
        3176
        3180
        3184
        3188
        3192
        3196
        3200
        3204
        3208
        3212
        3216
        3220
        3224
        3228
        3232
        3236
        3240
        3244
        3248
        3252
        3256
        3260
        3264
        3268
        3272
        3276
        3280
        3284
        3288
        3292
        3296
        3300
        3304
        3308
        3312
        3316
        3320
        3324
        3328
        3332
        3336
        3340
        3344
        3348
        3352
        3356
        3360
        3364
        3368
        3372
        3376
        3380
        3384
        3388
        3392
        3396
        3400
        3404
        3408
        3412
        3416
        3420
        3424
        3428
        3432
        3436
        3440
        3444
        3448
        3452
        3456
        3460
        3464
        3468
        3472
        3476
        3480
        3484
        3488
        3492
        3496
        3500
        3504
        3508
        3512
        3516
        3520
        3524
        3528
        3532
        3536
        3540
        3544
        3548
        3552
        3556
        3560
        3564
        3568
        3572
        3576
        3580
        3584
        3588
        3592
        3596
        3600
        3604
        3608
        3612
        3616
        3620
        3624
        3628
        3632
        3636
        3640
        3644
        3648
        3652
        3656
        3660
        3664
        3668
        3672
        3676
        3680
        3684
        3688
        3692
        3696
        3700
        3704
        3708
        3712
        3716
        3720
        3724
        3728
        3732
        3736
        3740
        3744
        3748
        3752
        3756
        3760
        3764
        3768
        3772
        3776
        3780
        3784
        3788
        3792
        3796
        3800
        3804
        3808
        3812
        3816
        3820
        3824
        3828
        3832
        3836
        3840
        3844
        3848
        3852
        3856
        3860
        3864
        3868
        3872
        3876
        3880
        3884
        3888
        3892
        3896
        3900
        3904
        3908
        3912
        3916
        3920
        3924
        3928
        3932
        3936
        3940
        3944
        3948
        3952
        3956
        3960
        3964
        3968
        3972
        3976
        3980
        3984
        3988
        3992
        3996
        4000
        4004
        4008
        4012
        4016
        4020
        4024
        4028
        4032
        4036
        4040
        4044
        4048
        4052
        4056
        4060
        4064
        4068
        4072
        4076
        4080
        4084
        4088
        4092
        4096
 </DataArray>
 <DataArray  type="UInt8"  Name="types"  format="ascii">
 9
 9
 9
 9
 9
 9
 9
 9
 9
 9
 9
 9
 9
 9
 9
 9
 9
 9
 9
 9
 9
 9
 9
 9
 9
 9
 9
 9
 9
 9
 9
 9
 9
 9
 9
 9
 9
 9
 9
 9
 9
 9
 9
 9
 9
 9
 9
 9
 9
 9
 9
 9
 9
 9
 9
 9
 9
 9
 9
 9
 9
 9
 9
 9
 9
 9
 9
 9
 9
 9
 9
 9
 9
 9
 9
 9
 9
 9
 9
 9
 9
 9
 9
 9
 9
 9
 9
 9
 9
 9
 9
 9
 9
 9
 9
 9
 9
 9
 9
 9
 9
 9
 9
 9
 9
 9
 9
 9
 9
 9
 9
 9
 9
 9
 9
 9
 9
 9
 9
 9
 9
 9
 9
 9
 9
 9
 9
 9
 9
 9
 9
 9
 9
 9
 9
 9
 9
 9
 9
 9
 9
 9
 9
 9
 9
 9
 9
 9
 9
 9
 9
 9
 9
 9
 9
 9
 9
 9
 9
 9
 9
 9
 9
 9
 9
 9
 9
 9
 9
 9
 9
 9
 9
 9
 9
 9
 9
 9
 9
 9
 9
 9
 9
 9
 9
 9
 9
 9
 9
 9
 9
 9
 9
 9
 9
 9
 9
 9
 9
 9
 9
 9
 9
 9
 9
 9
 9
 9
 9
 9
 9
 9
 9
 9
 9
 9
 9
 9
 9
 9
 9
 9
 9
 9
 9
 9
 9
 9
 9
 9
 9
 9
 9
 9
 9
 9
 9
 9
 9
 9
 9
 9
 9
 9
 9
 9
 9
 9
 9
 9
 9
 9
 9
 9
 9
 9
 9
 9
 9
 9
 9
 9
 9
 9
 9
 9
 9
 9
 9
 9
 9
 9
 9
 9
 9
 9
 9
 9
 9
 9
 9
 9
 9
 9
 9
 9
 9
 9
 9
 9
 9
 9
 9
 9
 9
 9
 9
 9
 9
 9
 9
 9
 9
 9
 9
 9
 9
 9
 9
 9
 9
 9
 9
 9
 9
 9
 9
 9
 9
 9
 9
 9
 9
 9
 9
 9
 9
 9
 9
 9
 9
 9
 9
 9
 9
 9
 9
 9
 9
 9
 9
 9
 9
 9
 9
 9
 9
 9
 9
 9
 9
 9
 9
 9
 9
 9
 9
 9
 9
 9
 9
 9
 9
 9
 9
 9
 9
 9
 9
 9
 9
 9
 9
 9
 9
 9
 9
 9
 9
 9
 9
 9
 9
 9
 9
 9
 9
 9
 9
 9
 9
 9
 9
 9
 9
 9
 9
 9
 9
 9
 9
 9
 9
 9
 9
 9
 9
 9
 9
 9
 9
 9
 9
 9
 9
 9
 9
 9
 9
 9
 9
 9
 9
 9
 9
 9
 9
 9
 9
 9
 9
 9
 9
 9
 9
 9
 9
 9
 9
 9
 9
 9
 9
 9
 9
 9
 9
 9
 9
 9
 9
 9
 9
 9
 9
 9
 9
 9
 9
 9
 9
 9
 9
 9
 9
 9
 9
 9
 9
 9
 9
 9
 9
 9
 9
 9
 9
 9
 9
 9
 9
 9
 9
 9
 9
 9
 9
 9
 9
 9
 9
 9
 9
 9
 9
 9
 9
 9
 9
 9
 9
 9
 9
 9
 9
 9
 9
 9
 9
 9
 9
 9
 9
 9
 9
 9
 9
 9
 9
 9
 9
 9
 9
 9
 9
 9
 9
 9
 9
 9
 9
 9
 9
 9
 9
 9
 9
 9
 9
 9
 9
 9
 9
 9
 9
 9
 9
 9
 9
 9
 9
 9
 9
 9
 9
 9
 9
 9
 9
 9
 9
 9
 9
 9
 9
 9
 9
 9
 9
 9
 9
 9
 9
 9
 9
 9
 9
 9
 9
 9
 9
 9
 9
 9
 9
 9
 9
 9
 9
 9
 9
 9
 9
 9
 9
 9
 9
 9
 9
 9
 9
 9
 9
 9
 9
 9
 9
 9
 9
 9
 9
 9
 9
 9
 9
 9
 9
 9
 9
 9
 9
 9
 9
 9
 9
 9
 9
 9
 9
 9
 9
 9
 9
 9
 9
 9
 9
 9
 9
 9
 9
 9
 9
 9
 9
 9
 9
 9
 9
 9
 9
 9
 9
 9
 9
 9
 9
 9
 9
 9
 9
 9
 9
 9
 9
 9
 9
 9
 9
 9
 9
 9
 9
 9
 9
 9
 9
 9
 9
 9
 9
 9
 9
 9
 9
 9
 9
 9
 9
 9
 9
 9
 9
 9
 9
 9
 9
 9
 9
 9
 9
 9
 9
 9
 9
 9
 9
 9
 9
 9
 9
 9
 9
 9
 9
 9
 9
 9
 9
 9
 9
 9
 9
 9
 9
 9
 9
 9
 9
 9
 9
 9
 9
 9
 9
 9
 9
 9
 9
 9
 9
 9
 9
 9
 9
 9
 9
 9
 9
 9
 9
 9
 9
 9
 9
 9
 9
 9
 9
 9
 9
 9
 9
 9
 9
 9
 9
 9
 9
 9
 9
 9
 9
 9
 9
 9
 9
 9
 9
 9
 9
 9
 9
 9
 9
 9
 9
 9
 9
 9
 9
 9
 9
 9
 9
 9
 9
 9
 9
 9
 9
 9
 9
 9
 9
 9
 9
 9
 9
 9
 9
 9
 9
 9
 9
 9
 9
 9
 9
 9
 9
 9
 9
 9
 9
 9
 9
 9
 9
 9
 9
 9
 9
 9
 9
 9
 9
 9
 9
 9
 9
 9
 9
 9
 9
 9
 9
 9
 9
 9
 9
 9
 9
 9
 9
 9
 9
 9
 9
 9
 9
 9
 9
 9
 9
 9
 9
 9
 9
 9
 9
 9
 9
 9
 9
 9
 9
 9
 9
 9
 9
 9
 9
 9
 9
 9
 9
 9
 9
 9
 9
 9
 9
 9
 9
 9
 9
 9
 9
 9
 9
 9
 9
 9
 9
 9
 9
 9
 9
 9
 9
 9
 9
 9
 9
 9
 9
 9
 9
 9
 9
 9
 9
 9
 9
 9
 9
 9
 9
 9
 9
 9
 9
 9
 9
 9
 9
 9
 9
 9
 9
 9
 9
 9
 9
 9
 9
 9
 9
 9
 9
 9
 9
 9
 9
 9
 9
 9
 9
 9
 9
 9
 9
 9
 9
 9
 9
 9
 9
 9
 9
 9
 9
 9
 9
 9
 9
 9
 9
 9
 9
 9
 9
 9
 9
 9
 9
 9
 9
 9
 9
 9
 9
 9
 9
 9
 9
 9
 9
 9
 9
 9
 9
 9
 9
 9
 9
 9
 9
 9
 9
 9
 9
 9
 9
 9
 9
 9
 9
 9
 9
 9
 9
 9
 </DataArray>
 </Cells> 
 <PointData>
 <DataArray  type="Float64" Name="disp" NumberOfComponents="3" format="ascii">
   0.0000000000000000        0.0000000000000000        0.0000000000000000     
   6.0958797066680455E-003   3.7902719562823853E-003   0.0000000000000000     
   1.1665870890914183E-002   7.3236471804490610E-003   0.0000000000000000     
   1.6709973552738410E-002   1.0600125672500026E-002   0.0000000000000000     
   2.1228187692140729E-002   1.3619707432435284E-002   0.0000000000000000     
   0.0000000000000000        0.0000000000000000        0.0000000000000000     
   4.8910999139782172E-003   3.0220776360392367E-003   0.0000000000000000     
   9.5735427167549670E-003   6.0604437254001215E-003   0.0000000000000000     
   1.4047328408330249E-002   9.1150982680826536E-003   0.0000000000000000     
   1.8312456988704064E-002   1.2186041264086834E-002   0.0000000000000000     
   0.0000000000000000        0.0000000000000000        0.0000000000000000     
   3.9535401753708092E-003   2.4251102893769346E-003   0.0000000000000000     
   7.9105628129473252E-003   5.0628763714993296E-003   0.0000000000000000     
   1.1871067912729547E-002   7.9132982463671845E-003   0.0000000000000000     
   1.5835055474717481E-002   1.0976375913980499E-002   0.0000000000000000     
   0.0000000000000000        0.0000000000000000        0.0000000000000000     
   3.2832004908458206E-003   1.9993699162954783E-003   0.0000000000000000     
   6.6769311794912566E-003   4.3309451187466845E-003   0.0000000000000000     
   1.0181192065936307E-002   6.9947256073536190E-003   0.0000000000000000     
   1.3795983150180973E-002   9.9907113821162824E-003   0.0000000000000000     
   0.0000000000000000        0.0000000000000000        0.0000000000000000     
   2.8800808604032514E-003   1.7448565167948677E-003   0.0000000000000000     
   5.8726478163867593E-003   3.8646499671421862E-003   0.0000000000000000     
   8.9777008679505239E-003   6.3593803510419555E-003   0.0000000000000000     
   1.2195240015094547E-002   9.2290476684941756E-003   0.0000000000000000     
   2.1228187692140729E-002   1.3619707432435284E-002   0.0000000000000000     
   2.5433325650007610E-002   1.6612809843067646E-002   0.0000000000000000     
   2.9538199767225517E-002   1.9809850287209930E-002   0.0000000000000000     
   3.3542810043794453E-002   2.3210828764862138E-002   0.0000000000000000     
   3.7447156479714409E-002   2.6815745276024261E-002   0.0000000000000000     
   1.8312456988704064E-002   1.2186041264086834E-002   0.0000000000000000     
   2.2407131619433904E-002   1.5341540782240601E-002   0.0000000000000000     
   2.6369555462077279E-002   1.8649864891371892E-002   0.0000000000000000     
   3.0199728516634168E-002   2.2111013591480710E-002   0.0000000000000000     
   3.3897650783104590E-002   2.5724986882567049E-002   0.0000000000000000     
   1.5835055474717481E-002   1.0976375913980499E-002   0.0000000000000000     
   1.9730773003679279E-002   1.4210912121365629E-002   0.0000000000000000     
   2.3486468004383129E-002   1.7575709615548923E-002   0.0000000000000000     
   2.7102140476829004E-002   2.1070768396530378E-002   0.0000000000000000     
   3.0577790421016930E-002   2.4696088464310005E-002   0.0000000000000000     
   1.3795983150180973E-002   9.9907113821162824E-003   0.0000000000000000     
   1.7404249802743729E-002   1.3220923860442726E-002   0.0000000000000000     
   2.0888937394143058E-002   1.6587384459741020E-002   0.0000000000000000     
   2.4250045924378964E-002   2.0090093180011152E-002   0.0000000000000000     
   2.7487575393451428E-002   2.3729050021253133E-002   0.0000000000000000     
   1.2195240015094547E-002   9.2290476684941756E-003   0.0000000000000000     
   1.5427562016627256E-002   1.2371575999471900E-002   0.0000000000000000     
   1.8576963631357083E-002   1.5684889423948183E-002   0.0000000000000000     
   2.1643444859284031E-002   1.9168987941923028E-002   0.0000000000000000     
   2.4627005700408097E-002   2.2823871553396432E-002   0.0000000000000000     
   3.7447156479714409E-002   2.6815745276024261E-002   0.0000000000000000     
   4.1255763221422763E-002   3.0620323250139199E-002   0.0000000000000000     
   4.4973154415356889E-002   3.4620286116649815E-002   0.0000000000000000     
   4.8599330061516781E-002   3.8815633875556137E-002   0.0000000000000000     
   5.2134290159902431E-002   4.3206366526858137E-002   0.0000000000000000     
   3.3897650783104590E-002   2.5724986882567049E-002   0.0000000000000000     
   3.7486472222298166E-002   2.9520780761303475E-002   0.0000000000000000     
   4.0989342795024544E-002   3.3527391224362539E-002   0.0000000000000000     
   4.4406262501283718E-002   3.7744818271744258E-002   0.0000000000000000     
   4.7737231341075687E-002   4.2173061903448612E-002   0.0000000000000000     
   3.0577790421016930E-002   2.4696088464310005E-002   0.0000000000000000     
   3.3942696679100673E-002   2.8496266544374243E-002   0.0000000000000000     
   3.7226138093234031E-002   3.2515899362209548E-002   0.0000000000000000     
   4.0428114663416996E-002   3.6754986917815903E-002   0.0000000000000000     
   4.3548626389649563E-002   4.1213529211193332E-002   0.0000000000000000     
   2.7487575393451428E-002   2.3729050021253133E-002   0.0000000000000000     
   3.0624436591830284E-002   2.7546780599351506E-002   0.0000000000000000     
   3.3683540309985341E-002   3.1585810530190821E-002   0.0000000000000000     
   3.6664886547916595E-002   3.5846139813771077E-002   0.0000000000000000     
   3.9568475305624032E-002   4.0327768450092297E-002   0.0000000000000000     
   2.4627005700408097E-002   2.2823871553396432E-002   0.0000000000000000     
   2.7531691960486999E-002   2.6672322926235257E-002   0.0000000000000000     
   3.0361549445278475E-002   3.0737124728306382E-002   0.0000000000000000     
   3.3116578154782514E-002   3.5018276959609788E-002   0.0000000000000000     
   3.5796778088999122E-002   3.9515779620145505E-002   0.0000000000000000     
   5.2134290159902431E-002   4.3206366526858137E-002   0.0000000000000000     
   5.5575005883005402E-002   4.7796358910070301E-002   0.0000000000000000     
   5.8918448403317253E-002   5.2589485864707075E-002   0.0000000000000000     
   6.2164617720837978E-002   5.7585747390768452E-002   0.0000000000000000     
   6.5313513835567577E-002   6.2785143488254452E-002   0.0000000000000000     
   4.7737231341075687E-002   4.2173061903448612E-002   0.0000000000000000     
   5.0978471472336251E-002   4.6805543132694256E-002   0.0000000000000000     
   5.4126205053001197E-002   5.1635682972699833E-002   0.0000000000000000     
   5.7180432083070526E-002   5.6663481423465362E-002   0.0000000000000000     
   6.0141152562544230E-002   6.1888938484990809E-002   0.0000000000000000     
   4.3548626389649563E-002   4.1213529211193332E-002   0.0000000000000000     
   4.6584171270356897E-002   4.5879220649590276E-002   0.0000000000000000     
   4.9531247303964195E-002   5.0739755640255180E-002   0.0000000000000000     
   5.2389854490471413E-002   5.5795134183188051E-002   0.0000000000000000     
   5.5159992829878587E-002   6.1045356278388897E-002   0.0000000000000000     
   3.9568475305624032E-002   4.0327768450092297E-002   0.0000000000000000     
   4.2392105277067361E-002   4.5017391460758331E-002   0.0000000000000000     
   4.5133575156206231E-002   4.9901703867373075E-002   0.0000000000000000     
   4.7792884943040681E-002   5.4980705669936548E-002   0.0000000000000000     
   5.0370034637570657E-002   6.0254396868448717E-002   0.0000000000000000     
   3.5796778088999122E-002   3.9515779620145505E-002   0.0000000000000000     
   3.8402273492467623E-002   4.4220055566198443E-002   0.0000000000000000     
   4.0933188609727340E-002   4.9121527654053546E-002   0.0000000000000000     
   4.3389523440778267E-002   5.4220195883710819E-002   0.0000000000000000     
   4.5771277985620432E-002   5.9516060255170256E-002   0.0000000000000000     
   6.5313513835567577E-002   6.2785143488254452E-002   0.0000000000000000     
   6.8368071835174349E-002   6.8175505610406487E-002   0.0000000000000000     
   7.1331226807326606E-002   7.3744665210466021E-002   0.0000000000000000     
   7.4202978752024348E-002   7.9492622288433026E-002   0.0000000000000000     
   7.6983327669267562E-002   8.5419376844307532E-002   0.0000000000000000     
   6.0141152562544230E-002   6.1888938484990809E-002   0.0000000000000000     
   6.3011742763105713E-002   6.7303522019111384E-002   0.0000000000000000     
   6.5795578956438353E-002   7.2898699887662302E-002   0.0000000000000000     
   6.8492661142542169E-002   7.8674472090643544E-002   0.0000000000000000     
   7.1102989321417148E-002   8.4630838628055108E-002   0.0000000000000000     
   5.5159992829878587E-002   6.1045356278388897E-002   0.0000000000000000     
   5.7844909629229280E-002   6.6483849380635243E-002   0.0000000000000000     
   6.0447852195567024E-002   7.2104040944704628E-002   0.0000000000000000     
   6.2968820528891842E-002   7.7905930970597059E-002   0.0000000000000000     
   6.5407814629203725E-002   8.3889519458312523E-002   0.0000000000000000     
   5.0370034637570657E-002   6.0254396868448717E-002   0.0000000000000000     
   5.2867572433545028E-002   6.5716487694978051E-002   0.0000000000000000     
   5.5288046524712579E-002   7.1360688381593013E-002   0.0000000000000000     
   5.7631456911073325E-002   7.7186998928293588E-002   0.0000000000000000     
   5.9897803592627287E-002   8.3195419335079776E-002   0.0000000000000000     
   4.5771277985620432E-002   5.9516060255170256E-002   0.0000000000000000     
   4.8079731176052964E-002   6.5001436962139808E-002   0.0000000000000000     
   5.0316161943875046E-002   7.0668642198327414E-002   0.0000000000000000     
   5.2480570289086668E-002   7.6517675963733128E-002   0.0000000000000000     
   5.4572956211687826E-002   8.2548538258356882E-002   0.0000000000000000     
   7.6983327669267562E-002   8.5419376844307532E-002   0.0000000000000000     
   7.9666032373567897E-002   9.1513512291065094E-002   0.0000000000000000     
   8.2244851679436959E-002   9.7763612041681242E-002   0.0000000000000000     
   8.4719785586874749E-002  0.10416967609615603        0.0000000000000000     
   8.7090834095881281E-002  0.11073170445448943        0.0000000000000000     
   7.1102989321417148E-002   8.4630838628055108E-002   0.0000000000000000     
   7.3620959702887373E-002   9.0755137688989865E-002   0.0000000000000000     
   7.6040968496776912E-002   9.7034707462540712E-002   0.0000000000000000     
   7.8363015703085764E-002  0.10346954794870762        0.0000000000000000     
   8.0587101321813931E-002  0.11005965914749061        0.0000000000000000     
   6.5407814629203725E-002   8.3889519458312523E-002   0.0000000000000000     
   6.7759885814150628E-002   9.0041326723173470E-002   0.0000000000000000     
   7.0020085401380452E-002   9.6347873080502397E-002   0.0000000000000000     
   7.2188413390893214E-002  0.10280915853029926        0.0000000000000000     
   7.4264869782688897E-002  0.10942518307256410        0.0000000000000000     
   5.9897803592627287E-002   8.3195419335079776E-002   0.0000000000000000     
   6.2082810707357633E-002   8.9372079393615911E-002   0.0000000000000000     
   6.4182202393247553E-002   9.5703108895566324E-002   0.0000000000000000     
   6.6195978650297069E-002  0.10218850784093102        0.0000000000000000     
   6.8124139478506179E-002  0.10882827622970999        0.0000000000000000     
   5.4572956211687826E-002   8.2548538258356882E-002   0.0000000000000000     
   5.6589734382508396E-002   8.8747395700317172E-002   0.0000000000000000     
   5.8527319472378249E-002   9.5100414907732495E-002   0.0000000000000000     
   6.0385711481297372E-002  0.10160759588060282        0.0000000000000000     
   6.2164910409265778E-002  0.10826893861892820        0.0000000000000000     
   8.7090834095881281E-002  0.11073170445448943        0.0000000000000000     
   8.9369102886638352E-002  0.11744127116896810        0.0000000000000000     
   9.1565697639327717E-002  0.12428995029187861        0.0000000000000000     
   9.3680618353949432E-002  0.13127774182322102        0.0000000000000000     
   9.5713865030503470E-002  0.13840464576299530        0.0000000000000000     
   8.0587101321813931E-002  0.11005965914749061        0.0000000000000000     
   8.2724755285358595E-002  0.11679736531542748        0.0000000000000000     
   8.4787507526116940E-002  0.12367499070905601        0.0000000000000000     
   8.6775358044088965E-002  0.13069253532837624        0.0000000000000000     
   8.8688306839274672E-002  0.13784999917338814        0.0000000000000000     
   7.4264869782688897E-002  0.10942518307256410        0.0000000000000000     
   7.6260771428996954E-002  0.11618869985278400        0.0000000000000000     
   7.8187435182046780E-002  0.12309246201644605        0.0000000000000000     
   8.0044861041838389E-002  0.13013646956355021        0.0000000000000000     
   8.1833049008371753E-002  0.13732072249409652        0.0000000000000000     
   6.8124139478506179E-002  0.10882827622970999        0.0000000000000000     
   6.9977151317553388E-002  0.11561527478103771        0.0000000000000000     
   7.1765480607117224E-002  0.12254236421404868        0.0000000000000000     
   7.3489127347197661E-002  0.12960954452874293        0.0000000000000000     
   7.5148091537794698E-002  0.13681681572512042        0.0000000000000000     
   6.2164910409265778E-002  0.10826893861892820        0.0000000000000000     
   6.3873894951027910E-002  0.11507709010018856        0.0000000000000000     
   6.5521643801328244E-002  0.12202469730186397        0.0000000000000000     
   6.7108156960166782E-002  0.12911176022395440        0.0000000000000000     
   6.8633434427543522E-002  0.13633827886645988        0.0000000000000000     
   9.5713865030503470E-002  0.13840464576299530        0.0000000000000000     
   9.7650310571431032E-002  0.14564344193814169        0.0000000000000000     
   9.9474827879173305E-002  0.15296691017560030        0.0000000000000000     
  0.10118741695373031       0.16037505047537126        0.0000000000000000     
  0.10278807779510202       0.16786786283745447        0.0000000000000000     
   8.8688306839274672E-002  0.13784999917338814        0.0000000000000000     
   9.0510911758130613E-002  0.14512764447264753        0.0000000000000000     
   9.2227730647113343E-002  0.15250573345471027        0.0000000000000000     
   9.3838763506222847E-002  0.15998426611957625        0.0000000000000000     
   9.5344010335459126E-002  0.16756324246724560        0.0000000000000000     
   8.1833049008371753E-002  0.13732072249409652        0.0000000000000000     
   8.3536800364549246E-002  0.14462946358589679        0.0000000000000000     
   8.5140916393273189E-002  0.15204693561676275        0.0000000000000000     
   8.6645397094543594E-002  0.15957313858669450        0.0000000000000000     
   8.8050242468360476E-002  0.16720807249569197        0.0000000000000000     
   7.5148091537794698E-002  0.13681681572512042        0.0000000000000000     
   7.6727976390686931E-002  0.14414889927788932        0.0000000000000000     
   7.8214385117652899E-002  0.15159051666175785        0.0000000000000000     
   7.9607317718692616E-002  0.15914166787672593        0.0000000000000000     
   8.0906774193806055E-002  0.16680235292279361        0.0000000000000000     
   6.8633434427543522E-002  0.13633827886645988        0.0000000000000000     
   7.0084439836543680E-002  0.14368595154862526        0.0000000000000000     
   7.1448136820252445E-002  0.15113647658969551        0.0000000000000000     
   7.2724525378669858E-002  0.15868985398967053        0.0000000000000000     
   7.3913605511795891E-002  0.16634608374855045        0.0000000000000000     
   0.0000000000000000        0.0000000000000000        0.0000000000000000     
   2.8800808604032514E-003   1.7448565167948677E-003   0.0000000000000000     
   5.8726478163867593E-003   3.8646499671421862E-003   0.0000000000000000     
   8.9777008679505239E-003   6.3593803510419555E-003   0.0000000000000000     
   1.2195240015094547E-002   9.2290476684941756E-003   0.0000000000000000     
   0.0000000000000000        0.0000000000000000        0.0000000000000000     
   2.6103401017119133E-003   1.5889296140935800E-003   0.0000000000000000     
   5.2897363552355386E-003   3.5566983353570491E-003   0.0000000000000000     
   8.0381887605708753E-003   5.9033061637904071E-003   0.0000000000000000     
   1.0855697317717924E-002   8.6287530993936559E-003   0.0000000000000000     
   0.0000000000000000        0.0000000000000000        0.0000000000000000     
   2.3401370324406187E-003   1.4589487314100901E-003   0.0000000000000000     
   4.7202204276392970E-003   3.2997976420624854E-003   0.0000000000000000     
   7.1402501855960358E-003   5.5225467319571864E-003   0.0000000000000000     
   9.6002263063108377E-003   8.1271960010941922E-003   0.0000000000000000     
   0.0000000000000000        0.0000000000000000        0.0000000000000000     
   2.0694716525893665E-003   1.3549138687443990E-003   0.0000000000000000     
   4.1641000335980363E-003   3.0939478872584955E-003   0.0000000000000000     
   6.2838851430260063E-003   5.2171020555422908E-003   0.0000000000000000     
   8.4288269808732823E-003   7.7243763735957826E-003   0.0000000000000000     
   0.0000000000000000        0.0000000000000000        0.0000000000000000     
   1.7983439621581574E-003   1.2768250260965057E-003   0.0000000000000000     
   3.6213751731117528E-003   2.9391490709450799E-003   0.0000000000000000     
   5.4690936328607876E-003   4.9869721345457219E-003   0.0000000000000000     
   7.3414993414052596E-003   7.4202942168984315E-003   0.0000000000000000     
   1.2195240015094547E-002   9.2290476684941756E-003   0.0000000000000000     
   1.5427562016627256E-002   1.2371575999471900E-002   0.0000000000000000     
   1.8576963631357083E-002   1.5684889423948183E-002   0.0000000000000000     
   2.1643444859284031E-002   1.9168987941923028E-002   0.0000000000000000     
   2.4627005700408097E-002   2.2823871553396432E-002   0.0000000000000000     
   1.0855697317717924E-002   8.6287530993936559E-003   0.0000000000000000     
   1.3688944175997014E-002   1.1650748731883452E-002   0.0000000000000000     
   1.6484611484728462E-002   1.4887002650976453E-002   0.0000000000000000     
   1.9242699243912271E-002   1.8337514856672659E-002   0.0000000000000000     
   2.1963207453548440E-002   2.2002285348972073E-002   0.0000000000000000     
   9.6002263063108377E-003   8.1271960010941922E-003   0.0000000000000000     
   1.2076630811520158E-002   1.1046322251107689E-002   0.0000000000000000     
   1.4545945722960455E-002   1.4212502283631866E-002   0.0000000000000000     
   1.7008171040631733E-002   1.7625736098666717E-002   0.0000000000000000     
   1.9463306764533988E-002   2.1286023696212245E-002   0.0000000000000000     
   8.4288269808732823E-003   7.7243763735957826E-003   0.0000000000000000     
   1.0590621923196692E-002   1.0558296557144612E-002   0.0000000000000000     
   1.2760966346053070E-002   1.3661388321914415E-002   0.0000000000000000     
   1.4939860249442419E-002   1.7033651667905190E-002   0.0000000000000000     
   1.7127303633364732E-002   2.0675086595116944E-002   0.0000000000000000     
   7.3414993414052596E-003   7.4202942168984315E-003   0.0000000000000000     
   9.2309175110266151E-003   1.0186671649994223E-002   0.0000000000000000     
   1.1129673354006305E-002   1.3233660765824107E-002   0.0000000000000000     
   1.3037766870344327E-002   1.6561261564388089E-002   0.0000000000000000     
   1.4955198060040682E-002   2.0169474045686163E-002   0.0000000000000000     
   2.4627005700408097E-002   2.2823871553396432E-002   0.0000000000000000     
   2.7531691960486999E-002   2.6672322926235257E-002   0.0000000000000000     
   3.0361549445278475E-002   3.0737124728306382E-002   0.0000000000000000     
   3.3116578154782514E-002   3.5018276959609788E-002   0.0000000000000000     
   3.5796778088999122E-002   3.9515779620145505E-002   0.0000000000000000     
   2.1963207453548440E-002   2.2002285348972073E-002   0.0000000000000000     
   2.4629511860804015E-002   2.5879461051247374E-002   0.0000000000000000     
   2.7224988212846035E-002   2.9967188886871242E-002   0.0000000000000000     
   2.9749636509674496E-002   3.4265468855843681E-002   0.0000000000000000     
   3.2203456751289397E-002   3.8774300958164684E-002   0.0000000000000000     
   1.9463306764533988E-002   2.1286023696212245E-002   0.0000000000000000     
   2.1882945368514511E-002   2.5174762500609734E-002   0.0000000000000000     
   2.4238679326420601E-002   2.9273349936200444E-002   0.0000000000000000     
   2.6530508638252251E-002   3.3581786002984379E-002   0.0000000000000000     
   2.8758433304009463E-002   3.8100070700961566E-002   0.0000000000000000     
   1.7127303633364732E-002   2.0675086595116944E-002   0.0000000000000000     
   1.9291992483618497E-002   2.4558227274322320E-002   0.0000000000000000     
   2.1402622786002180E-002   2.8655607876293981E-002   0.0000000000000000     
   2.3459194540515784E-002   3.2967228401031924E-002   0.0000000000000000     
   2.5461707747159314E-002   3.7493088848536145E-002   0.0000000000000000     
   1.4955198060040682E-002   2.0169474045686163E-002   0.0000000000000000     
   1.6856653206115960E-002   2.4029855372385146E-002   0.0000000000000000     
   1.8716818591590769E-002   2.8113962707151854E-002   0.0000000000000000     
   2.0535694216465093E-002   3.2421796049986275E-002   0.0000000000000000     
   2.2313280080738941E-002   3.6953355400888420E-002   0.0000000000000000     
   3.5796778088999122E-002   3.9515779620145505E-002   0.0000000000000000     
   3.8402273492467623E-002   4.4220055566198443E-002   0.0000000000000000     
   4.0933188609727340E-002   4.9121527654053546E-002   0.0000000000000000     
   4.3389523440778267E-002   5.4220195883710819E-002   0.0000000000000000     
   4.5771277985620432E-002   5.9516060255170256E-002   0.0000000000000000     
   3.2203456751289397E-002   3.8774300958164684E-002   0.0000000000000000     
   3.4588514594917408E-002   4.3488704664185543E-002   0.0000000000000000     
   3.6906875697785162E-002   4.8403699444257528E-002   0.0000000000000000     
   3.9158540059892666E-002   5.3519285298380660E-002   0.0000000000000000     
   4.1343507681239913E-002   5.8835462226554933E-002   0.0000000000000000     
   2.8758433304009463E-002   3.8100070700961566E-002   0.0000000000000000     
   3.0924667262776442E-002   4.2824830452994581E-002   0.0000000000000000     
   3.3031424453637381E-002   4.7752691681946000E-002   0.0000000000000000     
   3.5078704876592273E-002   5.2883654387815858E-002   0.0000000000000000     
   3.7066508531641132E-002   5.8217718570604142E-002   0.0000000000000000     
   2.5461707747159314E-002   3.7493088848536145E-002   0.0000000000000000     
   2.7410731496044723E-002   4.2228432932625529E-002   0.0000000000000000     
   2.9306834877283992E-002   4.7168504367118939E-002   0.0000000000000000     
   3.1150017890877107E-002   5.2313303152016405E-002   0.0000000000000000     
   3.2940280536824067E-002   5.7662829287317890E-002   0.0000000000000000     
   2.2313280080738941E-002   3.6953355400888420E-002   0.0000000000000000     
   2.4046707294722261E-002   4.1699512103078401E-002   0.0000000000000000     
   2.5733106968724995E-002   4.6651137499776361E-002   0.0000000000000000     
   2.7372479102747163E-002   5.1808231590982287E-002   0.0000000000000000     
   2.8964823696788745E-002   5.7170794376696185E-002   0.0000000000000000     
   4.5771277985620432E-002   5.9516060255170256E-002   0.0000000000000000     
   4.8079731176052964E-002   6.5001436962139808E-002   0.0000000000000000     
   5.0316161943875046E-002   7.0668642198327414E-002   0.0000000000000000     
   5.2480570289086668E-002   7.6517675963733128E-002   0.0000000000000000     
   5.4572956211687826E-002   8.2548538258356882E-002   0.0000000000000000     
   4.1343507681239913E-002   5.8835462226554933E-002   0.0000000000000000     
   4.3461761142095927E-002   6.4342640869390788E-002   0.0000000000000000     
   4.5513283022729695E-002   7.0031231867498711E-002   0.0000000000000000     
   4.7498073323141231E-002   7.5901235220878702E-002   0.0000000000000000     
   4.9416132043330514E-002   8.1952650929530718E-002   0.0000000000000000     
   3.7066508531641132E-002   5.8217718570604142E-002   0.0000000000000000     
   3.8994037617016725E-002   6.3744043104001266E-002   0.0000000000000000     
   4.0860494330951805E-002   6.9451786861697673E-002   0.0000000000000000     
   4.2665878673446414E-002   7.5340949843693328E-002   0.0000000000000000     
   4.4410190644500518E-002   8.1411532049988272E-002   0.0000000000000000     
   3.2940280536824067E-002   5.7662829287317890E-002   0.0000000000000000     
   3.4676560600815351E-002   6.3205643665971256E-002   0.0000000000000000     
   3.6357795868541404E-002   6.8930307180924286E-002   0.0000000000000000     
   3.7983986340002218E-002   7.4836819832177021E-002   0.0000000000000000     
   3.9555132015197815E-002   8.0925181619729447E-002   0.0000000000000000     
   2.8964823696788745E-002   5.7170794376696185E-002   0.0000000000000000     
   3.0509330093491816E-002   6.2727442555300730E-002   0.0000000000000000     
   3.2005187635498457E-002   6.8466792825178591E-002   0.0000000000000000     
   3.3452396322808671E-002   7.4388845186329794E-002   0.0000000000000000     
   3.4850956155422441E-002   8.0493599638754312E-002   0.0000000000000000     
   5.4572956211687826E-002   8.2548538258356882E-002   0.0000000000000000     
   5.6589734382508396E-002   8.8747395700317172E-002   0.0000000000000000     
   5.8527319472378249E-002   9.5100414907732495E-002   0.0000000000000000     
   6.0385711481297372E-002  0.10160759588060282        0.0000000000000000     
   6.2164910409265778E-002  0.10826893861892820        0.0000000000000000     
   4.9416132043330514E-002   8.1952650929530718E-002   0.0000000000000000     
   5.1264456439765113E-002   8.8171820415320762E-002   0.0000000000000000     
   5.3040043768912526E-002   9.4545085100114667E-002   0.0000000000000000     
   5.4742894030772787E-002  0.10107244498391246        0.0000000000000000     
   5.6373007225345863E-002  0.10775390006671418        0.0000000000000000     
   4.4410190644500518E-002   8.1411532049988272E-002   0.0000000000000000     
   4.6090776479289913E-002   8.7649898310670146E-002   0.0000000000000000     
   4.7704982412990413E-002   9.4042413455826604E-002   0.0000000000000000     
   4.9252808445601995E-002  0.10058907748545769        0.0000000000000000     
   5.0734254577124653E-002  0.10728989039956338        0.0000000000000000     
   3.9555132015197815E-002   8.0925181619729447E-002   0.0000000000000000     
   4.1068694501082838E-002   8.7181629386365284E-002   0.0000000000000000     
   4.2522135404611888E-002   9.3592399974868304E-002   0.0000000000000000     
   4.3915454725785001E-002  0.10015749338523845        0.0000000000000000     
   4.5248652464602135E-002  0.10687690961747578        0.0000000000000000     
   3.4850956155422441E-002   8.0493599638754312E-002   0.0000000000000000     
   3.6198210505143852E-002   8.6767013642406271E-002   0.0000000000000000     
   3.7491502743776980E-002   9.3195044657239767E-002   0.0000000000000000     
   3.8730832871321792E-002   9.9777692683254815E-002   0.0000000000000000     
   3.9916200887778315E-002  0.10651495772045141        0.0000000000000000     
   6.2164910409265778E-002  0.10826893861892820        0.0000000000000000     
   6.3873894951027910E-002  0.11507709010018856        0.0000000000000000     
   6.5521643801328244E-002  0.12202469730186397        0.0000000000000000     
   6.7108156960166782E-002  0.12911176022395440        0.0000000000000000     
   6.8633434427543522E-002  0.13633827886645988        0.0000000000000000     
   5.6373007225345863E-002  0.10775390006671418        0.0000000000000000     
   5.7937783212146460E-002  0.11458181525755874        0.0000000000000000     
   5.9444621850689244E-002  0.12154855546548508        0.0000000000000000     
   6.0893523140974223E-002  0.12865412069049328        0.0000000000000000     
   6.2284487083001383E-002  0.13589851093258329        0.0000000000000000     
   5.0734254577124653E-002  0.10728989039956338        0.0000000000000000     
   5.2155596983634991E-002  0.11413711970047034        0.0000000000000000     
   5.3523111841209572E-002  0.12112303289050529        0.0000000000000000     
   5.4836799149848410E-002  0.12824762996966821        0.0000000000000000     
   5.6096658909551483E-002  0.13551091093795908        0.0000000000000000     
   4.5248652464602135E-002  0.10687690961747578        0.0000000000000000     
   4.6527336265493491E-002  0.11374300342892343        0.0000000000000000     
   4.7757113772889229E-002  0.12074812957692456        0.0000000000000000     
   4.8937984986789335E-002  0.12789228806147918        0.0000000000000000     
   5.0069949907193809E-002  0.13517547888258727        0.0000000000000000     
   3.9916200887778315E-002  0.10651495772045141        0.0000000000000000     
   4.1053001057721979E-002  0.11339946644291796        0.0000000000000000     
   4.2146627645728206E-002  0.12042384552474289        0.0000000000000000     
   4.3197080651796997E-002  0.12758809496592619        0.0000000000000000     
   4.4204360075928352E-002  0.13489221476646784        0.0000000000000000     
   6.8633434427543522E-002  0.13633827886645988        0.0000000000000000     
   7.0084439836543680E-002  0.14368595154862526        0.0000000000000000     
   7.1448136820252445E-002  0.15113647658969551        0.0000000000000000     
   7.2724525378669858E-002  0.15868985398967053        0.0000000000000000     
   7.3913605511795891E-002  0.16634608374855045        0.0000000000000000     
   6.2284487083001383E-002  0.13589851093258329        0.0000000000000000     
   6.3605923701144318E-002  0.14325995204524222        0.0000000000000000     
   6.4846243019776553E-002  0.15071666988195720        0.0000000000000000     
   6.6005445038898131E-002  0.15826866444272825        0.0000000000000000     
   6.7083529758509036E-002  0.16591593572755539        0.0000000000000000     
   5.6096658909551483E-002  0.13551091093795908        0.0000000000000000     
   5.7292160983513703E-002  0.14289023241487786        0.0000000000000000     
   5.8412775234929964E-002  0.15036295101992447        0.0000000000000000     
   5.9458501663800248E-002  0.15792906675309898        0.0000000000000000     
   6.0429340270124574E-002  0.16558857961440129        0.0000000000000000     
   5.0069949907193809E-002  0.13517547888258727        0.0000000000000000     
   5.1143151683651841E-002  0.14257679265753220        0.0000000000000000     
   5.2147733465712630E-002  0.15007532000359730        0.0000000000000000     
   5.3083695253376188E-002  0.15767106092078265        0.0000000000000000     
   5.3951037046642503E-002  0.16536401540908813        0.0000000000000000     
   4.4204360075928352E-002  0.13489221476646784        0.0000000000000000     
   4.5158895801558754E-002  0.14231963277320525        0.0000000000000000     
   4.6051117712124619E-002  0.14985377683297574        0.0000000000000000     
   4.6881025807625980E-002  0.15749464694577928        0.0000000000000000     
   4.7648620088062831E-002  0.16524224311161592        0.0000000000000000     
   0.0000000000000000        0.0000000000000000        0.0000000000000000     
   1.7983439621581574E-003   1.2768250260965057E-003   0.0000000000000000     
   3.6213751731117528E-003   2.9391490709450799E-003   0.0000000000000000     
   5.4690936328607876E-003   4.9869721345457219E-003   0.0000000000000000     
   7.3414993414052596E-003   7.4202942168984315E-003   0.0000000000000000     
   0.0000000000000000        0.0000000000000000        0.0000000000000000     
   1.5350337932046993E-003   1.2175613104624620E-003   0.0000000000000000     
   3.0994037441919552E-003   2.8208811763422662E-003   0.0000000000000000     
   4.6931098529617698E-003   4.8099595976394119E-003   0.0000000000000000     
   6.3161521195141410E-003   7.1847965743538997E-003   0.0000000000000000     
   0.0000000000000000        0.0000000000000000        0.0000000000000000     
   1.2878209777866987E-003   1.1700018288383178E-003   0.0000000000000000     
   2.6055436448501486E-003   2.7246241866700827E-003   0.0000000000000000     
   3.9531680011903499E-003   4.6638670734952944E-003   0.0000000000000000     
   5.3306940468073032E-003   6.9877304893139524E-003   0.0000000000000000     
   0.0000000000000000        0.0000000000000000        0.0000000000000000     
   1.0567055159041562E-003   1.1341465812240734E-003   0.0000000000000000     
   2.1397948750863324E-003   2.6503781019285300E-003   0.0000000000000000     
   3.2492680775465278E-003   4.5486945621133696E-003   0.0000000000000000     
   4.3851251232847428E-003   6.8290959617785911E-003   0.0000000000000000     
   0.0000000000000000        0.0000000000000000        0.0000000000000000     
   8.4168740755707189E-004   1.1099955676197289E-003   0.0000000000000000     
   1.7021574349005064E-003   2.5981429221176079E-003   0.0000000000000000     
   2.5814100820303028E-003   4.4644420634936365E-003   0.0000000000000000     
   3.4794453489464619E-003   6.7088929917478151E-003   0.0000000000000000     
   7.3414993414052596E-003   7.4202942168984315E-003   0.0000000000000000     
   9.2309175110266151E-003   1.0186671649994223E-002   0.0000000000000000     
   1.1129673354006305E-002   1.3233660765824107E-002   0.0000000000000000     
   1.3037766870344327E-002   1.6561261564388089E-002   0.0000000000000000     
   1.4955198060040682E-002   2.0169474045686163E-002   0.0000000000000000     
   6.3161521195141410E-003   7.1847965743538997E-003   0.0000000000000000     
   7.9558220721480319E-003   9.8958222661814071E-003   0.0000000000000000     
   9.5994112391624021E-003   1.2893466832817609E-002   0.0000000000000000     
   1.1246919620557256E-002   1.6177730274262506E-002   0.0000000000000000     
   1.2898347216332588E-002   1.9748612590516103E-002   0.0000000000000000     
   5.3306940468073032E-003   6.9877304893139524E-003   0.0000000000000000     
   6.7236401036990445E-003   9.6501231422310499E-003   0.0000000000000000     
   8.1175244938636107E-003   1.2604953740351584E-002   0.0000000000000000     
   9.5123472173010044E-003   1.5852222283675544E-002   0.0000000000000000     
   1.0908108274011221E-002   1.9391928772202943E-002   0.0000000000000000     
   4.3851251232847428E-003   6.8290959617785911E-003   0.0000000000000000     
   5.5343716056796511E-003   9.4495742781431583E-003   0.0000000000000000     
   6.6840131181099246E-003   1.2368121488426028E-002   0.0000000000000000     
   7.8340496605755639E-003   1.5584737592627211E-002   0.0000000000000000     
   8.9844812330765692E-003   1.9099422590746692E-002   0.0000000000000000     
   3.4794453489464619E-003   6.7088929917478151E-003   0.0000000000000000     
   4.3880165780898527E-003   9.2941756739177272E-003   0.0000000000000000     
   5.2988771119013463E-003   1.2182970077040950E-002   0.0000000000000000     
   6.2120269503809430E-003   1.5375276201117489E-002   0.0000000000000000     
   7.1274660935286421E-003   1.8871094046147344E-002   0.0000000000000000     
   1.4955198060040682E-002   2.0169474045686163E-002   0.0000000000000000     
   1.6856653206115960E-002   2.4029855372385146E-002   0.0000000000000000     
   1.8716818591590769E-002   2.8113962707151854E-002   0.0000000000000000     
   2.0535694216465093E-002   3.2421796049986275E-002   0.0000000000000000     
   2.2313280080738941E-002   3.6953355400888420E-002   0.0000000000000000     
   1.2898347216332588E-002   1.9748612590516103E-002   0.0000000000000000     
   1.4537377798913346E-002   2.3580053493554621E-002   0.0000000000000000     
   1.6147695140724467E-002   2.7645992695354310E-002   0.0000000000000000     
   1.7729299241765945E-002   3.1946430195915164E-002   0.0000000000000000     
   1.9282190102037786E-002   3.6481365995237179E-002   0.0000000000000000     
   1.0908108274011221E-002   1.9391928772202943E-002   0.0000000000000000     
   1.2294616524917071E-002   2.3199228336587170E-002   0.0000000000000000     
   1.3661680830941368E-002   2.7249276107481624E-002   0.0000000000000000     
   1.5009301192084105E-002   3.1542072084886311E-002   0.0000000000000000     
   1.6337477608345290E-002   3.6077616268801217E-002   0.0000000000000000     
   8.9844812330765692E-003   1.9099422590746692E-002   0.0000000000000000     
   1.0128369384127141E-002   2.2887379901482780E-002   0.0000000000000000     
   1.1258775662241479E-002   2.6923812943533791E-002   0.0000000000000000     
   1.2375700067419578E-002   3.1208721716899708E-002   0.0000000000000000     
   1.3479142599661448E-002   3.5742106221580541E-002   0.0000000000000000     
   7.1274660935286421E-003   1.8871094046147344E-002   0.0000000000000000     
   8.0386363765435551E-003   2.2644508188241461E-002   0.0000000000000000     
   8.9389796346247968E-003   2.6669603203510802E-002   0.0000000000000000     
   9.8284958677723657E-003   3.0946379091955360E-002   0.0000000000000000     
   1.0707185075986262E-002   3.5474835853575137E-002   0.0000000000000000     
   2.2313280080738941E-002   3.6953355400888420E-002   0.0000000000000000     
   2.4046707294722261E-002   4.1699512103078401E-002   0.0000000000000000     
   2.5733106968724995E-002   4.6651137499776361E-002   0.0000000000000000     
   2.7372479102747163E-002   5.1808231590982287E-002   0.0000000000000000     
   2.8964823696788745E-002   5.7170794376696185E-002   0.0000000000000000     
   1.9282190102037786E-002   3.6481365995237179E-002   0.0000000000000000     
   2.0800078909985777E-002   4.1236585790544872E-002   0.0000000000000000     
   2.2276676854055703E-002   4.6197875279062765E-002   0.0000000000000000     
   2.3711983934247571E-002   5.1365234460790846E-002   0.0000000000000000     
   2.5106000150561365E-002   5.6738663335729120E-002   0.0000000000000000     
   1.6337477608345290E-002   3.6077616268801217E-002   0.0000000000000000     
   1.7638330593012022E-002   4.0838171821216587E-002   0.0000000000000000     
   1.8903980659371412E-002   4.5806001904122637E-002   0.0000000000000000     
   2.0134427807423458E-002   5.0981106517519380E-002   0.0000000000000000     
   2.1329672037168162E-002   5.6363485661406795E-002   0.0000000000000000     
   1.3479142599661448E-002   3.5742106221580541E-002   0.0000000000000000     
   1.4561462343800990E-002   4.0504270195093547E-002   0.0000000000000000     
   1.5615018384672120E-002   4.5475517374955990E-002   0.0000000000000000     
   1.6639810722274839E-002   5.0655847761167883E-002   0.0000000000000000     
   1.7635839356609142E-002   5.6045261353729212E-002   0.0000000000000000     
   1.0707185075986262E-002   3.5474835853575137E-002   0.0000000000000000     
   1.1569474162352683E-002   4.0234880912175752E-002   0.0000000000000000     
   1.2409790029957830E-002   4.5206421691562831E-002   0.0000000000000000     
   1.3228132678801701E-002   5.0389458191736375E-002   0.0000000000000000     
   1.4024502108884295E-002   5.5783990412696383E-002   0.0000000000000000     
   2.8964823696788745E-002   5.7170794376696185E-002   0.0000000000000000     
   3.0509330093491816E-002   6.2727442555300730E-002   0.0000000000000000     
   3.2005187635498457E-002   6.8466792825178591E-002   0.0000000000000000     
   3.3452396322808671E-002   7.4388845186329794E-002   0.0000000000000000     
   3.4850956155422441E-002   8.0493599638754312E-002   0.0000000000000000     
   2.5106000150561365E-002   5.6738663335729120E-002   0.0000000000000000     
   2.6458281584835742E-002   6.2306971241000972E-002   0.0000000000000000     
   2.7768384318909354E-002   6.8058967513729793E-002   0.0000000000000000     
   2.9036308352782186E-002   7.3994652153915583E-002   0.0000000000000000     
   3.0262053686454248E-002   8.0114025161558328E-002   0.0000000000000000     
   2.1329672037168162E-002   5.6363485661406795E-002   0.0000000000000000     
   2.2489350564636752E-002   6.1941761192083250E-002   0.0000000000000000     
   2.3613100605860436E-002   6.7704554965847111E-002   0.0000000000000000     
   2.4700922160839221E-002   7.3651866982698336E-002   0.0000000000000000     
   2.5752815229573112E-002   7.9783697242636981E-002   0.0000000000000000     
   1.7635839356609142E-002   5.6045261353729212E-002   0.0000000000000000     
   1.8602537032894832E-002   6.1631812408547565E-002   0.0000000000000000     
   1.9539336496351714E-002   6.7403555181530517E-002   0.0000000000000000     
   2.0446237746979779E-002   7.3360489672678109E-002   0.0000000000000000     
   2.1323240784779030E-002   7.9502615881990271E-002   0.0000000000000000     
   1.4024502108884295E-002   5.5783990412696383E-002   0.0000000000000000     
   1.4797840989609994E-002   6.1377124890393917E-002   0.0000000000000000     
   1.5547091990383181E-002   6.7155968160780066E-002   0.0000000000000000     
   1.6272255111203855E-002   7.3120520223854832E-002   0.0000000000000000     
   1.6973330352072016E-002   7.9270781079618213E-002   0.0000000000000000     
   3.4850956155422441E-002   8.0493599638754312E-002   0.0000000000000000     
   3.6198210505143852E-002   8.6767013642406271E-002   0.0000000000000000     
   3.7491502743776980E-002   9.3195044657239767E-002   0.0000000000000000     
   3.8730832871321792E-002   9.9777692683254815E-002   0.0000000000000000     
   3.9916200887778315E-002  0.10651495772045141        0.0000000000000000     
   3.0262053686454248E-002   8.0114025161558328E-002   0.0000000000000000     
   3.1442847765847715E-002   8.6402692883360777E-002   0.0000000000000000     
   3.2575918036884775E-002   9.2846261666025678E-002   0.0000000000000000     
   3.3661264499565427E-002   9.9444731509553061E-002   0.0000000000000000     
   3.4698887153889663E-002  0.10619810241394287        0.0000000000000000     
   2.5752815229573112E-002   7.9783697242636981E-002   0.0000000000000000     
   2.6766129557569161E-002   8.6085308913796579E-002   0.0000000000000000     
   2.7738214890334432E-002   9.2541965164310749E-002   0.0000000000000000     
   2.8669071227868926E-002   9.9153665994179491E-002   0.0000000000000000     
   2.9558698570172640E-002  0.10592041140340278        0.0000000000000000     
   2.1323240784779030E-002   7.9502615881990271E-002   0.0000000000000000     
   2.2168055880308180E-002   8.5814861733713693E-002   0.0000000000000000     
   2.2978393304125936E-002   9.2282155152094966E-002   0.0000000000000000     
   2.3754253056232293E-002   9.8904496137134132E-002   0.0000000000000000     
   2.4495635136627253E-002  0.10568188468883113        0.0000000000000000     
   1.6973330352072016E-002   7.9270781079618213E-002   0.0000000000000000     
   1.7648626734064789E-002   8.5591351343112104E-002   0.0000000000000000     
   1.8296453278259291E-002   9.2066831629378315E-002   0.0000000000000000     
   1.8916809984655530E-002   9.8697221938416957E-002   0.0000000000000000     
   1.9509696853253503E-002  0.10548252227022796        0.0000000000000000     
   3.9916200887778315E-002  0.10651495772045141        0.0000000000000000     
   4.1053001057721979E-002  0.11339946644291796        0.0000000000000000     
   4.2146627645728206E-002  0.12042384552474289        0.0000000000000000     
   4.3197080651796997E-002  0.12758809496592619        0.0000000000000000     
   4.4204360075928352E-002  0.13489221476646784        0.0000000000000000     
   3.4698887153889663E-002  0.10619810241394287        0.0000000000000000     
   3.5694018418270745E-002  0.11309943512305315        0.0000000000000000     
   3.6651890711121925E-002  0.12014179038074199        0.0000000000000000     
   3.7572504032443207E-002  0.12732516818700934        0.0000000000000000     
   3.8455858382234587E-002  0.13464956854185520        0.0000000000000000     
   2.9558698570172640E-002  0.10592041140340278        0.0000000000000000     
   3.0411815405090085E-002  0.11283583584992826        0.0000000000000000     
   3.1233140220465794E-002  0.11989357379170357        0.0000000000000000     
   3.2022673016299748E-002  0.12709362522872869        0.0000000000000000     
   3.2780413792591959E-002  0.13443599016100366        0.0000000000000000     
   2.4495635136627253E-002  0.10568188468883113        0.0000000000000000     
   2.5206392018180025E-002  0.11260866862354323        0.0000000000000000     
   2.5890376173759815E-002  0.11967919575762763        0.0000000000000000     
   2.6547587603366628E-002  0.12689346609108426        0.0000000000000000     
   2.7178026307000471E-002  0.13425147962391323        0.0000000000000000     
   1.9509696853253503E-002  0.10548252227022796        0.0000000000000000     
   2.0077748257540544E-002  0.11241793344389810        0.0000000000000000     
   2.0623598571003994E-002  0.11949865627851414        0.0000000000000000     
   2.1147247793643850E-002  0.12672469077407605        0.0000000000000000     
   2.1648695925460114E-002  0.13409603693058389        0.0000000000000000     
   4.4204360075928352E-002  0.13489221476646784        0.0000000000000000     
   4.5158895801558754E-002  0.14231963277320525        0.0000000000000000     
   4.6051117712124619E-002  0.14985377683297574        0.0000000000000000     
   4.6881025807625980E-002  0.15749464694577928        0.0000000000000000     
   4.7648620088062831E-002  0.16524224311161592        0.0000000000000000     
   3.8455858382234587E-002  0.13464956854185520        0.0000000000000000     
   3.9292734538275004E-002  0.14210227321678992        0.0000000000000000     
   4.0073913278343358E-002  0.14967056398332385        0.0000000000000000     
   4.0799394602439656E-002  0.15735444084145694        0.0000000000000000     
   4.1469178510563906E-002  0.16515390379118930        0.0000000000000000     
   3.2780413792591959E-002  0.13443599016100366        0.0000000000000000     
   3.3498009094841220E-002  0.14190823444317913        0.0000000000000000     
   3.4167105468546337E-002  0.14949792392990582        0.0000000000000000     
   3.4787702913707301E-002  0.15720505862118378        0.0000000000000000     
   3.5359801430324113E-002  0.16502963851701288        0.0000000000000000     
   2.7178026307000471E-002  0.13425147962391323        0.0000000000000000     
   2.7774719471257415E-002  0.14173751645237287        0.0000000000000000     
   2.8330694282733555E-002  0.14933585667272170        0.0000000000000000     
   2.8845950741428893E-002  0.15704650028495962        0.0000000000000000     
   2.9320488847343420E-002  0.16486944728908670        0.0000000000000000     
   2.1648695925460114E-002  0.13409603693058389        0.0000000000000000     
   2.2122865667523573E-002  0.14159011924437115        0.0000000000000000     
   2.2564679720905013E-002  0.14918436221177139        0.0000000000000000     
   2.2974138085604438E-002  0.15687876583278462        0.0000000000000000     
   2.3351240761621844E-002  0.16467333010741075        0.0000000000000000     
   0.0000000000000000        0.0000000000000000        0.0000000000000000     
   8.4168740755707189E-004   1.1099955676197289E-003   0.0000000000000000     
   1.7021574349005064E-003   2.5981429221176079E-003   0.0000000000000000     
   2.5814100820303028E-003   4.4644420634936365E-003   0.0000000000000000     
   3.4794453489464619E-003   6.7088929917478151E-003   0.0000000000000000     
   0.0000000000000000        0.0000000000000000        0.0000000000000000     
   6.3385585403997048E-004   1.0939832967264555E-003   0.0000000000000000     
   1.2780873789544280E-003   2.5620669144095385E-003   0.0000000000000000     
   1.9326945747433722E-003   4.4042508530492503E-003   0.0000000000000000     
   2.5976774414068031E-003   6.6205351126455876E-003   0.0000000000000000     
   0.0000000000000000        0.0000000000000000        0.0000000000000000     
   4.2430005664737702E-004   1.0825442772454243E-003   0.0000000000000000     
   8.5304076190985477E-004   2.5362983459765449E-003   0.0000000000000000     
   1.2862221157874331E-003   4.3612622061933604E-003   0.0000000000000000     
   1.7238441182801118E-003   6.5574358578958745E-003   0.0000000000000000     
   0.0000000000000000        0.0000000000000000        0.0000000000000000     
   2.1302001537929142E-004   1.0756785091766358E-003   0.0000000000000000     
   4.2701758376678629E-004   2.5208372168186266E-003   0.0000000000000000     
   6.4199270516248480E-004   4.3354761229259728E-003   0.0000000000000000     
   8.5794537956638661E-004   6.5195952274986731E-003   0.0000000000000000     
   0.0000000000000000        0.0000000000000000        0.0000000000000000     
   1.5730235713767773E-008   1.0733859925200898E-003   0.0000000000000000     
   1.7844525223025161E-008   2.5156835269357840E-003   0.0000000000000000     
   6.3428685278263744E-009   4.3268926032470813E-003   0.0000000000000000     
  -1.8774734371991217E-008   6.5070132214539844E-003   0.0000000000000000     
   3.4794453489464619E-003   6.7088929917478151E-003   0.0000000000000000     
   4.3880165780898527E-003   9.2941756739177272E-003   0.0000000000000000     
   5.2988771119013463E-003   1.2182970077040950E-002   0.0000000000000000     
   6.2120269503809430E-003   1.5375276201117489E-002   0.0000000000000000     
   7.1274660935286421E-003   1.8871094046147344E-002   0.0000000000000000     
   2.5976774414068031E-003   6.6205351126455876E-003   0.0000000000000000     
   3.2700890356003555E-003   9.1779639167811969E-003   0.0000000000000000     
   3.9469824139796595E-003   1.2043581489038720E-002   0.0000000000000000     
   4.6283575765447187E-003   1.5217387829418158E-002   0.0000000000000000     
   5.3142145232955304E-003   1.8699382937919503E-002   0.0000000000000000     
   1.7238441182801118E-003   6.5574358578958745E-003   0.0000000000000000     
   2.1661029928818597E-003   9.0949755939600148E-003   0.0000000000000000     
   2.6131949630866461E-003   1.1944037707261714E-002   0.0000000000000000     
   3.0651200288944712E-003   1.5104622197800972E-002   0.0000000000000000     
   3.5218781903053331E-003   1.8576729065577790E-002   0.0000000000000000     
   8.5794537956638661E-004   6.5195952274986731E-003   0.0000000000000000     
   1.0760584499343682E-003   9.0452107054541774E-003   0.0000000000000000     
   1.2975147592223059E-003   1.1884338731709928E-002   0.0000000000000000     
   1.5223143074301994E-003   1.5036979306265933E-002   0.0000000000000000     
   1.7504570945580495E-003   1.8503132429122184E-002   0.0000000000000000     
  -1.8774734371991217E-008   6.5070132214539844E-003   0.0000000000000000     
  -4.4593242120102719E-008   9.0286692512636831E-003   0.0000000000000000     
  -5.8197613360969286E-008   1.1864484562383371E-002   0.0000000000000000     
  -5.9587848094570588E-008   1.5014459154813042E-002   0.0000000000000000     
  -4.8763946320262881E-008   1.8478593028552707E-002   0.0000000000000000     
   7.1274660935286421E-003   1.8871094046147344E-002   0.0000000000000000     
   8.0386363765435551E-003   2.2644508188241461E-002   0.0000000000000000     
   8.9389796346247968E-003   2.6669603203510802E-002   0.0000000000000000     
   9.8284958677723657E-003   3.0946379091955360E-002   0.0000000000000000     
   1.0707185075986262E-002   3.5474835853575137E-002   0.0000000000000000     
   5.3142145232955304E-003   1.8699382937919503E-002   0.0000000000000000     
   5.9976095586186558E-003   2.2462170167150283E-002   0.0000000000000000     
   6.6715989869006558E-003   2.6478352869717975E-002   0.0000000000000000     
   7.3361828081415269E-003   3.0747931045622606E-002   0.0000000000000000     
   7.9913610223412718E-003   3.5270904694864172E-002   0.0000000000000000     
   3.5218781903053331E-003   1.8576729065577790E-002   0.0000000000000000     
   3.9774809868047874E-003   2.2331922808496295E-002   0.0000000000000000     
   4.4259399578783871E-003   2.6341767924460628E-002   0.0000000000000000     
   4.8672551035261304E-003   3.0606264413470797E-002   0.0000000000000000     
   5.3014264237480216E-003   3.5125412275526777E-002   0.0000000000000000     
   1.7504570945580495E-003   1.8503132429122184E-002   0.0000000000000000     
   1.9782506611019483E-003   2.2253766112279524E-002   0.0000000000000000     
   2.2020025475579913E-003   2.6259848367738765E-002   0.0000000000000000     
   2.4217127539261779E-003   3.0521379195499927E-002   0.0000000000000000     
   2.6373812802065076E-003   3.5038358595562986E-002   0.0000000000000000     
  -4.8763946320262881E-008   1.8478593028552707E-002   0.0000000000000000     
  -8.1418489858951781E-008   2.2227700078499956E-002   0.0000000000000000     
  -2.1324406052956424E-007   2.6232594199552380E-002   0.0000000000000000     
  -4.4424065833298794E-007   3.0493275391709991E-002   0.0000000000000000     
  -7.7440828326834875E-007   3.5009743654972780E-002   0.0000000000000000     
   1.0707185075986262E-002   3.5474835853575137E-002   0.0000000000000000     
   1.1569474162352683E-002   4.0234880912175752E-002   0.0000000000000000     
   1.2409790029957830E-002   4.5206421691562831E-002   0.0000000000000000     
   1.3228132678801701E-002   5.0389458191736375E-002   0.0000000000000000     
   1.4024502108884295E-002   5.5783990412696383E-002   0.0000000000000000     
   7.9913610223412718E-003   3.5270904694864172E-002   0.0000000000000000     
   8.6341452031379294E-003   4.0027499700784841E-002   0.0000000000000000     
   9.2615469241695437E-003   4.4997941946726808E-002   0.0000000000000000     
   9.8735661854361060E-003   5.0182231432690072E-002   0.0000000000000000     
   1.0470202986937623E-002   5.5580368158674634E-002   0.0000000000000000     
   5.3014264237480216E-003   3.5125412275526777E-002   0.0000000000000000     
   5.7272546206275634E-003   3.9879622289242432E-002   0.0000000000000000     
   6.1435403962482602E-003   4.4849305233231565E-002   0.0000000000000000     
   6.5502837506101145E-003   5.0034461107494203E-002   0.0000000000000000     
   6.9474846837131255E-003   5.5435089912030333E-002   0.0000000000000000     
   2.6373812802065076E-003   3.5038358595562986E-002   0.0000000000000000     
   2.8488024148215769E-003   3.9791248677548526E-002   0.0000000000000000     
   3.0557704461939830E-003   4.4760511551077124E-002   0.0000000000000000     
   3.2582853743237231E-003   4.9946147216148776E-002   0.0000000000000000     
   3.4563471992108009E-003   5.5348155672763466E-002   0.0000000000000000     
  -7.7440828326834875E-007   3.5009743654972780E-002   0.0000000000000000     
  -1.2114142800252010E-006   3.9762378865703142E-002   0.0000000000000000     
  -1.7629259932902259E-006   4.4731560900263471E-002   0.0000000000000000     
  -2.4289434230663373E-006   4.9917289758653775E-002   0.0000000000000000     
  -3.2094665693505400E-006   5.5319565440874054E-002   0.0000000000000000     
   1.4024502108884295E-002   5.5783990412696383E-002   0.0000000000000000     
   1.4797840989609994E-002   6.1377124890393917E-002   0.0000000000000000     
   1.5547091990383181E-002   6.7155968160780066E-002   0.0000000000000000     
   1.6272255111203855E-002   7.3120520223854832E-002   0.0000000000000000     
   1.6973330352072016E-002   7.9270781079618213E-002   0.0000000000000000     
   1.0470202986937623E-002   5.5580368158674634E-002   0.0000000000000000     
   1.1049998176084258E-002   6.1178476433248689E-002   0.0000000000000000     
   1.1611492600286176E-002   6.6962680564980448E-002   0.0000000000000000     
   1.2154686259543381E-002   7.2932980553869931E-002   0.0000000000000000     
   1.2679579153855869E-002   7.9089376399917102E-002   0.0000000000000000     
   6.9474846837131255E-003   5.5435089912030333E-002   0.0000000000000000     
   7.3337443336196455E-003   6.1036644832738289E-002   0.0000000000000000     
   7.7076638383920320E-003   6.6824579055516434E-002   0.0000000000000000     
   8.0692431980302834E-003   7.2798892580364746E-002   0.0000000000000000     
   8.4184824125343987E-003   7.8959585407283234E-002   0.0000000000000000     
   3.4563471992108009E-003   5.5348155672763466E-002   0.0000000000000000     
   3.6490794622161594E-003   6.0951630088862709E-002   0.0000000000000000     
   3.8356057047007489E-003   6.6741663632387982E-002   0.0000000000000000     
   4.0159259266645646E-003   7.2718256303339293E-002   0.0000000000000000     
   4.1900401281076112E-003   7.8881408101716635E-002   0.0000000000000000     
  -3.2094665693505400E-006   5.5319565440874054E-002   0.0000000000000000     
  -3.9964381262015854E-006   6.0923432201621941E-002   0.0000000000000000     
  -4.6818007876763814E-006   6.6713934295595106E-002   0.0000000000000000     
  -5.2655545537732748E-006   7.2691071722793543E-002   0.0000000000000000     
  -5.7476994244957079E-006   7.8854844483217279E-002   0.0000000000000000     
   1.6973330352072016E-002   7.9270781079618213E-002   0.0000000000000000     
   1.7648626734064789E-002   8.5591351343112104E-002   0.0000000000000000     
   1.8296453278259291E-002   9.2066831629378315E-002   0.0000000000000000     
   1.8916809984655530E-002   9.8697221938416957E-002   0.0000000000000000     
   1.9509696853253503E-002  0.10548252227022796        0.0000000000000000     
   1.2679579153855869E-002   7.9089376399917102E-002   0.0000000000000000     
   1.3185121895662420E-002   8.5416213267573635E-002   0.0000000000000000     
   1.3670265097401818E-002   9.1897836321291212E-002   0.0000000000000000     
   1.4135008759074065E-002   9.8534245561069794E-002   0.0000000000000000     
   1.4579352880679155E-002  0.10532544098690942        0.0000000000000000     
   8.4184824125343987E-003   7.8959585407283234E-002   0.0000000000000000     
   8.7548211419245341E-003   8.5290883032680218E-002   0.0000000000000000     
   9.0776990462208430E-003   9.1777010952963936E-002   0.0000000000000000     
   9.3871161254233237E-003   9.8417969168134445E-002   0.0000000000000000     
   9.6830723795319797E-003  0.10521375767819169        0.0000000000000000     
   4.1900401281076112E-003   7.8881408101716635E-002   0.0000000000000000     
   4.3577244728511310E-003   8.5215360638431784E-002   0.0000000000000000     
   4.5187551247163633E-003   9.1704355524396527E-002   0.0000000000000000     
   4.6731320837033142E-003   9.8348392759610881E-002   0.0000000000000000     
   4.8208553498119786E-003  0.10514747234407477        0.0000000000000000     
  -5.7476994244957079E-006   7.8854844483217279E-002   0.0000000000000000     
  -6.1681115577929234E-006   8.5189646084828374E-002   0.0000000000000000     
  -6.5666671116173083E-006   9.1679870035589001E-002   0.0000000000000000     
  -6.9433660859705159E-006   9.8325516335499102E-002   0.0000000000000000     
  -7.2982084808495377E-006  0.10512658498455872        0.0000000000000000     
   1.9509696853253503E-002  0.10548252227022796        0.0000000000000000     
   2.0077748257540544E-002  0.11241793344389810        0.0000000000000000     
   2.0623598571003994E-002  0.11949865627851414        0.0000000000000000     
   2.1147247793643850E-002  0.12672469077407605        0.0000000000000000     
   2.1648695925460114E-002  0.13409603693058389        0.0000000000000000     
   1.4579352880679155E-002  0.10532544098690942        0.0000000000000000     
   1.5004709575958539E-002  0.11226725757544598        0.0000000000000000     
   1.5412490958653668E-002  0.11935553030331540        0.0000000000000000     
   1.5802697028764540E-002  0.12659025917051772        0.0000000000000000     
   1.6175327786291157E-002  0.13397144417705287        0.0000000000000000     
   9.6830723795319797E-003  0.10521375767819169        0.0000000000000000     
   9.9661014262209021E-003  0.11216026828264003        0.0000000000000000     
   1.0236736883164191E-002  0.11925339278098375        0.0000000000000000     
   1.0494978750361842E-002  0.12649313117322286        0.0000000000000000     
   1.0740827027813860E-002  0.13387948345935735        0.0000000000000000     
   4.8208553498119786E-003  0.10514747234407477        0.0000000000000000     
   4.9619238083276358E-003  0.11209696556548024        0.0000000000000000     
   5.0963363445355615E-003  0.11919224371151912        0.0000000000000000     
   5.2240929584357566E-003  0.12643330678219147        0.0000000000000000     
   5.3451936500282212E-003  0.13382015477749723        0.0000000000000000     
  -7.2982084808495377E-006  0.10512658498455872        0.0000000000000000     
  -7.8232777212640728E-006  0.11207734942396660        0.0000000000000000     
  -8.7106572322199170E-006  0.11917208309492157        0.0000000000000000     
  -9.9603470137180463E-006  0.12641078599742356        0.0000000000000000     
  -1.1572347065757702E-005  0.13379345813147264        0.0000000000000000     
   2.1648695925460114E-002  0.13409603693058389        0.0000000000000000     
   2.2122865667523573E-002  0.14159011924437115        0.0000000000000000     
   2.2564679720905013E-002  0.14918436221177139        0.0000000000000000     
   2.2974138085604438E-002  0.15687876583278462        0.0000000000000000     
   2.3351240761621844E-002  0.16467333010741075        0.0000000000000000     
   1.6175327786291157E-002  0.13397144417705287        0.0000000000000000     
   1.6527262173943173E-002  0.14147003007241848        0.0000000000000000     
   1.6855379134430241E-002  0.14905696160611212        0.0000000000000000     
   1.7159678667752372E-002  0.15673223877813383        0.0000000000000000     
   1.7440160773909551E-002  0.16449586158848362        0.0000000000000000     
   1.0740827027813860E-002  0.13387948345935735        0.0000000000000000     
   1.0972723480819685E-002  0.14138123618975931        0.0000000000000000     
   1.1189109874678766E-002  0.14896717591480113        0.0000000000000000     
   1.1389986209391103E-002  0.15663730263448264        0.0000000000000000     
   1.1575352484956697E-002  0.16439161634880392        0.0000000000000000     
   5.3451936500282212E-003  0.13382015477749723        0.0000000000000000     
   5.4592495881531124E-003  0.14132373759639380        0.0000000000000000     
   5.5658719416505865E-003  0.14891500513783834        0.0000000000000000     
   5.6650607105206462E-003  0.15659395740183096        0.0000000000000000     
   5.7568158947632880E-003  0.16436059438837161        0.0000000000000000     
  -1.1572347065757702E-005  0.13379345813147264        0.0000000000000000     
  -1.3159504056548454E-005  0.14129753429232172        0.0000000000000000     
  -1.4334664654298249E-005  0.14890044927522378        0.0000000000000000     
  -1.5097828859009173E-005  0.15660220308017878        0.0000000000000000     
  -1.5448996670680386E-005  0.16440279570718674        0.0000000000000000     
   0.0000000000000000        0.0000000000000000        0.0000000000000000     
   1.5730235713767773E-008   1.0733859925200898E-003   0.0000000000000000     
   1.7844525223025161E-008   2.5156835269357840E-003   0.0000000000000000     
   6.3428685278263744E-009   4.3268926032470813E-003   0.0000000000000000     
  -1.8774734371991217E-008   6.5070132214539844E-003   0.0000000000000000     
   0.0000000000000000        0.0000000000000000        0.0000000000000000     
  -2.1298984327953725E-004   1.0756700587479240E-003   0.0000000000000000     
  -4.2698223706918927E-004   2.5208390058281700E-003   0.0000000000000000     
  -6.4197718136895583E-004   4.3355068412407379E-003   0.0000000000000000     
  -8.5797467617883727E-004   6.5196735649856279E-003   0.0000000000000000     
   0.0000000000000000        0.0000000000000000        0.0000000000000000     
  -4.2427374966264286E-004   1.0825340393322764E-003   0.0000000000000000     
  -8.5300644227080430E-004   2.5363053829959388E-003   0.0000000000000000     
  -1.2861980778244844E-003   4.3613140309909882E-003   0.0000000000000000     
  -1.7238486563236832E-003   6.5575599833174233E-003   0.0000000000000000     
   0.0000000000000000        0.0000000000000000        0.0000000000000000     
  -6.3383598891360326E-004   1.0939779342731464E-003   0.0000000000000000     
  -1.2780547710796225E-003   2.5620826584390900E-003   0.0000000000000000     
  -1.9326563464980579E-003   4.4043141724978306E-003   0.0000000000000000     
  -2.5976407151689094E-003   6.6206724764493697E-003   0.0000000000000000     
   0.0000000000000000        0.0000000000000000        0.0000000000000000     
  -8.4167656103241808E-004   1.1100017435705346E-003   0.0000000000000000     
  -1.7021272234956433E-003   2.5981708321576240E-003   0.0000000000000000     
  -2.5813519873896761E-003   4.4645072657612684E-003   0.0000000000000000     
  -3.4793508527145157E-003   6.7090110443814681E-003   0.0000000000000000     
  -1.8774734371991217E-008   6.5070132214539844E-003   0.0000000000000000     
  -4.4593242120102719E-008   9.0286692512636831E-003   0.0000000000000000     
  -5.8197613360969286E-008   1.1864484562383371E-002   0.0000000000000000     
  -5.9587848094570588E-008   1.5014459154813042E-002   0.0000000000000000     
  -4.8763946320262881E-008   1.8478593028552707E-002   0.0000000000000000     
  -8.5797467617883727E-004   6.5196735649856279E-003   0.0000000000000000     
  -1.0761338593727639E-003   9.0453260631496567E-003   0.0000000000000000     
  -1.2976138688246654E-003   1.1884451221819640E-002   0.0000000000000000     
  -1.5224147045345424E-003   1.5037049040995577E-002   0.0000000000000000     
  -1.7505363665023942E-003   1.8503119520677475E-002   0.0000000000000000     
  -1.7238486563236832E-003   6.5575599833174233E-003   0.0000000000000000     
  -2.1661370711827206E-003   9.0951559728732201E-003   0.0000000000000000     
  -2.6132422158159181E-003   1.1944214732556347E-002   0.0000000000000000     
  -3.0651640902232742E-003   1.5104736262366816E-002   0.0000000000000000     
  -3.5219026944047901E-003   1.8576720562304617E-002   0.0000000000000000     
  -2.5976407151689094E-003   6.6206724764493697E-003   0.0000000000000000     
  -3.2700542286719920E-003   9.1781589804343696E-003   0.0000000000000000     
  -3.9469432385871193E-003   1.2043775094593499E-002   0.0000000000000000     
  -4.6283077449142899E-003   1.5217520818926751E-002   0.0000000000000000     
  -5.3141477476535085E-003   1.8699396153434134E-002   0.0000000000000000     
  -3.4793508527145157E-003   6.7090110443814681E-003   0.0000000000000000     
  -4.3878853318405752E-003   9.2943350858331122E-003   0.0000000000000000     
  -5.2987169371382682E-003   1.2183132307931084E-002   0.0000000000000000     
  -6.2118456686075917E-003   1.5375402710675393E-002   0.0000000000000000     
  -7.1272715262485483E-003   1.8871146294066027E-002   0.0000000000000000     
  -4.8763946320262881E-008   1.8478593028552707E-002   0.0000000000000000     
  -8.1418489858951781E-008   2.2227700078499956E-002   0.0000000000000000     
  -2.1324406052956424E-007   2.6232594199552380E-002   0.0000000000000000     
  -4.4424065833298794E-007   3.0493275391709991E-002   0.0000000000000000     
  -7.7440828326834875E-007   3.5009743654972780E-002   0.0000000000000000     
  -1.7505363665023942E-003   1.8503119520677475E-002   0.0000000000000000     
  -1.9783879219600234E-003   2.2253738164423772E-002   0.0000000000000000     
  -2.2023784381392324E-003   2.6259980475792928E-002   0.0000000000000000     
  -2.4225079150400207E-003   3.0521846454784941E-002   0.0000000000000000     
  -2.6387763526623895E-003   3.5039336101399816E-002   0.0000000000000000     
  -3.5219026944047901E-003   1.8576720562304617E-002   0.0000000000000000     
  -3.9775415192979330E-003   2.2331893827317158E-002   0.0000000000000000     
  -4.4261640558401726E-003   2.6341982252351865E-002   0.0000000000000000     
  -4.8677703040315070E-003   3.0606985837408722E-002   0.0000000000000000     
  -5.3023602638719381E-003   3.5126904582487746E-002   0.0000000000000000     
  -5.3141477476535085E-003   1.8699396153434134E-002   0.0000000000000000     
  -5.9975422105035892E-003   2.2462167067180124E-002   0.0000000000000000     
  -6.6715700971633493E-003   2.6478599529229183E-002   0.0000000000000000     
  -7.3362314076327933E-003   3.0748693539581338E-002   0.0000000000000000     
  -7.9915261419119150E-003   3.5272449098236576E-002   0.0000000000000000     
  -7.1272715262485483E-003   1.8871146294066027E-002   0.0000000000000000     
  -8.0383899955769889E-003   2.2644557884012647E-002   0.0000000000000000     
  -8.9385965621087641E-003   2.6669832306424904E-002   0.0000000000000000     
  -9.8278912258438749E-003   3.0946969561302783E-002   0.0000000000000000     
  -1.0706273986782320E-002   3.5475969648646292E-002   0.0000000000000000     
  -7.7440828326834875E-007   3.5009743654972780E-002   0.0000000000000000     
  -1.2114142800252010E-006   3.9762378865703142E-002   0.0000000000000000     
  -1.7629259932902259E-006   4.4731560900263471E-002   0.0000000000000000     
  -2.4289434230663373E-006   4.9917289758653775E-002   0.0000000000000000     
  -3.2094665693505400E-006   5.5319565440874054E-002   0.0000000000000000     
  -2.6387763526623895E-003   3.5039336101399816E-002   0.0000000000000000     
  -2.8509858484611853E-003   3.9792659125944541E-002   0.0000000000000000     
  -3.0589384998912562E-003   4.4762025238726133E-002   0.0000000000000000     
  -3.2626343069526039E-003   4.9947434439744601E-002   0.0000000000000000     
  -3.4620732696452267E-003   5.5348886728999916E-002   0.0000000000000000     
  -5.3023602638719381E-003   3.5126904582487746E-002   0.0000000000000000     
  -5.7287198695058468E-003   3.9881735730511007E-002   0.0000000000000000     
  -6.1456350550776143E-003   4.4851476524400635E-002   0.0000000000000000     
  -6.5531058205872414E-003   5.0036126964156595E-002   0.0000000000000000     
  -6.9511321660347281E-003   5.5435687049778908E-002   0.0000000000000000     
  -7.9915261419119150E-003   3.5272449098236576E-002   0.0000000000000000     
  -8.6344134774140081E-003   4.0029608679402549E-002   0.0000000000000000     
  -9.2618525915523602E-003   4.4999914757286957E-002   0.0000000000000000     
  -9.8738434843269763E-003   5.0183367331889779E-002   0.0000000000000000     
  -1.0470386155737855E-002   5.5579966403211035E-002   0.0000000000000000     
  -1.0706273986782320E-002   3.5475969648646292E-002   0.0000000000000000     
  -1.1568066672185670E-002   4.0236277972619167E-002   0.0000000000000000     
  -1.2407591109315504E-002   4.5207339937385120E-002   0.0000000000000000     
  -1.3224847298171812E-002   5.0389155542944167E-002   0.0000000000000000     
  -1.4019835238754601E-002   5.5781724789296279E-002   0.0000000000000000     
  -3.2094665693505400E-006   5.5319565440874054E-002   0.0000000000000000     
  -3.9964381262015854E-006   6.0923432201621941E-002   0.0000000000000000     
  -4.6818007876763814E-006   6.6713934295595106E-002   0.0000000000000000     
  -5.2655545537732748E-006   7.2691071722793543E-002   0.0000000000000000     
  -5.7476994244957079E-006   7.8854844483217279E-002   0.0000000000000000     
  -3.4620732696452267E-003   5.5348886728999916E-002   0.0000000000000000     
  -3.6561884751018540E-003   6.0951677890958463E-002   0.0000000000000000     
  -3.8439130104552122E-003   6.6741103710086597E-002   0.0000000000000000     
  -4.0252468757053040E-003   7.2717164186384298E-002   0.0000000000000000     
  -4.2001900708521275E-003   7.8879859319851586E-002   0.0000000000000000     
  -6.9511321660347281E-003   5.5435687049778908E-002   0.0000000000000000     
  -7.3382017564052118E-003   6.1035993876814715E-002   0.0000000000000000     
  -7.7128022566838325E-003   6.6822884540811173E-002   0.0000000000000000     
  -8.0749336668705894E-003   7.2796359041768260E-002   0.0000000000000000     
  -8.4245959869654850E-003   7.8956417379686006E-002   0.0000000000000000     
  -1.0470386155737855E-002   5.5579966403211035E-002   0.0000000000000000     
  -1.1050036282036277E-002   6.1176380159190726E-002   0.0000000000000000     
  -1.1611349539473537E-002   6.6959276787768862E-002   0.0000000000000000     
  -1.2154325928049636E-002   7.2928656288945473E-002   0.0000000000000000     
  -1.2678965447764572E-002   7.9084518662720524E-002   0.0000000000000000     
  -1.4019835238754601E-002   5.5781724789296279E-002   0.0000000000000000     
  -1.4791692051995048E-002   6.1372836738086460E-002   0.0000000000000000     
  -1.5539554858824325E-002   6.7150280450959679E-002   0.0000000000000000     
  -1.6263423659242437E-002   7.3114055927915894E-002   0.0000000000000000     
  -1.6963298453249384E-002   7.9264163168955126E-002   0.0000000000000000     
  -5.7476994244957079E-006   7.8854844483217279E-002   0.0000000000000000     
  -6.1681115577929234E-006   8.5189646084828374E-002   0.0000000000000000     
  -6.5666671116173083E-006   9.1679870035589001E-002   0.0000000000000000     
  -6.9433660859705159E-006   9.8325516335499102E-002   0.0000000000000000     
  -7.2982084808495377E-006  0.10512658498455872        0.0000000000000000     
  -4.2001900708521275E-003   7.8879859319851586E-002   0.0000000000000000     
  -4.3685919340285010E-003   8.5213744485730436E-002   0.0000000000000000     
  -4.5303018033672465E-003   9.1703375059262807E-002   0.0000000000000000     
  -4.6853196788683646E-003   9.8348751040448656E-002   0.0000000000000000     
  -4.8336455605318511E-003  0.10514987242928801        0.0000000000000000     
  -8.4245959869654850E-003   7.8956417379686006E-002   0.0000000000000000     
  -8.7612823172872629E-003   8.5287660954998387E-002   0.0000000000000000     
  -9.0844857581546708E-003   9.1774691168139397E-002   0.0000000000000000     
  -9.3942063095677070E-003   9.8417508019109035E-002   0.0000000000000000     
  -9.6904439715263715E-003  0.10521611150790729        0.0000000000000000     
  -1.2678965447764572E-002   7.9084518662720524E-002   0.0000000000000000     
  -1.3184239261334078E-002   8.5411395492632255E-002   0.0000000000000000     
  -1.3669118531473887E-002   9.1893818362218799E-002   0.0000000000000000     
  -1.4133603258183998E-002   9.8531787271480223E-002   0.0000000000000000     
  -1.4577693441464413E-002  0.10532530222041647        0.0000000000000000     
  -1.6963298453249384E-002   7.9264163168955126E-002   0.0000000000000000     
  -1.7637462766168944E-002   8.5584948098631985E-002   0.0000000000000000     
  -1.8284200123324896E-002   9.2060756641501026E-002   0.0000000000000000     
  -1.8903510524717237E-002   9.8691588797562221E-002   0.0000000000000000     
  -1.9495393970345977E-002  0.10547744456681563        0.0000000000000000     
  -7.2982084808495377E-006  0.10512658498455872        0.0000000000000000     
  -7.8232777212640728E-006  0.11207734942396660        0.0000000000000000     
  -8.7106572322199170E-006  0.11917208309492157        0.0000000000000000     
  -9.9603470137180463E-006  0.12641078599742356        0.0000000000000000     
  -1.1572347065757702E-005  0.13379345813147264        0.0000000000000000     
  -4.8336455605318511E-003  0.10514987242928801        0.0000000000000000     
  -4.9756276123254662E-003  0.11209992255143095        0.0000000000000000     
  -5.1116139982169649E-003  0.11919208473252750        0.0000000000000000     
  -5.2416047182063472E-003  0.12642635897257765        0.0000000000000000     
  -5.3655997722936132E-003  0.13380274527158140        0.0000000000000000     
  -9.6904439715263715E-003  0.10521611150790729        0.0000000000000000     
  -9.9739769758846394E-003  0.11216318764120509        0.0000000000000000     
  -1.0245583554496481E-002  0.11925142242567338        0.0000000000000000     
  -1.0505263707361896E-002  0.12648081586131213        0.0000000000000000     
  -1.0753017434480882E-002  0.13385136794812141        0.0000000000000000     
  -1.4577693441464413E-002  0.10532530222041647        0.0000000000000000     
  -1.5002871368398786E-002  0.11226714469328901        0.0000000000000000     
  -1.5410619326070771E-002  0.11935009617435922        0.0000000000000000     
  -1.5800937314480363E-002  0.12657415666362709        0.0000000000000000     
  -1.6173825333627562E-002  0.13393932616109269        0.0000000000000000     
  -1.9495393970345977E-002  0.10547744456681563        0.0000000000000000     
  -2.0062310789867904E-002  0.11241179370768273        0.0000000000000000     
  -2.0606721312939832E-002  0.11948810597858500        0.0000000000000000     
  -2.1128625539561748E-002  0.12670638137952245        0.0000000000000000     
  -2.1628023469733661E-002  0.13406661991049518        0.0000000000000000     
  -1.1572347065757702E-005  0.13379345813147264        0.0000000000000000     
  -1.3159504056548454E-005  0.14129753429232172        0.0000000000000000     
  -1.4334664654298249E-005  0.14890044927522378        0.0000000000000000     
  -1.5097828859009173E-005  0.15660220308017878        0.0000000000000000     
  -1.5448996670680386E-005  0.16440279570718674        0.0000000000000000     
  -5.3655997722936132E-003  0.13380274527158140        0.0000000000000000     
  -5.4825031637919354E-003  0.14130550432892952        0.0000000000000000     
  -5.5912188960144816E-003  0.14891889684401277        0.0000000000000000     
  -5.6917469689612551E-003  0.15664292281683115        0.0000000000000000     
  -5.7840873826322586E-003  0.16447758224738468        0.0000000000000000     
  -1.0753017434480882E-002  0.13385136794812141        0.0000000000000000     
  -1.0986780759035692E-002  0.14135052575760348        0.0000000000000000     
  -1.1204489704208559E-002  0.14896573636126073        0.0000000000000000     
  -1.1406144269999493E-002  0.15669699975909318        0.0000000000000000     
  -1.1591744456408495E-002  0.16454431595110078        0.0000000000000000     
  -1.6173825333627562E-002  0.13393932616109269        0.0000000000000000     
  -1.6525992289787812E-002  0.14143259857834362        0.0000000000000000     
  -1.6854147089236528E-002  0.14904096782696769        0.0000000000000000     
  -1.7158289731973728E-002  0.15676443390696482        0.0000000000000000     
  -1.7438420217999392E-002  0.16460299681833507        0.0000000000000000     
  -2.1628023469733661E-002  0.13406661991049518        0.0000000000000000     
  -2.2100137756048299E-002  0.14155172279114989        0.0000000000000000     
  -2.2540191051098394E-002  0.14914459124113355        0.0000000000000000     
  -2.2948183354883939E-002  0.15684522526044606        0.0000000000000000     
  -2.3324114667404947E-002  0.16465362484908749        0.0000000000000000     
   0.0000000000000000        0.0000000000000000        0.0000000000000000     
  -8.4167656103241808E-004   1.1100017435705346E-003   0.0000000000000000     
  -1.7021272234956433E-003   2.5981708321576240E-003   0.0000000000000000     
  -2.5813519873896761E-003   4.4645072657612684E-003   0.0000000000000000     
  -3.4793508527145157E-003   6.7090110443814681E-003   0.0000000000000000     
   0.0000000000000000        0.0000000000000000        0.0000000000000000     
  -1.0567030564551227E-003   1.1341648391739805E-003   0.0000000000000000     
  -2.1397675455567520E-003   2.6504167155004914E-003   0.0000000000000000     
  -3.2491934673048888E-003   4.5487556289795323E-003   0.0000000000000000     
  -4.3849808216995315E-003   6.8291815796111032E-003   0.0000000000000000     
   0.0000000000000000        0.0000000000000000        0.0000000000000000     
  -1.2878230656177517E-003   1.1700265930330244E-003   0.0000000000000000     
  -2.6055194833008331E-003   2.7246671198166432E-003   0.0000000000000000     
  -3.9530892530492447E-003   4.6639215803508573E-003   0.0000000000000000     
  -5.3305323748629868E-003   6.9877899746356659E-003   0.0000000000000000     
   0.0000000000000000        0.0000000000000000        0.0000000000000000     
  -1.5350365885203057E-003   1.2175870051476664E-003   0.0000000000000000     
  -3.0993830367278871E-003   2.8209220451060808E-003   0.0000000000000000     
  -4.6930393446227448E-003   4.8100051198752426E-003   0.0000000000000000     
  -6.3160055122048787E-003   7.1848362294551528E-003   0.0000000000000000     
   0.0000000000000000        0.0000000000000000        0.0000000000000000     
  -1.7983436251627839E-003   1.2768460755179058E-003   0.0000000000000000     
  -3.6213582058379134E-003   2.9391814913688023E-003   0.0000000000000000     
  -5.4690437420253889E-003   4.9870062475526888E-003   0.0000000000000000     
  -7.3414002337252099E-003   7.4203203440695665E-003   0.0000000000000000     
  -3.4793508527145157E-003   6.7090110443814681E-003   0.0000000000000000     
  -4.3878853318405752E-003   9.2943350858331122E-003   0.0000000000000000     
  -5.2987169371382682E-003   1.2183132307931084E-002   0.0000000000000000     
  -6.2118456686075917E-003   1.5375402710675393E-002   0.0000000000000000     
  -7.1272715262485483E-003   1.8871146294066027E-002   0.0000000000000000     
  -4.3849808216995315E-003   6.8291815796111032E-003   0.0000000000000000     
  -5.5341573172359645E-003   9.4496802732668434E-003   0.0000000000000000     
  -6.6837506624094680E-003   1.2368237415818389E-002   0.0000000000000000     
  -7.8337608572200419E-003   1.5584853007265746E-002   0.0000000000000000     
  -8.9841879016676895E-003   1.9099527047608904E-002   0.0000000000000000     
  -5.3305323748629868E-003   6.9877899746356659E-003   0.0000000000000000     
  -6.7233971214056493E-003   9.6501905269329759E-003   0.0000000000000000     
  -8.1172317653408210E-003   1.2605041461504691E-002   0.0000000000000000     
  -9.5120363066685046E-003   1.5852342778350823E-002   0.0000000000000000     
  -1.0907810745388703E-002   1.9392094477471360E-002   0.0000000000000000     
  -6.3160055122048787E-003   7.1848362294551528E-003   0.0000000000000000     
  -7.9556047443496269E-003   9.8958658468315079E-003   0.0000000000000000     
  -9.5991602459323307E-003   1.2893544444989998E-002   0.0000000000000000     
  -1.1246672016952983E-002   1.6177872023930621E-002   0.0000000000000000     
  -1.2898140057411592E-002   1.9748848583653389E-002   0.0000000000000000     
  -7.3414002337252099E-003   7.4203203440695665E-003   0.0000000000000000     
  -9.2307801860679016E-003   1.0186706232962438E-002   0.0000000000000000     
  -1.1129536104183992E-002   1.3233746366274298E-002   0.0000000000000000     
  -1.3037667988073475E-002   1.6561440744005153E-002   0.0000000000000000     
  -1.4955175837736354E-002   2.0169789366154999E-002   0.0000000000000000     
  -7.1272715262485483E-003   1.8871146294066027E-002   0.0000000000000000     
  -8.0383899955769889E-003   2.2644557884012647E-002   0.0000000000000000     
  -8.9385965621087641E-003   2.6669832306424904E-002   0.0000000000000000     
  -9.8278912258438749E-003   3.0946969561302783E-002   0.0000000000000000     
  -1.0706273986782320E-002   3.5475969648646292E-002   0.0000000000000000     
  -8.9841879016676895E-003   1.9099527047608904E-002   0.0000000000000000     
  -1.0127985982923842E-002   2.2887499202294367E-002   0.0000000000000000     
  -1.1258109288159943E-002   2.6924009136768626E-002   0.0000000000000000     
  -1.2374557817375991E-002   3.1209056851031699E-002   0.0000000000000000     
  -1.3477331570571982E-002   3.5742642345083557E-002   0.0000000000000000     
  -1.0907810745388703E-002   1.9392094477471360E-002   0.0000000000000000     
  -1.2294231280949855E-002   2.3199423946504885E-002   0.0000000000000000     
  -1.3660974112800412E-002   2.7249458573090007E-002   0.0000000000000000     
  -1.5008039240940367E-002   3.1542198357226707E-002   0.0000000000000000     
  -1.6335426665369728E-002   3.6077643298914990E-002   0.0000000000000000     
  -1.2898140057411592E-002   1.9748848583653389E-002   0.0000000000000000     
  -1.4537125889655028E-002   2.3580332116644218E-002   0.0000000000000000     
  -1.6147191036030170E-002   2.7646180615389017E-002   0.0000000000000000     
  -1.7728335496537018E-002   3.1946394079887822E-002   0.0000000000000000     
  -1.9280559271175571E-002   3.6480972510140590E-002   0.0000000000000000     
  -1.4955175837736354E-002   2.0169789366154999E-002   0.0000000000000000     
  -1.6856669809039361E-002   2.4030223712712340E-002   0.0000000000000000     
  -1.8716760057849217E-002   2.8114175263665688E-002   0.0000000000000000     
  -2.0535446584165930E-002   3.2421644019015025E-002   0.0000000000000000     
  -2.2312729387989502E-002   3.6952629978760365E-002   0.0000000000000000     
  -1.0706273986782320E-002   3.5475969648646292E-002   0.0000000000000000     
  -1.1568066672185670E-002   4.0236277972619167E-002   0.0000000000000000     
  -1.2407591109315504E-002   4.5207339937385120E-002   0.0000000000000000     
  -1.3224847298171812E-002   5.0389155542944167E-002   0.0000000000000000     
  -1.4019835238754601E-002   5.5781724789296279E-002   0.0000000000000000     
  -1.3477331570571982E-002   3.5742642345083557E-002   0.0000000000000000     
  -1.4558657913623794E-002   4.0504712081666575E-002   0.0000000000000000     
  -1.5610764212407303E-002   4.5475212523523108E-002   0.0000000000000000     
  -1.6633650466922507E-002   5.0654143670653143E-002   0.0000000000000000     
  -1.7627316677169411E-002   5.6041505523056694E-002   0.0000000000000000     
  -1.6335426665369728E-002   3.6077643298914990E-002   0.0000000000000000     
  -1.7635165661531341E-002   4.0837879478050509E-002   0.0000000000000000     
  -1.8899285504868042E-002   4.5804992974528898E-002   0.0000000000000000     
  -2.0127786195379832E-002   5.0978983788350141E-002   0.0000000000000000     
  -2.1320667733066713E-002   5.6359851919514280E-002   0.0000000000000000     
  -1.9280559271175571E-002   3.6480972510140590E-002   0.0000000000000000     
  -2.0797589915908313E-002   4.1235780161770950E-002   0.0000000000000000     
  -2.2273154986697713E-002   4.6196681290402483E-002   0.0000000000000000     
  -2.3707254483543785E-002   5.1363675896035174E-002   0.0000000000000000     
  -2.5099888406446516E-002   5.6736763978669051E-002   0.0000000000000000     
  -2.2312729387989502E-002   3.6952629978760365E-002   0.0000000000000000     
  -2.4045930676754704E-002   4.1698414132827905E-002   0.0000000000000000     
  -2.5732372657896321E-002   4.6650277471143864E-002   0.0000000000000000     
  -2.7372055331414361E-002   5.1808219993708229E-002   0.0000000000000000     
  -2.8964978697308817E-002   5.7172241700521015E-002   0.0000000000000000     
  -1.4019835238754601E-002   5.5781724789296279E-002   0.0000000000000000     
  -1.4791692051995048E-002   6.1372836738086460E-002   0.0000000000000000     
  -1.5539554858824325E-002   6.7150280450959679E-002   0.0000000000000000     
  -1.6263423659242437E-002   7.3114055927915894E-002   0.0000000000000000     
  -1.6963298453249384E-002   7.9264163168955126E-002   0.0000000000000000     
  -1.7627316677169411E-002   5.6041505523056694E-002   0.0000000000000000     
  -1.8591521481887485E-002   6.1626053717577706E-002   0.0000000000000000     
  -1.9526023519816211E-002   6.7396543891060118E-002   0.0000000000000000     
  -2.0430822790955584E-002   7.3352976043503965E-002   0.0000000000000000     
  -2.1305919295305609E-002   7.9495350174909191E-002   0.0000000000000000     
  -2.1320667733066713E-002   5.6359851919514280E-002   0.0000000000000000     
  -2.2477876987319553E-002   6.1936721201740187E-002   0.0000000000000000     
  -2.3599360827529194E-002   6.7698715468746784E-002   0.0000000000000000     
  -2.4685119253695657E-002   7.3645834720534084E-002   0.0000000000000000     
  -2.5735152265818927E-002   7.9778078957102025E-002   0.0000000000000000     
  -2.5099888406446516E-002   5.6736763978669051E-002   0.0000000000000000     
  -2.6450758568291245E-002   6.2304839190573946E-002   0.0000000000000000     
  -2.7759566781963289E-002   6.8056795184019664E-002   0.0000000000000000     
  -2.9026313047462657E-002   7.3992631959006239E-002   0.0000000000000000     
  -3.0250997364789339E-002   8.0112349515533643E-002   0.0000000000000000     
  -2.8964978697308817E-002   5.7172241700521015E-002   0.0000000000000000     
  -3.0510166224802567E-002   6.2730407684078934E-002   0.0000000000000000     
  -3.2006641383118484E-002   6.8470783036878757E-002   0.0000000000000000     
  -3.3454404172256577E-002   7.4393367758920470E-002   0.0000000000000000     
  -3.4853454592216844E-002   8.0498161850204045E-002   0.0000000000000000     
  -1.6963298453249384E-002   7.9264163168955126E-002   0.0000000000000000     
  -1.7637462766168944E-002   8.5584948098631985E-002   0.0000000000000000     
  -1.8284200123324896E-002   9.2060756641501026E-002   0.0000000000000000     
  -1.8903510524717237E-002   9.8691588797562221E-002   0.0000000000000000     
  -1.9495393970345977E-002  0.10547744456681563        0.0000000000000000     
  -2.1305919295305609E-002   7.9495350174909191E-002   0.0000000000000000     
  -2.2148960093401646E-002   8.5807950551988435E-002   0.0000000000000000     
  -2.2957592245779059E-002   9.2275061441454240E-002   0.0000000000000000     
  -2.3731815752437858E-002   9.8896682843306646E-002   0.0000000000000000     
  -2.4471630613378023E-002  0.10567281475754564        0.0000000000000000     
  -2.5735152265818927E-002   7.9778078957102025E-002   0.0000000000000000     
  -2.6746738504641970E-002   8.6080034631692337E-002   0.0000000000000000     
  -2.7717156610907751E-002   9.2536288197546668E-002   0.0000000000000000     
  -2.8646406584616275E-002   9.9146839654665045E-002   0.0000000000000000     
  -2.9534488425767527E-002  0.10591168900304745        0.0000000000000000     
  -3.0250997364789339E-002   8.0112349515533643E-002   0.0000000000000000     
  -3.1430797999889924E-002   8.6401200337743733E-002   0.0000000000000000     
  -3.2562893218710975E-002   9.2844436909778311E-002   0.0000000000000000     
  -3.3647283021252486E-002   9.9442059231637417E-002   0.0000000000000000     
  -3.4683967407514484E-002  0.10619406730332104        0.0000000000000000     
  -3.4853454592216844E-002   8.0498161850204045E-002   0.0000000000000000     
  -3.6201138579145482E-002   8.6771447670142596E-002   0.0000000000000000     
  -3.7494802069188718E-002   9.3199507578149168E-002   0.0000000000000000     
  -3.8734445062346523E-002   9.9782341574223776E-002   0.0000000000000000     
  -3.9920067558618898E-002  0.10651994965836641        0.0000000000000000     
  -1.9495393970345977E-002  0.10547744456681563        0.0000000000000000     
  -2.0062310789867904E-002  0.11241179370768273        0.0000000000000000     
  -2.0606721312939832E-002  0.11948810597858500        0.0000000000000000     
  -2.1128625539561748E-002  0.12670638137952245        0.0000000000000000     
  -2.1628023469733661E-002  0.13406661991049518        0.0000000000000000     
  -2.4471630613378023E-002  0.10567281475754564        0.0000000000000000     
  -2.5180523890965281E-002  0.11259767022686637        0.0000000000000000     
  -2.5861982647565337E-002  0.11966546229396395        0.0000000000000000     
  -2.6516006883178185E-002  0.12687619095883837        0.0000000000000000     
  -2.7142596597803839E-002  0.13422985622148964        0.0000000000000000     
  -2.9534488425767527E-002  0.10591168900304745        0.0000000000000000     
  -3.0385739322364200E-002  0.11282530979332010        0.0000000000000000     
  -3.1204496462408967E-002  0.11988217557610922        0.0000000000000000     
  -3.1990759845901828E-002  0.12708228635141480        0.0000000000000000     
  -3.2744529472842780E-002  0.13442564211923685        0.0000000000000000     
  -3.4683967407514484E-002  0.10619406730332104        0.0000000000000000     
  -3.5677957084064654E-002  0.11309471240704393        0.0000000000000000     
  -3.6634262757470712E-002  0.12013824582502082        0.0000000000000000     
  -3.7552884427732650E-002  0.12732466755725175        0.0000000000000000     
  -3.8433822094850474E-002  0.13465397760373671        0.0000000000000000     
  -3.9920067558618898E-002  0.10651994965836641        0.0000000000000000     
  -4.1057177176066662E-002  0.11340587806803781        0.0000000000000000     
  -4.2151281532750592E-002  0.12043367304069875        0.0000000000000000     
  -4.3202380628670677E-002  0.12760333457634923        0.0000000000000000     
  -4.4210474463826935E-002  0.13491486267498926        0.0000000000000000     
  -2.1628023469733661E-002  0.13406661991049518        0.0000000000000000     
  -2.2100137756048299E-002  0.14155172279114989        0.0000000000000000     
  -2.2540191051098394E-002  0.14914459124113355        0.0000000000000000     
  -2.2948183354883939E-002  0.15684522526044606        0.0000000000000000     
  -2.3324114667404947E-002  0.16465362484908749        0.0000000000000000     
  -2.7142596597803839E-002  0.13422985622148964        0.0000000000000000     
  -2.7735456739468058E-002  0.14170470132818699        0.0000000000000000     
  -2.8288292256196612E-002  0.14927896952519959        0.0000000000000000     
  -2.8801103147989487E-002  0.15695266081252743        0.0000000000000000     
  -2.9273889414846693E-002  0.16472577519017059        0.0000000000000000     
  -3.2744529472842780E-002  0.13442564211923685        0.0000000000000000     
  -3.3458188821698001E-002  0.14188833712161952        0.0000000000000000     
  -3.4124121370933624E-002  0.14944646560060712        0.0000000000000000     
  -3.4742327120549685E-002  0.15710002755619953        0.0000000000000000     
  -3.5312806070546161E-002  0.16484902298839682        0.0000000000000000     
  -3.8433822094850474E-002  0.13465397760373671        0.0000000000000000     
  -3.9268334002738096E-002  0.14210263017144750        0.0000000000000000     
  -4.0047678395309462E-002  0.14964707946735603        0.0000000000000000     
  -4.0771855272564536E-002  0.15728732549146227        0.0000000000000000     
  -4.1440864634503340E-002  0.16502336824376621        0.0000000000000000     
  -4.4210474463826935E-002  0.13491486267498926        0.0000000000000000     
  -4.5165892282588389E-002  0.14234758047767093        0.0000000000000000     
  -4.6058963329324097E-002  0.14988081112544641        0.0000000000000000     
  -4.6889687604034051E-002  0.15751455461831571        0.0000000000000000     
  -4.7658065106718245E-002  0.16524881095627875        0.0000000000000000     
   0.0000000000000000        0.0000000000000000        0.0000000000000000     
  -1.7983436251627839E-003   1.2768460755179058E-003   0.0000000000000000     
  -3.6213582058379134E-003   2.9391814913688023E-003   0.0000000000000000     
  -5.4690437420253889E-003   4.9870062475526888E-003   0.0000000000000000     
  -7.3414002337252099E-003   7.4203203440695665E-003   0.0000000000000000     
   0.0000000000000000        0.0000000000000000        0.0000000000000000     
  -2.0694675762493423E-003   1.3549285444596480E-003   0.0000000000000000     
  -4.1640883323936749E-003   3.0939713221232162E-003   0.0000000000000000     
  -6.2838622684329984E-003   5.2171283329907042E-003   0.0000000000000000     
  -8.4287893843673113E-003   7.7243995770621124E-003   0.0000000000000000     
   0.0000000000000000        0.0000000000000000        0.0000000000000000     
  -2.3401318424841363E-003   1.4589591522887971E-003   0.0000000000000000     
  -4.7202167581579342E-003   3.2998174008877293E-003   0.0000000000000000     
  -7.1402547470213948E-003   5.5225747457967956E-003   0.0000000000000000     
  -9.6002458090745195E-003   8.1272311870159986E-003   0.0000000000000000     
   0.0000000000000000        0.0000000000000000        0.0000000000000000     
  -2.6103364238671658E-003   1.5889378990053538E-003   0.0000000000000000     
  -5.2897434831306921E-003   3.5567197276623417E-003   0.0000000000000000     
  -8.0382211777905773E-003   5.9033454859709639E-003   0.0000000000000000     
  -1.0855769507846825E-002   8.6288151739312216E-003   0.0000000000000000     
   0.0000000000000000        0.0000000000000000        0.0000000000000000     
  -2.8800813203984314E-003   1.7448647846093172E-003   0.0000000000000000     
  -5.8726685073119470E-003   3.8646783024470538E-003   0.0000000000000000     
  -8.9777615607405485E-003   6.3594405535132093E-003   0.0000000000000000     
  -1.2195360480684234E-002   9.2291515378077841E-003   0.0000000000000000     
  -7.3414002337252099E-003   7.4203203440695665E-003   0.0000000000000000     
  -9.2307801860679016E-003   1.0186706232962438E-002   0.0000000000000000     
  -1.1129536104183992E-002   1.3233746366274298E-002   0.0000000000000000     
  -1.3037667988073475E-002   1.6561440744005153E-002   0.0000000000000000     
  -1.4955175837736354E-002   2.0169789366154999E-002   0.0000000000000000     
  -8.4287893843673113E-003   7.7243995770621124E-003   0.0000000000000000     
  -1.0590584264669852E-002   1.0558338147017848E-002   0.0000000000000000     
  -1.2760961493813850E-002   1.3661497135538313E-002   0.0000000000000000     
  -1.4939921071799310E-002   1.7033876542623512E-002   0.0000000000000000     
  -1.7127462998626233E-002   2.0675476368273445E-002   0.0000000000000000     
  -9.6002458090745195E-003   8.1272311870159986E-003   0.0000000000000000     
  -1.2076677798264853E-002   1.1046388050689825E-002   0.0000000000000000     
  -1.4546038568539957E-002   1.4212646662962758E-002   0.0000000000000000     
  -1.7008328119899826E-002   1.7626007023834808E-002   0.0000000000000000     
  -1.9463546452344462E-002   2.1286469133305973E-002   0.0000000000000000     
  -1.0855769507846825E-002   8.6288151739312216E-003   0.0000000000000000     
  -1.3689060786852909E-002   1.1650855943978361E-002   0.0000000000000000     
  -1.6484767328362307E-002   1.4887194948547636E-002   0.0000000000000000     
  -1.9242889132375023E-002   1.8337832187639045E-002   0.0000000000000000     
  -2.1963426198891047E-002   2.2002767661252583E-002   0.0000000000000000     
  -1.2195360480684234E-002   9.2291515378077841E-003   0.0000000000000000     
  -1.5427733230434018E-002   1.2371741826883463E-002   0.0000000000000000     
  -1.8577147773280900E-002   1.5685141992292938E-002   0.0000000000000000     
  -2.1643604109224890E-002   1.9169352034036212E-002   0.0000000000000000     
  -2.4627102238265981E-002   2.2824371952113277E-002   0.0000000000000000     
  -1.4955175837736354E-002   2.0169789366154999E-002   0.0000000000000000     
  -1.6856669809039361E-002   2.4030223712712340E-002   0.0000000000000000     
  -1.8716760057849217E-002   2.8114175263665688E-002   0.0000000000000000     
  -2.0535446584165930E-002   3.2421644019015025E-002   0.0000000000000000     
  -2.2312729387989502E-002   3.6952629978760365E-002   0.0000000000000000     
  -1.7127462998626233E-002   2.0675476368273445E-002   0.0000000000000000     
  -1.9292267936059256E-002   2.4558682137897848E-002   0.0000000000000000     
  -2.1403016545863029E-002   2.8655879376906463E-002   0.0000000000000000     
  -2.3459708828037551E-002   3.2967068085299298E-002   0.0000000000000000     
  -2.5462344782582823E-002   3.7492248263076337E-002   0.0000000000000000     
  -1.9463546452344462E-002   2.1286469133305973E-002   0.0000000000000000     
  -2.1883325167671126E-002   2.5175290795389296E-002   0.0000000000000000     
  -2.4239295867677074E-002   2.9273729814097833E-002   0.0000000000000000     
  -2.6531458552362313E-002   3.3581786189431584E-002   0.0000000000000000     
  -2.8759813221726837E-002   3.8099459921390542E-002   0.0000000000000000     
  -2.1963426198891047E-002   2.2002767661252583E-002   0.0000000000000000     
  -2.4629841503874966E-002   2.5880049685186684E-002   0.0000000000000000     
  -2.7225598023291355E-002   2.9967726575239790E-002   0.0000000000000000     
  -2.9750695757140223E-002   3.4265798331411884E-002   0.0000000000000000     
  -3.2205134705421544E-002   3.8774264953702994E-002   0.0000000000000000     
  -2.4627102238265981E-002   2.2824371952113277E-002   0.0000000000000000     
  -2.7531816944670780E-002   2.6672958807290023E-002   0.0000000000000000     
  -3.0361923012705874E-002   3.0737869660332335E-002   0.0000000000000000     
  -3.3117420442371266E-002   3.5019104511240219E-002   0.0000000000000000     
  -3.5798309233666961E-002   3.9516663360013665E-002   0.0000000000000000     
  -2.2312729387989502E-002   3.6952629978760365E-002   0.0000000000000000     
  -2.4045930676754704E-002   4.1698414132827905E-002   0.0000000000000000     
  -2.5732372657896321E-002   4.6650277471143864E-002   0.0000000000000000     
  -2.7372055331414361E-002   5.1808219993708229E-002   0.0000000000000000     
  -2.8964978697308817E-002   5.7172241700521015E-002   0.0000000000000000     
  -2.5462344782582823E-002   3.7492248263076337E-002   0.0000000000000000     
  -2.7411817356061498E-002   4.2227328196718178E-002   0.0000000000000000     
  -2.9309019495036254E-002   4.7168216172705384E-002   0.0000000000000000     
  -3.1153951199507080E-002   5.2314912191037975E-002   0.0000000000000000     
  -3.2946612469473988E-002   5.7667416251715925E-002   0.0000000000000000     
  -2.8759813221726837E-002   3.8099459921390542E-002   0.0000000000000000     
  -3.0926879365819684E-002   4.2824069158938535E-002   0.0000000000000000     
  -3.3035176474689898E-002   4.7752932051039386E-002   0.0000000000000000     
  -3.5084704548337460E-002   5.2886048597693074E-002   0.0000000000000000     
  -3.7075463586762399E-002   5.8223418798899598E-002   0.0000000000000000     
  -3.2205134705421544E-002   3.8774264953702994E-002   0.0000000000000000     
  -3.4591116706029261E-002   4.3488637019489011E-002   0.0000000000000000     
  -3.6910843596857243E-002   4.8404425106145850E-002   0.0000000000000000     
  -3.9164315377905518E-002   5.3521629213673531E-002   0.0000000000000000     
  -4.1351532049174064E-002   5.8840249342072028E-002   0.0000000000000000     
  -3.5798309233666961E-002   3.9516663360013665E-002   0.0000000000000000     
  -3.8404529376690220E-002   4.4221031778369564E-002   0.0000000000000000     
  -4.0936020861538303E-002   4.9122695338024790E-002   0.0000000000000000     
  -4.3392783688211228E-002   5.4221654038979349E-002   0.0000000000000000     
  -4.5774817856708970E-002   5.9517907881233213E-002   0.0000000000000000     
  -2.8964978697308817E-002   5.7172241700521015E-002   0.0000000000000000     
  -3.0510166224802567E-002   6.2730407684078934E-002   0.0000000000000000     
  -3.2006641383118484E-002   6.8470783036878757E-002   0.0000000000000000     
  -3.3454404172256577E-002   7.4393367758920470E-002   0.0000000000000000     
  -3.4853454592216844E-002   8.0498161850204045E-002   0.0000000000000000     
  -3.2946612469473988E-002   5.7667416251715925E-002   0.0000000000000000     
  -3.4685501283161668E-002   6.3213204130924697E-002   0.0000000000000000     
  -3.6369115618794856E-002   6.8939751604849678E-002   0.0000000000000000     
  -3.7997455476373544E-002   7.4847058673490896E-002   0.0000000000000000     
  -3.9570520855897719E-002   8.0935125336848338E-002   0.0000000000000000     
  -3.7075463586762399E-002   5.8223418798899598E-002   0.0000000000000000     
  -3.9006165069676732E-002   6.3753005979780702E-002   0.0000000000000000     
  -4.0875520476792465E-002   6.9462773465458066E-002   0.0000000000000000     
  -4.2683529808109653E-002   7.5352721255931732E-002   0.0000000000000000     
  -4.4430193063628248E-002   8.1422849351201657E-002   0.0000000000000000     
  -4.1351532049174064E-002   5.8840249342072028E-002   0.0000000000000000     
  -4.3472157584347727E-002   6.4349813230646966E-002   0.0000000000000000     
  -4.5525855957111339E-002   7.0039848618703937E-002   0.0000000000000000     
  -4.7512627167464898E-002   7.5910355506242908E-002   0.0000000000000000     
  -4.9432471215408405E-002   8.1961333893263932E-002   0.0000000000000000     
  -4.5774817856708970E-002   5.9517907881233213E-002   0.0000000000000000     
  -4.8083478827174668E-002   6.5003625883523486E-002   0.0000000000000000     
  -5.0320122059751442E-002   7.0670977064587248E-002   0.0000000000000000     
  -5.2484747554439291E-002   7.6519961424424493E-002   0.0000000000000000     
  -5.4577355311238210E-002   8.2550578963035234E-002   0.0000000000000000     
  -3.4853454592216844E-002   8.0498161850204045E-002   0.0000000000000000     
  -3.6201138579145482E-002   8.6771447670142596E-002   0.0000000000000000     
  -3.7494802069188718E-002   9.3199507578149168E-002   0.0000000000000000     
  -3.8734445062346523E-002   9.9782341574223776E-002   0.0000000000000000     
  -3.9920067558618898E-002  0.10651994965836641        0.0000000000000000     
  -3.9570520855897719E-002   8.0935125336848338E-002   0.0000000000000000     
  -4.1085825576342626E-002   8.7191147967915356E-002   0.0000000000000000     
  -4.2540883456683463E-002   9.3602322939685290E-002   0.0000000000000000     
  -4.3935694496920259E-002  0.10016865025215813        0.0000000000000000     
  -4.5270258697052965E-002  0.10689012990533386        0.0000000000000000     
  -4.4430193063628248E-002   8.1422849351201657E-002   0.0000000000000000     
  -4.6112924325415264E-002   8.7660672570088430E-002   0.0000000000000000     
  -4.7729137675537714E-002   9.4053705731412723E-002   0.0000000000000000     
  -4.9278833113995578E-002  0.10060194883517448        0.0000000000000000     
  -5.0762010640788897E-002  0.10730540188137369        0.0000000000000000     
  -4.9432471215408405E-002   8.1961333893263932E-002   0.0000000000000000     
  -5.1282434826363417E-002   8.8180021476661832E-002   0.0000000000000000     
  -5.3059564725751442E-002   9.4553655953331456E-002   0.0000000000000000     
  -5.4763860913572548E-002  0.10108223732327282        0.0000000000000000     
  -5.6395323389826668E-002  0.10776576558648589        0.0000000000000000     
  -5.4577355311238210E-002   8.2550578963035234E-002   0.0000000000000000     
  -5.6594357079187051E-002   8.8749194687635549E-002   0.0000000000000000     
  -5.8532164607324681E-002   9.5102173605441515E-002   0.0000000000000000     
  -6.0390777895651095E-002  0.10160951571645317        0.0000000000000000     
  -6.2170196944166298E-002  0.10827122102067048        0.0000000000000000     
  -3.9920067558618898E-002  0.10651994965836641        0.0000000000000000     
  -4.1057177176066662E-002  0.11340587806803781        0.0000000000000000     
  -4.2151281532750592E-002  0.12043367304069875        0.0000000000000000     
  -4.3202380628670677E-002  0.12760333457634923        0.0000000000000000     
  -4.4210474463826935E-002  0.13491486267498926        0.0000000000000000     
  -4.5270258697052965E-002  0.10689012990533386        0.0000000000000000     
  -4.6550607475651977E-002  0.11375956329722717        0.0000000000000000     
  -4.7782772251287575E-002  0.12076975182585273        0.0000000000000000     
  -4.8966753023959801E-002  0.12792069549121052        0.0000000000000000     
  -5.0102549793668627E-002  0.13521239429330059        0.0000000000000000     
  -5.0762010640788897E-002  0.10730540188137369        0.0000000000000000     
  -5.2185455860102356E-002  0.11415652461553735        0.0000000000000000     
  -5.3555954376120707E-002  0.12114777678319240        0.0000000000000000     
  -5.4873506188843936E-002  0.12827915838433887        0.0000000000000000     
  -5.6138111298272064E-002  0.13555066941897670        0.0000000000000000     
  -5.6395323389826668E-002  0.10776576558648589        0.0000000000000000     
  -5.7961722329417820E-002  0.11459676202296833        0.0000000000000000     
  -5.9470827907249960E-002  0.12156774791271779        0.0000000000000000     
  -6.0922640123323088E-002  0.12867872325573423        0.0000000000000000     
  -6.2317158977637219E-002  0.13592968805201769        0.0000000000000000     
  -6.2170196944166298E-002  0.10827122102067048        0.0000000000000000     
  -6.3879406883598347E-002  0.11508027551952014        0.0000000000000000     
  -6.5527392844675347E-002  0.12202966521442889        0.0000000000000000     
  -6.7114154827397243E-002  0.12911939010539664        0.0000000000000000     
  -6.8639692831764104E-002  0.13634945019242348        0.0000000000000000     
  -4.4210474463826935E-002  0.13491486267498926        0.0000000000000000     
  -4.5165892282588389E-002  0.14234758047767093        0.0000000000000000     
  -4.6058963329324097E-002  0.14988081112544641        0.0000000000000000     
  -4.6889687604034051E-002  0.15751455461831571        0.0000000000000000     
  -4.7658065106718245E-002  0.16524881095627875        0.0000000000000000     
  -5.0102549793668627E-002  0.13521239429330059        0.0000000000000000     
  -5.1179649296242725E-002  0.14262730886627842        0.0000000000000000     
  -5.2187538267510762E-002  0.15014789984429955        0.0000000000000000     
  -5.3126216707472716E-002  0.15777416722736395        0.0000000000000000     
  -5.3995684616128609E-002  0.16550611101547166        0.0000000000000000     
  -5.6138111298272064E-002  0.13555066941897670        0.0000000000000000     
  -5.7338390678694985E-002  0.14294593616325849        0.0000000000000000     
  -5.8462965304402668E-002  0.15044858489333665        0.0000000000000000     
  -5.9511835175395079E-002  0.15805861560921119        0.0000000000000000     
  -6.0485000291672218E-002  0.16577602831088217        0.0000000000000000     
  -6.2317158977637219E-002  0.13592968805201769        0.0000000000000000     
  -6.3642116429945175E-002  0.14330346236861122        0.0000000000000000     
  -6.4885244439999795E-002  0.15078286627255780        0.0000000000000000     
  -6.6046543007801078E-002  0.15836789976385748        0.0000000000000000     
  -6.7126012133349039E-002  0.16605856284251028        0.0000000000000000     
  -6.8639692831764104E-002  0.13634945019242348        0.0000000000000000     
  -7.0090826549993268E-002  0.14369988748233650        0.0000000000000000     
  -7.1454375674302156E-002  0.15115074398196296        0.0000000000000000     
  -7.2730340204690769E-002  0.15870201969130274        0.0000000000000000     
  -7.3918720141159078E-002  0.16635371461035597        0.0000000000000000     
   0.0000000000000000        0.0000000000000000        0.0000000000000000     
  -2.8800813203984314E-003   1.7448647846093172E-003   0.0000000000000000     
  -5.8726685073119470E-003   3.8646783024470538E-003   0.0000000000000000     
  -8.9777615607405485E-003   6.3594405535132093E-003   0.0000000000000000     
  -1.2195360480684234E-002   9.2291515378077841E-003   0.0000000000000000     
   0.0000000000000000        0.0000000000000000        0.0000000000000000     
  -3.2832122055890260E-003   1.9993870032995872E-003   0.0000000000000000     
  -6.6769727912101857E-003   4.3309911072055727E-003   0.0000000000000000     
  -1.0181281756863478E-002   6.9948123117179583E-003   0.0000000000000000     
  -1.3796139102548904E-002   9.9908506168367404E-003   0.0000000000000000     
   0.0000000000000000        0.0000000000000000        0.0000000000000000     
  -3.9535747529500440E-003   2.4251517492750617E-003   0.0000000000000000     
  -7.9106372953338909E-003   5.0629561239016081E-003   0.0000000000000000     
  -1.1871187627151537E-002   7.9134131238796385E-003   0.0000000000000000     
  -1.5835225748402987E-002   1.0976522749209152E-002   0.0000000000000000     
   0.0000000000000000        0.0000000000000000        0.0000000000000000     
  -4.8911689624814873E-003   3.0221590225357415E-003   0.0000000000000000     
  -9.5736620196830644E-003   6.0605733525351587E-003   0.0000000000000000     
  -1.4047479171604727E-002   9.1152429899982526E-003   0.0000000000000000     
  -1.8312620418246481E-002   1.2186167934925017E-002   0.0000000000000000     
   0.0000000000000000        0.0000000000000000        0.0000000000000000     
  -6.0959948341833530E-003   3.7904088230816262E-003   0.0000000000000000     
  -1.1666046964257701E-002   7.3238427931062236E-003   0.0000000000000000     
  -1.6710156390223045E-002   1.0600301910073794E-002   0.0000000000000000     
  -2.1228323112079388E-002   1.3619786173984336E-002   0.0000000000000000     
  -1.2195360480684234E-002   9.2291515378077841E-003   0.0000000000000000     
  -1.5427733230434018E-002   1.2371741826883463E-002   0.0000000000000000     
  -1.8577147773280900E-002   1.5685141992292938E-002   0.0000000000000000     
  -2.1643604109224890E-002   1.9169352034036212E-002   0.0000000000000000     
  -2.4627102238265981E-002   2.2824371952113277E-002   0.0000000000000000     
  -1.3796139102548904E-002   9.9908506168367404E-003   0.0000000000000000     
  -1.7404452981366079E-002   1.3221131242265845E-002   0.0000000000000000     
  -2.0889131546414634E-002   1.6587679407709187E-002   0.0000000000000000     
  -2.4250174797694549E-002   2.0090495113166774E-002   0.0000000000000000     
  -2.7487582735205837E-002   2.3729578358638592E-002   0.0000000000000000     
  -1.5835225748402987E-002   1.0976522749209152E-002   0.0000000000000000     
  -1.9730977892007007E-002   1.4211109732986218E-002   0.0000000000000000     
  -2.3486670290882378E-002   1.7575998808306893E-002   0.0000000000000000     
  -2.7102302945029102E-002   2.1071189975171174E-002   0.0000000000000000     
  -3.0577875854447163E-002   2.4696683233579077E-002   0.0000000000000000     
  -1.8312620418246481E-002   1.2186167934925017E-002   0.0000000000000000     
  -2.2407307962356793E-002   1.5341677299044579E-002   0.0000000000000000     
  -2.6369764006684154E-002   1.8650100194086049E-002   0.0000000000000000     
  -3.0199988551228546E-002   2.2111436620049430E-002   0.0000000000000000     
  -3.3897981595989980E-002   2.5725686576934723E-002   0.0000000000000000     
  -2.1228323112079388E-002   1.3619786173984336E-002   0.0000000000000000     
  -2.5433443192415445E-002   1.6612833940440930E-002   0.0000000000000000     
  -2.9538412693819946E-002   1.9809983565046665E-002   0.0000000000000000     
  -3.3543231616292885E-002   2.3211235047801527E-002   0.0000000000000000     
  -3.7447899959834267E-002   2.6816588388705535E-002   0.0000000000000000     
  -2.4627102238265981E-002   2.2824371952113277E-002   0.0000000000000000     
  -2.7531816944670780E-002   2.6672958807290023E-002   0.0000000000000000     
  -3.0361923012705874E-002   3.0737869660332335E-002   0.0000000000000000     
  -3.3117420442371266E-002   3.5019104511240219E-002   0.0000000000000000     
  -3.5798309233666961E-002   3.9516663360013665E-002   0.0000000000000000     
  -2.7487582735205837E-002   2.3729578358638592E-002   0.0000000000000000     
  -3.0624398357700991E-002   2.7547485693969188E-002   0.0000000000000000     
  -3.3683664663932522E-002   3.1586773669003095E-002   0.0000000000000000     
  -3.6665381653900417E-002   3.5847442283740309E-002   0.0000000000000000     
  -3.9569549327604682E-002   4.0329491538180828E-002   0.0000000000000000     
  -3.0577875854447163E-002   2.4696683233579077E-002   0.0000000000000000     
  -3.3942732610608047E-002   2.8497097877494076E-002   0.0000000000000000     
  -3.7226216804983212E-002   3.2517053200879692E-002   0.0000000000000000     
  -4.0428328437572630E-002   3.6756549203735910E-002   0.0000000000000000     
  -4.3549067508376352E-002   4.1215585886062729E-002   0.0000000000000000     
  -3.3897981595989980E-002   2.5725686576934723E-002   0.0000000000000000     
  -3.7486819703391946E-002   2.9521795357864700E-002   0.0000000000000000     
  -4.0989579435857910E-002   3.3528708255962131E-002   0.0000000000000000     
  -4.4406260793387921E-002   3.7746425271227006E-002   0.0000000000000000     
  -4.7736863775981936E-002   4.2174946403659361E-002   0.0000000000000000     
  -3.7447899959834267E-002   2.6816588388705535E-002   0.0000000000000000     
  -4.1256659636052677E-002   3.0621578135081040E-002   0.0000000000000000     
  -4.4973752556556675E-002   3.4621738834250411E-002   0.0000000000000000     
  -4.8599178721346267E-002   3.8817070486213634E-002   0.0000000000000000     
  -5.2132938130421462E-002   4.3207573090970716E-002   0.0000000000000000     
  -3.5798309233666961E-002   3.9516663360013665E-002   0.0000000000000000     
  -3.8404529376690220E-002   4.4221031778369564E-002   0.0000000000000000     
  -4.0936020861538303E-002   4.9122695338024790E-002   0.0000000000000000     
  -4.3392783688211228E-002   5.4221654038979349E-002   0.0000000000000000     
  -4.5774817856708970E-002   5.9517907881233213E-002   0.0000000000000000     
  -3.9569549327604682E-002   4.0329491538180828E-002   0.0000000000000000     
  -4.2393536958494592E-002   4.5019279485946972E-002   0.0000000000000000     
  -4.5134713820019413E-002   4.9903164180661035E-002   0.0000000000000000     
  -4.7793079912179154E-002   5.4981145622323029E-002   0.0000000000000000     
  -5.0368635234973813E-002   6.0253223810932947E-002   0.0000000000000000     
  -4.3549067508376352E-002   4.1215585886062729E-002   0.0000000000000000     
  -4.6584559032134411E-002   4.5881406192587966E-002   0.0000000000000000     
  -4.9530928023586926E-002   5.0741253068039435E-002   0.0000000000000000     
  -5.2388174482733869E-002   5.5795126512417123E-002   0.0000000000000000     
  -5.5156298409575276E-002   6.1043026525721057E-002   0.0000000000000000     
  -4.7736863775981936E-002   4.2174946403659361E-002   0.0000000000000000     
  -5.0977595597609664E-002   4.6807411898292538E-002   0.0000000000000000     
  -5.4124663472240819E-002   5.1636962000159957E-002   0.0000000000000000     
  -5.7178067399875375E-002   5.6663596709261618E-002   0.0000000000000000     
  -6.0137807380513358E-002   6.1887316025597522E-002   0.0000000000000000     
  -5.2132938130421462E-002   4.3207573090970716E-002   0.0000000000000000     
  -5.5572646654920364E-002   4.7797296603060702E-002   0.0000000000000000     
  -5.8915920165981100E-002   5.2590290977022641E-002   0.0000000000000000     
  -6.2162758663603664E-002   5.7586556212856514E-002   0.0000000000000000     
  -6.5313162147788054E-002   6.2786092310562341E-002   0.0000000000000000     
  -4.5774817856708970E-002   5.9517907881233213E-002   0.0000000000000000     
  -4.8083478827174668E-002   6.5003625883523486E-002   0.0000000000000000     
  -5.0320122059751442E-002   7.0670977064587248E-002   0.0000000000000000     
  -5.2484747554439291E-002   7.6519961424424493E-002   0.0000000000000000     
  -5.4577355311238210E-002   8.2550578963035234E-002   0.0000000000000000     
  -5.0368635234973813E-002   6.0253223810932947E-002   0.0000000000000000     
  -5.2864343400912707E-002   6.5713662567602152E-002   0.0000000000000000     
  -5.5283168022505172E-002   7.1356725713441996E-002   0.0000000000000000     
  -5.7625109099751208E-002   7.7182413248452458E-002   0.0000000000000000     
  -5.9890166632650794E-002   8.3190725172633567E-002   0.0000000000000000     
  -5.5156298409575276E-002   6.1043026525721057E-002   0.0000000000000000     
  -5.7838965908316997E-002   6.6479141912074838E-002   0.0000000000000000     
  -6.0439843083164906E-002   7.2097661475602065E-002   0.0000000000000000     
  -6.2958929934119015E-002   7.7898585216302774E-002   0.0000000000000000     
  -6.5396226461179319E-002   8.3881913134176950E-002   0.0000000000000000     
  -6.0137807380513358E-002   6.1887316025597522E-002   0.0000000000000000     
  -6.3007346349387511E-002   6.7300063916941530E-002   0.0000000000000000     
  -6.5790147241730629E-002   7.2893784351067512E-002   0.0000000000000000     
  -6.8486210057542726E-002   7.8668477327975481E-002   0.0000000000000000     
  -7.1095534796823748E-002   8.4624142847665368E-002   0.0000000000000000     
  -6.5313162147788054E-002   6.2786092310562341E-002   0.0000000000000000     
  -6.8369484724124283E-002   6.8176428582202214E-002   0.0000000000000000     
  -7.1334080498202376E-002   7.3745094339838266E-002   0.0000000000000000     
  -7.4206949470022335E-002   7.9492089583470496E-002   0.0000000000000000     
  -7.6988091639584144E-002   8.5417414313098905E-002   0.0000000000000000     
  -5.4577355311238210E-002   8.2550578963035234E-002   0.0000000000000000     
  -5.6594357079187051E-002   8.8749194687635549E-002   0.0000000000000000     
  -5.8532164607324681E-002   9.5102173605441515E-002   0.0000000000000000     
  -6.0390777895651095E-002  0.10160951571645317        0.0000000000000000     
  -6.2170196944166298E-002  0.10827122102067048        0.0000000000000000     
  -5.9890166632650794E-002   8.3190725172633567E-002   0.0000000000000000     
  -6.2074036998498630E-002   8.9367334139546409E-002   0.0000000000000000     
  -6.4172416574589372E-002   9.5697912802752125E-002   0.0000000000000000     
  -6.6185305360923041E-002  0.10218246116225072        0.0000000000000000     
  -6.8112703357499596E-002  0.10882097921804221        0.0000000000000000     
  -6.5396226461179319E-002   8.3881913134176950E-002   0.0000000000000000     
  -6.7746820498910551E-002   9.0033581768931309E-002   0.0000000000000000     
  -7.0005799881877481E-002   9.6339527660272567E-002   0.0000000000000000     
  -7.2173164610080109E-002  0.10279975080820075        0.0000000000000000     
  -7.4248914683518422E-002  0.10941425121271582        0.0000000000000000     
  -7.1095534796823748E-002   8.4624142847665368E-002   0.0000000000000000     
  -7.3612707580422848E-002   9.0747937575790194E-002   0.0000000000000000     
  -7.6032314529189016E-002   9.7027018178002813E-002   0.0000000000000000     
  -7.8354355643122348E-002  0.10346138465430320        0.0000000000000000     
  -8.0578830922222733E-002  0.11005103700469135        0.0000000000000000     
  -7.6988091639584144E-002   8.5417414313098905E-002   0.0000000000000000     
  -7.9671698243035480E-002   9.1510401560123134E-002   0.0000000000000000     
  -8.2251960516523989E-002   9.7760384355942850E-002   0.0000000000000000     
  -8.4728878460049686E-002  0.10416736270055806        0.0000000000000000     
  -8.7102452073612571E-002  0.11073133659396878        0.0000000000000000     
  -6.2170196944166298E-002  0.10827122102067048        0.0000000000000000     
  -6.3879406883598347E-002  0.11508027551952014        0.0000000000000000     
  -6.5527392844675347E-002  0.12202966521442889        0.0000000000000000     
  -6.7114154827397243E-002  0.12911939010539664        0.0000000000000000     
  -6.8639692831764104E-002  0.13634945019242348        0.0000000000000000     
  -6.8112703357499596E-002  0.10882097921804221        0.0000000000000000     
  -6.9964681462571704E-002  0.11560671920980532        0.0000000000000000     
  -7.1751310574392019E-002  0.12253293337721885        0.0000000000000000     
  -7.3472590692960499E-002  0.12959962172028280        0.0000000000000000     
  -7.5128521818277158E-002  0.13680678423899717        0.0000000000000000     
  -7.4248914683518422E-002  0.10941425121271582        0.0000000000000000     
  -7.6243718006265671E-002  0.11617574719843636        0.0000000000000000     
  -7.8168242482395164E-002  0.12307695708998088        0.0000000000000000     
  -8.0022488111906889E-002  0.13011788088734935        0.0000000000000000     
  -8.1806454894800817E-002  0.13729851859054185        0.0000000000000000     
  -8.0578830922222733E-002  0.11005103700469135        0.0000000000000000     
  -8.2716516514680247E-002  0.11678735948541329        0.0000000000000000     
  -8.4778188568684784E-002  0.12366173635271493        0.0000000000000000     
  -8.6763847084236401E-002  0.13067416760659634        0.0000000000000000     
  -8.8673492061335082E-002  0.13782465324705748        0.0000000000000000     
  -8.7102452073612571E-002  0.11073133659396878        0.0000000000000000     
  -8.9383076987815391E-002  0.11744155607073609        0.0000000000000000     
  -9.1581148833260892E-002  0.12428727116542107        0.0000000000000000     
  -9.3696667609949075E-002  0.13126848187802376        0.0000000000000000     
  -9.5729633317879953E-002  0.13838518820854412        0.0000000000000000     
  -6.8639692831764104E-002  0.13634945019242348        0.0000000000000000     
  -7.0090826549993268E-002  0.14369988748233650        0.0000000000000000     
  -7.1454375674302156E-002  0.15115074398196296        0.0000000000000000     
  -7.2730340204690769E-002  0.15870201969130274        0.0000000000000000     
  -7.3918720141159078E-002  0.16635371461035597        0.0000000000000000     
  -7.5128521818277158E-002  0.13680678423899717        0.0000000000000000     
  -7.6705209255919851E-002  0.14413231209719846        0.0000000000000000     
  -7.8188758311466433E-002  0.15155409645872328        0.0000000000000000     
  -7.9579168984916876E-002  0.15907213732357162        0.0000000000000000     
  -8.0876441276271221E-002  0.16668643469174343        0.0000000000000000     
  -8.1806454894800817E-002  0.13729851859054185        0.0000000000000000     
  -8.3505952764805449E-002  0.14459783680596114        0.0000000000000000     
  -8.5106791655649258E-002  0.15199480214001002        0.0000000000000000     
  -8.6608971567332216E-002  0.15948941459268864        0.0000000000000000     
  -8.8012492499854336E-002  0.16708167416399688        0.0000000000000000     
  -8.8673492061335082E-002  0.13782465324705748        0.0000000000000000     
  -9.0493057076650063E-002  0.14509646160862441        0.0000000000000000     
  -9.2208475706850618E-002  0.15247286102582319        0.0000000000000000     
  -9.3819747951936733E-002  0.15995385149865382        0.0000000000000000     
  -9.5326873811908422E-002  0.16753943302711627        0.0000000000000000     
  -9.5729633317879953E-002  0.13838518820854412        0.0000000000000000     
  -9.7666522191453692E-002  0.14562818650518838        0.0000000000000000     
  -9.9493810465070540E-002  0.15298827311616270        0.0000000000000000     
 -0.10121149813873048       0.16046544804146715        0.0000000000000000     
 -0.10281958521243348       0.16805971128110167        0.0000000000000000     
 </DataArray>
 <DataArray  type="Float64" Name="stress" NumberOfComponents="3" format="ascii">
   13416419800.360086        4024925940.1080260        2893824238.0358696     
   11766420613.655251        1890615194.5921178        1715766476.6721175     
   10313650225.262302        413733776.78250599        810775051.40220511     
   9058108635.1812439       -405718313.32081127        178849962.22613251     
   7999795843.4120741       -567741075.71783018       -180008790.85610110     
   10539805122.628117        3161941536.7884350        2225673902.3102126     
   9667510382.4351635        1589697914.5013163        1446684625.5149114     
   8943821276.4839878        512806406.35345411        863155404.58211422     
   8368737804.7745876       -68732987.655153751        475086239.51182169     
   7942259967.3069630       -154920267.52450323        282477130.30403382     
   8337861508.7851372        2501358452.6355414        1712331613.2954125     
   8021538985.8716812        1424662284.8074958        1275683796.3200979     
   7805198933.1298914        681241017.55166793        956889754.97595286     
   7688841350.5597649        271094650.86805487        755949489.26297653     
   7672466238.1613026        194223184.75665903        672862999.18116879     
   6810588958.8311472        2043176687.6493442        1353797370.9914689     
   6828506423.9648037        1395508305.5106568        1202763989.0876775     
   6897783195.2000113        919037610.37714601        1091978102.5837197     
   7018419272.5367708        613764602.24881196        1021439711.4795952     
   7190414655.9750853        479689281.12565422        991148815.77530551     
   5957987472.7661486        1787396241.8298447        1150071175.3983822     
   6088412696.7145290        1502235976.6107991        1227925203.8176496     
   6221574062.6943493        1226196184.8298903        1268420447.4054158     
   6357471570.7056112        959276866.48711860        1271556906.1616802     
   6496105220.7483149        701478021.58248329        1237334580.0864429     
   7999795843.4120741       -567741075.71783018       -180008790.85610110     
   7917424371.2734261       -200624069.35988951       -78306690.901598319     
   7793664126.8882608        28530362.842981339       -9166720.9683966916     
   7628515110.2565670        119722220.89076996        27411118.943504505     
   7421977321.3783579        72951504.783490658        31426828.834106471     
   7942259967.3069630       -154920267.52450323        282477130.30403382     
   7739635154.4924202        16068733.513788700        281084669.89171696     
   7513692865.7954731        109332814.94407511        265012078.66992632     
   7264433101.2161236        124871976.76635218        234259356.63866261     
   6991855860.7543745        62686218.980627060        188826503.79793066     
   7672466238.1613026        194223184.75665903        672862999.18116879     
   7400679510.9903660        184411608.37115192        589459157.49350595     
   7123646604.3011494        157112766.92470598        509257184.20819789     
   6841367518.0936480        112326660.41732264        432257079.32524735     
   6553842252.3678656        50053288.849001169        358458842.84464824     
   7190414655.9750853        479689281.12565422        991148815.77530551     
   6900557440.7672644        304404555.21220040        846816771.90376985     
   6623525342.4052820        171870218.78487778        723568595.64641869     
   6359318360.8891411        82086271.843683243        621404287.00324988     
   6107936496.2188349        35052714.388617516        540323845.97426462     
   6496105220.7483149        701478021.58248329        1237334580.0864429     
   6239268943.8231163        376047574.03693533        1053157513.1225096     
   6013329080.1078787        153605170.52458668        907946312.98458743     
   5818285629.6026011        34150811.045434475        801700979.67267752     
   5654138592.3072824        17684495.599479675        734421513.18677700     
   7421977321.3783579        72951504.783490658        31426828.834106471     
   7219794947.6245432       -17210235.307457924        14932942.688954655     
   7029530369.0704470       -67645991.399343491        2614325.9853863693     
   6851183585.7160692       -78355763.492170811       -5529021.2765985429     
   6684754597.5614052       -49339551.585948944       -9497099.0970047247     
   6991855860.7543745        62686218.980627060        188826503.79793066     
   6809116483.7174196        3640507.5808720589        180678572.11325380     
   6633994815.9860773       -30012839.466840267        176130900.30200255     
   6466490857.5603447       -38273822.162517548        175183488.36416364     
   6306604608.4402285       -21142440.506150007        177836336.29974982     
   6553842252.3678656        50053288.849001169        358458842.84464824     
   6388902987.5673046        21630740.796299696        353640098.74399698     
   6227281346.1782513        4266937.4486248493        351846604.94859922     
   6068977328.2006998       -2038121.1940360069        353078361.45845640     
   5913990933.6346569        2715564.8683321476        357335368.27357101     
   6107936496.2188349        35052714.388617516        540323845.97426462     
   5959154459.1742001        36760464.338833809        533817522.58117741     
   5809389959.6469660        35193339.347052813        529761439.92518038     
   5658642997.6371317        30351339.413273811        528155598.00627494     
   5506913573.1447010        22234464.537496805        528999996.82446438     
   5654138592.3072824        17684495.599479675        734421513.18677700     
   5519870898.5381060        49029678.208469629        721210843.62479424     
   5380320656.3922272        62766366.228449345        709875405.23174393     
   5235487865.8696413        58894559.659400940        700415198.00762165     
   5085372526.9703522        37414258.501347065        692830221.95242679     
   6684754597.5614052       -49339551.585948944       -9497099.0970047247     
   6509349403.4717350       -11475034.021644592       -4498594.0353911780     
   6329635975.1308632        12028702.705321312        2812127.5521196211     
   6145614312.5387888        21171658.594941378        12435065.665517746     
   5957284415.6955090        15953833.647221565        24370220.304821447     
   6306604608.4402285       -21142440.506150007        177836336.29974982     
   6133273565.3079567       -470660.46843576431        174198076.28408289     
   5957318551.2777538        11454549.909513950        173810655.29281315     
   5778739566.3496237        14633190.627705812        176674073.32593781     
   5597536610.5235729        9065261.6861488819        182788330.38345838     
   5913990933.6346569        2715564.8683321476        357335368.27357101     
   5745415820.0269241        6999140.9495866299        347025317.09278286     
   5575900998.8745356        8150358.5486671925        340904727.43489015     
   5405446470.1775026        6169217.6655869484        338973599.29989249     
   5234052233.9358158        1055718.3003334999        341231932.68778783     
   5506913573.1447010        22234464.537496805        528999996.82446438     
   5345776167.6286469        10934370.232442141        513983128.39071041     
   5185383317.9212189        2116128.6228005886        504094343.97834831     
   5025735024.0224209       -4220260.2914187908        499333643.58738124     
   4866831285.9322395       -8074796.5102276802        499701027.21780527     
   5085372526.9703522        37414258.501347065        692830221.95242679     
   4934354608.1131239        11335027.380120039        675071510.17785871     
   4785765508.4177961       -6648139.8681056499        663379504.92318356     
   4639605227.8843727       -16535243.243316174        657754206.18840623     
   4495873766.5128489       -18326282.745531321        658195613.97352064     
   5957284415.6955090        15953833.647221565        24370220.304821447     
   5779864120.7591629        9532226.2349720001        21181897.802624583     
   5603800414.1158161        7632579.7994012833        21378419.532242380     
   5429093295.7654829        10254894.340527058        24959785.493669398     
   5255742765.7081499        17399169.858332157        31925995.686898910     
   5597536610.5235729        9065261.6861488819        182788330.38345838     
   5429727850.5101643        4928374.5726587772        179667395.71437132     
   5262837204.0876083        3851866.0953557491        180027862.06986701     
   5096864671.2559128        5835736.2542412281        183869729.44995612     
   4931810252.0150661        10879985.049307346        191192997.85462698     
   5234052233.9358158        1055718.3003334999        341231932.68778783     
   5076130885.3961420       -713685.54916381836        337666832.03263158     
   4918689175.7451696       -884293.10298109055        337679689.19484311     
   4761727104.9829140        543895.63892054558        341270504.17441237     
   4605244673.1093588        3570880.6764960289        348439276.97135651     
   4866831285.9322395       -8074796.5102276802        499701027.21780527     
   4719073225.4170952       -7393954.1304912567        495180206.75741082     
   4571356329.0885134       -6575897.7955589294        494333900.90715778     
   4423680596.9464827       -5620627.5054402351        497162109.66704834     
   4276046028.9910183       -4528143.2601091862        503664833.03708327     
   4495873766.5128489       -18326282.745531321        658195613.97352064     
   4358554870.5730324       -15112431.171329260        652207519.88870811     
   4220838664.1176248       -13222947.982421637        649990497.20681930     
   4082725147.1466298       -12657833.178808928        651544545.92785144     
   3944214319.6600399       -13417086.760505676        656869666.05180955     
   5255742765.7081499        17399169.858332157        31925995.686898910     
   5056488957.9392805        18086360.588889837        25879781.194675207     
   4856744868.5980072        17139279.411409378        24146714.771914408     
   4656510497.6842985        14557926.325825930        26726796.418628689     
   4455785845.1981916        10342301.332238436        33620026.134802029     
   4931810252.0150661        10879985.049307346        191192997.85462698     
   4743374247.0248156        9714128.9315028191        183774378.48676607     
   4554550482.8252115        7255742.1158554554        180791623.99799880     
   4365338959.4162569        3504824.6023771763        182244734.38831139     
   4175739676.7979555       -1538623.6089296341        188133709.65772718     
   4605244673.1093588        3570880.6764960289        348439276.97135651     
   4427977090.3537874        657163.54713392258        339767862.15143454     
   4250424270.7519403       -3207343.0698146820        335655029.02022767     
   4072586214.3037992       -8022639.1744034290        336100777.57773328     
   3894462921.0093832       -13788724.766582251        341105107.82395715     
   4276046028.9910183       -4528143.2601091862        503664833.03708327     
   4110297487.9262018       -9084535.5641889572        493860232.18867761     
   3944366232.3781767       -14249976.145649195        488736929.83861214     
   3778252262.3469276       -20024465.004511118        488294925.98688543     
   3611955577.8324647       -26408002.140756607        492534220.63350046     
   3944214319.6600399       -13417086.760505676        656869666.05180955     
   3790335439.7420588       -19510968.402479172        646051488.59849465     
   3636376367.7039242       -25872157.111632824        640037326.45315206     
   3482337103.5456376       -32500652.887953281        638827179.61576831     
   3328217647.2672095       -39396455.731418848        642421048.08635700     
   4455785845.1981916        10342301.332238436        33620026.134802029     
   4302010986.2536287        20473281.816809893        32930543.967370540     
   4148898936.8479080        32813627.430847883        37651443.208908975     
   3996449696.9810138        47363338.174298048        47782723.859410934     
   3844663266.6529508        64122414.047209501        63324385.918882817     
   4175739676.7979555       -1538623.6089296341        188133709.65772718     
   4034779579.1976686        7965410.2225770950        187200038.37194812     
   3894178049.5127192        18664670.438532591        190858174.40043592     
   3753935087.7431011        30559157.038932323        199108117.74316242     
   3614050693.8888302        43648870.023821592        211949868.40015706     
   3894462921.0093832       -13788724.766582251        341105107.82395715     
   3763978801.6256180       -5613272.5264925957        339572298.85909599     
   3633549008.5336933        2743267.3530781269        341812723.11376947     
   3503173541.7336092        11280894.872105598        347826380.58799726     
   3372852401.2253599        19999610.030605316        357613271.28176415     
   3611955577.8324647       -26408002.140756607        492534220.63350046     
   3489608653.5374770       -20262766.430384398        490047325.42879969     
   3367011813.9108305       -14950581.825533390        490515089.34893245     
   3244165058.9525294       -10471448.326203823        493937512.39390266     
   3121068388.6625676       -6825365.9324092865        500314594.56370229     
   3328217647.2672095       -39396455.731418848        642421048.08635700     
   3211669134.9332476       -35983071.489099622        638625118.08107436     
   3094566465.6441312       -34416877.097291589        636965273.10591424     
   2976909639.3998632       -34697872.556008101        637441513.16087043     
   2858698656.2004414       -36826057.865213871        640053838.24595618     
   3844663266.6529508        64122414.047209501        63324385.918882817     
   3635551010.9014630        83422253.928071022        43635458.320660897     
   3438790348.8869920        143894072.93230951        28479173.497762796     
   3254381280.6095009        245537871.05980754        17855531.450216696     
   3082323806.0690045        388353648.31064498        11764532.177986726     
   3614050693.8888302        43648870.023821592        211949868.40015706     
   3412990208.8775573        50477844.508177876        200205812.10104740     
   3219543961.7838655        82687612.051115394        193000674.84133410     
   3033711952.6077514        140278172.65264368        190334456.62104729     
   2855494181.3492141        223249526.31276357        192207157.44016325     
   3372852401.2253599        19999610.030605316        357613271.28176415     
   3179861619.1373787        14363098.773332715        348287171.15910453     
   2989747719.1475739        18316194.509964108        343506266.33992761     
   2802510701.2559114        31858897.240422606        343270556.82424444     
   2618150565.4624233        54991206.964795470        347580042.61204499     
   3121068388.6625676       -6825365.9324092865        500314594.56370229     
   2936165241.6809654       -24921983.276347756        487879535.49483323     
   2749401620.9781084       -49220179.691135526        479995947.99354166     
   2560777526.5539918       -79719955.176787257        476663832.05982244     
   2370292958.4086156       -116421309.73328447        477883187.69366711     
   2858698656.2004414       -36826057.865213871        640053838.24595618     
   2681901076.5082951       -67377401.640915155        618982905.10824347     
   2498505667.2754807       -119921510.55218303        602469719.80216718     
   2308512428.5019932       -194458384.59903085        590514282.32775962     
   2111921360.1878285       -290988023.78145802        583116592.68498552     
   5957987472.7661486        1787396241.8298447        1150071175.3983822     
   6088412696.7145290        1502235976.6107991        1227925203.8176496     
   6221574062.6943493        1226196184.8298903        1268420447.4054158     
   6357471570.7056112        959276866.48711860        1271556906.1616802     
   6496105220.7483149        701478021.58248329        1237334580.0864429     
   5434680318.1842089        1630404095.4552627        1033484352.3756074     
   5489896108.6102209        1372497358.6136794        1113878587.3456306     
   5547315651.5182972        1121936463.3789761        1167488920.9659195     
   5606938946.9084377        878721409.75115275        1194315353.2364745     
   5668765994.7806416        642852197.73020840        1194357884.1572959     
   4895290762.6793947        1468587228.8038185        936368227.78260005     
   4905511072.3880892        1246998206.1812129        1018681548.1624390     
   4917402745.0294714        1030980393.3342301        1084785850.6743109     
   4930965780.6035395        820533790.26286936        1134681135.3182173     
   4946200179.1102943        615658396.96713102        1168367402.0941563     
   4339818806.2517071        1301945641.8755121        858722801.61935973     
   4335257588.0481348        1125738519.3133993        942334086.26807451     
   4331835343.2278709        953327974.69565177        1020311236.5305895     
   4329552071.7909164        784714008.02226877        1092654252.4069059     
   4328407773.7372732        619896619.29325151        1159363133.8970237     
   3768264448.9011445        1130479334.6703434        800548073.88588691     
   3779135655.5903540        1008718298.0102382        884836201.66253722     
   3790613446.1134973        888979207.46324110        974065078.53475559     
   3802697820.4705710        771262063.02935135        1068234704.5025429     
   3815388778.6615777        655566864.70857000        1167345079.5658982     
   6496105220.7483149        701478021.58248329        1237334580.0864429     
   6239268943.8231163        376047574.03693533        1053157513.1225096     
   6013329080.1078787        153605170.52458668        907946312.98458743     
   5818285629.6026011        34150811.045434475        801700979.67267752     
   5654138592.3072824        17684495.599479675        734421513.18677700     
   5668765994.7806416        642852197.73020840        1194357884.1572959     
   5518774198.6826601        383388661.17515564        1073471389.4679514     
   5392920185.4808207        204384400.94057822        980583956.82187593     
   5291203955.1751261        105839417.02647972        915695586.21907246     
   5213625507.7655716        87753709.432856560        878806277.65954065     
   4946200179.1102943        615658396.96713102        1168367402.0941563     
   4871719135.8888445        412761653.01736856        1102886410.9799452     
   4814617245.2497206        267795417.67535973        1054437677.1262662     
   4774894507.1929226        180759690.94110632        1023021200.5331184     
   4752550921.7184515        151654472.81460834        1008636981.2005033     
   4328407773.7372732        619896619.29325151        1159363133.8970237     
   4298103755.4416676        464166549.56357276        1141402577.6584952     
   4278420259.4145751        343838220.72892761        1129507473.8977585     
   4269357285.6559911        258911632.78931499        1123677822.6148145     
   4270914834.1659169        209386785.74473667        1123913623.8096623     
   3815388778.6615777        655566864.70857000        1167345079.5658982     
   3797928057.3411355        537603350.81377077        1189019889.5035987     
   3784329227.9753871        432512810.10128105        1205793347.1363530     
   3774592290.5643334        340295242.57110643        1217665452.4641595     
   3768717245.1079731        260950648.22324288        1224636205.4870188     
   5654138592.3072824        17684495.599479675        734421513.18677700     
   5519870898.5381060        49029678.208469629        721210843.62479424     
   5380320656.3922272        62766366.228449345        709875405.23174393     
   5235487865.8696413        58894559.659400940        700415198.00762165     
   5085372526.9703522        37414258.501347065        692830221.95242679     
   5213625507.7655716        87753709.432856560        878806277.65954065     
   5076936402.5775108        85422912.172745705        855196410.80369711     
   4938189585.4825859        76233075.223078728        835620068.58034229     
   4797385056.4807901        60184198.583845139        820077250.98948050     
   4654522815.5721273        37276282.255056858        808567958.03110814     
   4752550921.7184515        151654472.81460834        1008636981.2005033     
   4619606957.8645430        117497661.51131082        978390226.26560485     
   4487830118.5736017        87231265.417907715        954335289.42675936     
   4357220403.8456316        60855284.534398794        936472170.68396604     
   4227777813.6806254        38369718.860786915        924800870.03722692     
   4270914834.1659169        209386785.74473667        1123913623.8096623     
   4147882564.3991947        145253926.22415972        1090792290.0105193     
   4029242255.6652775        95760936.812931776        1066021067.7709916     
   3914993907.9641676        60907817.511059523        1049599957.0910778     
   3805137521.2958608        40694568.318535089        1041528957.9707818     
   3768717245.1079731        260950648.22324288        1224636205.4870188     
   3661763222.1814709        168691706.31129920        1192402602.0384405     
   3562425996.7576113        101822089.40815687        1170677403.6130385     
   3470705568.8363934        60341797.513825178        1159460610.2108140     
   3386601938.4178195        44250830.628304124        1158752221.8317709     
   5085372526.9703522        37414258.501347065        692830221.95242679     
   4934354608.1131239        11335027.380120039        675071510.17785871     
   4785765508.4177961       -6648139.8681056499        663379504.92318356     
   4639605227.8843727       -16535243.243316174        657754206.18840623     
   4495873766.5128489       -18326282.745531321        658195613.97352064     
   4654522815.5721273        37276282.255056858        808567958.03110814     
   4520282808.8277054        16668733.972594023        794507910.05599976     
   4387911743.3068914        2290989.7688226700        786024545.76190567     
   4257409619.0096884       -5856950.3562579155        783117865.14882243     
   4128776435.9360857       -7775086.4026465416        785787868.21674836     
   4227777813.6806254        38369718.860786915        924800870.03722692     
   4108915653.7950659        22813833.840902328        913786294.93357074     
   3991362557.1948175        11621493.105396271        907858380.67204368     
   3875118523.8798814        4792696.6542699337        907017127.25264740     
   3760183553.8502603        2327444.4875235558        911262534.67537880     
   3805137521.2958608        40694568.318535089        1041528957.9707818     
   3700253143.0152030        29770326.985041857        1032906664.8105661     
   3596117950.0815706        21343370.141620636        1028881009.6535995     
   3492731942.4949541        15413697.788258791        1029451992.4998772     
   3390095120.2553587        11981309.924969673        1034619613.3494047     
   3386601938.4178195        44250830.628304124        1158752221.8317709     
   3294295276.4881225        37538213.405019879        1151869019.6869874     
   3202177921.9671516        31456620.877491593        1149092432.7065692     
   3110249874.8549066        26006053.045712590        1150422460.8905163     
   3018511135.1513882        21186509.909693241        1155859104.2388308     
   4495873766.5128489       -18326282.745531321        658195613.97352064     
   4358554870.5730324       -15112431.171329260        652207519.88870811     
   4220838664.1176248       -13222947.982421637        649990497.20681930     
   4082725147.1466298       -12657833.178808928        651544545.92785144     
   3944214319.6600399       -13417086.760505676        656869666.05180955     
   4128776435.9360857       -7775086.4026465416        785787868.21674836     
   4000939446.9080067       -6816269.7405958176        779105014.85816717     
   3872972919.6199074       -6289247.2786030769        776465257.31618631     
   3744876854.0717926       -6194019.0166633129        777868595.59080708     
   3616651250.2636647       -6530584.9547729492        783315029.68202841     
   3760183553.8502603        2327444.4875235558        911262534.67537880     
   3642605684.3444242        1264390.0205655098        904197323.00786006     
   3525166048.8341470        662115.53880143166        901447231.57062137     
   3407864647.3194265        520621.04222702980        903012260.36366510     
   3290701479.8002634        839906.53084564209        908892409.38699067     
   3390095120.2553587        11981309.924969673        1034619613.3494047     
   3283553582.8822837        9129548.1121600866        1027484444.3377876     
   3177418051.7603393        7631140.4697905779        1024936419.9701281     
   3071688526.8895273        7486086.9978604317        1026975540.2464298     
   2966365008.2698426        8694387.6963595152        1033601805.1666940     
   3018511135.1513882        21186509.909693241        1155859104.2388308     
   2923783142.5215859        16779204.534188509        1148966378.8479466     
   2829728928.3984885        14617827.514367700        1146932822.5147002     
   2736348492.7820940        14702378.850226402        1149758435.2390983     
   2643641835.6724048        17032858.541768670        1157443217.0211344     
   3944214319.6600399       -13417086.760505676        656869666.05180955     
   3790335439.7420588       -19510968.402479172        646051488.59849465     
   3636376367.7039242       -25872157.111632824        640037326.45315206     
   3482337103.5456376       -32500652.887953281        638827179.61576831     
   3328217647.2672095       -39396455.731418848        642421048.08635700     
   3616651250.2636647       -6530584.9547729492        783315029.68202841     
   3475687921.2531648       -10891117.685217619        772975852.56570601     
   3334720515.6246929       -15265239.142246962        767367695.70605004     
   3193749033.3782434       -19652949.325868011        766490559.10306454     
   3052773474.5138159       -24054248.236073613        770344442.75674212     
   3290701479.8002634        839906.53084564209        908892409.38699067     
   3162445144.4078331       -1849844.4748858213        899121034.02685416     
   3034260847.8995976       -4299465.8666309118        894007683.87209380     
   2906148590.2755613       -6508957.6443793774        893552358.92270052     
   2778108371.5357227       -8478319.8081349134        897755059.17868221     
   2966365008.2698426        8694387.6963595152        1033601805.1666940     
   2850607109.2060566        7612851.2285118103        1024487032.9819481     
   2734997364.5286393        7025162.7152311802        1019957290.9512821     
   2619535774.2375975        6931322.1565290689        1020012579.0746907     
   2504222338.3329210        7331329.5523879528        1024652897.3521712     
   2643641835.6724048        17032858.541768670        1157443217.0211344     
   2540173815.6478400        17496969.424980760        1149073849.4309909     
   2436930065.5118179        18708646.603331447        1145216516.9436224     
   2333910585.2643456        20667890.076850414        1145871219.5590279     
   2231115374.9054146        23374699.845505953        1151037957.2772126     
   3328217647.2672095       -39396455.731418848        642421048.08635700     
   3211669134.9332476       -35983071.489099622        638625118.08107436     
   3094566465.6441312       -34416877.097291589        636965273.10591424     
   2976909639.3998632       -34697872.556008101        637441513.16087043     
   2858698656.2004414       -36826057.865213871        640053838.24595618     
   3052773474.5138159       -24054248.236073613        770344442.75674212     
   2942899522.2096715       -19501727.066580176        766655051.58572245     
   2832781298.0256653       -15763445.496616244        765700974.57817209     
   2722418801.9617910       -12839403.526216269        767482211.73408139     
   2611812034.0180578       -10729601.155340195        771998763.05345488     
   2778108371.5357227       -8478319.8081349134        897755059.17868221     
   2676621062.4995098       -2273036.7400343418        894533739.42976952     
   2575199366.6587272        4150956.9794969559        894646962.97766054     
   2473843284.0133719        10793661.350464582        898094729.82235956     
   2372552814.5634499        17655076.372867823        904877039.96386611     
   2504222338.3329210        7331329.5523879528        1024652897.3521712     
   2412833755.8027635        15702999.490541697        1022261181.6132051     
   2321820671.5433259        25326330.331086516        1023803238.3043876     
   2231183085.5546107        36201322.074042797        1029279067.4257138     
   2140920997.8366182        48327974.719407916        1038688668.9771922     
   2231115374.9054146        23374699.845505953        1151037957.2772126     
   2151537602.1194286        34426381.625128031        1149837378.1360328     
   2072645212.6794569        47762674.558124900        1153169800.5583427     
   1994438206.5855033        63383578.644518495        1161035224.5441451     
   1916916583.8375578        81289093.884279132        1173433650.0934353     
   2858698656.2004414       -36826057.865213871        640053838.24595618     
   2681901076.5082951       -67377401.640915155        618982905.10824347     
   2498505667.2754807       -119921510.55218303        602469719.80216718     
   2308512428.5019932       -194458384.59903085        590514282.32775962     
   2111921360.1878285       -290988023.78145802        583116592.68498552     
   2611812034.0180578       -10729601.155340195        771998763.05345488     
   2450679767.8955131       -28686438.028840780        748017266.34238887     
   2286555077.0874934       -56618023.853916049        728621838.33731663     
   2119437961.5940189       -94524358.630518079        713812479.03824294     
   1949328421.4150786       -142405442.35867298        703589188.44516218     
   2372552814.5634499        17655076.372867823        904877039.96386611     
   2227166778.7943463        12317021.436700106        882191285.34385598     
   2082393723.1949859        9022233.7330073118        864119920.30419016     
   1938233647.7653689        7770713.2618031502        850662944.84486985     
   1794686552.5054972        8562460.0230758190        841820358.96589291     
   2140920997.8366182        48327974.719407916        1038688668.9771922     
   2011362109.2048056        55632976.755741239        1021504962.1126490     
   1886021605.5979462        76999262.208571434        1008963965.7028046     
   1764899487.0160429        112426831.07791930        1001065679.7476366     
   1647995753.4590840        161915683.36376858        997810104.24717391     
   1916916583.8375578        81289093.884279132        1173433650.0934353     
   1803265759.1268907        101261427.92827010        1165958296.6487687     
   1697438724.2963796        147313061.57276911        1163153974.5331423     
   1599435479.3460324        219443994.81782639        1165020683.7465589     
   1509256024.2758441        317654227.66341323        1171558424.2890055     
   3768264448.9011445        1130479334.6703434        800548073.88588691     
   3779135655.5903540        1008718298.0102382        884836201.66253722     
   3790613446.1134973        888979207.46324110        974065078.53475559     
   3802697820.4705710        771262063.02935135        1068234704.5025429     
   3815388778.6615777        655566864.70857000        1167345079.5658982     
   3207804584.0458984        962341375.21376944        756688270.34126103     
   3235892872.1032071        868217592.26310182        853055332.41999030     
   3263703132.6325150        773167050.88575709        951347726.36874306     
   3291235365.6338181        677189751.08173525        1051565452.1875190     
   3318489571.1071191        580285692.85103583        1153708509.8763175     
   2685616105.1041541        805684831.53124619        721987616.74456203     
   2722305996.7422934        736613658.95383513        829401566.53644538     
   2757833249.4904938        663667023.40996170        935725430.97280705     
   2792197863.3487563        586844924.89962602        1040959210.0536473     
   2825399838.3170781        506147363.42282784        1145102903.7789652     
   2201699012.0759139        660509703.62277412        696446113.09578991     
   2238375029.5076103        613906498.08243763        813874904.01190257     
   2273003796.6874328        560479125.03585386        927198192.34694886     
   2305585313.6153808        500227584.48302257        1036415978.1009278     
   2336119580.2914553        433151876.42394489        1141528261.2738414     
   1756053304.9611762        526815991.48835284        680063759.39494443     
   1784099970.3991592        500096109.64890987        806475344.84636199     
   1809214774.2233319        463603355.76343447        925766010.49116766     
   1831397716.4336953        417337729.83192670        1037935756.3293616     
   1850648797.0302489        361299231.85438669        1142984582.3609440     
   3815388778.6615777        655566864.70857000        1167345079.5658982     
   3797928057.3411355        537603350.81377077        1189019889.5035987     
   3784329227.9753871        432512810.10128105        1205793347.1363530     
   3774592290.5643334        340295242.57110643        1217665452.4641595     
   3768717245.1079731        260950648.22324288        1224636205.4870188     
   3318489571.1071191        580285692.85103583        1153708509.8763175     
   3293849213.8753171        473068196.70995069        1182052745.0348814     
   3272951673.7766676        378326757.67937446        1207295685.3926423     
   3255796950.8111730        296061375.75931168        1229437330.9496005     
   3242385044.9788303        226272050.94975781        1248477681.7057567     
   2825399838.3170781        506147363.42282784        1145102903.7789652     
   2798722866.6143303        411218791.46758074        1179977643.5332606     
   2775669637.2231932        328369360.55104256        1213551145.9908984     
   2756240150.1436710        257599070.67321360        1245823411.1518781     
   2740434405.3757591        198907921.83409321        1276794439.0162005     
   2336119580.2914553        433151876.42394489        1141528261.2738414     
   2312549015.5581722        352055135.08665943        1182794584.9987381     
   2292483118.3149614        282640618.71628255        1224559728.9311216     
   2275921888.5618243        224908327.31281251        1266823693.0709922     
   2262865326.2987580        178858260.87625003        1309586477.4183488     
   1850648797.0302489        361299231.85438669        1142984582.3609440     
   1835327660.7068460        295577227.56718743        1190503569.4313116     
   1823392117.0519753        241140532.17509604        1240321434.2133112     
   1814842166.0656364        197989145.67810911        1292438176.7069407     
   1809677807.7478287        166123068.07622838        1346853796.9122028     
   3768717245.1079731        260950648.22324288        1224636205.4870188     
   3661763222.1814709        168691706.31129920        1192402602.0384405     
   3562425996.7576113        101822089.40815687        1170677403.6130385     
   3470705568.8363934        60341797.513825178        1159460610.2108140     
   3386601938.4178195        44250830.628304124        1158752221.8317709     
   3242385044.9788303        226272050.94975781        1248477681.7057567     
   3165003759.4575620        152099173.47121239        1231511417.9591346     
   3093642686.1906261        97993670.173773170        1222611301.5548828     
   3028301825.1780219        63955541.057441235        1221777332.4930015     
   2968981176.4197507        49984786.122217298        1229009510.7734904     
   2740434405.3757591        198907921.83409321        1276794439.0162005     
   2685647978.1717052        140727745.06254363        1273232832.1818385     
   2635285177.9736719        97292991.644397020        1275295115.0090404     
   2589346004.7816610        68603661.579659343        1282981287.4978080     
   2547830458.5956721        54659754.868326783        1296291349.6481385     
   2262865326.2987580        178858260.87625003        1309586477.4183488     
   2223695878.3238993        134577421.08528972        1317566844.7065539     
   2187353472.1067505        99720053.820030570        1328728843.9755144     
   2153838107.6473145        74286159.080481768        1343072475.2252333     
   2123149784.9455900        58275736.866635680        1360597738.4557111     
   1809677807.7478287        166123068.07622838        1346853796.9122028     
   1779147459.9141440        133648201.53944975        1364513455.5332787     
   1749847568.5898600        105274856.70067555        1382912488.4543035     
   1721778133.7749786        81003033.559906840        1402050895.6752791     
   1694939155.4694974        60832732.117142260        1421928677.1962061     
   3386601938.4178195        44250830.628304124        1158752221.8317709     
   3294295276.4881225        37538213.405019879        1151869019.6869874     
   3202177921.9671516        31456620.877491593        1149092432.7065692     
   3110249874.8549066        26006053.045712590        1150422460.8905163     
   3018511135.1513882        21186509.909693241        1155859104.2388308     
   2968981176.4197507        49984786.122217298        1229009510.7734904     
   2886418989.8472486        39039026.366827965        1221464338.0118201     
   2804428320.5967526        29998324.351449847        1218285179.4064178     
   2723009168.6682568        22862680.076079726        1219472034.9572875     
   2642161534.0617619        17632093.540711045        1225024904.6644313     
   2547830458.5956721        54659754.868326783        1296291349.6481385     
   2475753887.3572469        39703194.573899627        1288530117.8350623     
   2404631043.3541012        27925725.063737392        1285394299.1701677     
   2334461926.5862317        19327346.337829113        1286883893.6534503     
   2265246537.0536394        13908058.396183252        1292998901.2849119     
   2123149784.9455900        58275736.866635680        1360597738.4557111     
   2062299969.0181160        39530718.026235104        1353066359.1567206     
   2002786090.2391970        25238823.014347434        1350419791.9978170     
   1944608148.6088302        15400051.830967307        1352658036.9789994     
   1887766144.1270168        10014404.476101398        1359781094.1002676     
   1694939155.4694974        60832732.117142260        1421928677.1962061     
   1646057234.8298531        38521596.723827362        1415073061.9767909     
   1598893461.2520397        21937618.203280926        1413361657.8893688     
   1553447834.7360535        11080796.555493951        1416794464.9339404     
   1509720355.2818990        5951131.7804758549        1425371483.1105042     
   3018511135.1513882        21186509.909693241        1155859104.2388308     
   2923783142.5215859        16779204.534188509        1148966378.8479466     
   2829728928.3984885        14617827.514367700        1146932822.5147002     
   2736348492.7820940        14702378.850226402        1149758435.2390983     
   2643641835.6724048        17032858.541768670        1157443217.0211344     
   2642161534.0617619        17632093.540711045        1225024904.6644313     
   2560013812.0960822        13750034.940048575        1218581408.9153006     
   2478440872.2429810        11783916.714655161        1216834664.5944302     
   2397442714.5024657        11733738.864548564        1219784671.7018158     
   2317019338.8745356        13599501.389718890        1227431430.2374640     
   2265246537.0536394        13908058.396183252        1292998901.2849119     
   2195215035.3824172        10412031.459454894        1286889139.3843923     
   2125659319.4296546        8501956.9176034927        1285313711.2827506     
   2056579389.1953583        8177834.7706303596        1288272616.9799881     
   1987975244.6795225        9439665.0185308456        1295765856.4761033     
   1887766144.1270168        10014404.476101398        1359781094.1002676     
   1829386812.3805914        6765194.0924148560        1353889570.2552223     
   1771384269.9585092        4771948.1232011318        1352369962.5796707     
   1713758516.8607676        4034666.5684621334        1355222271.0736165     
   1656509553.0873699        4553349.4281969070        1362446495.7370620     
   1509720355.2818990        5951131.7804758549        1425371483.1105042     
   1462529143.0906088        2809522.8389261961        1419582701.5277905     
   1415615723.8295417        593890.33145296574        1418003418.4851887     
   1368980097.4986978       -695765.74194449186        1420633633.9827020     
   1322622264.0980732       -1059445.3812770247        1427473348.0203297     
   2643641835.6724048        17032858.541768670        1157443217.0211344     
   2540173815.6478400        17496969.424980760        1149073849.4309909     
   2436930065.5118179        18708646.603331447        1145216516.9436224     
   2333910585.2643456        20667890.076850414        1145871219.5590279     
   2231115374.9054146        23374699.845505953        1151037957.2772126     
   2317019338.8745356        13599501.389718890        1227431430.2374640     
   2225251444.5865092        13138893.910665393        1218518974.8526781     
   2133618868.5774102        13129347.361371875        1214307977.6306691     
   2042121610.8472447        13570861.741860271        1214798438.5714359     
   1950759671.3960121        14463437.052113771        1219990357.6749809     
   1987975244.6795225        9439665.0185308456        1295765856.4761033     
   1908448684.8708856        8216701.8000606298        1286206536.4187968     
   1828968491.7315671        7148294.1459814310        1281538097.5842669     
   1749534665.2615697        6234442.0563011169        1281760539.9725134     
   1670147205.4608855        5475145.5310093164        1286873863.5835311     
   1656509553.0873699        4553349.4281969070        1362446495.7370620     
   1589765536.5009782        2730393.0931682587        1352136534.1293507     
   1522978934.9742951        765486.95716410875        1346906876.8044147     
   1456149748.5073137       -1341368.9798322916        1346757523.7622542     
   1389277977.1000366       -3590174.7178142071        1351688475.0028651     
   1322622264.0980732       -1059445.3812770247        1427473348.0203297     
   1269201999.4767849       -3320032.2100015879        1416308967.9843369     
   1215650198.3055875       -6019074.2050854564        1410414315.2911134     
   1161966860.5844808       -9156571.3665366769        1409789389.9406657     
   1108151986.3134656       -12732523.694351017        1414434191.9329872     
   2231115374.9054146        23374699.845505953        1151037957.2772126     
   2151537602.1194286        34426381.625128031        1149837378.1360328     
   2072645212.6794569        47762674.558124900        1153169800.5583427     
   1994438206.5855033        63383578.644518495        1161035224.5441451     
   1916916583.8375578        81289093.884279132        1173433650.0934353     
   1950759671.3960121        14463437.052113771        1219990357.6749809     
   1881931652.9252045        23494126.607442975        1219385469.8463647     
   1813876846.6925697        35102190.290012121        1222983005.0561535     
   1746595252.6981101        49287628.099830627        1230782963.3043551     
   1680086870.9418256        66050440.036904514        1242785344.5909636     
   1670147205.4608855        5475145.5310093164        1286873863.5835311     
   1611124431.2335918        12201489.840544641        1286967134.1083329     
   1552962698.1366298        21797971.251184046        1290932249.1464615     
   1495662006.1700032        34264589.762942076        1298769208.6979103     
   1439222355.3337092        49601345.375807941        1310478012.7626903     
   1389277977.1000366       -3590174.7178142071        1351688475.0028651     
   1339115937.0445912        548471.32442498207        1352582370.9219391     
   1289902767.0116353        7850017.4416393042        1357017532.8292551     
   1241638467.0011766        18314463.633834124        1364993960.7248173     
   1194323037.0132074        31941809.901002467        1376511654.6086099     
   1108151986.3134656       -12732523.694351017        1414434191.9329872     
   1065906170.3582008       -11464928.940906525        1416231180.2871871     
   1024697053.3175873       -6741671.1386215091        1421238856.1045420     
   984524635.19162416        1437249.7124934793        1429457219.3850610     
   945388915.98031962        13071833.612471223        1440886270.1287336     
   1916916583.8375578        81289093.884279132        1173433650.0934353     
   1803265759.1268907        101261427.92827010        1165958296.6487687     
   1697438724.2963796        147313061.57276911        1163153974.5331423     
   1599435479.3460324        219443994.81782639        1165020683.7465589     
   1509256024.2758441        317654227.66341323        1171558424.2890055     
   1680086870.9418256        66050440.036904514        1242785344.5909636     
   1576758221.1174593        78085069.510149717        1240655532.8311865     
   1476822006.0592723        101427814.87066561        1243626602.2481539     
   1380278225.7672668        136078676.11846030        1251698552.8418851     
   1287126880.2414458        182037653.25352341        1264871384.6123512     
   1439222355.3337092        49601345.375807941        1310478012.7626903     
   1347444022.8176773        54066713.004930615        1308523828.3881564     
   1254626769.9538529        55069012.808066070        1312100375.0380852     
   1160770596.7422268        52608244.785215616        1321207652.7124767     
   1065875503.1828033        46684408.936360240        1335845661.4113257     
   1194323037.0132074        31941809.901002467        1376511654.6086099     
   1115323164.2275436        29206358.412609398        1369563183.3196805     
   1030853015.9801041        8236655.3849655986        1368575292.9029236     
   940912592.27088940       -30967299.181930125        1373547983.3583398     
   845501893.09989715       -88405505.288081944        1384481254.6859343     
   945388915.98031962        13071833.612471223        1440886270.1287336     
   880395645.34706044        3504005.7331866622        1423773597.6257651     
   805500744.13804424       -39069257.398624063        1413051355.8426793     
   720704212.35327697       -114647955.78294238        1408719544.7794847     
   626006049.99274516       -223232089.41979790        1410778164.4361634     
   1756053304.9611762        526815991.48835284        680063759.39494443     
   1784099970.3991592        500096109.64890987        806475344.84636199     
   1809214774.2233319        463603355.76343447        925766010.49116766     
   1831397716.4336953        417337729.83192670        1037935756.3293616     
   1850648797.0302489        361299231.85438669        1142984582.3609440     
   1326420434.8541055        397926130.45623165        669735239.07555068     
   1339624079.3059905        375533985.03246480        791881684.98455763     
   1350630696.6446586        345818415.89797729        908732633.84571409     
   1359440286.8701115        308779423.05276942        1020288085.6590201     
   1366052849.9823477        264417006.49684104        1126548040.4244757     
   890541852.84886515        267162555.85465953        662355235.57113326     
   894117969.91111279        250662794.92550710        781093848.85508871     
   896231894.36073732        229289058.62094587        896362387.84995508     
   896883626.19773936        203041346.94097555        1008160852.5557321     
   896073165.42211914        171919659.88559705        1116489242.9724202     
   448417558.94545519        134525267.68363655        657923748.88169241     
   447581642.21452582        125482539.32803664        774111836.45795560     
   446018367.37156743        114015283.93233965        888655272.50389111     
   443727734.41658002        100123501.49654575        1001554057.0194981     
   440709743.34956336        83807192.020654827        1112808190.0047774     
   47553.143875564936        14265.943162669480        656440779.00722790     
   15096.216230155047       -6781.7599464970262        770935647.79315805     
  -9884.3228507967597       -2908.1678408032531        885611287.80752134     
  -27388.473367416296        25886.719479244683        1000467699.0503180     
  -37416.235319371874        79602.902014839172        1115504881.5215476     
   1850648797.0302489        361299231.85438669        1142984582.3609440     
   1835327660.7068460        295577227.56718743        1190503569.4313116     
   1823392117.0519753        241140532.17509604        1240321434.2133112     
   1814842166.0656364        197989145.67810911        1292438176.7069407     
   1809677807.7478287        166123068.07622838        1346853796.9122028     
   1366052849.9823477        264417006.49684104        1126548040.4244757     
   1360399066.6396937        216887643.23250520        1181956722.8991280     
   1357280523.9672186        177809082.20209792        1238304651.2574489     
   1356697221.9649210        147181323.40561807        1295591825.4994388     
   1358649160.6328030        125004366.84306860        1353818245.6250973     
   896073165.42211914        171919659.88559705        1116489242.9724202     
   896202072.69460523        141417538.93444091        1178795543.5199456     
   898015868.63891709        116531713.55603635        1240681458.1231766     
   901514553.25505388        97262183.750382006        1302146986.7821133     
   906698126.54301643        83608949.517479777        1363192129.4967551     
   440709743.34956336        83807192.020654827        1112808190.0047774     
   442736678.87158155        69166914.672996461        1181020031.2937636     
   445598151.06707162        57308426.236911505        1247451854.8104925     
   449294159.93603355        48231726.712399289        1312103660.5549638     
   453824705.47846842        41936816.099463716        1374975448.5271776     
  -37416.235319371874        79602.902014839172        1115504881.5215476     
   2885.1706219075641        135770.44817160879        1188630186.2205827     
   27371.251681848873        139220.24472374449        1258615841.3193972     
   36042.007860665784        89952.291671785308        1325461846.8179917     
   28897.439158557761       -12033.410982563120        1389168202.7163649     
   1809677807.7478287        166123068.07622838        1346853796.9122028     
   1779147459.9141440        133648201.53944975        1364513455.5332787     
   1749847568.5898600        105274856.70067555        1382912488.4543035     
   1721778133.7749786        81003033.559906840        1402050895.6752791     
   1694939155.4694974        60832732.117142260        1421928677.1962061     
   1358649160.6328030        125004366.84306860        1353818245.6250973     
   1333037907.3563867        99829407.651557863        1372731523.2220442     
   1308366768.3247335        77788162.609257519        1393004751.4064934     
   1284635743.5378447        58880631.716172099        1414637930.1784453     
   1261844832.9957182        43106814.972295940        1437631059.5378971     
   906698126.54301643        83608949.517479777        1363192129.4967551     
   887779042.93115842        66265820.203423589        1383020293.4274967     
   869509731.29942679        51088597.489786983        1404828984.2332931     
   851890191.64782012        38077281.376568317        1428618201.9141417     
   834920423.97633970        27231871.863769263        1454387946.4700446     
   453824705.47846842        41936816.099463716        1374975448.5271776     
   443370866.63845873        32957439.195047542        1395379766.1496365     
   433276457.51393807        25176161.342260316        1418385186.9347010     
   423541478.10490441        18592982.541096523        1443991710.8823717     
   414165928.41135985        13207902.791563272        1472199337.9926453     
   28897.439158557761       -12033.410982563120        1389168202.7163649     
  -186621.52171107093       -95735.373567398958        1409809941.3884640     
  -333053.03173119959        50854.166679431917        1433673359.5107198     
  -410397.09090064454        427735.20976161538        1460758457.0831325     
  -418653.69922076084        1034907.7556754139        1491065234.1057012     
   1694939155.4694974        60832732.117142260        1421928677.1962061     
   1646057234.8298531        38521596.723827362        1415073061.9767909     
   1598893461.2520397        21937618.203280926        1413361657.8893688     
   1553447834.7360535        11080796.555493951        1416794464.9339404     
   1509720355.2818990        5951131.7804758549        1425371483.1105042     
   1261844832.9957182        43106814.972295940        1437631059.5378971     
   1227542837.7476282        27214573.308297396        1434394231.4353909     
   1194499563.7437854        15518069.125124991        1435747236.2568603     
   1162715010.9841888        8017302.4227715135        1441690074.0023036     
   1132189179.4688404        4712273.2012462616        1452222744.6717234     
   834920423.97633970        27231871.863769263        1454387946.4700446     
   813614416.38260806        17283342.607929558        1454233908.6972682     
   793107704.21554112        9999131.4409717917        1458115325.6404474     
   773400287.47513866        5379238.3628952205        1466032197.2995842     
   754492166.16140199        3423663.3737043738        1477984523.6746771     
   414165928.41135985        13207902.791563272        1472199337.9926453     
   404271970.73479128        8727904.6227190197        1474592093.7624187     
   394717882.66730618        5380805.1508181393        1480465926.0401323     
   385503664.20890367        3166604.3758600503        1489820834.8257828     
   376629315.35958499        2085302.2978480607        1502656820.1193717     
  -418653.69922076084        1034907.7556754139        1491065234.1057012     
  -484499.19581882411        1548259.3526754878        1495468786.6308460     
  -669900.90091814182        1663090.2546710335        1502799037.4559112     
  -974858.81451582001        1379400.4616729110        1513055986.5808980     
  -1399372.9366122135        697189.97367768397        1526239634.0058053     
   1509720355.2818990        5951131.7804758549        1425371483.1105042     
   1462529143.0906088        2809522.8389261961        1419582701.5277905     
   1415615723.8295417        593890.33145296574        1418003418.4851887     
   1368980097.4986978       -695765.74194449186        1420633633.9827020     
   1322622264.0980732       -1059445.3812770247        1427473348.0203297     
   1132189179.4688404        4712273.2012462616        1452222744.6717234     
   1096241507.9228468        2011597.0274517536        1446725815.5011001     
   1060506041.5437682        18271.410035789013        1445566511.4941850     
   1024982780.3316009       -1267703.6510062218        1448744832.6509807     
   989671724.28634655       -1846328.1556714177        1456260778.9714844     
   754492166.16140199        3423663.3737043738        1477984523.6746771     
   730154111.32811701        1273742.7878867984        1472702927.8589540     
   705962673.89843738       -387453.11924740672        1471887083.8305333     
   681917853.87236130       -1559924.3477041721        1475536991.5894163     
   658019651.24988890       -2243670.8974817693        1483652651.1355982     
   376629315.35958499        2085302.2978480607        1502656820.1193717     
   364266953.30641991        595960.12023343146        1497514038.6013529     
   351985620.89355069       -623283.25639626384        1496965135.4942307     
   339785318.12097496       -1572427.8320461661        1501010110.7980051     
   327666044.98869526       -2251473.6067112684        1509648964.5126753     
  -1399372.9366122135        697189.97367768397        1526239634.0058053     
  -1419966.1422469597       -21750.975514187303        1521159147.7282944     
  -1425117.4708939393       -689219.00141419610        1520800666.4852767     
  -1414826.9225582990       -1305214.1040384581        1525164190.2767498     
  -1389094.4972342968       -1869736.2833681810        1534249719.1027126     
   1322622264.0980732       -1059445.3812770247        1427473348.0203297     
   1269201999.4767849       -3320032.2100015879        1416308967.9843369     
   1215650198.3055875       -6019074.2050854564        1410414315.2911134     
   1161966860.5844808       -9156571.3665366769        1409789389.9406657     
   1108151986.3134656       -12732523.694351017        1414434191.9329872     
   989671724.28634655       -1846328.1556714177        1456260778.9714844     
   950025969.67003334       -3441787.1135995984        1445410829.2555761     
   910354982.49212122       -5121354.6101878881        1439733438.0766923     
   870658762.75260937       -6885030.6454430223        1439228605.4348352     
   830937310.45149982       -8732815.2193577290        1443896331.3299966     
   658019651.24988890       -2243670.8974817693        1483652651.1355982     
   631870781.47926569       -3257289.5323998332        1473241153.0594740     
   605802983.13535655       -4000670.0782731175        1467905044.7146251     
   579816256.21815419       -4473812.5351244807        1467644326.1010489     
   553910600.72766304       -4676716.9029374123        1472458997.2187500     
   327666044.98869526       -2251473.6067112684        1509648964.5126753     
   314736434.90448052       -2766539.4664065987        1499799939.3960271     
   301994200.23528862       -2657020.6093576998        1494929135.2049065     
   289439340.98111641       -1922917.0355774611        1495036551.9393120     
   277071857.14196247       -564228.74507036805        1500122189.5992427     
  -1389094.4972342968       -1869736.2833681810        1534249719.1027126     
  -1377070.0543216788       -1969536.9156168217        1525087188.2652369     
  -1071366.2080770656       -1090406.2034240912        1520805709.5475407     
  -471982.95850695414        767655.85318662063        1521405282.9496186     
   421079.69439405436        3604649.2542329617        1526885908.4714730     
   1108151986.3134656       -12732523.694351017        1414434191.9329872     
   1065906170.3582008       -11464928.940906525        1416231180.2871871     
   1024697053.3175873       -6741671.1386215091        1421238856.1045420     
   984524635.19162416        1437249.7124934793        1429457219.3850610     
   945388915.98031962        13071833.612471223        1440886270.1287336     
   830937310.45149982       -8732815.2193577290        1443896331.3299966     
   797368119.13539481       -8148119.0671304762        1446809532.9549608     
   764211063.08243120       -6189638.7044342756        1453343965.7471714     
   731466142.29259193       -2857374.1313220859        1463499629.7066276     
   699133356.76589000        1848674.6522503197        1477276524.8333268     
   553910600.72766304       -4676716.9029374123        1472458997.2187500     
   530191016.06240505       -4423024.7483920753        1475759754.5210390     
   506259003.00876164       -4877427.2218010128        1483092286.6946604     
   482114561.56672561       -6039924.3231845796        1494456593.7396126     
   457757691.73630720       -7910516.0525081456        1509852675.6558981     
   277071857.14196247       -564228.74507036805        1500122189.5992427     
   264374861.13922584       -289645.98471428454        1503081844.9854126     
   250840873.09657866       -2805036.6907250732        1510483818.9470060     
   236469893.01402599       -8110400.8630887568        1522328111.4840186     
   221261920.89156312       -16205738.501819193        1538614722.5964503     
   421079.69439405436        3604649.2542329617        1526885908.4714730     
  -80345.634146835189        4252017.2238971507        1528775804.3480904     
  -2043326.6541143197        27532.888805329218        1535518562.5042126     
  -5467863.3655156512       -9068803.7510652877        1547114182.9398432     
  -10353955.768339323       -23036992.695677731        1563562665.6549776     
   945388915.98031962        13071833.612471223        1440886270.1287336     
   880395645.34706044        3504005.7331866622        1423773597.6257651     
   805500744.13804424       -39069257.398624063        1413051355.8426793     
   720704212.35327697       -114647955.78294238        1408719544.7794847     
   626006049.99274516       -223232089.41979790        1410778164.4361634     
   699133356.76589000        1848674.6522503197        1477276524.8333268     
   651308763.17068470       -5135103.4761270583        1453061627.9466045     
   598428769.81252182       -28970214.147693336        1435066655.8113694     
   540493376.69140553       -69656657.362435251        1423291608.4276254     
   477502583.80733323       -127194433.12036639        1417736485.7953553     
   457757691.73630720       -7910516.0525081456        1509852675.6558981     
   426614615.26944035       -12456392.402903020        1484189490.3336949     
   395262369.85242343       -17699498.587129191        1464575723.7945738     
   363700955.48525143       -23639834.605213001        1451011376.0385492     
   331930372.16792238       -30277400.457141206        1443496447.0655956     
   221261920.89156312       -16205738.501819193        1538614722.5964503     
   206313201.64333147       -18459861.047130883        1517157184.7870266     
   196001544.25774795       -5257110.7169479504        1501578559.7922935     
   190326948.73481193        23402512.488726996        1491878847.6122508     
   189289415.07452190        67519008.569887087        1488058048.2468944     
  -10353955.768339323       -23036992.695677731        1563562665.6549776     
  -9595477.7076493241       -23145509.408833623        1551964711.3066030     
   646293.02849898790        8356949.4628729224        1546075163.8045206     
   20371356.440087479        71470383.919381082        1545894023.1487341     
   49579712.527127370        166194793.96072382        1551421289.3392344     
   47553.143875564936        14265.943162669480        656440779.00722790     
   15096.216230155047       -6781.7599464970262        770935647.79315805     
  -9884.3228507967597       -2908.1678408032531        885611287.80752134     
  -27388.473367416296        25886.719479244683        1000467699.0503180     
  -37416.235319371874        79602.902014839172        1115504881.5215476     
  -448327528.13956189       -134498258.44186857        657910607.69114804     
  -447547593.52144176       -125482153.11673354        774110594.18946970     
  -446031593.42913985       -114012496.21099313        888669229.18035209     
  -443779527.86265641       -100089287.72464725        1001586512.6637952     
  -440791396.82199126       -83712527.657695800        1112862444.6397994     
  -890467048.48854554       -267140114.54656366        662337516.67686129     
  -894080787.28429461       -250648675.68107492        781092641.48746073     
  -896229871.52024496       -229275054.94959027        896384292.05474901     
  -896914301.19639635       -203019252.35210949        1008212468.3787258     
  -896134076.31274939       -171881267.88863301        1116577170.4593914     
  -1326371007.9030752       -397911302.37092257        669721505.96436751     
  -1339584485.0723288       -375506349.45297080        791881789.68713176     
  -1350604718.5961661       -345790584.38363218        908756476.43071222     
  -1359431708.4745874       -308764007.16290700        1020345566.1951095     
  -1366065454.7075930       -264426617.79079518        1126649058.9803228     
  -1756039406.3831515       -526811821.91494542        680062575.55366671     
  -1784058686.8855438       -500055174.43242067        806478038.78848219     
  -1809156134.6569030       -463559084.51311886        925785782.30824208     
  -1831331749.6972296       -417323552.15703970        1037985806.1129462     
  -1850585532.0065229       -361348577.36418378        1143078110.2025943     
  -37416.235319371874        79602.902014839172        1115504881.5215476     
   2885.1706219075641        135770.44817160879        1188630186.2205827     
   27371.251681848873        139220.24472374449        1258615841.3193972     
   36042.007860665784        89952.291671785308        1325461846.8179917     
   28897.439158557761       -12033.410982563120        1389168202.7163649     
  -440791396.82199126       -83712527.657695800        1112862444.6397994     
  -442753240.78730601       -68998719.491037145        1181052989.1298752     
  -445568486.09394354       -57129582.462121218        1247460538.9452424     
  -449237132.74190485       -48105116.570950463        1312085094.0859022     
  -453759180.73118907       -41925321.817524150        1374926654.5518548     
  -896134076.31274939       -171881267.88863301        1116577170.4593914     
  -896221908.71928334       -141346972.02245983        1178855771.0546584     
  -898000728.48358274       -116449300.68217117        1240708031.9007299     
  -901470535.60564709       -97188253.867766976        1302133952.9976060     
  -906631330.08547795       -83563831.579248101        1363133534.3452883     
  -1366065454.7075930       -264426617.79079518        1126649058.9803228     
  -1360403118.6253102       -216908987.14609763        1182038531.9949319     
  -1357269355.9172351       -177819934.41542530        1238358320.1858587     
  -1356664166.5833666       -147159459.59877646        1295608423.5531023     
  -1358587550.6237066       -124927562.69615406        1353788842.0966644     
  -1850585532.0065229       -361348577.36418378        1143078110.2025943     
  -1835296870.5053871       -295684764.86195093        1190601271.9506965     
  -1823374368.3949001       -241241483.66188145        1240411403.8006284     
  -1814818025.6750638       -198018733.76397955        1292508505.7523916     
  -1809627842.3458767       -166016515.16824239        1346892577.8059840     
   28897.439158557761       -12033.410982563120        1389168202.7163649     
  -186621.52171107093       -95735.373567398958        1409809941.3884640     
  -333053.03173119959        50854.166679431917        1433673359.5107198     
  -410397.09090064454        427735.20976161538        1460758457.0831325     
  -418653.69922076084        1034907.7556754139        1491065234.1057012     
  -453759180.73118907       -41925321.817524150        1374926654.5518548     
  -443692955.06814200       -33081887.655923605        1395471084.6673410     
  -433902674.89071006       -25158271.779707417        1418642761.3224094     
  -424388340.19889498       -18154474.188881531        1444441684.5170605     
  -415149950.99269652       -12070494.883443564        1472867854.2512949     
  -906631330.08547795       -83563831.579248101        1363133534.3452883     
  -887981739.54301000       -66302775.216809481        1383178117.4782836     
  -869953127.42262387       -51111646.927976340        1405255514.2402875     
  -852545493.72432113       -37990446.712754220        1429365724.6313009     
  -835758838.44810104       -26939174.571141154        1455508748.6513219     
  -1358587550.6237066       -124927562.69615406        1353788842.0966644     
  -1333052974.9463155       -99758398.056226075        1372931039.8212917     
  -1308484410.6274731       -77809271.278127193        1393511618.2643542     
  -1284881857.6671791       -59080182.361855567        1415530577.4258513     
  -1262245316.0654340       -43571131.307414711        1438987917.3057830     
  -1809627842.3458767       -166016515.16824239        1346892577.8059840     
  -1778906661.2780595       -133448756.17417586        1364729851.6963665     
  -1749496524.5052555       -105251144.83015436        1383411073.3946097     
  -1721397432.0274684       -81423681.136186481        1402936242.9007139     
  -1694609383.8446968       -61966365.092272341        1423305360.2146785     
  -418653.69922076084        1034907.7556754139        1491065234.1057012     
  -484499.19581882411        1548259.3526754878        1495468786.6308460     
  -669900.90091814182        1663090.2546710335        1502799037.4559112     
  -974858.81451582001        1379400.4616729110        1513055986.5808980     
  -1399372.9366122135        697189.97367768397        1526239634.0058053     
  -415149950.99269652       -12070494.883443564        1472867854.2512949     
  -405473499.20334697       -7059459.5454472303        1475143636.4678776     
  -396315187.25303507       -3775557.0042432845        1480948868.2027309     
  -387675015.14175725       -2218787.2598206401        1490283549.4558547     
  -379552982.86951679       -2389150.3121869564        1503147680.2272475     
  -835758838.44810104       -26939174.571141154        1455508748.6513219     
  -814617943.03465927       -16913811.590701848        1455191746.3237164     
  -794393771.09079289       -9944193.5088465214        1459006944.7327306     
  -775086322.61649752       -6030320.3255621791        1466954343.8783660     
  -756695597.61177707       -5172192.0408599973        1479033943.7606227     
  -1262245316.0654340       -43571131.307414711        1438987917.3057830     
  -1227917830.6897588       -28014796.783096850        1435613116.1983619     
  -1194905652.4141920       -16842819.259139657        1436973267.0459106     
  -1163208781.2387383       -10055198.735558093        1443068369.8484321     
  -1132827217.1633909       -7651935.2123340964        1453898424.6059232     
  -1694609383.8446968       -61966365.092272341        1423305360.2146785     
  -1645373162.1686413       -40362415.122621298        1416407746.0918155     
  -1597850831.2232349       -24471434.255133092        1414847835.1422732     
  -1552042391.0084748       -14293422.489798129        1418625627.3660545     
  -1507947841.5243623       -9828379.8266220689        1427741122.7631545     
  -1399372.9366122135        697189.97367768397        1526239634.0058053     
  -1419966.1422469597       -21750.975514187303        1521159147.7282944     
  -1425117.4708939393       -689219.00141419610        1520800666.4852767     
  -1414826.9225582990       -1305214.1040384581        1525164190.2767498     
  -1389094.4972342968       -1869736.2833681810        1534249719.1027126     
  -379552982.86951679       -2389150.3121869564        1503147680.2272475     
  -367196031.56271029       -2099601.2837460339        1498342767.8059061     
  -354855377.97481918       -1864377.9850242734        1498104309.9801912     
  -342531022.10584563       -1683480.4160265177        1502432306.7501016     
  -330222963.95578825       -1556908.5767487437        1511326758.1156361     
  -756695597.61177707       -5172192.0408599973        1479033943.7606227     
  -732405531.61785746       -4007481.9823880792        1474467575.6668963     
  -708163502.93875623       -3002896.3066412210        1474312111.7299306     
  -683969511.57447267       -2158435.0136231780        1478567551.9497256     
  -659823557.52500820       -1474098.1033324599        1487233896.3262832     
  -1132827217.1633909       -7651935.2123340964        1453898424.6059232     
  -1097048466.3076882       -5745393.0714335442        1449533571.3112602     
  -1061349492.3627046       -4104773.9662649035        1449424071.7344933     
  -1025730295.3284385       -2730077.8968214393        1453569925.8756244     
  -990190875.20489216       -1621304.8631086946        1461971133.7346504     
  -1507947841.5243623       -9828379.8266220689        1427741122.7631545     
  -1461124835.6322005       -7313334.5508825779        1423540754.7390025     
  -1414413346.2466609       -5170010.9638830423        1423440189.9938836     
  -1367813373.3677409       -3398409.0656169653        1427439428.5277946     
  -1321324916.9954450       -1998528.8560956120        1435538470.3407376     
  -1389094.4972342968       -1869736.2833681810        1534249719.1027126     
  -1377070.0543216788       -1969536.9156168217        1525087188.2652369     
  -1071366.2080770656       -1090406.2034240912        1520805709.5475407     
  -471982.95850695414        767655.85318662063        1521405282.9496186     
   421079.69439405436        3604649.2542329617        1526885908.4714730     
  -330222963.95578825       -1556908.5767487437        1511326758.1156361     
  -317229649.01709223       -1074619.3419228196        1502179027.8209436     
  -304121042.71621192       -208025.56648162007        1498001525.0492887     
  -290897145.05314898        1042872.7495697737        1498794249.8006756     
  -277557956.02789879        2678075.6062431335        1504557202.0750992     
  -659823557.52500820       -1474098.1033324599        1487233896.3262832     
  -633594165.22406495       -333282.94149196148        1477892847.1930363     
  -607427869.60208178        597209.95714664459        1473611200.9860897     
  -581324670.65905988        1317380.5925821364        1474388957.7054448     
  -555284568.39499688        1827228.9648200274        1480226117.3511033     
  -990190875.20489216       -1621304.8631086946        1461971133.7346504     
  -950470618.67523658        254472.28568381071        1452228646.3815117     
  -910991846.86568737        1325300.3674559593        1447634737.3579388     
  -871754559.77624428        1591179.3822075129        1448189406.6639314     
  -832758757.40690327        1052109.3299520016        1453892654.2994871     
  -1321324916.9954450       -1998528.8560956120        1435538470.3407376     
  -1267859009.3706133        688646.33959138393        1425186425.3863750     
  -1214812974.5070336        1976245.6644323468        1420072134.1648393     
  -1162186812.4047010        1864269.1184527278        1420195596.6761291     
  -1109980523.0636187        352716.70163780451        1425556812.9202466     
   421079.69439405436        3604649.2542329617        1526885908.4714730     
  -80345.634146835189        4252017.2238971507        1528775804.3480904     
  -2043326.6541143197        27532.888805329218        1535518562.5042126     
  -5467863.3655156512       -9068803.7510652877        1547114182.9398432     
  -10353955.768339323       -23036992.695677731        1563562665.6549776     
  -277557956.02789879        2678075.6062431335        1504557202.0750992     
  -266075047.92640421        2582174.1710147411        1505006254.1819410     
  -255481642.18584991       -478735.13401409984        1509992685.7412045     
  -245777738.80623615       -6504652.3088441342        1519516496.7528851     
  -236963337.78755599       -15495577.353453048        1533577687.2169843     
  -555284568.39499688        1827228.9648200274        1480226117.3511033     
  -532718706.36943287        717644.27290347219        1479901721.2404113     
  -510470293.37431705       -1450103.8538400829        1483799221.7550499     
  -488539329.40964937       -4676015.4154142439        1491918618.8950191     
  -466925814.47543037       -8960090.4118123651        1504259912.6603210     
  -832758757.40690327        1052109.3299520016        1453892654.2994871     
  -800011320.96323395       -1341572.4704441130        1453462205.5234947     
  -767009280.21951902       -2886573.2706879675        1456938170.5457528     
  -733752635.17576814       -3582893.0708109140        1464320549.3662536     
  -700241385.83196819       -3430531.8707740307        1475609341.9849961     
  -1109980523.0636187        352716.70163780451        1425556812.9202466     
  -1067952891.7078049       -3595476.0590160489        1425687707.0311980     
  -1025098602.7214587       -4788143.3845647573        1429409532.1133091     
  -981417656.10458100       -3225285.2750068903        1436722288.1665769     
  -936910051.85716999        1093098.2696617842        1447625975.1909988     
  -10353955.768339323       -23036992.695677731        1563562665.6549776     
  -9595477.7076493241       -23145509.408833623        1551964711.3066030     
   646293.02849898790        8356949.4628729224        1546075163.8045206     
   20371356.440087479        71470383.919381082        1545894023.1487341     
   49579712.527127370        166194793.96072382        1551421289.3392344     
  -236963337.78755599       -15495577.353453048        1533577687.2169843     
  -221244853.59437990       -15501649.407817900        1529549655.6746757     
  -200078430.97131491        2652073.3041149452        1531297273.2359588     
  -173464069.91837096        38965590.782312959        1538820539.9008284     
  -141401770.43553731        93438903.026804745        1552119455.6693010     
  -466925814.47543037       -8960090.4118123651        1504259912.6603210     
  -436055203.41462928       -8806081.5868644863        1503093890.6375856     
  -403772008.16950256       -3943458.8141609728        1507770759.9757447     
  -370076228.74005497        5627777.9062756747        1518290520.6747949     
  -334967865.12628031        19907628.574468821        1534653172.7347376     
  -700241385.83196819       -3430531.8707740307        1475609341.9849961     
  -654026527.16839433       -3058805.9459591210        1472597416.1953416     
  -610434438.56606233       -11429646.891948968        1475495624.0238895     
  -569465120.02496362       -28543054.708721608        1484303965.4706240     
  -531118571.54510915       -54399029.396299511        1499022440.5355518     
  -936910051.85716999        1093098.2696617842        1447625975.1909988     
  -875158824.85567904        1740177.5148770213        1438060232.3479452     
  -820065722.16099167       -19806490.929245323        1434471865.3803821     
  -771630743.77310359       -63546907.062699288        1436860874.2883155     
  -729853889.69201267       -129481070.88548358        1445227259.0717480     
  -1756039406.3831515       -526811821.91494542        680062575.55366671     
  -1784058686.8855438       -500055174.43242067        806478038.78848219     
  -1809156134.6569030       -463559084.51311886        925785782.30824208     
  -1831331749.6972296       -417323552.15703970        1037985806.1129462     
  -1850585532.0065229       -361348577.36418378        1143078110.2025943     
  -2201717464.8936138       -660515239.46808422        696458821.36446667     
  -2238340315.4827309       -613878239.16082883        813884385.56867361     
  -2272922926.9999752       -560440441.94733369        927211764.92321050     
  -2305465299.4453473       -500201847.82759857        1036440959.4280775     
  -2335967432.8188491       -433162456.80162412        1141571969.0832746     
  -2685650404.3993039       -805695121.31979120        722008339.31647539     
  -2722278154.0311852       -736598166.87461734        829415478.55438542     
  -2757747258.2503557       -663639061.05374110        935733967.80801153     
  -2792057717.0568156       -586817803.85716248        1040963807.0773534     
  -2825209530.4505649       -506134395.28488171        1145104996.3624115     
  -3207838224.9002213       -962351467.47006631        756711129.40969253     
  -3235872202.5309076       -868214957.57378602        853071317.74561787     
  -3263629128.4080443       -773154941.83234072        951352390.96264470     
  -3291109002.5316319       -677171420.24573112        1051554349.0607736     
  -3318311824.9016690       -580264392.81395602        1153677192.0400043     
  -3768280926.3963656       -1130484277.9189095        800567191.64411855     
  -3779122460.9818974       -1008728611.2583354        884851903.14237082     
  -3790568537.4730406       -888988084.28313291        974067034.38711071     
  -3802619155.8697958       -771262696.99330354        1068212585.3783383     
  -3815274316.1721625       -655552449.38884628        1167288556.1160536     
  -1850585532.0065229       -361348577.36418378        1143078110.2025943     
  -1835296870.5053871       -295684764.86195093        1190601271.9506965     
  -1823374368.3949001       -241241483.66188145        1240411403.8006284     
  -1814818025.6750638       -198018733.76397955        1292508505.7523916     
  -1809627842.3458767       -166016515.16824239        1346892577.8059840     
  -2335967432.8188491       -433162456.80162412        1141571969.0832746     
  -2312453494.5547004       -352114824.91053867        1182847032.6063557     
  -2292428090.2807860       -282695639.65356994        1224612149.8324971     
  -2275891219.9971070       -224904901.03071934        1266867320.7616982     
  -2262842883.7036633       -178742609.04198587        1309612545.3939598     
  -2825209530.4505649       -506134395.28488171        1145104996.3624115     
  -2798604362.2770319       -411243158.06103301        1179989191.2942886     
  -2775610102.6933188       -328388282.80325317        1213566523.5304558     
  -2756226751.6994276       -257569769.51154256        1245836993.0709128     
  -2740454309.2953563       -198787618.18590105        1276800599.9156590     
  -3318311824.9016690       -580264392.81395602        1153677192.0400043     
  -3293749473.6723814       -473069764.31343234        1182027748.0144942     
  -3272920405.6325006       -378319413.11093068        1207274524.8945041     
  -3255824620.7820263       -296013339.20644891        1229417522.6800332     
  -3242462119.1209569       -226151542.59998918        1248456741.3710821     
  -3815274316.1721625       -655552449.38884628        1167288556.1160536     
  -3797888828.7407503       -537594643.66773701        1188962702.7669733     
  -3784358999.0983295       -432489030.57660139        1205736153.9246428     
  -3774684827.2449007       -340235610.11543810        1217608909.5890608     
  -3768866313.1804628       -260834382.28424823        1224580969.7602282     
  -1809627842.3458767       -166016515.16824239        1346892577.8059840     
  -1778906661.2780595       -133448756.17417586        1364729851.6963665     
  -1749496524.5052555       -105251144.83015436        1383411073.3946097     
  -1721397432.0274684       -81423681.136186481        1402936242.9007139     
  -1694609383.8446968       -61966365.092272341        1423305360.2146785     
  -2262842883.7036633       -178742609.04198587        1309612545.3939598     
  -2223256159.3789015       -134305427.82112241        1317651989.0905335     
  -2186567688.2137485       -99529090.465625167        1328928036.2014823     
  -2152777470.2082062       -74413596.975497007        1343440686.7268057     
  -2121885505.3622749       -58958947.350738406        1361189940.6665039     
  -2740454309.2953563       -198787618.18590105        1276800599.9156590     
  -2685165882.8378944       -140430167.07551599        1273190469.7430630     
  -2634362918.4046388       -97024256.045816064        1275209598.5913560     
  -2588045415.9955883       -68569885.096801281        1282857986.4605379     
  -2546213375.6107435       -55067054.228471398        1296135633.3506079     
  -3242462119.1209569       -226151542.59998918        1248456741.3710821     
  -3164635831.6550426       -151822973.93735683        1231345293.6539555     
  -3092882215.0779285       -97736641.570726514        1222255760.5642316     
  -3027201269.3896151       -63892545.500097990        1221188142.1019106     
  -2967592994.5901022       -50290685.725472569        1228142438.2669914     
  -3768866313.1804628       -260834382.28424823        1224580969.7602282     
  -3661666005.8303413       -168483848.40664017        1192116460.8232102     
  -3562125578.2336159       -101666247.04035544        1170066522.1201077     
  -3470245030.3902879       -60381578.185388803        1158431153.6509233     
  -3386024362.3003521       -44629841.841740966        1157210355.4156542     
  -1694609383.8446968       -61966365.092272341        1423305360.2146785     
  -1645373162.1686413       -40362415.122621298        1416407746.0918155     
  -1597850831.2232349       -24471434.255133092        1414847835.1422732     
  -1552042391.0084748       -14293422.489798129        1418625627.3660545     
  -1507947841.5243623       -9828379.8266220689        1427741122.7631545     
  -2121885505.3622749       -58958947.350738406        1361189940.6665039     
  -2060257255.6018507       -40539731.466473222        1353404746.7423551     
  -1999855798.3179803       -26209823.837382555        1350549117.5756404     
  -1940681133.5106573       -15969224.463449717        1352623053.1663625     
  -1882733261.1798840       -9817933.3446878195        1359626553.5145195     
  -2546213375.6107435       -55067054.228471398        1296135633.3506079     
  -2473359207.5256257       -40182405.357494950        1288031140.9216182     
  -2401244733.6629586       -27763403.894691467        1284448074.8341796     
  -2329869954.0227485       -17810049.840072274        1285386435.0882902     
  -2259234868.6049886       -10322343.193629146        1290846221.6839523     
  -2967592994.5901022       -50290685.725472569        1228142438.2669914     
  -2884679017.9399619       -39290436.795683384        1220286928.6296082     
  -2802017637.2581778       -29132174.427081347        1216544706.9178884     
  -2719608852.5447512       -19815898.619670033        1216915773.1318345     
  -2637452663.7996821       -11341609.373449326        1221400127.2714427     
  -3386024362.3003521       -44629841.841740966        1157210355.4156542     
  -3294216686.8448639       -37863825.781044006        1150172109.8663228     
  -3202174509.1036315       -30316135.434534073        1146839013.8267703     
  -3109897829.0766640       -21986770.802239537        1147211067.2969966     
  -3017386646.7639546       -12875731.884139776        1151288270.2770014     
  -1507947841.5243623       -9828379.8266220689        1427741122.7631545     
  -1461124835.6322005       -7313334.5508825779        1423540754.7390025     
  -1414413346.2466609       -5170010.9638830423        1423440189.9938836     
  -1367813373.3677409       -3398409.0656169653        1427439428.5277946     
  -1321324916.9954450       -1998528.8560956120        1435538470.3407376     
  -1882733261.1798840       -9817933.3446878195        1359626553.5145195     
  -1824571256.4930236       -6042291.8403223753        1354653575.1429873     
  -1766791177.5633891       -3539736.1933783293        1354012193.4355845     
  -1709393024.3909779       -2310266.4038466215        1357702408.3923142     
  -1652376796.9757922       -2353882.4717315435        1365724220.0131726     
  -2259234868.6049886       -10322343.193629146        1290846221.6839523     
  -2189071598.3088613       -5087425.4162694216        1284785155.5059979     
  -2119560663.0205622       -2026957.6650054455        1283287479.3772764     
  -2050702062.7400911       -1140939.9398323298        1286353193.2977841     
  -1982495797.4674482       -2429372.2407569885        1293982297.2675192     
  -2637452663.7996821       -11341609.373449326        1221400127.2714427     
  -2554625861.0797153       -4448735.2787158489        1213935495.8280346     
  -2472721802.6181865       -631675.37877213955        1211266047.8189549     
  -2391740488.4150853        109570.32641410828        1213391783.2442038     
  -2311681918.4704165       -2224998.1631792784        1220312702.1037829     
  -3017386646.7639546       -12875731.884139776        1151288270.2770014     
  -2921234044.8055868       -4126221.4276758432        1142104596.1090987     
  -2826274596.3562555        646110.66533493996        1137947898.7606220     
  -2732508301.4159565        1441264.3949002028        1138818178.2315748     
  -2639935159.9846954       -1740760.2389949560        1144715434.5219553     
  -1321324916.9954450       -1998528.8560956120        1435538470.3407376     
  -1267859009.3706133        688646.33959138393        1425186425.3863750     
  -1214812974.5070336        1976245.6644323468        1420072134.1648393     
  -1162186812.4047010        1864269.1184527278        1420195596.6761291     
  -1109980523.0636187        352716.70163780451        1425556812.9202466     
  -1652376796.9757922       -2353882.4717315435        1365724220.0131726     
  -1585737484.5419087       -438173.62464338541        1355237733.4419792     
  -1519327851.1358342        711938.46308296919        1349824912.1484461     
  -1453147896.7575741        1096453.7914277315        1349485756.1325681     
  -1387197621.4071250        715372.36040478945        1354220265.3943489     
  -1982495797.4674482       -2429372.2407569885        1293982297.2675192     
  -1903151904.3821390       -1425776.9895488024        1283583261.7685113     
  -1823847496.5912042       -553799.38625025749        1278093803.0919895     
  -1744582574.0946379        186560.56914901733        1277513921.2379575     
  -1665357136.8924458        795302.87663733959        1281843616.2064121     
  -2311681918.4704165       -2224998.1631792784        1220312702.1037829     
  -2220102268.8913102       -2274163.7551463842        1210223010.3659663     
  -2128371910.8731332       -1820967.8835430145        1204878806.9954724     
  -2036490844.4158926       -865410.54839205742        1204280091.9922972     
  -1944459069.5195813        592508.25032389164        1208426865.3564410     
  -2639935159.9846954       -1740760.2389949560        1144715434.5219553     
  -2536588578.0694156       -2983333.9214109182        1135156979.2343493     
  -2432901093.9816294       -3089567.0288101435        1130179923.8588943     
  -2328872707.7213402       -2059459.5611927509        1129784268.3955867     
  -2224503419.2885399        106988.48145675659        1133970012.8444314     
  -1109980523.0636187        352716.70163780451        1425556812.9202466     
  -1067952891.7078049       -3595476.0590160489        1425687707.0311980     
  -1025098602.7214587       -4788143.3845647573        1429409532.1133091     
  -981417656.10458100       -3225285.2750068903        1436722288.1665769     
  -936910051.85716999        1093098.2696617842        1447625975.1909988     
  -1387197621.4071250        715372.36040478945        1354220265.3943489     
  -1335873978.1936862       -3786751.2462209463        1354788555.2942760     
  -1284144646.6345284       -6936580.3671192527        1359044522.7702878     
  -1232009626.7296572       -8734115.0022983551        1366988167.8223882     
  -1179468918.4790590       -9179355.1517275572        1378619490.4505723     
  -1665357136.8924458        795302.87663733959        1281843616.2064121     
  -1604461062.9501581       -4177825.9145998955        1282358171.0630317     
  -1543580269.9469683       -9201891.1694878340        1286657150.1006675     
  -1482714757.8828712       -14276892.888021052        1294740553.3193145     
  -1421864526.7578678       -19402831.070201099        1306608380.7189806     
  -1944459069.5195813        592508.25032389164        1208426865.3564410     
  -1873714145.9772241       -4768700.0641585588        1208396554.3374715     
  -1803405472.6587784       -11584075.791674256        1212247414.1044459     
  -1733533049.5642292       -19853618.932185292        1219979444.6573622     
  -1664096876.6935987       -29577329.485750556        1231592645.9962242     
  -2224503419.2885399        106988.48145675659        1133970012.8444314     
  -2143633227.2748826       -5559373.6948916912        1132903705.1175900     
  -2063620254.7699490       -14083134.233648896        1135815314.7816212     
  -1984464501.7737360       -25464293.134809971        1142704841.8365247     
  -1906165968.2862420       -39702850.398367047        1153572286.2823024     
  -936910051.85716999        1093098.2696617842        1447625975.1909988     
  -875158824.85567904        1740177.5148770213        1438060232.3479452     
  -820065722.16099167       -19806490.929245323        1434471865.3803821     
  -771630743.77310359       -63546907.062699288        1436860874.2883155     
  -729853889.69201267       -129481070.88548358        1445227259.0717480     
  -1179468918.4790590       -9179355.1517275572        1378619490.4505723     
  -1102113082.2876959       -7484167.4354708195        1362853749.4376309     
  -1028660150.1672344       -18798659.955550253        1352872306.8942387     
  -959110122.11767745       -43122832.711979926        1348675162.8204069     
  -893462998.13902092       -80456685.704738677        1350262317.2161102     
  -1421864526.7578678       -19402831.070201099        1306608380.7189806     
  -1329455731.1078966       -16825029.802270532        1287857065.1446974     
  -1238194619.2929318       -18072841.317697763        1274696970.6340230     
  -1148081191.3129702       -23146265.616466105        1267128097.1869557     
  -1059115447.1680148       -32045302.698596120        1265150444.8034961     
  -1664096876.6935987       -29577329.485750556        1231592645.9962242     
  -1557186771.3162842       -26282409.585534632        1213070179.4691498     
  -1448669129.5380778       -17629035.015680015        1199945856.5997379     
  -1338543951.3589807       -3617205.7761793137        1192219677.3879981     
  -1226811236.7789893        15753078.132955611        1189891641.8339152     
  -1906165968.2862420       -39702850.398367047        1153572286.2823024     
  -1785306202.9128532       -35856306.785249829        1138493092.4109805     
  -1660083680.9026778       -17467241.049495161        1128618964.7913861     
  -1530498402.2557089        15464346.808902979        1123949903.4235086     
  -1396550366.9719515        62938456.789910972        1124485908.3073549     
  -3768280926.3963656       -1130484277.9189095        800567191.64411855     
  -3779122460.9818974       -1008728611.2583354        884851903.14237082     
  -3790568537.4730406       -888988084.28313291        974067034.38711071     
  -3802619155.8697958       -771262696.99330354        1068212585.3783383     
  -3815274316.1721625       -655552449.38884628        1167288556.1160536     
  -4339813949.1203804       -1301944184.7361143        858735823.64875412     
  -4335248607.6790237       -1125746028.6036513        942344531.00376511     
  -4331819519.2910528       -953335382.64914632        1020310610.2933054     
  -4329526683.9564714       -784712246.87259901        1092634061.5173748     
  -4328370101.6752777       -619876621.27400994        1159314884.6759744     
  -4895272733.3049088       -1468581819.9914725        936376323.05260050     
  -4905509223.8708277       -1247003786.7973709        1018688696.5919651     
  -4917413678.6379128       -1030985634.2738132        1084785394.2539010     
  -4930986097.6061592       -820527362.42079794        1134666416.0384080     
  -4946226480.7755680       -615628971.23832619        1168331761.9454858     
  -5434657278.9499483       -1630397183.6849844        1033488689.8556577     
  -5489904309.5573130       -1372501885.8394945        1113884399.9069710     
  -5547351015.5136156       -1121938839.1571331        1167491386.2688975     
  -5606997396.8188591       -878708043.63790071        1194309648.9414370     
  -5668843453.4730377       -642809499.28179622        1194339187.9245894     
  -5957967586.0555010       -1787390275.8166502        1150072924.0579257     
  -6088433864.7384758       -1502240325.7300215        1227931640.9487829     
  -6221631529.9181652       -1226194997.2991071        1268428586.3382952     
  -6357560581.5945673       -959254290.52390623        1271563760.2264621     
  -6496221019.7676859       -701418205.40441990        1237337162.6132836     
  -3815274316.1721625       -655552449.38884628        1167288556.1160536     
  -3797888828.7407503       -537594643.66773701        1188962702.7669733     
  -3784358999.0983295       -432489030.57660139        1205736153.9246428     
  -3774684827.2449007       -340235610.11543810        1217608909.5890608     
  -3768866313.1804628       -260834382.28424823        1224580969.7602282     
  -4328370101.6752777       -619876621.27400994        1159314884.6759744     
  -4298128419.3002100       -464143980.77177334        1141366134.0107999     
  -4278505548.7890162       -343807379.81578302        1129490189.9998891     
  -4269501490.1416979       -258866818.40603971        1123687052.6432407     
  -4271116243.3582530       -209322296.54254508        1123956721.9408565     
  -4946226480.7755680       -615628971.23832619        1168331761.9454858     
  -4871775740.1782360       -412715636.97137713        1102869767.5435216     
  -4814706965.5196590       -267742189.16695070        1054454081.9433348     
  -4775020156.7998390       -180708627.82504463        1023084705.1449245     
  -4752715314.0187769       -151614952.94566178        1008761637.1482912     
  -5668843453.4730377       -642809499.28179622        1194339187.9245894     
  -5518830791.3748283       -383309612.26655173        1073473603.3651389     
  -5392963249.2902555       -204293458.63010335        980627829.75497961     
  -5291240827.2193241       -105761038.37245226        915801867.09411025     
  -5213663525.1620340       -87712351.493599176        878995715.38253212     
  -6496221019.7676859       -701418205.40441990        1237337162.6132836     
  -6239293572.8899889       -375925906.65729785        1053177641.4756503     
  -6013274400.1008129       -153461188.20524526        908011433.43482304     
  -5818163501.4001589       -34024050.048265696        801838538.49079919     
  -5653960876.7880239       -17614492.186354876        734658956.64358032     
  -3768866313.1804628       -260834382.28424823        1224580969.7602282     
  -3661666005.8303413       -168483848.40664017        1192116460.8232102     
  -3562125578.2336159       -101666247.04035544        1170066522.1201077     
  -3470245030.3902879       -60381578.185388803        1158431153.6509233     
  -3386024362.3003521       -44629841.841740966        1157210355.4156542     
  -4271116243.3582530       -209322296.54254508        1123956721.9408565     
  -4148079214.8751240       -145159365.09266353        1090614516.9235399     
  -4029441259.0930820       -95660009.313064814        1065544666.1810179     
  -3915202376.0121202       -60824229.203740597        1048747169.7132890     
  -3805362565.6322446       -40652024.764698982        1040222027.5203553     
  -4752715314.0187769       -151614952.94566178        1008761637.1482912     
  -4619962181.4287071       -117475809.03132749        978346010.94504130     
  -4488347314.4874096       -87130883.946232557        954060523.05746257     
  -4357870713.1948843       -60580177.690373182        935905173.48555624     
  -4228532377.5511284       -37823690.263751984        923879962.22932065     
  -5213663525.1620340       -87712351.493599176        878995715.38253212     
  -5077314905.4910860       -85433180.222628355        855310942.88771319     
  -4938843744.4166002       -76078870.939858913        835614092.74944365     
  -4798250041.9385710       -59649423.645282030        819905164.96772254     
  -4655533798.0570011       -36144838.338901997        808184159.54255104     
  -5653960876.7880239       -17614492.186354876        734658956.64358032     
  -5520137387.0622654       -49031478.666572332        721509312.75155699     
  -5380930548.8806524       -62503970.293946028        710205375.25695932     
  -5236340362.2431850       -58031967.068471432        700747144.15978944     
  -5086366827.1498652       -35615468.990150928        693134619.46004534     
  -3386024362.3003521       -44629841.841740966        1157210355.4156542     
  -3294216686.8448639       -37863825.781044006        1150172109.8663228     
  -3202174509.1036315       -30316135.434534073        1146839013.8267703     
  -3109897829.0766640       -21986770.802239537        1147211067.2969966     
  -3017386646.7639546       -12875731.884139776        1151288270.2770014     
  -3805362565.6322446       -40652024.764698982        1040222027.5203553     
  -3701779204.8741045       -29904936.396024227        1032007096.8236547     
  -3598773594.1734619       -21083681.552342653        1028226527.0866054     
  -3496345733.5303159       -14188260.233647108        1028880318.3092080     
  -3394495622.9446673       -9218672.4399485588        1033968470.4914600     
  -4228532377.5511284       -37823690.263751984        923879962.22932065     
  -4111089870.2049851       -22470491.201500416        913540718.65147483     
  -3995037365.2595787       -11750633.475027323        908365047.48315239     
  -3880374862.7149043       -5664117.0843379498        908352948.72435248     
  -3767102362.5709677       -4210942.0294308662        913504422.37507737     
  -4655533798.0570011       -36144838.338901997        808184159.54255104     
  -4522148682.8375092       -15560490.197469950        794772975.34978247     
  -4390965822.3619862       -2316991.2025988102        787254575.01641071     
  -4261985216.6304388        3585658.6456880569        785628958.54243433     
  -4135206865.6428609        2147459.3474049568        789896125.92785478     
  -5086366827.1498652       -35615468.990150928        693134619.46004534     
  -4934955642.7716732       -9174933.3839280605        675703866.91857874     
  -4786558965.4806852        7217245.2649331093        664895109.68637824     
  -4641176795.2769079        13561066.956434727        660708347.76344848     
  -4498809132.1603403        9856531.6905715466        663143581.14978838     
  -3017386646.7639546       -12875731.884139776        1151288270.2770014     
  -2921234044.8055868       -4126221.4276758432        1142104596.1090987     
  -2826274596.3562555        646110.66533493996        1137947898.7606220     
  -2732508301.4159565        1441264.3949002028        1138818178.2315748     
  -2639935159.9846954       -1740760.2389949560        1144715434.5219553     
  -3394495622.9446673       -9218672.4399485588        1033968470.4914600     
  -3286917268.3361893       -4380816.6271660328        1025108864.5881559     
  -3179981079.1786265       -1683512.3174432516        1020914011.8986666     
  -3073687055.4719839       -1126759.5107796192        1021383912.4229904     
  -2968035197.2162600       -2710558.2071838379        1026518566.1611322     
  -3767102362.5709677       -4210942.0294308662        913504422.37507737     
  -3649133179.8998394       -3595218.2365636826        905611704.13750660     
  -3531255174.6215153       -3283419.0863757133        902021515.50813842     
  -3413468346.7359910       -3275544.5788550377        902733856.48697364     
  -3295772696.2432709       -3571594.7140119076        907748727.07401097     
  -4135206865.6428609        2147459.3474049568        789896125.92785478     
  -4007881779.4965463       -1769426.2558770180        783613114.75715303     
  -3880096882.6849194       -4153609.6414604187        781270409.58904052     
  -3751852175.2079778       -5005090.8093185425        782868010.42352057     
  -3623147657.0657229       -4323869.7594714165        788405917.26059210     
  -4498809132.1603403        9856531.6905715466        663143581.14978838     
  -4363163067.1263056        1096559.3148851395        659113096.44709098     
  -4226506203.3688407       -4294083.9827010632        658660694.14137268     
  -4088838540.8879457       -6315398.2021844387        661786374.23263371     
  -3950160079.6836195       -4967383.3435609341        668490136.72087288     
  -2639935159.9846954       -1740760.2389949560        1144715434.5219553     
  -2536588578.0694156       -2983333.9214109182        1135156979.2343493     
  -2432901093.9816294       -3089567.0288101435        1130179923.8588943     
  -2328872707.7213402       -2059459.5611927509        1129784268.3955867     
  -2224503419.2885399        106988.48145675659        1133970012.8444314     
  -2968035197.2162600       -2710558.2071838379        1026518566.1611322     
  -2852144313.8130856       -1987390.1959108114        1017382839.3478781     
  -2736115489.6863985       -804419.77292573452        1012861542.6069266     
  -2619948724.8361869        838353.06179988384        1012954675.9382780     
  -2503644019.2624607        2940928.3082489967        1017662239.3419309     
  -3295772696.2432709       -3571594.7140119076        907748727.07401097     
  -3167243139.4660516       -854373.44319963455        898798940.37795401     
  -3038778603.4143038        1646112.0760346651        894496613.91435206     
  -2910379088.0880265        3929861.8437010050        894841747.68320560     
  -2782044593.4872251        5996875.8597881794        899834341.68451190     
  -3623147657.0657229       -4323869.7594714165        788405917.26059210     
  -3481885055.0283079        415716.33672308922        779405282.32457769     
  -3340890435.1653547        4262028.5180461407        775085137.78117239     
  -3200163797.4768620        7215066.7844971418        775445483.63037324     
  -3059705141.9628358        9274831.1360716820        780486319.87217999     
  -3950160079.6836195       -4967383.3435609341        668490136.72087288     
  -3796070060.4998608        1822879.1438581944        659201865.18774843     
  -3642450984.9395523        7043329.5531044006        654627114.20738387     
  -3489302853.0026946        10693967.884189606        654765883.77977943     
  -3336625664.6892843        12774794.137107372        659618173.90493298     
  -2224503419.2885399        106988.48145675659        1133970012.8444314     
  -2143633227.2748826       -5559373.6948916912        1132903705.1175900     
  -2063620254.7699490       -14083134.233648896        1135815314.7816212     
  -1984464501.7737360       -25464293.134809971        1142704841.8365247     
  -1906165968.2862420       -39702850.398367047        1153572286.2823024     
  -2503644019.2624607        2940928.3082489967        1017662239.3419309     
  -2412996490.5333629       -3278261.5604577065        1015880579.6245575     
  -2322898734.6564245       -11330027.603030324        1017769606.3802729     
  -2233350751.6316452       -21214369.819458246        1023329319.6090783     
  -2144352541.4590178       -32931288.209742665        1032559719.3109710     
  -2782044593.4872251        5996875.8597881794        899834341.68451190     
  -2682497530.6649270       -1038482.4879572392        897696017.74259877     
  -2583192794.0382214       -8881594.8210080862        898921149.35598969     
  -2484130383.6071110       -17532461.139379978        903509736.52468801     
  -2385310299.3715940       -26991081.443058491        911461779.24868798     
  -3059705141.9628358        9274831.1360716820        780486319.87217999     
  -2952136347.6695695        1159963.5226273537        778350019.47171772     
  -2844502432.9153371       -6737835.8875814676        779269943.70877290     
  -2736803397.7001362       -14418567.094559550        783246092.58335602     
  -2629039242.0239654       -21882230.098312974        790278466.09545279     
  -3336625664.6892843        12774794.137107372        659618173.90493298     
  -3221912941.5472984        3317076.4712809324        657842584.81191170     
  -3106827651.2877727       -4898750.8027483225        658815989.43862414     
  -2991369793.9107223       -11872687.685023546        662538387.78507674     
  -2875539369.4161358       -17604734.175510406        669009779.85126507     
  -1906165968.2862420       -39702850.398367047        1153572286.2823024     
  -1785306202.9128532       -35856306.785249829        1138493092.4109805     
  -1660083680.9026778       -17467241.049495161        1128618964.7913861     
  -1530498402.2557089        15464346.808902979        1123949903.4235086     
  -1396550366.9719515        62938456.789910972        1124485908.3073549     
  -2144352541.4590178       -32931288.209742665        1032559719.3109710     
  -2010178568.6145384       -28632112.420311570        1020187257.1910204     
  -1873830625.9652841       -17086370.614970803        1012746973.2948862     
  -1735308713.5112379        1705937.2063285112        1010238867.6225675     
  -1594612831.2524226        27744811.043549299        1012662940.1740737     
  -2385310299.3715940       -26991081.443058491        911461779.24868798     
  -2238601799.1357517       -22473177.501256704        899242464.24276066     
  -2091908115.9271371       -18004663.650210381        891682439.43274927     
  -1945229249.7457480       -13585539.889930487        888781704.81864810     
  -1798565200.5915933       -9215806.2204222679        890540260.40045965     
  -2629039242.0239654       -21882230.098312974        790278466.09545279     
  -2470575894.4764833       -17379502.028038263        775658713.56620610     
  -2314316150.7882385       -20222120.155226111        765425363.20496655     
  -2160260010.9592366       -30410084.479887843        759578415.01173782     
  -2008407474.9894700       -47943395.002002239        758117868.98651397     
  -2875539369.4161358       -17604734.175510406        669009779.85126507     
  -2706100854.6367416       -13351086.000694275        649436005.16135454     
  -2541054730.5485964       -23738740.130024791        633975744.61154425     
  -2380400997.1517000       -48767696.563532591        622628998.20183992     
  -2224139654.4460516       -88437955.301200390        615395765.93223786     
  -5957967586.0555010       -1787390275.8166502        1150072924.0579257     
  -6088433864.7384758       -1502240325.7300215        1227931640.9487829     
  -6221631529.9181652       -1226194997.2991071        1268428586.3382952     
  -6357560581.5945673       -959254290.52390623        1271563760.2264621     
  -6496221019.7676859       -701418205.40441990        1237337162.6132836     
  -6810594494.3956938       -2043178348.3187082        1353805626.8281014     
  -6828539817.2945528       -1395486459.1092515        1202768372.1799235     
  -6897849183.1258926       -919008046.34139585        1091983945.9925275     
  -7018522591.8897123       -613743110.01514125        1021452348.2659130     
  -7190560043.5860109       -479691650.13048792        991173579.00008011     
  -8337928843.7446556       -2501378653.1233969        1712363399.3348823     
  -8021597210.9676075       -1424618024.8235741        1275692073.9726079     
  -7805262277.5588055       -681179727.75123978        956888177.03324318     
  -7688924043.5182486       -271063761.90639400        755951708.51678634     
  -7672582508.8459396       -194270127.28903723        672882668.42323899     
  -10539970634.102385       -3161991190.2307153        2225746241.5782676     
  -9667606045.7576389       -1589635022.8729894        1446702746.3268363     
  -8943870813.2169018       -512710041.52863932        863141279.46044219     
  -8368764936.4801798        68783753.802335262        475061840.97908312     
  -7942288415.5474691        154846363.11993408        282464430.88275981     
  -13416719865.468882       -4025015959.6406646        2893954153.5582576     
  -11766566321.664642       -1890537453.2574971        1715800389.2426097     
  -10313674790.100183       -413598987.67359447        810743253.27412486     
  -9058045270.7755013        405799437.11104679        178782745.65280262     
  -7999677763.6906013        567657821.09642410       -180081133.62135580     
  -6496221019.7676859       -701418205.40441990        1237337162.6132836     
  -6239293572.8899889       -375925906.65729785        1053177641.4756503     
  -6013274400.1008129       -153461188.20524526        908011433.43482304     
  -5818163501.4001589       -34024050.048265696        801838538.49079919     
  -5653960876.7880239       -17614492.186354876        734658956.64358032     
  -7190560043.5860109       -479691650.13048792        991173579.00008011     
  -6900587680.3884659       -304383114.25789785        846861832.35672176     
  -6623435363.3662739       -171808065.63648844        723633730.44902682     
  -6359103092.5194368       -81966504.266263723        621489273.27699482     
  -6107590867.8479567       -34858430.147217751        540428460.84062684     
  -7672582508.8459396       -194270127.28903723        672882668.42323899     
  -7400735710.3603764       -184496498.60052872        589521628.83951664     
  -7123620730.1370001       -157162264.11931133        509334565.63031590     
  -6841237568.1758156       -112267423.84539390        432321478.79563779     
  -6553586224.4768133       -49811977.778758764        358482368.33548188     
  -7942288415.5474691        154846363.11993408        282464430.88275981     
  -7739737662.8057213       -16266059.685191154        281157030.92403471     
  -7513830500.4129944       -109523783.65371895        265113938.97868928     
  -7264566928.3692884       -124926808.78564501        234335155.04672733     
  -6991946946.6746044       -62475135.080976963        188820679.12814504     
  -7999677763.6906013        567657821.09642410       -180081133.62135580     
  -7917593537.7245007        200308202.48811722       -78231961.389721245     
  -7794064674.1942539       -28892624.239697456       -9028149.5058495142     
  -7629091173.0998669       -119944659.08703947        27530302.030264627     
  -7422673034.4413233       -72847902.053879261        31443393.218618579     
  -5653960876.7880239       -17614492.186354876        734658956.64358032     
  -5520137387.0622654       -49031478.666572332        721509312.75155699     
  -5380930548.8806524       -62503970.293946028        710205375.25695932     
  -5236340362.2431850       -58031967.068471432        700747144.15978944     
  -5086366827.1498652       -35615468.990150928        693134619.46004534     
  -6107590867.8479567       -34858430.147217751        540428460.84062684     
  -5959216043.2514820       -36591305.579544067        534010945.63467020     
  -5809823191.9492388       -34930758.659307003        530090879.07462817     
  -5659412313.9412279       -29876789.386504173        528668261.16050392     
  -5507983409.2274456       -21429397.761138916        529743091.89229667     
  -6553586224.4768133       -49811977.778758764        358482368.33548188     
  -6388797944.2996559       -21302105.950206995        353704106.44049233     
  -6227356959.1668139       -3949884.2693665028        352075035.43990952     
  -6069263269.0782890        2244687.2637515068        353595155.33373582     
  -5914516874.0340719       -2718391.3508386612        358264466.12196809     
  -6991946946.6746044       -62475135.080976963        188820679.12814504     
  -6808883090.2067909       -3163879.7785553932        180588795.16902852     
  -6633531850.5333786        30438652.875871181        176157844.35280433     
  -6465893227.6543636        38332462.882304192        175527826.67948043     
  -6305967221.5697432        20517550.240750313        178698742.14905038     
  -7422673034.4413233       -72847902.053879261        31443393.218618579     
  -7219471480.9728842        17823372.935406208        14665011.820268620     
  -7028347866.0489264        68234852.776420593        2339305.8133104923     
  -6849302189.6694517        78386537.469158649       -5533724.8022609251     
  -6682334451.8344593        48278427.013619423       -8954080.0264456328     
  -5086366827.1498652       -35615468.990150928        693134619.46004534     
  -4934955642.7716732       -9174933.3839280605        675703866.91857874     
  -4786558965.4806852        7217245.2649331093        664895109.68637824     
  -4641176795.2769079        13561066.956434727        660708347.76344848     
  -4498809132.1603403        9856531.6905715466        663143581.14978838     
  -5507983409.2274456       -21429397.761138916        529743091.89229667     
  -5345461627.9376335       -9679050.7316303253        514575872.13637477     
  -5183974295.9263344       -1376867.9638438225        504723313.59782612     
  -5023521413.1935568        3477150.5422098637        500185416.27665114     
  -4864102979.7393007        4883004.7865400314        500962180.17284906     
  -5914516874.0340719       -2718391.3508386612        358264466.12196809     
  -5744619736.0951967       -6778804.9768157005        347670846.59506297     
  -5573776989.6261492       -7687190.1688773632        341084554.19363850     
  -5401988634.6269302       -5443546.9270334244        338505588.91768861     
  -5229254671.0975370       -47875.251278638840        339933950.76721901     
  -6305967221.5697432        20517550.240750313        178698742.14905038     
  -6132429967.2443705       -474196.11948108673        174988790.29463920     
  -5955967046.5801325       -11713721.350169659        173978831.47380894     
  -5776578459.5770273       -13201025.451291323        175668865.68655989     
  -5594264206.2350597       -4936108.4228863716        180058892.93289089     
  -6682334451.8344593        48278427.013619423       -8954080.0264456328     
  -6508892321.3851395        9234775.8403761387       -3470296.7648962797     
  -6330544466.7882700       -13456461.507685900        3406145.4383421675     
  -6147290888.0438461       -19795285.030577898        11675246.583269227     
  -5959131585.1518650       -9781694.7282717228        21337006.669874813     
  -4498809132.1603403        9856531.6905715466        663143581.14978838     
  -4363163067.1263056        1096559.3148851395        659113096.44709098     
  -4226506203.3688407       -4294083.9827010632        658660694.14137268     
  -4088838540.8879457       -6315398.2021844387        661786374.23263371     
  -3950160079.6836195       -4967383.3435609341        668490136.72087288     
  -4864102979.7393007        4883004.7865400314        500962180.17284906     
  -4717585560.2278242        1219719.3409287930        497728549.42770880     
  -4570824132.4315214       -1630205.1552364826        498103258.13052380     
  -4423818696.3503904       -3666768.7019846439        502086306.28129578     
  -4276569251.9844246       -4889971.2992806435        509677693.88002056     
  -5229254671.0975370       -47875.251278638840        339933950.76721901     
  -5071779448.3915482        1411460.8483240604        336602585.13459808     
  -4914827007.8393335        1128189.7686891556        336909816.00091302     
  -4758397349.4408884       -897688.49019098282        340855643.36616051     
  -4602490473.1962166       -4666173.9283027649        348440067.23033816     
  -5594264206.2350597       -4936108.4228863716        180058892.93289089     
  -5425744731.6174793        1671783.8370556831        175735203.56776074     
  -5258514829.5922756        3981100.7890703678        175080367.75253871     
  -5092574500.1594458        1991842.4331834316        178094385.48722589     
  -4927923743.3189859       -4295991.2306184769        184777256.77182108     
  -5959131585.1518650       -9781694.7282717228        21337006.669874813     
  -5779481409.9056215        2000688.3071050644        15126404.727197831     
  -5601887597.6903515        6928527.9059064388        12614913.385404598     
  -5426350148.5060520        5001824.0681385994        13802532.644495115     
  -5252869062.3527298       -3779423.2062203884        18689262.504466821     
  -3950160079.6836195       -4967383.3435609341        668490136.72087288     
  -3796070060.4998608        1822879.1438581944        659201865.18774843     
  -3642450984.9395523        7043329.5531044006        654627114.20738387     
  -3489302853.0026946        10693967.884189606        654765883.77977943     
  -3336625664.6892843        12774794.137107372        659618173.90493298     
  -4276569251.9844246       -4889971.2992806435        509677693.88002056     
  -4111051060.2723684       -303720.03777456284        500205862.29971981     
  -3945560066.0836105        4191872.8127255440        495320030.08671319     
  -3780096269.4181538        8596807.2522306442        495020197.24100488     
  -3614659670.2759943        12911083.280739307        499306363.76259589     
  -4602490473.1962166       -4666173.9283027649        348440067.23033816     
  -4425908455.2000389       -2393237.7659685612        339302379.38636601     
  -4248909888.6270084        1268193.6525373459        334623169.72422934     
  -4071494773.4771295        6318120.3272063732        334402438.24392587     
  -3893663109.7503939        12756542.258067369        338640184.94545680     
  -4927923743.3189859       -4295991.2306184769        184777256.77182108     
  -4740642245.2828608       -4445674.0406951904        176491416.44768667     
  -4552500452.5697479       -1727707.9274611473        172536533.11992750     
  -4363498365.1796160        3857907.1091539860        172912606.78854549     
  -4173635983.1124945        12311171.069078684        177619637.45352405     
  -5252869062.3527298       -3779423.2062203884        18689262.504466821     
  -5055252430.5208483       -6461028.8619883060        11772973.483688597     
  -4856331757.9118147       -4795831.9272313118        9060120.2738151029     
  -4656107044.5256376        1216167.5980057716        10550702.874854509     
  -4454578290.3622904        11574969.713784933        16244721.286798965     
  -3336625664.6892843        12774794.137107372        659618173.90493298     
  -3221912941.5472984        3317076.4712809324        657842584.81191170     
  -3106827651.2877727       -4898750.8027483225        658815989.43862414     
  -2991369793.9107223       -11872687.685023546        662538387.78507674     
  -2875539369.4161358       -17604734.175510406        669009779.85126507     
  -3614659670.2759943        12911083.280739307        499306363.76259589     
  -3491831961.1965399        4103223.4005997181        497591275.01882225     
  -3369200880.2354436       -5360063.5407168865        499219522.24897635     
  -3246766427.3926988       -15478777.543211460        504191105.45305347     
  -3124528602.6683016       -26252918.606866241        512506024.63104910     
  -3893663109.7503939        12756542.258067369        338640184.94545680     
  -3761022294.0072417        5107976.3814768791        336321535.44240731     
  -3629147301.6183233       -5093334.0092408657        337940564.16747081     
  -3498038132.5836449       -17847388.914076805        343497271.12063712     
  -3367694786.9032059       -33154188.333048582        352991656.30190408     
  -4173635983.1124945        12311171.069078684        177619637.45352405     
  -4029483939.9794011        6331335.4138982296        174033366.08266070     
  -3886666915.4364300       -4098562.2083530426        174979115.19409615     
  -3745184909.4835749       -18978521.797667503        180456884.78781509     
  -3605037922.1208467       -38308543.354056358        190466674.86383277     
  -4454578290.3622904        11574969.713784933        16244721.286798965     
  -4297216899.1130047        7773300.4979236126        10726766.939597517     
  -4141759721.6897407       -2375748.1380035877        10335175.328866800     
  -3988206758.0924721       -18872176.193910599        15069946.454620745     
  -3836558008.3212190       -41715983.669883490        24931080.316831648     
  -2875539369.4161358       -17604734.175510406        669009779.85126507     
  -2706100854.6367416       -13351086.000694275        649436005.16135454     
  -2541054730.5485964       -23738740.130024791        633975744.61154425     
  -2380400997.1517000       -48767696.563532591        622628998.20183992     
  -2224139654.4460516       -88437955.301200390        615395765.93223786     
  -3124528602.6683016       -26252918.606866241        512506024.63104910     
  -2944195195.8877010       -21227208.086683035        491884063.35284960     
  -2764739110.2413006       -19125901.347170234        475351105.85577279     
  -2586160345.7290893       -19948998.388291001        462907152.13982481     
  -2408458902.3510723       -23696499.210040212        454552202.20500010     
  -3367694786.9032059       -33154188.333048582        352991656.30190408     
  -3176536517.7184839       -27377424.346650481        335422422.91864663     
  -2982740500.1109037       -12808165.617382526        321917682.95753723     
  -2786306734.0804501        10553587.854777098        312477436.41857278     
  -2587235219.6271534        42707836.069795012        307101683.30175555     
  -3605037922.1208467       -38308543.354056358        190466674.86383277     
  -3403124820.1290779       -31801734.780545473        180051083.85875201     
  -3195058900.1573992       -4785532.9406540394        173675475.91684219     
  -2980840162.2057953        42740062.165637493        171339851.03809437     
  -2760468606.2742777        110775050.53833044        173044209.22252634     
  -3836558008.3212190       -41715983.669883490        24931080.316831648     
  -3623960103.1194854       -34500139.388384104        25770046.173162047     
  -3401694310.3808022        4941996.6829788685        30624484.733677592     
  -3169760630.1051207        76610424.544303060        39494395.998385325     
  -2928159062.2924805        180505144.19552267        52379779.967276923     
 </DataArray>
 <DataArray  type="Float64" Name="VM" NumberOfComponents="1" format="ascii">
   12935335680.489010     
   11340585085.468510     
   10210167466.742212     
   9272806580.5782986     
   8304100532.7096415     
   10130152597.884539     
   9321918503.0544090     
   8826300037.1390858     
   8443507909.9744215     
   8035750786.5721807     
   7982292086.1128864     
   7734912650.6321201     
   7669088085.0243225     
   7669533802.8623352     
   7666324010.9265976     
   6491668377.1100702     
   6586852785.9927444     
   6757364092.7673998     
   6961126059.1536369     
   7171480169.3239355     
   5657835872.3721342     
   5890895553.3086643     
   6116317668.0220346     
   6331638995.4420481     
   6536632925.6573458     
   8304100532.7096415     
   8020765574.5430460     
   7779454384.8043995     
   7569513031.5505943     
   7385972366.8419628     
   8035750786.5721807     
   7746926498.2317057     
   7473736358.7304583     
   7214228268.4781017     
   6968403782.6217279     
   7666324010.9265976     
   7381170635.4136229     
   7101396917.1501369     
   6827078246.0839510     
   6558413715.7821102     
   7171480169.3239355     
   6910939874.1142263     
   6658295211.3646164     
   6409686833.1590528     
   6161969389.4653130     
   6536632925.6573458     
   6328589813.1847019     
   6142730846.8709126     
   5965156171.8713341     
   5786858409.3999872     
   7385972366.8419628     
   7228461705.3835526     
   7063597755.0271606     
   6890702256.0672569     
   6709580597.9173260     
   6968403782.6217279     
   6814486491.3808699     
   6656046821.6969929     
   6492806325.5620499     
   6324707344.2369967     
   6558413715.7821102     
   6407459444.0633049     
   6254907501.4325542     
   6100725552.2160149     
   5944939192.9314203     
   6161969389.4653130     
   6012378510.8135204     
   5864106069.2851524     
   5717189815.9312668     
   5571684771.1321850     
   5786858409.3999872     
   5635705492.2033892     
   5488702586.0802116     
   5345765086.4177866     
   5206936649.4951973     
   6709580597.9173260     
   6515099158.9378080     
   6323632079.9178343     
   6135093688.1275358     
   5949473281.9513149     
   6324707344.2369967     
   6140925536.6906357     
   5959208635.1393318     
   5779543657.8381395     
   5601963037.3755674     
   5944939192.9314203     
   5773293572.1268644     
   5603029616.6256514     
   5434174410.9306793     
   5266791804.6035290     
   5571684771.1321850     
   5414011975.2225428     
   5257334402.2051373     
   5101690162.5926285     
   4947172322.6666193     
   5206936649.4951973     
   5065492815.9487295     
   4925000430.5032759     
   4785483138.9477043     
   4647071532.6593552     
   5949473281.9513149     
   5775220442.8708324     
   5600110444.8165503     
   5424145404.7201185     
   5247356191.1590157     
   5601963037.3755674     
   5436179743.7221575     
   5270145028.6281147     
   5103894964.3574429     
   4937497038.1189661     
   5266791804.6035290     
   5110066996.1012363     
   4953779998.1392984     
   4798005013.1907616     
   4642852168.6982622     
   4947172322.6666193     
   4800021843.6863689     
   4654084305.0695658     
   4509474023.2047682     
   4366347156.0621643     
   4647071532.6593552     
   4509902576.8699198     
   4374806137.9150190     
   4241935193.7172208     
   4111491184.2170362     
   5247356191.1590157     
   5047669116.0196152     
   4848378343.0876989     
   4649479086.5690174     
   4451004639.4105635     
   4937497038.1189661     
   4749203609.9958649     
   4561687509.7449951     
   4374989851.0336027     
   4189201831.5578332     
   4642852168.6982622     
   4466586866.9358110     
   4291589709.2796521     
   4117959072.5802212     
   3945857236.7902346     
   4366347156.0621643     
   4202815948.6896029     
   4041166480.2913866     
   3881564687.2836719     
   3724254943.5999932     
   4111491184.2170362     
   3961454797.9767771     
   3814043352.4766541     
   3669496793.9565573     
   3528146705.6491976     
   4451004639.4105635     
   4292189960.8466363     
   4133104352.8911829     
   3973841697.1371975     
   3814583615.7611456     
   4189201831.5578332     
   4043822769.2449527     
   3898918828.2795200     
   3754620825.1781044     
   3611133707.4387269     
   3945857236.7902346     
   3812430222.9903564     
   3680112218.3444881     
   3549053784.1440659     
   3419464772.0847030     
   3724254943.5999932     
   3601239703.6446896     
   3479819825.6778193     
   3360150366.6033525     
   3242431338.7922173     
   3528146705.6491976     
   3413972064.6382713     
   3301697400.2570992     
   3191470260.3804483     
   3083471341.7174306     
   3814583615.7611456     
   3595360444.4319315     
   3369509787.5701518     
   3138975784.3058419     
   2907734877.6850944     
   3611133707.4387269     
   3405732944.7867355     
   3196534364.3420758     
   2984326427.2165823     
   2770745463.1302223     
   3419464772.0847030     
   3229545697.1113133     
   3039433462.2449312     
   2849438601.7403603     
   2660112180.8545752     
   3242431338.7922173     
   3067399846.1595449     
   2896229664.8615723     
   2729415158.5594015     
   2567666696.4292259     
   3083471341.7174306     
   2920145909.8596520     
   2765039891.5167904     
   2619556192.6520162     
   2485860930.6593142     
   5657835872.3721342     
   5890895553.3086643     
   6116317668.0220346     
   6331638995.4420481     
   6536632925.6573458     
   5151457303.2195606     
   5311310280.5847654     
   5467797344.8055315     
   5618019745.7313042     
   5760508696.2776985     
   4643470144.0226583     
   4755524806.9557114     
   4868706762.3219252     
   4980379405.7654095     
   5088615623.0418911     
   4134137890.0840788     
   4224376841.7378950     
   4320541275.3349218     
   4420974666.6824398     
   4524222469.9075842     
   3624980972.6011643     
   3719690972.7766171     
   3825658913.6638532     
   3942823286.5926771     
   4071093291.9216208     
   6536632925.6573458     
   6328589813.1847019     
   6142730846.8709126     
   5965156171.8713341     
   5786858409.3999872     
   5760508696.2776985     
   5651994563.1804123     
   5559475428.3128023     
   5473894276.9601183     
   5389710390.3460627     
   5088615623.0418911     
   5053932724.5417538     
   5029755223.9324331     
   5010878196.0365353     
   4994100461.3072796     
   4524222469.9075842     
   4538998790.6257801     
   4558440701.5390797     
   4580067264.5165901     
   4602154790.8324833     
   4071093291.9216208     
   4112517590.8042541     
   4151295816.4728899     
   4186525943.4707737     
   4217472846.8207421     
   5786858409.3999872     
   5635705492.2033892     
   5488702586.0802116     
   5345765086.4177866     
   5206936649.4951973     
   5389710390.3460627     
   5248140272.5604935     
   5109780541.5529709     
   4974673741.6390791     
   4842913924.8935823     
   4994100461.3072796     
   4866572041.5418530     
   4742258628.6024885     
   4621131193.2562523     
   4503235367.9020176     
   4602154790.8324833     
   4493663950.8283033     
   4389455780.5727987     
   4289220621.1506643     
   4192878114.8415880     
   4217472846.8207421     
   4133367827.4604864     
   4055856236.5922933     
   3984100448.6967468     
   3917817123.2619333     
   5206936649.4951973     
   5065492815.9487295     
   4925000430.5032759     
   4785483138.9477043     
   4647071532.6593552     
   4842913924.8935823     
   4717161814.5108137     
   4593171650.8742476     
   4471054369.7023230     
   4351016504.7889824     
   4503235367.9020176     
   4392605648.1830864     
   4284547239.5235152     
   4179238505.2617960     
   4076939094.2799621     
   4192878114.8415880     
   4096741434.7744665     
   4003942428.4002628     
   3914702070.9337473     
   3829305933.0429087     
   3917817123.2619333     
   3835431558.8462300     
   3757052504.6594448     
   3682914714.0767808     
   3613300074.9609833     
   4647071532.6593552     
   4509902576.8699198     
   4374806137.9150190     
   4241935193.7172208     
   4111491184.2170362     
   4351016504.7889824     
   4225618093.7674756     
   4102805352.7546954     
   3982784894.0788469     
   3865821396.5459509     
   4076939094.2799621     
   3964428141.9680238     
   3855163210.1574068     
   3749408079.4910359     
   3647493562.4977522     
   3829305933.0429087     
   3730818002.7927427     
   3636382870.5757399     
   3546317498.6137390     
   3461012034.3861694     
   3613300074.9609833     
   3529886948.6153674     
   3451460516.6209512     
   3378375612.6129532     
   3311061445.8282189     
   4111491184.2170362     
   3961454797.9767771     
   3814043352.4766541     
   3669496793.9565573     
   3528146705.6491976     
   3865821396.5459509     
   3729725763.9840059     
   3596951319.1364565     
   3467810410.9245329     
   3342712722.6216140     
   3647493562.4977522     
   3525928054.6374354     
   3408453064.9425349     
   3295446168.2421083     
   3187382019.1470504     
   3461012034.3861694     
   3354554909.5179648     
   3252996274.4325838     
   3156760341.5206261     
   3066360166.2427773     
   3311061445.8282189     
   3220163962.9673991     
   3134955997.5064907     
   3055878160.1537762     
   2983443593.8696384     
   3528146705.6491976     
   3413972064.6382713     
   3301697400.2570992     
   3191470260.3804483     
   3083471341.7174306     
   3342712722.6216140     
   3237546824.8062010     
   3135035360.1934137     
   3035419254.9149518     
   2938987444.2175527     
   3187382019.1470504     
   3093697039.1201620     
   3003690901.5067081     
   2917711038.0477610     
   2836166132.4464412     
   3066360166.2427773     
   2986499348.8021750     
   2911564642.7315574     
   2841999809.1873307     
   2778315027.0340757     
   2983443593.8696384     
   2919350537.8749022     
   2861563582.8539014     
   2810586235.0954223     
   2766982523.8947363     
   3083471341.7174306     
   2920145909.8596520     
   2765039891.5167904     
   2619556192.6520162     
   2485860930.6593142     
   2938987444.2175527     
   2784877915.1030078     
   2636981096.0611191     
   2495971836.1971421     
   2362809518.1361289     
   2836166132.4464412     
   2695881284.5588498     
   2560813715.6396513     
   2431590207.3745322     
   2309023766.8578310     
   2778315027.0340757     
   2658419015.8515329     
   2543975031.9691901     
   2436285168.1659207     
   2337123305.6365857     
   2766982523.8947363     
   2675405811.7778139     
   2590699899.8261695     
   2515389152.6130342     
   2452954101.2818160     
   3624980972.6011643     
   3719690972.7766171     
   3825658913.6638532     
   3942823286.5926771     
   4071093291.9216208     
   3137967417.3679042     
   3255526923.4818563     
   3382505756.0789919     
   3518436447.2968626     
   3662862606.7829223     
   2694754183.3631830     
   2830544597.2680645     
   2973644466.4274330     
   3122972455.7758350     
   3277618449.6996646     
   2298830052.8229103     
   2449536295.6061702     
   2604957081.0015745     
   2763169944.3530445     
   2922745451.7246943     
   1955403151.8642287     
   2119456254.4148147     
   2284853660.2282820     
   2448634091.4691644     
   2608839087.1483946     
   4071093291.9216208     
   4112517590.8042541     
   4151295816.4728899     
   4186525943.4707737     
   4217472846.8207421     
   3662862606.7829223     
   3702265108.1164432     
   3740292397.0694504     
   3776042750.1387129     
   3808764664.8223543     
   3277618449.6996646     
   3320859054.7355490     
   3364348772.0334496     
   3407262839.9594893     
   3448922019.6385550     
   2922745451.7246943     
   2975683132.0454998     
   3030850591.7167583     
   3087564933.9660039     
   3145292964.2723103     
   2608839087.1483946     
   2676790747.2323923     
   2749255463.5431900     
   2825725050.5604572     
   2905847012.9585223     
   4217472846.8207421     
   4133367827.4604864     
   4055856236.5922933     
   3984100448.6967468     
   3917817123.2619333     
   3808764664.8223543     
   3756174865.1780720     
   3709636857.1947823     
   3668684386.0538254     
   3633226795.6169958     
   3448922019.6385550     
   3423146171.5395136     
   3402489090.0291529     
   3386724602.0373139     
   3375837338.4621158     
   3145292964.2723103     
   3141913804.6368809     
   3142116693.8143673     
   3145801597.0828977     
   3152952833.5035872     
   2905847012.9585223     
   2920811287.7412639     
   2937035105.1511950     
   2954463119.3552279     
   2973054838.3001304     
   3917817123.2619333     
   3835431558.8462300     
   3757052504.6594448     
   3682914714.0767808     
   3613300074.9609833     
   3633226795.6169958     
   3563170081.6245193     
   3497748745.9123402     
   3437205620.7699828     
   3381833773.9493175     
   3375837338.4621158     
   3318669599.3758068     
   3266893746.1147451     
   3220741769.5406051     
   3180498168.9626441     
   3152952833.5035872     
   3108936370.8773284     
   3071179252.6054058     
   3039875366.1892786     
   3015272843.5588012     
   2973054838.3001304     
   2941916873.9042430     
   2917985464.8715520     
   2901384012.4127841     
   2892292865.0000052     
   3613300074.9609833     
   3529886948.6153674     
   3451460516.6209512     
   3378375612.6129532     
   3311061445.8282189     
   3381833773.9493175     
   3312624556.5536456     
   3248947841.9871402     
   3191138075.8516426     
   3139588667.8420100     
   3180498168.9626441     
   3124815480.1773453     
   3075145780.4189696     
   3031782693.6620255     
   2995061990.1409574     
   3015272843.5588012     
   2972099699.8157520     
   2935316949.9333553     
   2905159599.8317432     
   2881888847.0711322     
   2892292865.0000052     
   2860163547.4581947     
   2834665517.1774273     
   2815965064.9287977     
   2804241876.1380782     
   3311061445.8282189     
   3220163962.9673991     
   3134955997.5064907     
   3055878160.1537762     
   2983443593.8696384     
   3139588667.8420100     
   3062196067.4882708     
   2991340907.7639098     
   2927445512.8667526     
   2870990633.0925536     
   2995061990.1409574     
   2930792470.6824422     
   2873868912.0718637     
   2824665163.5575304     
   2783596664.1096730     
   2881888847.0711322     
   2829812865.1969314     
   2785816577.9864311     
   2750199012.2320251     
   2723284623.0325961     
   2804241876.1380782     
   2762768866.1897826     
   2730011784.7694411     
   2706179748.7136846     
   2691494893.7867508     
   2983443593.8696384     
   2919350537.8749022     
   2861563582.8539014     
   2810586235.0954223     
   2766982523.8947363     
   2870990633.0925536     
   2821118067.7107043     
   2777547951.0647202     
   2740696776.0144715     
   2711020161.4160805     
   2783596664.1096730     
   2746828335.3201361     
   2716217051.8508549     
   2692087484.8585544     
   2674788175.2092552     
   2723284623.0325961     
   2698320688.3842587     
   2679230256.0842061     
   2666249631.6381626     
   2659630042.3877640     
   2691494893.7867508     
   2676871348.2640615     
   2667717625.6233926     
   2664192117.9587021     
   2666464482.9849410     
   2766982523.8947363     
   2675405811.7778139     
   2590699899.8261695     
   2515389152.6130342     
   2452954101.2818160     
   2711020161.4160805     
   2643259530.2162724     
   2584825214.1374536     
   2536948315.3078322     
   2501045104.5826712     
   2674788175.2092552     
   2623429161.0769944     
   2583186414.6665478     
   2554576067.9114308     
   2538101878.9228067     
   2659630042.3877640     
   2615212072.3314509     
   2583259568.6525574     
   2564237740.4259405     
   2558867140.0470352     
   2666464482.9849410     
   2617903289.0659118     
   2583015790.5701308     
   2562939376.5109973     
   2559755040.3609276     
   1955403151.8642287     
   2119456254.4148147     
   2284853660.2282820     
   2448634091.4691644     
   2608839087.1483946     
   1653951297.8554153     
   1820377402.5914264     
   1988493320.8247623     
   2155601719.1088643     
   2319944093.9629369     
   1393795020.6860085     
   1571139546.2226024     
   1749487211.8894997     
   1926833278.1728725     
   2101926635.8348949     
   1207245973.5664456     
   1399163649.8762031     
   1590661352.4741707     
   1780961265.9342511     
   1969604092.3130925     
   1136988782.1862082     
   1335299711.4846673     
   1533923746.2643640     
   1732860886.7010534     
   1932111133.6593046     
   2608839087.1483946     
   2676790747.2323923     
   2749255463.5431900     
   2825725050.5604572     
   2905847012.9585223     
   2319944093.9629369     
   2407018323.0090408     
   2496534581.0091200     
   2588104274.6303992     
   2681452606.6842084     
   2101926635.8348949     
   2205700610.7310700     
   2309380058.4162331     
   2412729879.9375424     
   2515583871.9851894     
   1969604092.3130925     
   2086768324.8901567     
   2201071064.1391902     
   2312437968.1634665     
   2420817227.4646583     
   1932111133.6593046     
   2058767878.3278482     
   2179986588.1195765     
   2295767263.5219069     
   2406109907.6397667     
   2905847012.9585223     
   2920811287.7412639     
   2937035105.1511950     
   2954463119.3552279     
   2973054838.3001304     
   2681452606.6842084     
   2703156505.4497375     
   2727175436.9850936     
   2753491815.6334352     
   2782097348.8286715     
   2515583871.9851894     
   2544002511.3298512     
   2575823870.0982456     
   2611049408.9493332     
   2649684913.2921309     
   2420817227.4646583     
   2454446093.3463955     
   2492569699.1825414     
   2535191189.3697925     
   2582314906.0462999     
   2406109907.6397667     
   2441862452.8502431     
   2483195126.3966074     
   2530107969.3847351     
   2582601068.0414834     
   2973054838.3001304     
   2941916873.9042430     
   2917985464.8715520     
   2901384012.4127841     
   2892292865.0000052     
   2782097348.8286715     
   2765258655.2589021     
   2755475289.4393730     
   2752827536.2728133     
   2757424896.4063406     
   2649684913.2921309     
   2644351326.7686324     
   2645654991.4032564     
   2653632952.5638757     
   2668333146.3181982     
   2582314906.0462999     
   2585198074.5000148     
   2594040349.4245911     
   2608850460.3665476     
   2629638979.1853428     
   2582601068.0414834     
   2590228572.4117689     
   2602925117.9542818     
   2620690644.3533020     
   2643525237.4769907     
   2892292865.0000052     
   2860163547.4581947     
   2834665517.1774273     
   2815965064.9287977     
   2804241876.1380782     
   2757424896.4063406     
   2734701272.4919004     
   2719125099.1825199     
   2710807158.7371249     
   2709864786.0476165     
   2668333146.3181982     
   2653065841.8798614     
   2645375538.0171037     
   2645317820.9250174     
   2652950591.8310409     
   2629638979.1853428     
   2619182805.2441702     
   2616644321.1100764     
   2622038306.5440736     
   2635380015.4411550     
   2643525237.4769907     
   2634725307.1323609     
   2634104311.7748361     
   2641662219.2427683     
   2657398997.1318135     
   2804241876.1380782     
   2762768866.1897826     
   2730011784.7694411     
   2706179748.7136846     
   2691494893.7867508     
   2709864786.0476165     
   2678333133.1396952     
   2655547361.8928671     
   2641633118.5790863     
   2636721324.8346405     
   2652950591.8310409     
   2629191504.1907244     
   2614129403.5492330     
   2607822942.4212027     
   2610332508.2870092     
   2635380015.4411550     
   2616894530.2787156     
   2607000061.2584710     
   2605712622.7695961     
   2613049026.6094322     
   2657398997.1318135     
   2641529075.8648839     
   2634112979.1950984     
   2635151471.8028884     
   2644646173.9571166     
   2691494893.7867508     
   2676871348.2640615     
   2667717625.6233926     
   2664192117.9587021     
   2666464482.9849410     
   2636721324.8346405     
   2630994647.1973205     
   2631617962.2544813     
   2638680437.7935886     
   2652270007.0875907     
   2610332508.2870092     
   2610951490.1350851     
   2618678942.0289531     
   2633549771.3813748     
   2655596182.9187117     
   2613049026.6094322     
   2616817881.3949633     
   2628367693.3795724     
   2647706609.7987738     
   2674847840.5694499     
   2644646173.9571166     
   2647920846.1767445     
   2659596961.8695183     
   2679692041.8048630     
   2708243713.5013170     
   2666464482.9849410     
   2617903289.0659118     
   2583015790.5701308     
   2562939376.5109973     
   2559755040.3609276     
   2652270007.0875907     
   2600334266.2044311     
   2560183937.7914987     
   2532175173.6344256     
   2516913395.6666975     
   2655596182.9187117     
   2606899422.7581501     
   2568752170.0649786     
   2541207802.8792386     
   2524319801.4160147     
   2674847840.5694499     
   2636666870.6397882     
   2608388229.9356942     
   2590255853.0132413     
   2582742521.1189709     
   2708243713.5013170     
   2688157192.3906589     
   2677892845.4403009     
   2678326352.7240291     
   2691201036.4093723     
   1136988782.1862082     
   1335299711.4846673     
   1533923746.2643640     
   1732860886.7010534     
   1932111133.6593046     
   1207198072.1500981     
   1399152250.3535788     
   1590688169.6138246     
   1781029810.2689760     
   1969719153.2983577     
   1393732002.1810853     
   1571121316.5393867     
   1749521728.2201855     
   1926929773.9789045     
   2102095270.0861030     
   1653903300.2664149     
   1820356953.4206550     
   1988515234.9409432     
   2155681197.1426935     
   2320096226.7061920     
   1955392056.2011979     
   2119437019.3531425     
   2284845755.6366363     
   2448656908.3373642     
   2608910855.9754758     
   1932111133.6593046     
   2058767878.3278482     
   2179986588.1195765     
   2295767263.5219069     
   2406109907.6397667     
   1969719153.2983577     
   2086839796.9782140     
   2201093662.7277322     
   2312405539.9957757     
   2420723247.9610300     
   2102095270.0861030     
   2205814409.6812210     
   2309429248.1934505     
   2412704049.5331707     
   2515472280.1571608     
   2320096226.7061920     
   2407136839.6210899     
   2496606591.6068654     
   2588117300.9302683     
   2681394167.9988880     
   2608910855.9754758     
   2676876710.9754839     
   2749341622.0783100     
   2825799467.4263854     
   2905898338.1066270     
   2406109907.6397667     
   2441862452.8502431     
   2483195126.3966074     
   2530107969.3847351     
   2582601068.0414834     
   2420723247.9610300     
   2454648303.4444318     
   2493116539.8458261     
   2536132062.9993019     
   2583699530.0454521     
   2515472280.1571608     
   2544322520.4564838     
   2576663596.2382798     
   2612498350.8155255     
   2651833526.8496733     
   2681394167.9988880     
   2703482506.5099931     
   2728002457.4394107     
   2754937612.4566679     
   2784281398.0379539     
   2905898338.1066270     
   2921025043.2168384     
   2937542846.4340653     
   2955396204.2608752     
   2974546428.5663199     
   2582601068.0414834     
   2590228572.4117689     
   2602925117.9542818     
   2620690644.3533020     
   2643525237.4769907     
   2583699530.0454521     
   2586453636.8154612     
   2595228761.1287427     
   2610032920.3544044     
   2630877840.4620986     
   2651833526.8496733     
   2646291599.8498077     
   2647520451.1930509     
   2655557624.0284967     
   2670454160.7105961     
   2784281398.0379539     
   2767150559.2348676     
   2757287458.6104436     
   2754777384.9219203     
   2759737237.9994621     
   2974546428.5663199     
   2942975270.4198833     
   2918905208.8394079     
   2902473410.6716995     
   2893875731.0136423     
   2643525237.4769907     
   2634725307.1323609     
   2634104311.7748361     
   2641662219.2427683     
   2657398997.1318135     
   2630877840.4620986     
   2620908147.6027522     
   2618819161.6398478     
   2624626106.7136559     
   2638344407.4480109     
   2670454160.7105961     
   2656249746.4966578     
   2649559705.1385627     
   2650439334.3177867     
   2658945400.4400067     
   2759737237.9994621     
   2738738413.0996108     
   2724814381.4786205     
   2718074016.0456848     
   2718630902.5513654     
   2893875731.0136423     
   2864202928.6746707     
   2841095780.5072250     
   2824717074.4212527     
   2815239763.1286025     
   2657398997.1318135     
   2641529075.8648839     
   2634112979.1950984     
   2635151471.8028884     
   2644646173.9571166     
   2638344407.4480109     
   2621053299.4925532     
   2612365229.8434892     
   2612293669.3633547     
   2620852158.2078695     
   2658945400.4400067     
   2636993044.0767984     
   2623722860.8250585     
   2619193450.2550302     
   2623464693.5255990     
   2718630902.5513654     
   2688966428.6236587     
   2667968185.2905192     
   2655767936.9525590     
   2652503715.1544619     
   2815239763.1286025     
   2775213341.2872453     
   2743718250.1390266     
   2720976826.4110198     
   2707228301.2794886     
   2644646173.9571166     
   2647920846.1767445     
   2659596961.8695183     
   2679692041.8048630     
   2708243713.5013170     
   2620852158.2078695     
   2620423844.7718849     
   2627809453.4457603     
   2643036409.2026162     
   2666139797.6909800     
   2623464693.5255990     
   2618109881.4314337     
   2620080567.4104433     
   2629424199.3793435     
   2646187815.7910361     
   2652503715.1544619     
   2641326142.1069245     
   2637063525.6172872     
   2639788026.2261100     
   2649569088.9368482     
   2707228301.2794886     
   2689693815.5188751     
   2678726672.1363301     
   2674423015.5695009     
   2676880398.3432689     
   2708243713.5013170     
   2688157192.3906589     
   2677892845.4403009     
   2678326352.7240291     
   2691201036.4093723     
   2666139797.6909800     
   2657880052.5505686     
   2659921625.1156554     
   2672503169.8472438     
   2696138373.5999537     
   2646187815.7910361     
   2638987586.5597296     
   2642266663.5064726     
   2656066473.0573263     
   2680438263.0346899     
   2649569088.9368482     
   2632753115.0602093     
   2626222724.7651682     
   2630271039.3716135     
   2645252102.9838457     
   2676880398.3432689     
   2640356154.8077931     
   2613385937.6606836     
   2596945317.7056975     
   2592488240.2589731     
   1955392056.2011979     
   2119437019.3531425     
   2284845755.6366363     
   2448656908.3373642     
   2608910855.9754758     
   2298855564.7954526     
   2449524204.4398727     
   2604918264.0474939     
   2763114858.2301784     
   2922683672.7149076     
   2694797844.1621957     
   2830537089.9483185     
   2973589097.0650311     
   3122871946.6973777     
   3277474875.2467790     
   3138011121.8813376     
   3255522307.7277856     
   3382449819.0376139     
   3518325494.9763246     
   3662692333.0940566     
   3625007170.4484320     
   3719688119.4411473     
   3825618793.2470384     
   3942736951.5666127     
   4070951045.9110370     
   2608910855.9754758     
   2676876710.9754839     
   2749341622.0783100     
   2825799467.4263854     
   2905898338.1066270     
   2922683672.7149076     
   2975660962.6582322     
   3030859399.7409258     
   3087598159.6411147     
   3145345045.1246047     
   3277474875.2467790     
   3320771580.5541191     
   3364313242.2832232     
   3407277042.4057035     
   3448984962.1913919     
   3662692333.0940566     
   3702158303.1031532     
   3740248597.1259036     
   3776063118.5969930     
   3808851534.1659341     
   4070951045.9110370     
   4112437208.0933108     
   4151279930.2618337     
   4186578315.3267679     
   4217598084.1462908     
   2905898338.1066270     
   2921025043.2168384     
   2937542846.4340653     
   2955396204.2608752     
   2974546428.5663199     
   3145345045.1246047     
   3141803752.8750629     
   3141895348.0259137     
   3145519184.6281667     
   3152663046.2609410     
   3448984962.1913919     
   3422835092.9255633     
   3401788228.3928752     
   3385615567.0534420     
   3374303662.1934295     
   3808851534.1659341     
   3755814084.2739854     
   3708761566.8404298     
   3667221785.3782849     
   3631101292.1668978     
   4217598084.1462908     
   4133119661.1860080     
   4055131775.9632306     
   3982787446.9465108     
   3915793979.9172597     
   2974546428.5663199     
   2942975270.4198833     
   2918905208.8394079     
   2902473410.6716995     
   2893875731.0136423     
   3152663046.2609410     
   3107715298.8502188     
   3069143701.0525546     
   3037149070.6470823     
   3011984307.7229705     
   3374303662.1934295     
   3316143472.8962131     
   3263357308.2003937     
   3216173341.5750756     
   3174866934.0191340     
   3631101292.1668978     
   3560460228.8031950     
   3494347682.8052158     
   3432990749.1954956     
   3376659153.7686372     
   3915793979.9172597     
   3833699681.6935563     
   3755460327.2599282     
   3681283881.1189108     
   3611416750.1021934     
   2893875731.0136423     
   2864202928.6746707     
   2841095780.5072250     
   2824717074.4212527     
   2815239763.1286025     
   3011984307.7229705     
   2970409250.1268325     
   2935192784.1434045     
   2906569831.4602804     
   2884800349.1679173     
   3174866934.0191340     
   3119766384.4202056     
   3070622985.1983843     
   3027730856.2196465     
   2991429395.0372577     
   3376659153.7686372     
   3306914935.5924659     
   3242574265.9918685     
   3183966629.6381540     
   3131489107.0423584     
   3611416750.1021934     
   3526298404.4297962     
   3445929607.3060927     
   3370647191.6659894     
   3300876468.9257865     
   2815239763.1286025     
   2775213341.2872453     
   2743718250.1390266     
   2720976826.4110198     
   2707228301.2794886     
   2884800349.1679173     
   2832644819.9467139     
   2788462152.2262669     
   2752556764.1007605     
   2725261032.8271666     
   2991429395.0372577     
   2926095299.7941427     
   2868097149.7489362     
   2817803988.8941560     
   2775627615.2348433     
   3131489107.0423584     
   3052495632.1839809     
   2980149900.3681593     
   2914859332.3818626     
   2857089427.8775511     
   3300876468.9257865     
   3208187514.2262564     
   3121445281.9804802     
   3041067837.1783729     
   2967544008.1331506     
   2707228301.2794886     
   2689693815.5188751     
   2678726672.1363301     
   2674423015.5695009     
   2676880398.3432689     
   2725261032.8271666     
   2699235278.9850245     
   2679771270.4069872     
   2667045827.1756144     
   2661236465.3439960     
   2775627615.2348433     
   2738783860.4791608     
   2708316955.7182083     
   2684499510.9631200     
   2667613800.1561904     
   2857089427.8775511     
   2807589528.0776615     
   2764081417.5703883     
   2726933008.2903066     
   2696541308.5726438     
   2967544008.1331506     
   2904081520.3339400     
   2846031260.7891102     
   2793839270.5927191     
   2748008706.6355500     
   2676880398.3432689     
   2640356154.8077931     
   2613385937.6606836     
   2596945317.7056975     
   2592488240.2589731     
   2661236465.3439960     
   2603569067.0961370     
   2555376312.4184666     
   2517372905.2580185     
   2490479735.2256317     
   2667613800.1561904     
   2592507464.0270815     
   2526980797.0768237     
   2471617531.7587276     
   2427061948.2652564     
   2696541308.5726438     
   2607529974.1792212     
   2528443111.3343387     
   2459885054.7206960     
   2402533325.7509365     
   2748008706.6355500     
   2648223742.5075488     
   2559009213.2215829     
   2481153526.0095458     
   2415702087.5316224     
   3625007170.4484320     
   3719688119.4411473     
   3825618793.2470384     
   3942736951.5666127     
   4070951045.9110370     
   4134141976.7234869     
   4224373959.9535642     
   4320524633.0697708     
   4420937636.1338177     
   4524158743.2275658     
   4643460025.7283306     
   4755526321.3576174     
   4868714805.6994228     
   4980389910.1898022     
   5088625789.6797361     
   5151440712.1209488     
   5311320184.8364859     
   5467830456.4445782     
   5618074450.6734476     
   5760585214.8852243     
   5657820394.7791567     
   5890917619.0066366     
   6116375793.2594080     
   6331733669.8835573     
   6536766563.7454138     
   4070951045.9110370     
   4112437208.0933108     
   4151279930.2618337     
   4186578315.3267679     
   4217598084.1462908     
   4524158743.2275658     
   4539001769.6494427     
   4558516834.5741262     
   4580222758.1085157     
   4602395687.6432028     
   5088625789.6797361     
   5053992501.4076777     
   5029871677.6194916     
   5011057044.9105225     
   4994347541.2822981     
   5760585214.8852243     
   5652082395.2983437     
   5559580391.7599478     
   5474019267.7797546     
   5389858859.5160561     
   6536766563.7454138     
   6328676158.2676477     
   6142773754.7865610     
   5965153963.1658459     
   5786809446.0270901     
   4217598084.1462908     
   4133119661.1860080     
   4055131775.9632306     
   3982787446.9465108     
   3915793979.9172597     
   4602395687.6432028     
   4493753435.8864059     
   4389333390.8889370     
   4288820577.1792893     
   4192126757.3144331     
   4994347541.2822981     
   4866888131.0317602     
   4742623133.0777950     
   4621521611.9763803     
   4503625267.9870224     
   5389858859.5160561     
   5248554538.6808596     
   5110477140.7909946     
   4975669011.0797539     
   4844224683.5674362     
   5786809446.0270901     
   5636079082.5337276     
   5489550602.7479296     
   5347138734.6077175     
   5208891381.4783230     
   3915793979.9172597     
   3833699681.6935563     
   3755460327.2599282     
   3681283881.1189108     
   3611416750.1021934     
   4192126757.3144331     
   4097374532.4132242     
   4005931836.7045627     
   3918011212.3604422     
   3833883823.0672355     
   4503625267.9870224     
   4394639526.6304398     
   4288227907.4084048     
   4184576143.1986394     
   4083954686.5200763     
   4844224683.5674362     
   4719607635.7396965     
   4596707701.1781797     
   4475650952.5839424     
   4356676289.4603586     
   5208891381.4783230     
   5067378082.7522297     
   4926662268.6496649     
   4786778856.3128910     
   4647902929.4153414     
   3611416750.1021934     
   3526298404.4297962     
   3445929607.3060927     
   3370647191.6659894     
   3300876468.9257865     
   3833883823.0672355     
   3733897359.5147696     
   3637818744.7844133     
   3545950559.1744509     
   3458672627.8874459     
   4083954686.5200763     
   3970322925.9213381     
   3859936235.4592991     
   3753049581.6823568     
   3649983905.6856694     
   4356676289.4603586     
   4230623639.4764314     
   4107335270.2659717     
   3987014973.6287966     
   3869922905.3401818     
   4647902929.4153414     
   4510572895.0550394     
   4375697188.3006544     
   4243430389.3777847     
   4113976732.9578366     
   3300876468.9257865     
   3208187514.2262564     
   3121445281.9804802     
   3041067837.1783729     
   2967544008.1331506     
   3458672627.8874459     
   3351755709.8165979     
   3249891251.7295632     
   3153499642.0100489     
   3063089022.8599839     
   3649983905.6856694     
   3528773502.4645367     
   3411678891.2970328     
   3299088438.9651313     
   3191488240.0158567     
   3869922905.3401818     
   3734620324.4902806     
   3602509812.2565279     
   3473922405.2414570     
   3349288956.3737483     
   4113976732.9578366     
   3964935346.4154639     
   3818214732.6745162     
   3674073807.2684145     
   3532866701.9354811     
   2967544008.1331506     
   2904081520.3339400     
   2846031260.7891102     
   2793839270.5927191     
   2748008706.6355500     
   3063089022.8599839     
   2985078295.9345856     
   2911568874.2026300     
   2842979984.0367379     
   2779794007.1288509     
   3191488240.0158567     
   3100093994.4737940     
   3012341069.7387576     
   2928591429.7700534     
   2849269970.2383270     
   3349288956.3737483     
   3245923749.8221040     
   3145450466.0258970     
   3048157357.1531701     
   2954389461.1894188     
   3532866701.9354811     
   3419019148.3367357     
   3307460960.0016384     
   3198404282.0111680     
   3092108623.9211693     
   2748008706.6355500     
   2648223742.5075488     
   2559009213.2215829     
   2481153526.0095458     
   2415702087.5316224     
   2779794007.1288509     
   2665788464.2300825     
   2560563510.2600312     
   2464955836.9420347     
   2379970751.7176394     
   2849269970.2383270     
   2717985576.0666566     
   2593073919.0695634     
   2475373339.0852485     
   2365910469.4984293     
   2954389461.1894188     
   2804647792.2341847     
   2658438594.4717259     
   2516511971.8394175     
   2379902811.3873606     
   3092108623.9211693     
   2924437052.8575430     
   2757349627.4119797     
   2591447690.0269036     
   2427767690.1334090     
   5657820394.7791567     
   5890917619.0066366     
   6116375793.2594080     
   6331733669.8835573     
   6536766563.7454138     
   6491678130.1677074     
   6586892963.6635599     
   6757440865.8577900     
   6961240176.4364710     
   7171630316.6068125     
   7982368106.1944847     
   7734986564.9415417     
   7669174894.3263264     
   7669630290.3459187     
   7666421780.2811728     
   10130336320.192654     
   9322039879.3894844     
   8826387876.0822697     
   8443556365.1894350     
   8035739892.0105591     
   12935668740.655832     
   11340766881.658924     
   10210246824.360374     
   9272782580.9308510     
   8303941655.4794617     
   6536766563.7454138     
   6328676158.2676477     
   6142773754.7865610     
   5965153963.1658459     
   5786809446.0270901     
   7171630316.6068125     
   6910995726.8049173     
   6658257409.7124786     
   6409557235.0002766     
   6161750486.1359911     
   7666421780.2811728     
   7381200812.8473625     
   7101364166.1769876     
   6826990032.5156288     
   6558281434.0816393     
   8035739892.0105591     
   7746938522.2224522     
   7473791360.7423410     
   7214342596.2045622     
   6968598292.6441116     
   8303941655.4794617     
   8020768694.6777468     
   7779674316.4336472     
   7569981760.9689150     
   7386719278.2585402     
   5786809446.0270901     
   5636079082.5337276     
   5489550602.7479296     
   5347138734.6077175     
   5208891381.4783230     
   6161750486.1359911     
   6012573687.5908337     
   5864751756.7306185     
   5718323677.7095833     
   5573346473.9147472     
   6558281434.0816393     
   6407528219.7459021     
   6255178930.3677301     
   6101202657.4758778     
   5945628608.8543673     
   6968598292.6441116     
   6814484088.8755026     
   6655800617.1572018     
   6492266805.6006184     
   6323830033.2948503     
   7386719278.2585402     
   7228444276.4346313     
   7062713672.5400600     
   6888836613.2262011     
   6706621925.7871914     
   5208891381.4783230     
   5067378082.7522297     
   4926662268.6496649     
   4786778856.3128910     
   4647902929.4153414     
   5573346473.9147472     
   5414487943.4763412     
   5256490332.7528706     
   5099392451.2203712     
   4943294690.5143518     
   5945628608.8543673     
   5772727714.0352631     
   5601180086.2522602     
   5431009387.1577234     
   5262273210.1496496     
   6323830033.2948503     
   6139678557.0346956     
   5957744542.5483694     
   5778006131.7526150     
   5600488022.8810024     
   6706621925.7871914     
   6513517392.5389423     
   6323829725.7184353     
   6137450502.8057032     
   5954361454.2833786     
   4647902929.4153414     
   4510572895.0550394     
   4375697188.3006544     
   4243430389.3777847     
   4113976732.9578366     
   4943294690.5143518     
   4796307982.4883928     
   4650731672.9094982     
   4506687936.8665562     
   4364340755.8132887     
   5262273210.1496496     
   5105880069.5305433     
   4949908617.3077497     
   4794436597.9040766     
   4639579264.2592306     
   5600488022.8810024     
   5435110665.4051991     
   5269239807.1505423     
   5102902648.8382368     
   4936163334.2284746     
   5954361454.2833786     
   5780541387.7452879     
   5605397658.0008516     
   5428905426.5968580     
   5251080147.9912310     
   4113976732.9578366     
   3964935346.4154639     
   3818214732.6745162     
   3674073807.2684145     
   3532866701.9354811     
   4364340755.8132887     
   4201203401.1537843     
   4039805303.4098911     
   3880313577.1760263     
   3722972056.6648335     
   4639579264.2592306     
   4463570033.5164728     
   4288886019.4329424     
   4115617666.2922564     
   3943916371.3470621     
   4936163334.2284746     
   4748271366.7029657     
   4561436673.9311304     
   4375690019.4706984     
   4191111718.6088004     
   5251080147.9912310     
   5052066167.2266932     
   4853960985.5612803     
   4656751104.3278608     
   4460465783.5924025     
   3532866701.9354811     
   3419019148.3367357     
   3307460960.0016384     
   3198404282.0111680     
   3092108623.9211693     
   3722972056.6648335     
   3598614494.3873415     
   3475794091.2897067     
   3354713380.2738080     
   3235634015.9830184     
   3943916371.3470621     
   3808393693.6846771     
   3673535503.3330622     
   3539509794.4650197     
   3406555961.5221534     
   4191111718.6088004     
   4043903530.0386620     
   3896423980.5091248     
   3748784626.8989840     
   3601179650.5578241     
   4460465783.5924025     
   4301148945.4646311     
   4140611054.6622300     
   3978889854.4130030     
   3816115362.4570665     
   3092108623.9211693     
   2924437052.8575430     
   2757349627.4119797     
   2591447690.0269036     
   2427767690.1334090     
   3235634015.9830184     
   3054846755.0962329     
   2875612289.9031396     
   2698125475.6397257     
   2522700314.6430635     
   3406555961.5221534     
   3215850274.6481471     
   3028133829.5378361     
   2843580238.4176393     
   2662525040.3019838     
   3601179650.5578241     
   3401661328.9913092     
   3206808963.7506204     
   3017069457.7740116     
   2833387016.0028400     
   3816115362.4570665     
   3607109957.5371060     
   3404581228.8447976     
   3209480914.2344608     
   3023818165.6609936     
 </DataArray>
 <DataArray  type="Float64" Name="strain" NumberOfComponents="3" format="ascii">
  0.20348236697212799        0.0000000000000000       0.12539905031488768     
  0.18665393425462692       -2.7321849825074289E-002   7.4349880655791761E-002
  0.16982550153712583       -4.4672688179936408E-002   3.5133585560762223E-002
  0.15299706881962477       -5.2052515064586399E-002   7.7501650297990762E-003
  0.13616863610212371       -4.9461330479024207E-002  -7.8003809370977145E-003
  0.15985371102652643        0.0000000000000000        9.6445869100109216E-002
  0.15317668346807947       -2.1842586670487212E-002   6.2689667105646163E-002
  0.14649965590963251       -3.6172332943195704E-002   3.7403400865224951E-002
  0.13982262835118556       -4.2989238818125497E-002   2.0587070378845607E-002
  0.13314560079273857       -4.2293304295276536E-002   1.2240675646508131E-002
  0.12645756621657459        0.0000000000000000        7.4201036576134541E-002
  0.12656900500715720       -1.6363323515900141E-002   5.5279631173870906E-002
  0.12668044379773985       -2.7671977706454996E-002   4.1465222715624625E-002
  0.12679188258832247       -3.3925962571664574E-002   3.2757811201395648E-002
  0.12690332137890509       -3.5125278111528865E-002   2.9157396631183982E-002
  0.10329393254227240        0.0000000000000000        5.8664552742963658E-002
  0.10683089887186011       -1.0884060361313067E-002   5.2119772860466027E-002
  0.11036786520144778       -1.9171622469714288E-002   4.7319051111961191E-002
  0.11390483153103546       -2.4862686325203661E-002   4.4262387497449124E-002
  0.11744179786062316       -2.7957251927781191E-002   4.2949782016929908E-002
   9.0362810003619926E-002   0.0000000000000000        4.9836417600596566E-002
   9.3962365062188150E-002  -5.4047972067259925E-003   5.3210092165431488E-002
   9.7561920120756374E-002  -1.0671267232973576E-002   5.4964886054234684E-002
  0.10116147517932460       -1.5799410078742748E-002   5.5100799267006145E-002
  0.10476103023789284       -2.0789225744033520E-002   5.3617831803745866E-002
  0.13616863610212371       -4.9461330479024207E-002  -7.8003809370977145E-003
  0.13296019320135655       -4.2930856345698626E-002  -3.3932899390692606E-003
  0.12975175030058944       -3.8492814587058284E-002  -3.9722457529718994E-004
  0.12654330739982228       -3.6147205203103341E-002   1.1878151542185286E-003
  0.12333486449905517       -3.5894028193833610E-002   1.3618292494779471E-003
  0.13314560079273857       -4.2293304295276536E-002   1.2240675646508131E-002
  0.12891357557397140       -3.8430363547232296E-002   1.2180335695307735E-002
  0.12468155035520417       -3.5746250746576107E-002   1.1483856742363473E-002
  0.12044952513643697       -3.4240965893308085E-002   1.0151238787675380E-002
  0.11621749991766978       -3.3914508987428094E-002   8.1824818312436626E-003
  0.12690332137890509       -3.5125278111528865E-002   2.9157396631183982E-002
  0.12242260047465035       -3.3929870748765967E-002   2.5543230158051926E-002
  0.11794187957039562       -3.2999686906093978E-002   2.2067811315688576E-002
  0.11346115866614086       -3.2334726583512864E-002   1.8731140104094053E-002
  0.10898043776188610       -3.1934989781022646E-002   1.5533216523268091E-002
  0.11744179786062316       -2.7957251927781191E-002   4.2949782016929908E-002
  0.11348726790339340       -2.9429377950299651E-002   3.6695393449163359E-002
  0.10953273794616365       -3.0253123065611787E-002   3.1354639144678141E-002
  0.10557820798893394       -3.0428487273717653E-002   2.6927519103474160E-002
  0.10162367803170416       -2.9955470574617220E-002   2.3414033325551468E-002
  0.10476103023789284       -2.0789225744033520E-002   5.3617831803745866E-002
  0.10210757786020060       -2.4928885151833325E-002   4.5636825568642084E-002
   9.9454125482508385E-002  -2.7506559225129616E-002   3.9344340229332121E-002
   9.6800673104816187E-002  -2.8522247963922432E-002   3.4740375785816027E-002
   9.4147220727123976E-002  -2.7975951368211752E-002   3.1824932238093670E-002
  0.12333486449905517       -3.5894028193833610E-002   1.3618292494779471E-003
  0.12041596697027968       -3.6385811993247016E-002   6.4709418318803502E-004
  0.11749706944150418       -3.6275085035341291E-002   1.1328745936674267E-004
  0.11457817191272868       -3.5561847320116531E-002  -2.3959092198593684E-004
  0.11165927438395318       -3.4246098847572848E-002  -4.1154096087020475E-004
  0.11621749991766978       -3.3914508987428094E-002   8.1824818312436626E-003
  0.11346707219071930       -3.3984907292239228E-002   7.8294047915743320E-003
  0.11071664446376883       -3.3670188071044396E-002   7.6323390130867766E-003
  0.10796621673681833       -3.2970351323843683E-002   7.5912844957804239E-003
  0.10521578900986789       -3.1885397050636977E-002   7.7062412396558255E-003
  0.10898043776188610       -3.1934989781022646E-002   1.5533216523268091E-002
  0.10637356275547358       -3.1584002591231529E-002   1.5324404278906537E-002
  0.10376668774906106       -3.1065291106747505E-002   1.5246686214439299E-002
  0.10115981274264850       -3.0378855327570762E-002   1.5300062329866445E-002
   9.8552937736235940E-002  -2.9524695253701078E-002   1.5484532625188077E-002
  0.10162367803170416       -2.9955470574617220E-002   2.3414033325551468E-002
   9.9135438664542497E-002  -2.9183097890223771E-002   2.3132092645184354E-002
   9.6647199297380831E-002  -2.8460394142450614E-002   2.2956329063424482E-002
   9.4158959930219166E-002  -2.7787359331297765E-002   2.2886742580271915E-002
   9.1670720563057528E-002  -2.7163993456765220E-002   2.2923333195726790E-002
   9.4147220727123976E-002  -2.7975951368211752E-002   3.1824932238093670E-002
   9.1752699917926075E-002  -2.6782193189216034E-002   3.1252469890407752E-002
   8.9358179108728203E-002  -2.5855497178153646E-002   3.0761267560042237E-002
   8.6963658299530344E-002  -2.5195863335024857E-002   3.0351325246996939E-002
   8.4569137490332458E-002  -2.4803291659829307E-002   3.0022642951271827E-002
  0.11165927438395318       -3.4246098847572848E-002  -4.1154096087020475E-004
  0.10854653189463714       -3.2737997584386086E-002  -1.9493907486695106E-004
  0.10543378940532111       -3.1447701497232292E-002   1.2185886059185025E-004
  0.10232104691600510       -3.0375210586111586E-002   5.3885284550576895E-004
   9.9208304426689042E-002  -2.9520524851023855E-002   1.0560428798755961E-003
  0.10521578900986789       -3.1885397050636977E-002   7.7062412396558255E-003
  0.10222357939080812       -3.0674212167680376E-002   7.5485833056435914E-003
   9.9231369771748318E-002  -2.9595683591230201E-002   7.5317950626885705E-003
   9.6239160152688533E-002  -2.8649811321286352E-002   7.6558765107906379E-003
   9.3246950533628803E-002  -2.7836595357848715E-002   7.9208276499498631E-003
   9.8552937736235940E-002  -2.9524695253701078E-002   1.5484532625188077E-002
   9.5721934629034139E-002  -2.8610426750974846E-002   1.5037763740687257E-002
   9.2890931521832268E-002  -2.7743665685228229E-002   1.4772538188845240E-002
   9.0059928414630452E-002  -2.6924412056461067E-002   1.4688855969662008E-002
   8.7228925307428595E-002  -2.6152665864673519E-002   1.4786717083137474E-002
   9.1670720563057528E-002  -2.7163993456765220E-002   2.2923333195726790E-002
   8.9041597609315237E-002  -2.6546641334269198E-002   2.2272602230264119E-002
   8.6412474655572988E-002  -2.5891647779226087E-002   2.1844088239061761E-002
   8.3783351701830766E-002  -2.5199012791635750E-002   2.1637791222119854E-002
   8.1154228748088461E-002  -2.4468736371498323E-002   2.1653711179438227E-002
   8.4569137490332458E-002  -2.4803291659829307E-002   3.0022642951271827E-002
   8.2182568331651468E-002  -2.4482855917563620E-002   2.9253098774373876E-002
   7.9795999172970464E-002  -2.4039629873224076E-002   2.8746445213337954E-002
   7.7409430014289460E-002  -2.3473613526810468E-002   2.8502682268164270E-002
   7.5022860855608470E-002  -2.2784806878323099E-002   2.8521809938852560E-002
   9.9208304426689042E-002  -2.9520524851023855E-002   1.0560428798755961E-003
   9.6283407548144517E-002  -2.8740450166546277E-002   9.1788223811373193E-004
   9.3358510669599937E-002  -2.7891792407255728E-002   9.2639817973050320E-004
   9.0433613791055412E-002  -2.6974551573151963E-002   1.0815907047256740E-003
   8.7508716912510831E-002  -2.5988727664235212E-002   1.3834598130989528E-003
   9.3246950533628803E-002  -2.7836595357848715E-002   7.9208276499498631E-003
   9.0470822302306103E-002  -2.7066499676339839E-002   7.7855871476227578E-003
   8.7694694070983348E-002  -2.6249988252182110E-002   7.8012073563609036E-003
   8.4918565839660676E-002  -2.5387061085375542E-002   7.9676882761647652E-003
   8.2142437608337893E-002  -2.4477718175920204E-002   8.2850299070338362E-003
   8.7228925307428595E-002  -2.6152665864673519E-002   1.4786717083137474E-002
   8.4605749851014864E-002  -2.5392549186133442E-002   1.4632229388080703E-002
   8.1982574394601077E-002  -2.4608184097108868E-002   1.4632786531776534E-002
   7.9359398938187303E-002  -2.3799570597599230E-002   1.4788388514224537E-002
   7.6736223481773502E-002  -2.2966708687605197E-002   1.5099035335425448E-002
   8.1154228748088461E-002  -2.4468736371498323E-002   2.1653711179438227E-002
   7.8688190194270716E-002  -2.3718598695926997E-002   2.1457808959487804E-002
   7.6222151640453012E-002  -2.2966379942035216E-002   2.1421135705976837E-002
   7.3756113086635253E-002  -2.2212080109823083E-002   2.1543691418905428E-002
   7.1290074532817521E-002  -2.1455699199290246E-002   2.1825476098273608E-002
   7.5022860855608470E-002  -2.2784806878323099E-002   2.8521809938852560E-002
   7.2718143332073854E-002  -2.2044648205720649E-002   2.8262325861844018E-002
   7.0413425808539196E-002  -2.1324575786961820E-002   2.8166254878962169E-002
   6.8108708285004538E-002  -2.0624589622046628E-002   2.8233596990206895E-002
   6.5803990761469866E-002  -1.9944689710975294E-002   2.8464352195578413E-002
   8.7508716912510831E-002  -2.5988727664235212E-002   1.3834598130989528E-003
   8.4184384162710235E-002  -2.4981005446548243E-002   1.1214571851025923E-003
   8.0860051412909750E-002  -2.3998069686133217E-002   1.0463576401162911E-003
   7.7535718663109182E-002  -2.3039920382991061E-002   1.1581611781405765E-003
   7.4211385913308670E-002  -2.2106557537120319E-002   1.4568677991747547E-003
   8.2142437608337893E-002  -2.4477718175920204E-002   8.2850299070338362E-003
   7.9007666805756077E-002  -2.3554969086265698E-002   7.9635564010931970E-003
   7.5872896003174262E-002  -2.2651823378861805E-002   7.8343037065799481E-003
   7.2738125200592404E-002  -2.1768281053708333E-002   7.8972718234934930E-003
   6.9603354398010575E-002  -2.0904342110805274E-002   8.1524607518348446E-003
   7.6736223481773502E-002  -2.2966708687605197E-002   1.5099035335425448E-002
   7.3796332354827465E-002  -2.2128932725983375E-002   1.4723274026562164E-002
   7.0856441227881414E-002  -2.1305577071589948E-002   1.4545051257543198E-002
   6.7916550100935336E-002  -2.0496641724425717E-002   1.4564367028368441E-002
   6.4976658973989299E-002  -1.9702126684489951E-002   1.4781221339038142E-002
   7.1290074532817521E-002  -2.1455699199290246E-002   2.1825476098273608E-002
   6.8550380809924316E-002  -2.0702896365700829E-002   2.1400610061509364E-002
   6.5810687087031194E-002  -1.9959330764318370E-002   2.1178600293006528E-002
   6.3070993364138017E-002  -1.9225002395143156E-002   2.1159446792765036E-002
   6.0331299641244861E-002  -1.8499911258174934E-002   2.1343149560785021E-002
   6.5803990761469866E-002  -1.9944689710975294E-002   2.8464352195578413E-002
   6.3269812171046713E-002  -1.9276860005418284E-002   2.7995564505934767E-002
   6.0735633580623560E-002  -1.8613084457046833E-002   2.7734950812969922E-002
   5.8201454990200394E-002  -1.7953363065860744E-002   2.7682511116683295E-002
   5.5667276399777255E-002  -1.7297695831859694E-002   2.7838245417075469E-002
   7.4211385913308670E-002  -2.2106557537120319E-002   1.4568677991747547E-003
   7.1597816695143091E-002  -2.1168833567654644E-002   1.4269902385860567E-003
   6.8984247476977567E-002  -2.0197600893725409E-002   1.6315625390527222E-003
   6.6370678258812071E-002  -1.9192859515333435E-002   2.0705847005744737E-003
   6.3757109040646465E-002  -1.8154609432477931E-002   2.7440567231515889E-003
   6.9603354398010575E-002  -2.0904342110805274E-002   8.1524607518348446E-003
   6.7206499268848252E-002  -2.0041141058945389E-002   8.1120016627844183E-003
   6.4809644139685985E-002  -1.9159812406921384E-002   8.2705208906855565E-003
   6.2412789010523689E-002  -1.8260356154733301E-002   8.6280184355370382E-003
   6.0015933881361394E-002  -1.7342772302380460E-002   9.1844942973401400E-003
   6.4976658973989299E-002  -1.9702126684489951E-002   1.4781221339038142E-002
   6.2761046389726100E-002  -1.8913448550236300E-002   1.4714799617227492E-002
   6.0545433805462831E-002  -1.8122023920117164E-002   1.4811884668263345E-002
   5.8329821221199625E-002  -1.7327852794132952E-002   1.5072476492146547E-002
   5.6114208636936308E-002  -1.6530935172283379E-002   1.5496575088876446E-002
   6.0331299641244861E-002  -1.8499911258174934E-002   2.1343149560785021E-002
   5.8261458057776543E-002  -1.7785756041527129E-002   2.1235384101914653E-002
   5.6191616474308176E-002  -1.7084235433313041E-002   2.1255653871787072E-002
   5.4121774890839844E-002  -1.6395349433532710E-002   2.1403958870402449E-002
   5.2051933307371505E-002  -1.5719098042186325E-002   2.1680299097760432E-002
   5.5667276399777255E-002  -1.7297695831859694E-002   2.7838245417075469E-002
   5.3707734272999630E-002  -1.6658063532817902E-002   2.7673755116846555E-002
   5.1748192146221977E-002  -1.6046446946508849E-002   2.7601828501256281E-002
   4.9788650019444422E-002  -1.5462846072932784E-002   2.7622465570304386E-002
   4.7829107892666756E-002  -1.4907260912089104E-002   2.7735666323991437E-002
   6.3757109040646465E-002  -1.8154609432477931E-002   2.7440567231515889E-003
   6.0175405578717367E-002  -1.6787384155706131E-002   1.8908698605619723E-003
   5.6593702116788325E-002  -1.4795717195563135E-002   1.2340975182363878E-003
   5.3011998654859310E-002  -1.2179608552050712E-002   7.7373969617605676E-004
   4.9430295192930185E-002  -8.9390582251676065E-003   5.0979639437942481E-004
   6.0015933881361394E-002  -1.7342772302380460E-002   9.1844942973401400E-003
   5.6630780925418400E-002  -1.6223653635918156E-002   8.6755851910453874E-003
   5.3245627969475517E-002  -1.4719592941400739E-002   8.3633625764578112E-003
   4.9860475013532635E-002  -1.2830590218828028E-002   8.2478264535787160E-003
   4.6475322057589752E-002  -1.0556645468200010E-002   8.3289768224070748E-003
   5.6114208636936308E-002  -1.6530935172283379E-002   1.5496575088876446E-002
   5.2925878158422979E-002  -1.5659923116131347E-002   1.5092444083561196E-002
   4.9737547679909747E-002  -1.4643468687238467E-002   1.4885271541396863E-002
   4.6549217201396410E-002  -1.3481571885605847E-002   1.4875057462383927E-002
   4.3360886722883074E-002  -1.2174232711232191E-002   1.5061801846521949E-002
   5.2051933307371505E-002  -1.5719098042186325E-002   2.1680299097760432E-002
   4.9060697277731158E-002  -1.5096192596343955E-002   2.1141446538109440E-002
   4.6069461248090818E-002  -1.4567344433076133E-002   2.0799824413053471E-002
   4.3078225218450471E-002  -1.4132553552383081E-002   2.0655432722592307E-002
   4.0086989188810013E-002  -1.3791819954264484E-002   2.0708271466725575E-002
   4.7829107892666756E-002  -1.4907260912089104E-002   2.7735666323991437E-002
   4.5035238283342827E-002  -1.4532462076556729E-002   2.6822592554690550E-002
   4.2241368674018925E-002  -1.4491220178913786E-002   2.6107021191427243E-002
   3.9447499064695038E-002  -1.4783535219160478E-002   2.5588952234202919E-002
   3.6653629455371095E-002  -1.5409407197296776E-002   2.5268385683016037E-002
   9.0362810003619926E-002   0.0000000000000000        4.9836417600596566E-002
   9.3962365062188150E-002  -5.4047972067259925E-003   5.3210092165431488E-002
   9.7561920120756374E-002  -1.0671267232973576E-002   5.4964886054234684E-002
  0.10116147517932460       -1.5799410078742748E-002   5.5100799267006145E-002
  0.10476103023789284       -2.0789225744033520E-002   5.3617831803745866E-002
   8.2425984825793830E-002   0.0000000000000000        4.4784321936276322E-002
   8.4635781683768618E-002  -4.5745245661564446E-003   4.8268072118310662E-002
   8.6845578541743393E-002  -9.0376372012752147E-003   5.0591186575189843E-002
   8.9055375399718195E-002  -1.3389337905356310E-002   5.1753665306913901E-002
   9.1265172257692984E-002  -1.7629626678399731E-002   5.1755508313482829E-002
   7.4245243233970817E-002   0.0000000000000000        4.0575956537246001E-002
   7.5523526842228753E-002  -3.7442519255868963E-003   4.4142867087039024E-002
   7.6801810450486702E-002  -7.4040071695768549E-003   4.7007386862553478E-002
   7.8080094058744637E-002  -1.0979265731969872E-002   4.9169515863789419E-002
   7.9358377667002586E-002  -1.4470027612765954E-002   5.0629254090746770E-002
   6.5820585228150888E-002   0.0000000000000000        3.7211321403505589E-002
   6.6625600537568580E-002  -2.9139792850173480E-003   4.0834477071616561E-002
   6.7430615846986258E-002  -5.7703771378784926E-003   4.4213486916325546E-002
   6.8235631156403936E-002  -8.5691935585834357E-003   4.7348350937632594E-002
   6.9040646465821628E-002  -1.1310428547132174E-002   5.0239069135537689E-002
   5.7152010808334028E-002   0.0000000000000000        3.4690416535055099E-002
   5.7942002769788045E-002  -2.0837066444478001E-003   3.8342902072043279E-002
   5.8731994731242076E-002  -4.1367471061801320E-003   4.2209486736506076E-002
   5.9521986692696094E-002  -6.1591213851969976E-003   4.6290170528443524E-002
   6.0311978654150111E-002  -8.1508294814983898E-003   5.0584953447855588E-002
  0.10476103023789284       -2.0789225744033520E-002   5.3617831803745866E-002
  0.10210757786020060       -2.4928885151833325E-002   4.5636825568642084E-002
   9.9454125482508385E-002  -2.7506559225129616E-002   3.9344340229332121E-002
   9.6800673104816187E-002  -2.8522247963922432E-002   3.4740375785816027E-002
   9.4147220727123976E-002  -2.7975951368211752E-002   3.1824932238093670E-002
   9.1265172257692984E-002  -1.7629626678399731E-002   5.1755508313482829E-002
   9.0062626672168550E-002  -2.1204059973827370E-002   4.6517093543611228E-002
   8.8860081086644116E-002  -2.3558194245061129E-002   4.2491971462281293E-002
   8.7657535501119696E-002  -2.4692029492100965E-002   3.9680142069493142E-002
   8.6454989915595248E-002  -2.4605565714946917E-002   3.8081605365246761E-002
   7.9358377667002586E-002  -1.4470027612765954E-002   5.0629254090746770E-002
   7.9131510666393901E-002  -1.7479234795821412E-002   4.7791744475797621E-002
   7.8904643665785201E-002  -1.9609829264992603E-002   4.5692299342138205E-002
   7.8677776665176502E-002  -2.0861811020279505E-002   4.4330918689768462E-002
   7.8450909664567817E-002  -2.1235180061682117E-002   4.3707602518688479E-002
   6.9040646465821628E-002  -1.1310428547132174E-002   5.0239069135537689E-002
   6.9314229842876607E-002  -1.3754409617815464E-002   4.9460778365201456E-002
   6.9587813219931613E-002  -1.5661464284924081E-002   4.8945323868902872E-002
   6.9861396596986605E-002  -1.7031592548458038E-002   4.8692705646641965E-002
   7.0134979974041597E-002  -1.7864794408417307E-002   4.8702923698418707E-002
   6.0311978654150111E-002  -8.1508294814983898E-003   5.0584953447855588E-002
   6.0610784201616738E-002  -1.0029584439809499E-002   5.1524195211822610E-002
   6.0909589749083379E-002  -1.1713099304855586E-002   5.2251045042575293E-002
   6.1208395296550033E-002  -1.3201374076636564E-002   5.2765502940113583E-002
   6.1507200844016667E-002  -1.4494408755152483E-002   5.3067568904437479E-002
   9.4147220727123976E-002  -2.7975951368211752E-002   3.1824932238093670E-002
   9.1752699917926075E-002  -2.6782193189216034E-002   3.1252469890407752E-002
   8.9358179108728203E-002  -2.5855497178153646E-002   3.0761267560042237E-002
   8.6963658299530344E-002  -2.5195863335024857E-002   3.0351325246996939E-002
   8.4569137490332458E-002  -2.4803291659829307E-002   3.0022642951271827E-002
   8.6454989915595248E-002  -2.4605565714946917E-002   3.8081605365246761E-002
   8.4188492148761451E-002  -2.3960966810008460E-002   3.7058511134826874E-002
   8.1921994381927710E-002  -2.3420396673694950E-002   3.6210202971814834E-002
   7.9655496615093940E-002  -2.2983855306006530E-002   3.5536680876210820E-002
   7.7388998848260171E-002  -2.2651342706943023E-002   3.5037944848014688E-002
   7.8450909664567817E-002  -2.1235180061682117E-002   4.3707602518688479E-002
   7.6405960990185831E-002  -2.1139740430800868E-002   4.2396909804842876E-002
   7.4361012315803832E-002  -2.0985296169236216E-002   4.1354529208492904E-002
   7.2316063641421860E-002  -2.0771847276988178E-002   4.0580460729638529E-002
   7.0271114967039833E-002  -2.0499393754056683E-002   4.0074704368279833E-002
   7.0134979974041597E-002  -1.7864794408417307E-002   4.8702923698418707E-002
   6.8405106442199118E-002  -1.8318514051593314E-002   4.7267665900455835E-002
   6.6675232910356638E-002  -1.8550195664777527E-002   4.6194246270076303E-002
   6.4945359378514159E-002  -1.8559839247969844E-002   4.5482664807280040E-002
   6.3215485846671665E-002  -1.8347444801170384E-002   4.5132921512067214E-002
   6.1507200844016667E-002  -1.4494408755152483E-002   5.3067568904437479E-002
   6.0185928504801353E-002  -1.5497287672385701E-002   5.1670779421665751E-002
   5.8864656165586074E-002  -1.6115095160318775E-002   5.0729354156565001E-002
   5.7543383826370760E-002  -1.6347831218951545E-002   5.0243293109135272E-002
   5.6222111487155474E-002  -1.6195495848284031E-002   5.0212596279376742E-002
   8.4569137490332458E-002  -2.4803291659829307E-002   3.0022642951271827E-002
   8.2182568331651468E-002  -2.4482855917563620E-002   2.9253098774373876E-002
   7.9795999172970464E-002  -2.4039629873224076E-002   2.8746445213337954E-002
   7.7409430014289460E-002  -2.3473613526810468E-002   2.8502682268164270E-002
   7.5022860855608470E-002  -2.2784806878323099E-002   2.8521809938852560E-002
   7.7388998848260171E-002  -2.2651342706943023E-002   3.5037944848014688E-002
   7.5254703143932122E-002  -2.2323601811261959E-002   3.4428676102426656E-002
   7.3120407439604088E-002  -2.1901375553720751E-002   3.4061063649682581E-002
   7.0986111735276095E-002  -2.1384663934319408E-002   3.3935107489782304E-002
   6.8851816030948004E-002  -2.0773466953057873E-002   3.4050807622725762E-002
   7.0271114967039833E-002  -2.0499393754056683E-002   4.0074704368279833E-002
   6.8367858394046591E-002  -2.0164347704960291E-002   3.9597406113788064E-002
   6.6464601821053307E-002  -1.9763121234217484E-002   3.9340529829121895E-002
   6.4561345248060009E-002  -1.9295714341828241E-002   3.9304075514281389E-002
   6.2658088675066725E-002  -1.8762127027792577E-002   3.9488043169266414E-002
   6.3215485846671665E-002  -1.8347444801170384E-002   4.5132921512067214E-002
   6.1522034081994845E-002  -1.8005093598658654E-002   4.4759288808457864E-002
   5.9828582317318073E-002  -1.7624866914714175E-002   4.4584843751655980E-002
   5.8135130552641273E-002  -1.7206764749337126E-002   4.4609586341661345E-002
   5.6441678787964467E-002  -1.6750787102527302E-002   4.4833516578474203E-002
   5.6222111487155474E-002  -1.6195495848284031E-002   5.0212596279376742E-002
   5.4717230207776940E-002  -1.5845839492356947E-002   4.9914324186436126E-002
   5.3212348928398406E-002  -1.5486612595210898E-002   4.9794005417284667E-002
   5.1707467649019880E-002  -1.5117815156845989E-002   4.9851639971922372E-002
   5.0202586369641339E-002  -1.4739447177262055E-002   5.0087227850349331E-002
   7.5022860855608470E-002  -2.2784806878323099E-002   2.8521809938852560E-002
   7.2718143332073854E-002  -2.2044648205720649E-002   2.8262325861844018E-002
   7.0413425808539196E-002  -2.1324575786961820E-002   2.8166254878962169E-002
   6.8108708285004538E-002  -2.0624589622046628E-002   2.8233596990206895E-002
   6.5803990761469866E-002  -1.9944689710975294E-002   2.8464352195578413E-002
   6.8851816030948004E-002  -2.0773466953057873E-002   3.4050807622725762E-002
   6.6716405463836420E-002  -2.0118301730216628E-002   3.3761217310520578E-002
   6.4580994896724808E-002  -1.9469685386076255E-002   3.3646827817034743E-002
   6.2445584329613196E-002  -1.8827617920636686E-002   3.3707639142268306E-002
   6.0310173762501612E-002  -1.8192099333897871E-002   3.3943651286221233E-002
   6.2658088675066725E-002  -1.8762127027792577E-002   3.9488043169266414E-002
   6.0703772788970912E-002  -1.8191955254712698E-002   3.9181883997007269E-002
   5.8749456902875113E-002  -1.7614794985190713E-002   3.9062713368060262E-002
   5.6795141016779307E-002  -1.7030646219226685E-002   3.9130531282425489E-002
   5.4840825130683502E-002  -1.6439508956820559E-002   3.9385337740102930E-002
   5.6441678787964467E-002  -1.6750787102527302E-002   4.4833516578474203E-002
   5.4680245307477261E-002  -1.6265608779208750E-002   4.4524325921304134E-002
   5.2918811826990035E-002  -1.5759904584305186E-002   4.4413911532038886E-002
   5.1157378346502823E-002  -1.5233674517816631E-002   4.4502273410678625E-002
   4.9395944866015576E-002  -1.4686918579743219E-002   4.4789411557223408E-002
   5.0202586369641339E-002  -1.4739447177262055E-002   5.0087227850349331E-002
   4.8645823019355494E-002  -1.4339262303704789E-002   4.9788543083411019E-002
   4.7089059669069636E-002  -1.3905014183419648E-002   4.9700422308970343E-002
   4.5532296318783770E-002  -1.3436702816406697E-002   4.9822865527027596E-002
   4.3975532968497905E-002  -1.2934328202665879E-002   5.0155872737582485E-002
   6.5803990761469866E-002  -1.9944689710975294E-002   2.8464352195578413E-002
   6.3269812171046713E-002  -1.9276860005418284E-002   2.7995564505934767E-002
   6.0735633580623560E-002  -1.8613084457046833E-002   2.7734950812969922E-002
   5.8201454990200394E-002  -1.7953363065860744E-002   2.7682511116683295E-002
   5.5667276399777255E-002  -1.7297695831859694E-002   2.7838245417075469E-002
   6.0310173762501612E-002  -1.8192099333897871E-002   3.3943651286221233E-002
   5.7982587609312172E-002  -1.7559958234352788E-002   3.3495620277847263E-002
   5.5655001456122788E-002  -1.6928023230494249E-002   3.3252600147262168E-002
   5.3327415302933404E-002  -1.6296294322322352E-002   3.3214590894466128E-002
   5.0999829149743964E-002  -1.5664771509836972E-002   3.3381592519458825E-002
   5.4840825130683502E-002  -1.6439508956820559E-002   3.9385337740102930E-002
   5.2716668295838320E-002  -1.5843056463287264E-002   3.8961911474497013E-002
   5.0592511460993118E-002  -1.5242962003941839E-002   3.8740332967790732E-002
   4.8468354626147916E-002  -1.4639225578784129E-002   3.8720602219983691E-002
   4.6344197791302721E-002  -1.4031847187814195E-002   3.8902719231076230E-002
   4.9395944866015576E-002  -1.4686918579743219E-002   4.4789411557223408E-002
   4.7472054230625053E-002  -1.4126154692221754E-002   4.4394438095884420E-002
   4.5548163595234496E-002  -1.3557900777389342E-002   4.4198149274555558E-002
   4.3624272959843981E-002  -1.2982156835245836E-002   4.4200545093236600E-002
   4.1700382324453417E-002  -1.2398922865791473E-002   4.4401625551927421E-002
   4.3975532968497905E-002  -1.2934328202665879E-002   5.0155872737582485E-002
   4.2248745413672434E-002  -1.2409252921156189E-002   4.9793200142009608E-002
   4.0521957858846977E-002  -1.1872839550836900E-002   4.9626049067556965E-002
   3.8795170304021513E-002  -1.1325088091707555E-002   4.9654419514224543E-002
   3.7068382749196049E-002  -1.0765998543768640E-002   4.9878311482012549E-002
   5.5667276399777255E-002  -1.7297695831859694E-002   2.7838245417075469E-002
   5.3707734272999630E-002  -1.6658063532817902E-002   2.7673755116846555E-002
   5.1748192146221977E-002  -1.6046446946508849E-002   2.7601828501256281E-002
   4.9788650019444422E-002  -1.5462846072932784E-002   2.7622465570304386E-002
   4.7829107892666756E-002  -1.4907260912089104E-002   2.7735666323991437E-002
   5.0999829149743964E-002  -1.5664771509836972E-002   3.3381592519458825E-002
   4.9145834005494091E-002  -1.5039526395491359E-002   3.3221718902047975E-002
   4.7291838861244176E-002  -1.4426630581738598E-002   3.3180375565054127E-002
   4.5437843716994268E-002  -1.3826084068579228E-002   3.3257562508476862E-002
   4.3583848572744333E-002  -1.3237886856012626E-002   3.3453279732316377E-002
   4.6344197791302721E-002  -1.4031847187814195E-002   3.8902719231076230E-002
   4.4621716225358668E-002  -1.3420989258164789E-002   3.8763128708623348E-002
   4.2899234659414635E-002  -1.2806814216968686E-002   3.8768035062365293E-002
   4.1176753093470547E-002  -1.2189322064225785E-002   3.8917438292302250E-002
   3.9454271527526494E-002  -1.1568512799936120E-002   3.9211338398434201E-002
   4.1700382324453417E-002  -1.2398922865791473E-002   4.4401625551927421E-002
   4.0135380932593348E-002  -1.1802452120838122E-002   4.4297984536572223E-002
   3.8570379540733335E-002  -1.1186997852198521E-002   4.4364806993190127E-002
   3.7005378148873301E-002  -1.0552560059872342E-002   4.4602092921780932E-002
   3.5440376757013267E-002  -9.8991387438596284E-003   4.5009842322344992E-002
   3.7068382749196049E-002  -1.0765998543768640E-002   4.9878311482012549E-002
   3.5686828127198172E-002  -1.0183914983511677E-002   4.9826286385894758E-002
   3.4305273505200323E-002  -9.5671814874285360E-003   4.9970691357528185E-002
   3.2923718883202460E-002  -8.9157980555188733E-003   5.0311526396912956E-002
   3.1542164261204569E-002  -8.2297646877831365E-003   5.0848791504048862E-002
   4.7829107892666756E-002  -1.4907260912089104E-002   2.7735666323991437E-002
   4.5035238283342827E-002  -1.4532462076556729E-002   2.6822592554690550E-002
   4.2241368674018925E-002  -1.4491220178913786E-002   2.6107021191427243E-002
   3.9447499064695038E-002  -1.4783535219160478E-002   2.5588952234202919E-002
   3.6653629455371095E-002  -1.5409407197296776E-002   2.5268385683016037E-002
   4.3583848572744333E-002  -1.3237886856012626E-002   3.3453279732316377E-002
   4.0988094988402751E-002  -1.2731506139958243E-002   3.2414081541503520E-002
   3.8392341404061142E-002  -1.2376409116336071E-002   3.1573612994617056E-002
   3.5796587819719575E-002  -1.2172595785145398E-002   3.0931874091657194E-002
   3.3200834235378007E-002  -1.2120066146386610E-002   3.0488864832623697E-002
   3.9454271527526494E-002  -1.1568512799936120E-002   3.9211338398434201E-002
   3.7057861206055601E-002  -1.0930550203360062E-002   3.8228289031567095E-002
   3.4661450884584728E-002  -1.0261598053758141E-002   3.7445196546514910E-002
   3.2265040563113800E-002  -9.5616563511301250E-003   3.6862060943277694E-002
   2.9868630241642907E-002  -8.8307250954762218E-003   3.6478882221855358E-002
   3.5440376757013267E-002  -9.8991387438596284E-003   4.5009842322344992E-002
   3.3244536936301389E-002  -9.1295942667616731E-003   4.4265215024881455E-002
   3.1048697115589580E-002  -8.1467869911802070E-003   4.3721771847121532E-002
   2.8852857294877784E-002  -6.9507169171148927E-003   4.3379512789064253E-002
   2.6657017474165892E-002  -5.5413840445659446E-003   4.3238437850710867E-002
   3.1542164261204569E-002  -8.2297646877831365E-003   5.0848791504048862E-002
   2.9548122179140157E-002  -7.3286383301632840E-003   5.0524859521446641E-002
   2.7554080097075814E-002  -6.0319759286024122E-003   5.0403338896436167E-002
   2.5560038015011409E-002  -4.3397774830997229E-003   5.0484229629017552E-002
   2.3565995932947004E-002  -2.2520429936556674E-003   5.0767531719190240E-002
   5.7152010808334028E-002   0.0000000000000000        3.4690416535055099E-002
   5.7942002769788045E-002  -2.0837066444478001E-003   3.8342902072043279E-002
   5.8731994731242076E-002  -4.1367471061801320E-003   4.2209486736506076E-002
   5.9521986692696094E-002  -6.1591213851969976E-003   4.6290170528443524E-002
   6.0311978654150111E-002  -8.1508294814983898E-003   5.0584953447855588E-002
   4.8651702858029458E-002   0.0000000000000000        3.2789825048121314E-002
   4.9590459907071283E-002  -1.7091711561310063E-003   3.6965731071532913E-002
   5.0529216956113128E-002  -3.4323981483999552E-003   4.1225068142645531E-002
   5.1467974005154966E-002  -5.1696809768068380E-003   4.5567836261459153E-002
   5.2406731054196805E-002  -6.9210196413516650E-003   4.9994035427973760E-002
   4.0731844260746337E-002   0.0000000000000000        3.1286130058931022E-002
   4.1688698317602378E-002  -1.3346356678142152E-003   3.5940734549912631E-002
   4.2645552374458426E-002  -2.7280491906197758E-003   4.0548102008821640E-002
   4.3602406431314474E-002  -4.1802405684166809E-003   4.5108232435658049E-002
   4.4559260488170500E-002  -5.6912098012049288E-003   4.9621125830421824E-002
   3.3392435016484694E-002   0.0000000000000000        3.0179331567484230E-002
   3.4236718001381318E-002  -9.6010017949742449E-004   3.5267912507182447E-002
   3.5081000986277942E-002  -2.0237002328395977E-003   4.0178588335034453E-002
   3.5925283971174574E-002  -3.1908001600265286E-003   4.4911359051040205E-002
   3.6769566956071198E-002  -4.4613999610581961E-003   4.9466224655199793E-002
   2.6633475125244506E-002   0.0000000000000000        2.9469429573780924E-002
   2.7234518958408102E-002  -5.8556469118063118E-004   3.4947264943342354E-002
   2.7835562791571695E-002  -1.3193512750594195E-003   4.0116527121283933E-002
   2.8436606624735287E-002  -2.2013597516363659E-003   4.4977216107605668E-002
   2.9037650457898884E-002  -3.2315901209114669E-003   4.9529331902307579E-002
   6.0311978654150111E-002  -8.1508294814983898E-003   5.0584953447855588E-002
   6.0610784201616738E-002  -1.0029584439809499E-002   5.1524195211822610E-002
   6.0909589749083379E-002  -1.1713099304855586E-002   5.2251045042575293E-002
   6.1208395296550033E-002  -1.3201374076636564E-002   5.2765502940113583E-002
   6.1507200844016667E-002  -1.4494408755152483E-002   5.3067568904437479E-002
   5.2406731054196805E-002  -6.9210196413516650E-003   4.9994035427973760E-002
   5.2532145914372198E-002  -8.5847761242107412E-003   5.1222285618178189E-002
   5.2657560774547592E-002  -1.0059312407560432E-002   5.2316146367014503E-002
   5.2782975634722992E-002  -1.1344628491400671E-002   5.3275617674482682E-002
   5.2908390494898386E-002  -1.2440724375731523E-002   5.4100699540582789E-002
   4.4559260488170500E-002  -5.6912098012049288E-003   4.9621125830421824E-002
   4.4589287152900933E-002  -7.1399678086119713E-003   5.1132364553107962E-002
   4.4619313817631338E-002  -8.4055255102652559E-003   5.2587216326272265E-002
   4.4649340482361778E-002  -9.4878829061647938E-003   5.3985681149914720E-002
   4.4679367147092190E-002  -1.0387039996310576E-002   5.5327759024035354E-002
   3.6769566956071198E-002  -4.4613999610581961E-003   4.9466224655199793E-002
   3.6782207917202908E-002  -5.6951594930132040E-003   5.1254432016611978E-002
   3.6794848878334618E-002  -6.7517386129700993E-003   5.3064254920348601E-002
   3.6807489839466342E-002  -7.6311373209289124E-003   5.4895693366409662E-002
   3.6820130800598053E-002  -8.3333556168896233E-003   5.6748747354795119E-002
   2.9037650457898884E-002  -3.2315901209114669E-003   4.9529331902307579E-002
   2.9110908207278165E-002  -4.2503511774144402E-003   5.1588488008690168E-002
   2.9184165956657439E-002  -5.0979517156749411E-003   5.3747262149243483E-002
   2.9257423706036727E-002  -5.7743917356930310E-003   5.6005654323967431E-002
   2.9330681455416001E-002  -6.2796712374686703E-003   5.8363664532862125E-002
   6.1507200844016667E-002  -1.4494408755152483E-002   5.3067568904437479E-002
   6.0185928504801353E-002  -1.5497287672385701E-002   5.1670779421665751E-002
   5.8864656165586074E-002  -1.6115095160318775E-002   5.0729354156565001E-002
   5.7543383826370760E-002  -1.6347831218951545E-002   5.0243293109135272E-002
   5.6222111487155474E-002  -1.6195495848284031E-002   5.0212596279376742E-002
   5.2908390494898386E-002  -1.2440724375731523E-002   5.4100699540582789E-002
   5.1989566790269975E-002  -1.3290032572767604E-002   5.3365494778229161E-002
   5.1070743085641572E-002  -1.3834985594723579E-002   5.2979823067378251E-002
   5.0151919381013155E-002  -1.4075583441599421E-002   5.2943684408030066E-002
   4.9233095676384758E-002  -1.4011826113395132E-002   5.3257078800184585E-002
   4.4679367147092190E-002  -1.0387039996310576E-002   5.5327759024035354E-002
   4.4057160910882368E-002  -1.1082777473149466E-002   5.5173422727879666E-002
   4.3434954674672552E-002  -1.1554876029128410E-002   5.5262788317058414E-002
   4.2812748438462722E-002  -1.1803335664247315E-002   5.5595855791571683E-002
   4.2190542202252899E-002  -1.1828156378506247E-002   5.6172625151419332E-002
   3.6820130800598053E-002  -8.3333556168896233E-003   5.6748747354795119E-002
   3.6388710866638536E-002  -8.8755223735313346E-003   5.7094563270617342E-002
   3.5957290932679020E-002  -9.2747664635332416E-003   5.7578249905605623E-002
   3.5525870998719504E-002  -9.5310878868952106E-003   5.8199807259760115E-002
   3.5094451064759988E-002  -9.6444866436173546E-003   5.8959235333080812E-002
   2.9330681455416001E-002  -6.2796712374686703E-003   5.8363664532862125E-002
   2.8984216657538486E-002  -6.6682672739132240E-003   5.9128916406442078E-002
   2.8637751859660956E-002  -6.9946568979380418E-003   5.9926207833019822E-002
   2.8291287061783441E-002  -7.2588401095431123E-003   6.0755538812595433E-002
   2.7944822263905912E-002  -7.4608169087284487E-003   6.1616909345168933E-002
   5.6222111487155474E-002  -1.6195495848284031E-002   5.0212596279376742E-002
   5.4717230207776940E-002  -1.5845839492356947E-002   4.9914324186436126E-002
   5.3212348928398406E-002  -1.5486612595210898E-002   4.9794005417284667E-002
   5.1707467649019880E-002  -1.5117815156845989E-002   4.9851639971922372E-002
   5.0202586369641339E-002  -1.4739447177262055E-002   5.0087227850349331E-002
   4.9233095676384758E-002  -1.4011826113395132E-002   5.3257078800184585E-002
   4.7911788032286670E-002  -1.3781444509789111E-002   5.2930121313845536E-002
   4.6590480388188631E-002  -1.3522169530459600E-002   5.2792357774278105E-002
   4.5269172744090549E-002  -1.3234001175406624E-002   5.2843788181482457E-002
   4.3947865099992475E-002  -1.2916939444630293E-002   5.3084412535458689E-002
   4.2190542202252899E-002  -1.1828156378506247E-002   5.6172625151419332E-002
   4.1064048816417946E-002  -1.1717049527221239E-002   5.5836305106186028E-002
   3.9937555430582999E-002  -1.1557726465708216E-002   5.5700419630707265E-002
   3.8811062044748046E-002  -1.1350187193967340E-002   5.5764968724982850E-002
   3.7684568658913072E-002  -1.1094431711998476E-002   5.6029952389012844E-002
   3.5094451064759988E-002  -9.6444866436173546E-003   5.8959235333080812E-002
   3.4174012560170761E-002  -9.6526545446533295E-003   5.8632875563457899E-002
   3.3253574055581547E-002  -9.5932834009568608E-003   5.8518190986572072E-002
   3.2333135550992334E-002  -9.4663732125280300E-003   5.8615181602423308E-002
   3.1412697046403107E-002  -9.2719239793667280E-003   5.8923847411011601E-002
   2.7944822263905912E-002  -7.4608169087284487E-003   6.1616909345168933E-002
   2.7241679263545079E-002  -7.5882595620854754E-003   6.1319832685660935E-002
   2.6538536263184257E-002  -7.6288403362055161E-003   6.1245671841872650E-002
   2.5835393262823421E-002  -7.5825592310887020E-003   6.1394426813804082E-002
   2.5132250262462602E-002  -7.4494162467348968E-003   6.1766097601455183E-002
   5.0202586369641339E-002  -1.4739447177262055E-002   5.0087227850349331E-002
   4.8645823019355494E-002  -1.4339262303704789E-002   4.9788543083411019E-002
   4.7089059669069636E-002  -1.3905014183419648E-002   4.9700422308970343E-002
   4.5532296318783770E-002  -1.3436702816406697E-002   4.9822865527027596E-002
   4.3975532968497905E-002  -1.2934328202665879E-002   5.0155872737582485E-002
   4.3947865099992475E-002  -1.2916939444630293E-002   5.3084412535458689E-002
   4.2598146693567790E-002  -1.2570901811479601E-002   5.2805194386329690E-002
   4.1248428287143070E-002  -1.2195805749303984E-002   5.2729502132425311E-002
   3.9898709880718350E-002  -1.1791651258103185E-002   5.2857335773745351E-002
   3.8548991474293665E-002  -1.1358438337877363E-002   5.3188695310290107E-002
   3.7684568658913072E-002  -1.1094431711998476E-002   5.6029952389012844E-002
   3.6534857099076341E-002  -1.0802541319254504E-002   5.5765196039990333E-002
   3.5385145539239563E-002  -1.0486597315188216E-002   5.5696927488919197E-002
   3.4235433979402818E-002  -1.0146599699799618E-002   5.5825146735799483E-002
   3.3085722419566053E-002  -9.7825484730887646E-003   5.6149853780631143E-002
   3.1412697046403107E-002  -9.2719239793667280E-003   5.8923847411011601E-002
   3.0455954235881114E-002  -9.0341808270293748E-003   5.8668548044392969E-002
   2.9499211425359148E-002  -8.7773888810725280E-003   5.8602698378452396E-002
   2.8542468614837148E-002  -8.5015481414961354E-003   5.8726298413190048E-002
   2.7585725804315182E-002  -8.2066586083002352E-003   5.9039348148606022E-002
   2.5132250262462602E-002  -7.4494162467348968E-003   6.1766097601455183E-002
   2.4361438103982183E-002  -7.2658203348042738E-003   6.1515250399537591E-002
   2.3590625945501764E-002  -7.0681804469568260E-003   6.1446814801024846E-002
   2.2819813787021352E-002  -6.8564965831925638E-003   6.1560790805917087E-002
   2.2049001628540940E-002  -6.6307687435116502E-003   6.1857178414214287E-002
   4.3975532968497905E-002  -1.2934328202665879E-002   5.0155872737582485E-002
   4.2248745413672434E-002  -1.2409252921156189E-002   4.9793200142009608E-002
   4.0521957858846977E-002  -1.1872839550836900E-002   4.9626049067556965E-002
   3.8795170304021513E-002  -1.1325088091707555E-002   4.9654419514224543E-002
   3.7068382749196049E-002  -1.0765998543768640E-002   4.9878311482012549E-002
   3.8548991474293665E-002  -1.1358438337877363E-002   5.3188695310290107E-002
   3.7021829606888490E-002  -1.0907275657754789E-002   5.2802488910282719E-002
   3.5494667739483315E-002  -1.0449271886864189E-002   5.2620012363995661E-002
   3.3967505872078113E-002  -9.9844270252052204E-003   5.2641265671428891E-002
   3.2440344004672966E-002  -9.5127410727781636E-003   5.2866248832582508E-002
   3.3085722419566053E-002  -9.7825484730887646E-003   5.6149853780631143E-002
   3.1766394572181125E-002  -9.4052983943534174E-003   5.5735616578147865E-002
   3.0447066724796214E-002  -9.0257042228914786E-003   5.5533317561984902E-002
   2.9127738877411324E-002  -8.6437659587028301E-003   5.5542956732142254E-002
   2.7808411030026375E-002  -8.2594836017876039E-003   5.5764534088619686E-002
   2.7585725804315182E-002  -8.2066586083002352E-003   5.9039348148606022E-002
   2.6482440309550465E-002  -7.9033211309520873E-003   5.8592583145605198E-002
   2.5379154814785764E-002  -7.6021365589187401E-003   5.8365964661524640E-002
   2.4275869320021057E-002  -7.3031048922004398E-003   5.8359492696364354E-002
   2.3172583825256346E-002  -7.0062261307970858E-003   5.8573167250124153E-002
   2.2049001628540940E-002  -6.6307687435116502E-003   6.1857178414214287E-002
   2.1169966818996425E-002  -6.4013438675506185E-003   6.1373388612654595E-002
   2.0290932009451888E-002  -6.1785688949460293E-003   6.1117953662614910E-002
   1.9411897199907362E-002  -5.9624438256980147E-003   6.1090873564095510E-002
   1.8532862390362850E-002  -5.7529686598065122E-003   6.1292148317096118E-002
   3.7068382749196049E-002  -1.0765998543768640E-002   4.9878311482012549E-002
   3.5686828127198172E-002  -1.0183914983511677E-002   4.9826286385894758E-002
   3.4305273505200323E-002  -9.5671814874285360E-003   4.9970691357528185E-002
   3.2923718883202460E-002  -8.9157980555188733E-003   5.0311526396912956E-002
   3.1542164261204569E-002  -8.2297646877831365E-003   5.0848791504048862E-002
   3.2440344004672966E-002  -9.5127410727781636E-003   5.2866248832582508E-002
   3.1248056915716194E-002  -9.0180894878353068E-003   5.2840037026675807E-002
   3.0055769826759435E-002  -8.4843477286293129E-003   5.2995930219099985E-002
   2.8863482737802683E-002  -7.9115157951600394E-003   5.3333928409855388E-002
   2.7671195648845903E-002  -7.2995936874273859E-003   5.3854031598941754E-002
   2.7808411030026375E-002  -8.2594836017876039E-003   5.5764534088619686E-002
   2.6791066404690471E-002  -7.8522639921588810E-003   5.5768575811361090E-002
   2.5773721779354580E-002  -7.4015139698300828E-003   5.5940397463013332E-002
   2.4756377154018676E-002  -6.9072335348009817E-003   5.6279999043576112E-002
   2.3739032528682778E-002  -6.3694226870717463E-003   5.6787380553049910E-002
   2.3172583825256346E-002  -7.0062261307970858E-003   5.8573167250124153E-002
   2.2315856594121060E-002  -6.6864384964825385E-003   5.8611902739950691E-002
   2.1459129362985729E-002  -6.3186802110308561E-003   5.8804093089267720E-002
   2.0602402131850439E-002  -5.9029512744419805E-003   5.9149738298075412E-002
   1.9745674900715111E-002  -5.4392516867159957E-003   5.9648838366373101E-002
   1.8532862390362850E-002  -5.7529686598065122E-003   6.1292148317096118E-002
   1.7822427484007877E-002  -5.5206130008061127E-003   6.1370017812444777E-002
   1.7111992577652897E-002  -5.2358464522316295E-003   6.1587017097863489E-002
   1.6401557671297935E-002  -4.8986690140832290E-003   6.1943146173352642E-002
   1.5691122764942972E-002  -4.5090806863604116E-003   6.2438405038911793E-002
   3.1542164261204569E-002  -8.2297646877831365E-003   5.0848791504048862E-002
   2.9548122179140157E-002  -7.3286383301632840E-003   5.0524859521446641E-002
   2.7554080097075814E-002  -6.0319759286024122E-003   5.0403338896436167E-002
   2.5560038015011409E-002  -4.3397774830997229E-003   5.0484229629017552E-002
   2.3565995932947004E-002  -2.2520429936556674E-003   5.0767531719190240E-002
   2.7671195648845903E-002  -7.2995936874273859E-003   5.3854031598941754E-002
   2.5888878337740243E-002  -6.5823732804181356E-003   5.3761739756018084E-002
   2.4106561026634540E-002  -5.6936464491186001E-003   5.3890486097420004E-002
   2.2324243715528810E-002  -4.6334131935286613E-003   5.4240270623148359E-002
   2.0541926404423150E-002  -3.4016735136485066E-003   5.4811093333201888E-002
   2.3739032528682778E-002  -6.3694226870717463E-003   5.6787380553049910E-002
   2.2187066815269968E-002  -5.8361082306728762E-003   5.6702699230153447E-002
   2.0635101101857217E-002  -5.3553169696348296E-003   5.6857682918317026E-002
   1.9083135388444368E-002  -4.9270489039575406E-003   5.7252331617540654E-002
   1.7531169675031585E-002  -4.5513040336413457E-003   5.7886645327824116E-002
   1.9745674900715111E-002  -5.4392516867159957E-003   5.9648838366373101E-002
   1.8442687611729347E-002  -5.0898431809275613E-003   5.9347737943852820E-002
   1.7139700322743572E-002  -5.0169874901510939E-003   5.9304929359126693E-002
   1.5836713033757808E-002  -5.2206846143866160E-003   5.9520412612194720E-002
   1.4533725744772030E-002  -5.7009345536341849E-003   5.9994187703057159E-002
   1.5691122764942972E-002  -4.5090806863604116E-003   6.2438405038911793E-002
   1.4655740727118408E-002  -4.3435781311821908E-003   6.1696855897116487E-002
   1.3620358689293857E-002  -4.6786580106672887E-003   6.1232225419849434E-002
   1.2584976651469328E-002  -5.5143203248154242E-003   6.1044513607111009E-002
   1.1549594613644742E-002  -6.8505650736270240E-003   6.1133720458900420E-002
   2.6633475125244506E-002   0.0000000000000000        2.9469429573780924E-002
   2.7234518958408102E-002  -5.8556469118063118E-004   3.4947264943342354E-002
   2.7835562791571695E-002  -1.3193512750594195E-003   4.0116527121283933E-002
   2.8436606624735287E-002  -2.2013597516363659E-003   4.4977216107605668E-002
   2.9037650457898884E-002  -3.2315901209114669E-003   4.9529331902307579E-002
   2.0117376595287267E-002   0.0000000000000000        2.9021860359940529E-002
   2.0449398063270847E-002  -4.3922064598887148E-004   3.4314873015997498E-002
   2.0781419531254425E-002  -9.8951321825700451E-004   3.9378414133314277E-002
   2.1113440999238009E-002  -1.6508777168043999E-003   4.4212483711890870E-002
   2.1445462467221590E-002  -2.4233141416310543E-003   4.8817081751727276E-002
   1.3506551434874454E-002   0.0000000000000000        2.8702060208082442E-002
   1.3648652190557676E-002  -2.9287660079711222E-004   3.3847400117053845E-002
   1.3790752946240895E-002  -6.5967516145458947E-004   3.8842370140164721E-002
   1.3932853701924113E-002  -1.1003956819724383E-003   4.3686970277415062E-002
   1.4074954457607335E-002  -1.6150381623506456E-003   4.8381200528804874E-002
   6.8009996440060701E-003   0.0000000000000000        2.8510029118206669E-002
   6.8322813402685806E-003  -1.4653255560535187E-004   3.3544846246511412E-002
   6.8635630365310929E-003  -3.2983710465217617E-004   3.8508395141835280E-002
   6.8948447327936051E-003  -5.4991364714047095E-004   4.3400675804178251E-002
   6.9261264290561156E-003  -8.0676218307023663E-004   4.8221688233540352E-002
   7.2122268211273488E-007   0.0000000000000000        2.8445767090313209E-002
   2.8551240356840257E-007  -1.8851041359239235E-007   3.3407211404370182E-002
  -1.5019787497592973E-007   9.5215024059625009E-010   3.8376489138325927E-002
  -5.8590815351982836E-007   5.6838769149115953E-007   4.3353600292180446E-002
  -1.0216184320637270E-006   1.5137962101775121E-006   4.8338544865933732E-002
   2.9037650457898884E-002  -3.2315901209114669E-003   4.9529331902307579E-002
   2.9110908207278165E-002  -4.2503511774144402E-003   5.1588488008690168E-002
   2.9184165956657439E-002  -5.0979517156749411E-003   5.3747262149243483E-002
   2.9257423706036727E-002  -5.7743917356930310E-003   5.6005654323967431E-002
   2.9330681455416001E-002  -6.2796712374686703E-003   5.8363664532862125E-002
   2.1445462467221590E-002  -2.4233141416310543E-003   4.8817081751727276E-002
   2.1588879561165703E-002  -3.1872012793233819E-003   5.1218124658962215E-002
   2.1732296655109819E-002  -3.8229179164677935E-003   5.3659868221156121E-002
   2.1875713749053928E-002  -4.3304640530643038E-003   5.6142312438309014E-002
   2.2019130842998041E-002  -4.7098396891128713E-003   5.8665457310420881E-002
   1.4074954457607335E-002  -1.6150381623506456E-003   4.8381200528804874E-002
   1.4229613516904551E-002  -2.1240513812323444E-003   5.1081140219197643E-002
   1.4384272576201770E-002  -2.5478841172606468E-003   5.3762863185337656E-002
   1.4538931635498988E-002  -2.8865363704355697E-003   5.6426369427224912E-002
   1.4693590694796210E-002  -3.1400081407570862E-003   5.9071658944859384E-002
   6.9261264290561156E-003  -8.0676218307023663E-004   4.8221688233540352E-002
   7.0331100744947103E-003  -1.0609014831412999E-003   5.1177534689396426E-002
   7.1400937199333023E-003  -1.2728503180534996E-003   5.4056247041788005E-002
   7.2470773653718953E-003  -1.4426086878068459E-003   5.6857825290715099E-002
   7.3540610108104891E-003  -1.5701765924012803E-003   5.9582269436177698E-002
  -1.0216184320637270E-006   1.5137962101775121E-006   4.8338544865933732E-002
  -6.3076606382625119E-007   2.2484149497506087E-006   5.1507308069558583E-002
  -2.3991369558790804E-007   2.1834811536531641E-006   5.4540019790507217E-002
   1.5093867265216984E-007   1.3189948218930931E-006   5.7436680028779642E-002
   5.4179104088877827E-007  -3.4504404550217416E-007   6.0197288784375816E-002
   2.9330681455416001E-002  -6.2796712374686703E-003   5.8363664532862125E-002
   2.8984216657538486E-002  -6.6682672739132240E-003   5.9128916406442078E-002
   2.8637751859660956E-002  -6.9946568979380418E-003   5.9926207833019822E-002
   2.8291287061783441E-002  -7.2588401095431123E-003   6.0755538812595433E-002
   2.7944822263905912E-002  -7.4608169087284487E-003   6.1616909345168933E-002
   2.2019130842998041E-002  -4.7098396891128713E-003   5.8665457310420881E-002
   2.1718151417681991E-002  -5.0013660759226364E-003   5.9485032672955254E-002
   2.1417171992365938E-002  -5.2453644648027091E-003   6.0363539227614713E-002
   2.1116192567049885E-002  -5.4418348557530227E-003   6.1300976974399297E-002
   2.0815213141733825E-002  -5.5907772487736596E-003   6.2297345913308877E-002
   1.4693590694796210E-002  -3.1400081407570862E-003   5.9071658944859384E-002
   1.4464988281168857E-002  -3.3344648779320661E-003   5.9930879381858190E-002
   1.4236385867541510E-002  -3.4960720316673504E-003   6.0875922650109368E-002
   1.4007783453914159E-002  -3.6248296019629612E-003   6.1906788749612807E-002
   1.3779181040286815E-002  -3.7207375888188773E-003   6.3023477680368603E-002
   7.3540610108104891E-003  -1.5701765924012803E-003   5.9582269436177698E-002
   7.2247272479990746E-003  -1.6675636799415011E-003   6.0466456533150921E-002
   7.0953934851876663E-003  -1.7467795985320186E-003   6.1463358100503712E-002
   6.9660597223762579E-003  -1.8078243481729134E-003   6.2572974138236107E-002
   6.8367259595648478E-003  -1.8506979288640778E-003   6.3795304646347958E-002
   5.4179104088877827E-007  -3.4504404550217416E-007   6.0197288784375816E-002
  -2.6316818273475207E-006  -6.6248195090129469E-007   6.1091764126833439E-002
  -5.8051546955838196E-006   2.5128346033131965E-006   6.2125845578797856E-002
  -8.9786275638188175E-006   9.1809056171968106E-006   6.3299533140269079E-002
  -1.2152100432056417E-005   1.9341731090694037E-005   6.4612826811247054E-002
   2.7944822263905912E-002  -7.4608169087284487E-003   6.1616909345168933E-002
   2.7241679263545079E-002  -7.5882595620854754E-003   6.1319832685660935E-002
   2.6538536263184257E-002  -7.6288403362055161E-003   6.1245671841872650E-002
   2.5835393262823421E-002  -7.5825592310887020E-003   6.1394426813804082E-002
   2.5132250262462602E-002  -7.4494162467348968E-003   6.1766097601455183E-002
   2.0815213141733825E-002  -5.5907772487736596E-003   6.2297345913308877E-002
   2.0322974429252318E-002  -5.6841379669331851E-003   6.2157083362200279E-002
   1.9830735716770801E-002  -5.7138633333001787E-003   6.2215713571130607E-002
   1.9338497004289287E-002  -5.6799533478747513E-003   6.2473236540099820E-002
   1.8846258291807777E-002  -5.5824080106567642E-003   6.2929652269108016E-002
   1.3779181040286815E-002  -3.7207375888188773E-003   6.3023477680368603E-002
   1.3473823560003820E-002  -3.7800163717808810E-003   6.3016802710214953E-002
   1.3168466079720827E-002  -3.7988863303948430E-003   6.3184997444419383E-002
   1.2863108599437836E-002  -3.7773474646607733E-003   6.3528061882981976E-002
   1.2557751119154845E-002  -3.7153997745786038E-003   6.4045996025902677E-002
   6.8367259595648478E-003  -1.8506979288640778E-003   6.3795304646347958E-002
   6.6942266557995928E-003  -1.8758947766286393E-003   6.3898990729704813E-002
   6.5517273520343455E-003  -1.8839093274895620E-003   6.4153523461739068E-002
   6.4092280482690939E-003  -1.8747415814468506E-003   6.4558902842450583E-002
   6.2667287445038432E-003  -1.8483915385004573E-003   6.5115128871839442E-002
  -1.2152100432056417E-005   1.9341731090694037E-005   6.4612826811247054E-002
  -1.5816283360357841E-005   2.8226818523685582E-005   6.4803647420669991E-002
  -1.9480466288657530E-005   3.1067675415774598E-005   6.5121291623089481E-002
  -2.3144649216961556E-005   2.7864301767127619E-005   6.5565759418505579E-002
  -2.6808832145258643E-005   1.8616697577689134E-005   6.6137050806918229E-002
   2.5132250262462602E-002  -7.4494162467348968E-003   6.1766097601455183E-002
   2.4361438103982183E-002  -7.2658203348042738E-003   6.1515250399537591E-002
   2.3590625945501764E-002  -7.0681804469568260E-003   6.1446814801024846E-002
   2.2819813787021352E-002  -6.8564965831925638E-003   6.1560790805917087E-002
   2.2049001628540940E-002  -6.6307687435116502E-003   6.1857178414214287E-002
   1.8846258291807777E-002  -5.5824080106567642E-003   6.2929652269108016E-002
   1.8260633813576857E-002  -5.4476809224900391E-003   6.2691452005047665E-002
   1.7675009335345958E-002  -5.3022256842182452E-003   6.2641215498081354E-002
   1.7089384857115045E-002  -5.1460422958414416E-003   6.2778942748209166E-002
   1.6503760378884132E-002  -4.9791307573595900E-003   6.3104633755430989E-002
   1.2557751119154845E-002  -3.7153997745786038E-003   6.4045996025902677E-002
   1.2162866474862515E-002  -3.6295415101758044E-003   6.3817126873888005E-002
   1.1767981830570193E-002  -3.5362709214796437E-003   6.3781773632656441E-002
   1.1373097186277877E-002  -3.4355880084902101E-003   6.3939936302208039E-002
   1.0978212541985558E-002  -3.3274927712074742E-003   6.4291614882542591E-002
   6.2667287445038432E-003  -1.8483915385004573E-003   6.5115128871839442E-002
   6.0681360878391639E-003  -1.8114020978615419E-003   6.4892275006058625E-002
   5.8695434311744933E-003  -1.7703161587410247E-003   6.4868489204749996E-002
   5.6709507745098140E-003  -1.7251337211389777E-003   6.5043771467913555E-002
   5.4723581178451443E-003  -1.6758547850553307E-003   6.5418121795549261E-002
  -2.6808832145258643E-005   1.8616697577689134E-005   6.6137050806918229E-002
  -2.3557347493211728E-005   6.7373144526650108E-006   6.5916896401559427E-002
  -2.0305862841161343E-005  -4.3613960024335707E-006   6.5901362214361991E-002
  -1.7054378189112693E-005  -1.4679433787849472E-005   6.6090448245325825E-002
  -1.3802893537064043E-005  -2.4216798903298198E-005   6.6484154494450887E-002
   2.2049001628540940E-002  -6.6307687435116502E-003   6.1857178414214287E-002
   2.1169966818996425E-002  -6.4013438675506185E-003   6.1373388612654595E-002
   2.0290932009451888E-002  -6.1785688949460293E-003   6.1117953662614910E-002
   1.9411897199907362E-002  -5.9624438256980147E-003   6.1090873564095510E-002
   1.8532862390362850E-002  -5.7529686598065122E-003   6.1292148317096118E-002
   1.6503760378884132E-002  -4.9791307573595900E-003   6.3104633755430989E-002
   1.5850975096735220E-002  -4.8074929669101596E-003   6.2634469267741633E-002
   1.5198189814586292E-002  -4.6371308226304045E-003   6.2388448983323339E-002
   1.4545404532437372E-002  -4.4680443245204305E-003   6.2366572902176197E-002
   1.3892619250288452E-002  -4.3002334725801283E-003   6.2568841024299854E-002
   1.0978212541985558E-002  -3.3274927712074742E-003   6.4291614882542591E-002
   1.0547466138983094E-002  -3.2136420662696591E-003   6.3840449965910540E-002
   1.0116719735980642E-002  -3.0956927503146686E-003   6.3609218604300424E-002
   9.6859733329781941E-003  -2.9736448233428463E-003   6.3597920797712121E-002
   9.2552269299757371E-003  -2.8474982853539388E-003   6.3806556546145837E-002
   5.4723581178451443E-003  -1.6758547850553307E-003   6.5418121795549261E-002
   5.2594399457400421E-003  -1.6197911656291794E-003   6.4991330707161177E-002
   5.0465217736349322E-003  -1.5542546779990715E-003   6.4780262525545945E-002
   4.8336036015298282E-003  -1.4792453221652065E-003   6.4784917250703525E-002
   4.6206854294247269E-003  -1.3947630981276521E-003   6.5005294882633846E-002
  -1.3802893537064043E-005  -2.4216798903298198E-005   6.6484154494450887E-002
  -1.3103482993943871E-005  -2.5940264988671968E-005   6.6087111491493600E-002
  -1.2404072450830639E-005  -1.2816605683349525E-005   6.5901580747060096E-002
  -1.1704661907715672E-005   1.5154179012311780E-005   6.5927562261150138E-002
  -1.1005251364597235E-005   5.7972089098579094E-005   6.6165056033763825E-002
   1.8532862390362850E-002  -5.7529686598065122E-003   6.1292148317096118E-002
   1.7822427484007877E-002  -5.5206130008061127E-003   6.1370017812444777E-002
   1.7111992577652897E-002  -5.2358464522316295E-003   6.1587017097863489E-002
   1.6401557671297935E-002  -4.8986690140832290E-003   6.1943146173352642E-002
   1.5691122764942972E-002  -4.5090806863604116E-003   6.2438405038911793E-002
   1.3892619250288452E-002  -4.3002334725801283E-003   6.2568841024299854E-002
   1.3330209247592234E-002  -4.1226425801291489E-003   6.2695079761381639E-002
   1.2767799244896023E-002  -3.9242159604860605E-003   6.2978238515710758E-002
   1.2205389242199809E-002  -3.7049536136516611E-003   6.3418317287287196E-002
   1.1642979239503581E-002  -3.4648555396252778E-003   6.4015316076110829E-002
   9.2552269299757371E-003  -2.8474982853539388E-003   6.3806556546145837E-002
   8.8586320581153788E-003  -2.7246721594518936E-003   6.3949589362578357E-002
   8.4620371862550326E-003  -2.6125854687404915E-003   6.4267332423435283E-002
   8.0654423143946830E-003  -2.5112382132200378E-003   6.4759785728716546E-002
   7.6688474425343281E-003  -2.4206303928900053E-003   6.5426949278422256E-002
   4.6206854294247269E-003  -1.3947630981276521E-003   6.5005294882633846E-002
   4.4076959155773358E-003  -1.3267017387747007E-003   6.5133546616034543E-002
   4.1947064017299369E-003  -1.3009549769949780E-003   6.5454298821036927E-002
   3.9817168878825433E-003  -1.3175228127882757E-003   6.5967551497640803E-002
   3.7687273740351478E-003  -1.3764052461548021E-003   6.6673304645846185E-002
  -1.1005251364597235E-005   5.7972089098579094E-005   6.6165056033763825E-002
  -2.2599180021933007E-005   7.1268681902353359E-005   6.6246951521750586E-002
  -3.4193108679265311E-005   1.0675514750660420E-005   6.6539137708515883E-002
  -4.5787037336601083E-005  -1.2380741235684320E-004   6.7041614594059870E-002
  -5.7380965993933386E-005  -3.3218009941959892E-004   6.7754382178382366E-002
   1.5691122764942972E-002  -4.5090806863604116E-003   6.2438405038911793E-002
   1.4655740727118408E-002  -4.3435781311821908E-003   6.1696855897116487E-002
   1.3620358689293857E-002  -4.6786580106672887E-003   6.1232225419849434E-002
   1.2584976651469328E-002  -5.5143203248154242E-003   6.1044513607111009E-002
   1.1549594613644742E-002  -6.8505650736270240E-003   6.1133720458900420E-002
   1.1642979239503581E-002  -3.4648555396252778E-003   6.4015316076110829E-002
   1.0880821570225380E-002  -3.3421288737888744E-003   6.2966003877686194E-002
   1.0118663900947164E-002  -3.4749807515241649E-003   6.2186221751826004E-002
   9.3565062316689346E-003  -3.8634111728309481E-003   6.1675969698530439E-002
   8.5943485623907190E-003  -4.5074201377094392E-003   6.1435247717798736E-002
   7.6688474425343281E-003  -2.4206303928900053E-003   6.5426949278422256E-002
   7.1725255498385210E-003  -2.3406796163955856E-003   6.4314877914460111E-002
   6.6762036571427034E-003  -2.2713034923809369E-003   6.3464948031098201E-002
   6.1798817644469223E-003  -2.2125020208464737E-003   6.2877159628337134E-002
   5.6835598717510788E-003  -2.1642752017919653E-003   6.2551512706175816E-002
   3.7687273740351478E-003  -1.3764052461548021E-003   6.6673304645846185E-002
   3.5308526659578454E-003  -1.3392303590021720E-003   6.5743478007437822E-002
   3.2929779578805387E-003  -1.0676262332378721E-003   6.5068404257666052E-002
   3.0551032498032306E-003  -5.6159286886194298E-004   6.4648083396530873E-002
   2.8172285417259295E-003   1.7886973412550855E-004   6.4482515424032091E-002
  -5.7380965993933386E-005  -3.3218009941959892E-004   6.7754382178382366E-002
  -4.4197081416653961E-005  -3.3778110160898045E-004   6.7251804156619466E-002
  -3.1013196839381474E-005   1.3605102590538709E-004   6.6996590431529224E-002
  -1.7829312262114191E-005   1.0893162831225808E-003   6.6988741003111807E-002
  -4.6454276848295617E-006   2.5220146700430934E-003   6.7228255871366827E-002
   7.2122268211273488E-007   0.0000000000000000        2.8445767090313209E-002
   2.8551240356840257E-007  -1.8851041359239235E-007   3.3407211404370182E-002
  -1.5019787497592973E-007   9.5215024059625009E-010   3.8376489138325927E-002
  -5.8590815351982836E-007   5.6838769149115953E-007   4.3353600292180446E-002
  -1.0216184320637270E-006   1.5137962101775121E-006   4.8338544865933732E-002
  -6.7996341767833550E-003   0.0000000000000000        2.8509459666616416E-002
  -6.8317157931070283E-003   1.4636874899498324E-004   3.3544792414877019E-002
  -6.8637974094306982E-003   3.2994969696248030E-004   3.8508999931148591E-002
  -6.8958790257543714E-003   5.5074284390249466E-004   4.3402082215431126E-002
  -6.9279606420780421E-003   8.0874818981502630E-004   4.8224039267724644E-002
  -1.3505416902076274E-002   0.0000000000000000        2.8701292389330658E-002
  -1.3648103076332869E-002   2.9292600840355757E-004   3.3847347797789966E-002
  -1.3790789250589465E-002   6.5989844177472001E-004   3.8843319322372456E-002
  -1.3933475424846058E-002   1.1009173001134904E-003   4.3689206963078119E-002
  -1.4076161599102658E-002   1.6159825834198638E-003   4.8385010719906960E-002
  -2.0116626953196642E-002   0.0000000000000000        2.9021265258455924E-002
  -2.0448876337273960E-002   4.3948326781213126E-004   3.4314877553109045E-002
  -2.0781125721351275E-002   9.8984718658696059E-004   3.9379447311997530E-002
  -2.1113375105428590E-002   1.6510917563244865E-003   4.4214974535121410E-002
  -2.1445624489505908E-002   2.4232169770247122E-003   4.8821459222480657E-002
  -2.6633264330144464E-002   0.0000000000000000        2.9469378273992226E-002
  -2.7234035575930293E-002   5.8604052722070754E-004   3.4947381680834229E-002
  -2.7834806821716126E-002   1.3197959313992012E-003   4.0117383900023826E-002
  -2.8435578067501962E-002   2.2012662125354861E-003   4.4979384931560999E-002
  -2.9036349313287795E-002   3.2304513706295501E-003   4.9533384775445756E-002
  -1.0216184320637270E-006   1.5137962101775121E-006   4.8338544865933732E-002
  -6.3076606382625119E-007   2.2484149497506087E-006   5.1507308069558583E-002
  -2.3991369558790804E-007   2.1834811536531641E-006   5.4540019790507217E-002
   1.5093867265216984E-007   1.3189948218930931E-006   5.7436680028779642E-002
   5.4179104088877827E-007  -3.4504404550217416E-007   6.0197288784375816E-002
  -6.9279606420780421E-003   8.0874818981502630E-004   4.8224039267724644E-002
  -7.0342270823332484E-003   1.0637875457525777E-003   5.1178962862294591E-002
  -7.1404935225884529E-003   1.2756827227676975E-003   5.4056623354293842E-002
  -7.2467599628436626E-003   1.4444337208603501E-003   5.6857020743722425E-002
  -7.3530264030988637E-003   1.5700405400305428E-003   5.9580155030580374E-002
  -1.4076161599102658E-002   1.6159825834198638E-003   4.8385010719906960E-002
  -1.4230296951875757E-002   2.1253266765554192E-003   5.1083750079035199E-002
  -1.4384432304648856E-002   2.5491819643817274E-003   5.3764014715698291E-002
  -1.4538567657421951E-002   2.8875484468987864E-003   5.6425804629896263E-002
  -1.4692703010195058E-002   3.1404261241065878E-003   5.9069119821629157E-002
  -2.1445624489505908E-002   2.4232169770247122E-003   4.8821459222480657E-002
  -2.1588840374691349E-002   3.1868658073582572E-003   5.1221669719780386E-002
  -2.1732056259876793E-002   3.8226812059957544E-003   5.3662193874720543E-002
  -2.1875272145062231E-002   4.3306631729372255E-003   5.6143031687301094E-002
  -2.2018488030247675E-002   4.7108117081826328E-003   5.8664183157522122E-002
  -2.9036349313287795E-002   3.2304513706295501E-003   4.9533384775445756E-002
  -2.9109857350780029E-002   4.2484049381610860E-003   5.1592721784530178E-002
  -2.9183365388272264E-002   5.0961804476098108E-003   5.3751160831360570E-002
  -2.9256873425764499E-002   5.7737778989756603E-003   5.6008701915936966E-002
  -2.9330381463256734E-002   6.2811972922586778E-003   5.8365345038259311E-002
   5.4179104088877827E-007  -3.4504404550217416E-007   6.0197288784375816E-002
  -2.6316818273475207E-006  -6.6248195090129469E-007   6.1091764126833439E-002
  -5.8051546955838196E-006   2.5128346033131965E-006   6.2125845578797856E-002
  -8.9786275638188175E-006   9.1809056171968106E-006   6.3299533140269079E-002
  -1.2152100432056417E-005   1.9341731090694037E-005   6.4612826811247054E-002
  -7.3530264030988637E-003   1.5700405400305428E-003   5.9580155030580374E-002
  -7.2294731461894149E-003   1.6670999810753165E-003   6.0470413668918109E-002
  -7.1059198892799644E-003   1.7502088447917605E-003   6.1474519657304411E-002
  -6.9823666323705087E-003   1.8193671311797829E-003   6.2592472995739293E-002
  -6.8588133754610581E-003   1.8745748402394236E-003   6.3824273684222776E-002
  -1.4692703010195058E-002   3.1404261241065878E-003   5.9069119821629157E-002
  -1.4468181782966119E-002   3.3348624441015585E-003   5.9937718424058962E-002
  -1.4243660555737182E-002   3.4979048549801800E-003   6.0894405617079123E-002
  -1.4019139328508248E-002   3.6295533567423689E-003   6.1939181400689707E-002
  -1.3794618101279313E-002   3.7298079493881531E-003   6.3072045774890617E-002
  -2.2018488030247675E-002   4.7108117081826328E-003   5.8664183157522122E-002
  -2.1718757592157460E-002   5.0026249071278093E-003   5.9493678392255979E-002
  -2.1419027154067249E-002   5.2456008651685787E-003   6.0385503458122020E-002
  -2.1119296715977041E-002   5.4397395823049689E-003   6.1339658355120223E-002
  -2.0819566277886826E-002   5.5850410585369242E-003   6.2356143083250604E-002
  -2.9330381463256734E-002   6.2811972922586778E-003   5.8365345038259311E-002
  -2.8981200573763445E-002   6.6703873701540323E-003   5.9138293573509214E-002
  -2.8632019684270156E-002   6.9932968753570399E-003   5.9947813180433088E-002
  -2.8282838794776874E-002   7.2499258078675671E-003   6.0793903859030933E-002
  -2.7933657905283585E-002   7.4402741676856121E-003   6.1676565609302736E-002
  -1.2152100432056417E-005   1.9341731090694037E-005   6.4612826811247054E-002
  -1.5816283360357841E-005   2.8226818523685582E-005   6.4803647420669991E-002
  -1.9480466288657530E-005   3.1067675415774598E-005   6.5121291623089481E-002
  -2.3144649216961556E-005   2.7864301767127619E-005   6.5565759418505579E-002
  -2.6808832145258643E-005   1.8616697577689134E-005   6.6137050806918229E-002
  -6.8588133754610581E-003   1.8745748402394236E-003   6.3824273684222776E-002
  -6.7225943556618794E-003   1.9097098369259477E-003   6.3922890913608033E-002
  -6.5863753358627016E-003   1.9186499861944539E-003   6.4174450955451670E-002
  -6.4501563160635177E-003   1.9013952880451088E-003   6.4578953809753703E-002
  -6.3139372962643450E-003   1.8579457424778012E-003   6.5136399476514062E-002
  -1.3794618101279313E-002   3.7298079493881531E-003   6.3072045774890617E-002
  -1.3492396659290811E-002   3.7911928553282653E-003   6.3058309007361049E-002
  -1.3190175217302315E-002   3.8062322969731888E-003   6.3223634271751664E-002
  -1.2887953775313814E-002   3.7749262743231177E-003   6.3568021568062530E-002
  -1.2585732333325318E-002   3.6972747873778855E-003   6.4091470896293648E-002
  -2.0819566277886826E-002   5.5850410585369242E-003   6.2356143083250604E-002
  -2.0325223194247163E-002   5.6726758737305136E-003   6.2209901701929020E-002
  -1.9830880110607501E-002   5.6938146077519652E-003   6.2268841571989461E-002
  -1.9336537026967849E-002   5.6484572606010572E-003   6.2532962693432059E-002
  -1.8842193943328180E-002   5.5366038322780531E-003   6.3002265066256669E-002
  -2.7933657905283585E-002   7.4402741676856121E-003   6.1676565609302736E-002
  -2.7221073960530917E-002   7.5541588921328520E-003   6.1377668997312007E-002
  -2.6508490015778253E-002   7.5813969185306238E-003   6.1310072856165174E-002
  -2.5795906071025589E-002   7.5219882468790713E-003   6.1473777185862367E-002
  -2.5083322126272928E-002   7.3759328771781096E-003   6.1868781986403359E-002
  -2.6808832145258643E-005   1.8616697577689134E-005   6.6137050806918229E-002
  -2.3557347493211728E-005   6.7373144526650108E-006   6.5916896401559427E-002
  -2.0305862841161343E-005  -4.3613960024335707E-006   6.5901362214361991E-002
  -1.7054378189112693E-005  -1.4679433787849472E-005   6.6090448245325825E-002
  -1.3802893537064043E-005  -2.4216798903298198E-005   6.6484154494450887E-002
  -6.3139372962643450E-003   1.8579457424778012E-003   6.5136399476514062E-002
  -6.1094358529597739E-003   1.8009868030844506E-003   6.4928186604922597E-002
  -5.9049344096551992E-003   1.7432039234570249E-003   6.4917853432474956E-002
  -5.7004329663506281E-003   1.6845971035954529E-003   6.5105399959171070E-002
  -5.4959315230460604E-003   1.6251663434997954E-003   6.5490826185010897E-002
  -1.2585732333325318E-002   3.6972747873778855E-003   6.4091470896293648E-002
  -1.2186721450385685E-002   3.5952362917161529E-003   6.3893594945565513E-002
  -1.1787710567446066E-002   3.4907692429164278E-003   6.3886858174963659E-002
  -1.1388699684506429E-002   3.3838736409786442E-003   6.4071260584488116E-002
  -1.0989688801566809E-002   3.2745494859028335E-003   6.4446802174138937E-002
  -1.8842193943328180E-002   5.5366038322780531E-003   6.3002265066256669E-002
  -1.8255414139770970E-002   5.3894857803478829E-003   6.2813121423487939E-002
  -1.7668634336213754E-002   5.2383345623757752E-003   6.2808376441828045E-002
  -1.7081854532656537E-002   5.0831501783618355E-003   6.2988030121277058E-002
  -1.6495074729099325E-002   4.9239326283059826E-003   6.3352082461834852E-002
  -2.5083322126272928E-002   7.3759328771781096E-003   6.1868781986403359E-002
  -2.4315513921115597E-002   7.1837352689796269E-003   6.1686766038690111E-002
  -2.3547705715958267E-002   6.9858998818352544E-003   6.1682408233068295E-002
  -2.2779897510800930E-002   6.7824267157450876E-003   6.1855708569537766E-002
  -2.2012089305643606E-002   6.5733157707089651E-003   6.2206667048098629E-002
  -1.3802893537064043E-005  -2.4216798903298198E-005   6.6484154494450887E-002
  -1.3103482993943871E-005  -2.5940264988671968E-005   6.6087111491493600E-002
  -1.2404072450830639E-005  -1.2816605683349525E-005   6.5901580747060096E-002
  -1.1704661907715672E-005   1.5154179012311780E-005   6.5927562261150138E-002
  -1.1005251364597235E-005   5.7972089098579094E-005   6.6165056033763825E-002
  -5.4959315230460604E-003   1.6251663434997954E-003   6.5490826185010897E-002
  -5.2817877202419239E-003   1.5682379227200810E-003   6.5094424538907555E-002
  -5.0676439174377908E-003   1.5171381208063661E-003   6.4913399418802517E-002
  -4.8535001146336656E-003   1.4718669377585744E-003   6.4947750824695949E-002
  -4.6393563118295282E-003   1.4324243735768794E-003   6.5197478756587629E-002
  -1.0989688801566809E-002   3.2745494859028335E-003   6.4446802174138937E-002
  -1.0558236339026956E-002   3.1624161104287923E-003   6.4042023378364912E-002
  -1.0126783876487095E-002   3.0470928472961858E-003   6.3856485376063893E-002
  -9.6953314139472425E-003   2.9285796965050018E-003   6.3890188167235948E-002
  -9.2638789514073814E-003   2.8068766580553184E-003   6.4143131751881147E-002
  -1.6495074729099325E-002   4.9239326283059826E-003   6.3352082461834852E-002
  -1.5842449339349030E-002   4.7565942981375800E-003   6.2929908009865504E-002
  -1.5189823949598736E-002   4.5770475737860368E-003   6.2730838618844015E-002
  -1.4537198559848441E-002   4.3852924552513469E-003   6.2754874288770357E-002
  -1.3884573170098146E-002   4.1813289425337158E-003   6.3002015019644447E-002
  -2.2012089305643606E-002   6.5733157707089651E-003   6.2206667048098629E-002
  -2.1134426721208178E-002   6.3507724858462566E-003   6.1758078433409580E-002
  -2.0256764136772722E-002   6.1070023002757073E-003   6.1536459147143036E-002
  -1.9379101552337279E-002   5.8420052139977162E-003   6.1541809189298927E-002
  -1.8501438967901837E-002   5.5557812270120577E-003   6.1774128559877350E-002
  -1.1005251364597235E-005   5.7972089098579094E-005   6.6165056033763825E-002
  -2.2599180021933007E-005   7.1268681902353359E-005   6.6246951521750586E-002
  -3.4193108679265311E-005   1.0675514750660420E-005   6.6539137708515883E-002
  -4.5787037336601083E-005  -1.2380741235684320E-004   6.7041614594059870E-002
  -5.7380965993933386E-005  -3.3218009941959892E-004   6.7754382178382366E-002
  -4.6393563118295282E-003   1.4324243735768794E-003   6.5197478756587629E-002
  -4.4474950029618106E-003   1.3734114758156002E-003   6.5216937681217446E-002
  -4.2556336940940947E-003   1.2694292920290146E-003   6.5433016382118861E-002
  -4.0637723852263823E-003   1.1204778222171120E-003   6.5845714859291693E-002
  -3.8719110763586681E-003   9.2655706638022917E-004   6.6455033112735984E-002
  -9.2638789514073814E-003   2.8068766580553184E-003   6.4143131751881147E-002
  -8.8822333275217318E-003   2.6755542697288887E-003   6.4129074587084486E-002
  -8.5005877036360838E-003   2.5281830693075838E-003   6.4297966276052165E-002
  -8.1189420797504186E-003   2.3647630567913431E-003   6.4649806818784156E-002
  -7.7372964558647776E-003   2.1852942321802793E-003   6.5184596215280582E-002
  -1.3884573170098146E-002   4.1813289425337158E-003   6.3002015019644447E-002
  -1.3326814153701677E-002   3.9776970636421008E-003   6.2983362239351443E-002
  -1.2769055137305210E-002   3.7869368465861288E-003   6.3133987390315949E-002
  -1.2211296120908747E-002   3.6090482913653252E-003   6.3453890472537661E-002
  -1.1653537104512267E-002   3.4440313979802739E-003   6.3943071486016495E-002
  -1.8501438967901837E-002   5.5557812270120577E-003   6.1774128559877350E-002
  -1.7781237481501670E-002   5.2798398575554240E-003   6.1779800638018578E-002
  -1.7061035995101489E-002   5.0456906238645488E-003   6.1941079724910059E-002
  -1.6340834508701316E-002   4.8533335259394565E-003   6.2257965820551667E-002
  -1.5620633022301142E-002   4.7027685637802130E-003   6.2730458924943278E-002
  -5.7380965993933386E-005  -3.3218009941959892E-004   6.7754382178382366E-002
  -4.4197081416653961E-005  -3.3778110160898045E-004   6.7251804156619466E-002
  -3.1013196839381474E-005   1.3605102590538709E-004   6.6996590431529224E-002
  -1.7829312262114191E-005   1.0893162831225808E-003   6.6988741003111807E-002
  -4.6454276848295617E-006   2.5220146700430934E-003   6.7228255871366827E-002
  -3.8719110763586681E-003   9.2655706638022917E-004   6.6455033112735984E-002
  -3.6099059795339089E-003   8.4786344450826778E-004   6.6280485079235951E-002
  -3.3479008827091566E-003   1.0445933765918236E-003   6.6356215173558220E-002
  -3.0858957858844139E-003   1.5167468626304040E-003   6.6682223395702567E-002
  -2.8238906890596452E-003   2.2643239026244322E-003   6.7258509745669715E-002
  -7.7372964558647776E-003   2.1852942321802793E-003   6.5184596215280582E-002
  -7.2235563156428321E-003   2.0335079906254050E-003   6.5134068594295380E-002
  -6.7098161754209039E-003   1.9531357272781630E-003   6.5336732932282274E-002
  -6.1960760351989618E-003   1.9441774421382028E-003   6.5792589229241111E-002
  -5.6823358949770163E-003   2.0066331352058819E-003   6.6501637485171960E-002
  -1.1653537104512267E-002   3.4440313979802739E-003   6.3943071486016495E-002
  -1.0885148089743444E-002   3.2191525367426532E-003   6.3812554701798141E-002
  -1.0116759074974627E-002   2.8616780779644954E-003   6.3938143707701886E-002
  -9.3483700602057865E-003   2.3716080216461249E-003   6.4319838503727036E-002
  -8.5799810454369879E-003   1.7489423677872207E-003   6.4957639089873911E-002
  -1.5620633022301142E-002   4.7027685637802130E-003   6.2730458924943278E-002
  -1.4594681301835704E-002   4.4047970828596794E-003   6.2315943401744289E-002
  -1.3568729581370301E-002   3.7702204286508695E-003   6.2160447499816557E-002
  -1.2542777860904897E-002   2.7990386011538630E-003   6.2263971219160344E-002
  -1.1516826140439460E-002   1.4912516003686704E-003   6.2626514559775748E-002
  -2.6633264330144464E-002   0.0000000000000000        2.9469378273992226E-002
  -2.7234035575930293E-002   5.8604052722070754E-004   3.4947381680834229E-002
  -2.7834806821716126E-002   1.3197959313992012E-003   4.0117383900023826E-002
  -2.8435578067501962E-002   2.2012662125354861E-003   4.4979384931560999E-002
  -2.9036349313287795E-002   3.2304513706295501E-003   4.9533384775445756E-002
  -3.3392714884219812E-002   0.0000000000000000        3.0179882259126892E-002
  -3.4236280728908032E-002   9.6039759139983881E-004   3.5268323374642523E-002
  -3.5079846573596252E-002   2.0239406025443149E-003   4.0179176480005789E-002
  -3.5923412418284464E-002   3.1906290334334274E-003   4.4912441575216691E-002
  -3.6766978262972698E-002   4.4604628840671772E-003   4.9468118660275236E-002
  -4.0732364466722779E-002   0.0000000000000000        3.1287028037047269E-002
  -4.1688311732813330E-002   1.3347546555789701E-003   3.5941337404023367E-002
  -4.2644258998903894E-002   2.7280852736894278E-003   4.0548471938347166E-002
  -4.3600206264994446E-002   4.1799918543313688E-003   4.5108431640018647E-002
  -4.4556153531085010E-002   5.6904743975047974E-003   4.9621216509037835E-002
  -4.8652213077653356E-002   0.0000000000000000        3.2790815607753342E-002
  -4.9590128587646193E-002   1.7091117197581022E-003   3.6966423768976776E-002
  -5.0528044097639030E-002   3.4322299448345411E-003   4.1225270275047937E-002
  -5.1465959607631874E-002   5.1693546752293066E-003   4.5567355125966859E-002
  -5.2403875117624711E-002   6.9204859109424140E-003   4.9992678321733520E-002
  -5.7152260717011544E-002   0.0000000000000000        3.4691244971245136E-002
  -5.7941731293406615E-002   2.0834687839372335E-003   3.8343582469502736E-002
  -5.8731201869801679E-002   4.1363746159796544E-003   4.2209571490108129E-002
  -5.9520672446196750E-002   6.1587174961272532E-003   4.6289212033061328E-002
  -6.0310143022591814E-002   8.1504974243800429E-003   5.0582504098362319E-002
  -2.9036349313287795E-002   3.2304513706295501E-003   4.9533384775445756E-002
  -2.9109857350780029E-002   4.2484049381610860E-003   5.1592721784530178E-002
  -2.9183365388272264E-002   5.0961804476098108E-003   5.3751160831360570E-002
  -2.9256873425764499E-002   5.7737778989756603E-003   5.6008701915936966E-002
  -2.9330381463256734E-002   6.2811972922586778E-003   5.8365345038259311E-002
  -3.6766978262972698E-002   4.4604628840671772E-003   4.9468118660275236E-002
  -3.6780317451358978E-002   5.6936870575978555E-003   5.1256704746275417E-002
  -3.6793656639745251E-002   6.7505464571777640E-003   5.3066526492741538E-002
  -3.6806995828131524E-002   7.6310410828068810E-003   5.4897583899673592E-002
  -3.6820335016517797E-002   8.3351709344852212E-003   5.6749876967071594E-002
  -4.4556153531085010E-002   5.6904743975047974E-003   4.9621216509037835E-002
  -4.4587190247645368E-002   7.1389691770346103E-003   5.1132864956085843E-002
  -4.4618226964205719E-002   8.4049124667457085E-003   5.2587882686319753E-002
  -4.4649263680766084E-002   9.4883042666380948E-003   5.3986269699739554E-002
  -4.4680300397326435E-002   1.0389144576711765E-002   5.5328025996345225E-002
  -5.2403875117624711E-002   6.9204859109424140E-003   4.9992678321733520E-002
  -5.2530475739639190E-002   8.5842512964713659E-003   5.1221202413961414E-002
  -5.2657076361653690E-002   1.0059278476313658E-002   5.2315229412095182E-002
  -5.2783676983668197E-002   1.1345567450469317E-002   5.3274759316134769E-002
  -5.2910277605682676E-002   1.2443118218938301E-002   5.4099792126080223E-002
  -6.0310143022591814E-002   8.1504974243800429E-003   5.0582504098362319E-002
  -6.0610173927340485E-002   1.0029533415908135E-002   5.1521717119902173E-002
  -6.0910204832089150E-002   1.1713644485881625E-002   5.2248566670067852E-002
  -6.1210235736837822E-002   1.3202830634300534E-002   5.2763052748859306E-002
  -6.1510266641586479E-002   1.4497091861164844E-002   5.3065175356276549E-002
  -2.9330381463256734E-002   6.2811972922586778E-003   5.8365345038259311E-002
  -2.8981200573763445E-002   6.6703873701540323E-003   5.9138293573509214E-002
  -2.8632019684270156E-002   6.9932968753570399E-003   5.9947813180433088E-002
  -2.8282838794776874E-002   7.2499258078675671E-003   6.0793903859030933E-002
  -2.7933657905283585E-002   7.4402741676856121E-003   6.1676565609302736E-002
  -3.6820335016517797E-002   8.3351709344852212E-003   5.6749876967071594E-002
  -3.6382742183876077E-002   8.8778569998758002E-003   5.7098252860589782E-002
  -3.5945149351234343E-002   9.2740202666416558E-003   5.7586881568730895E-002
  -3.5507556518592623E-002   9.5236607347827500E-003   5.8215763091494913E-002
  -3.5069963685950889E-002   9.6267784042990689E-003   5.8984897428881834E-002
  -4.4680300397326435E-002   1.0389144576711765E-002   5.5328025996345225E-002
  -4.4050613878587330E-002   1.1085326629597540E-002   5.5171587022199396E-002
  -4.3420927359848233E-002   1.1554743657926258E-002   5.5259082605625426E-002
  -4.2791240841109135E-002   1.1797395661697921E-002   5.5590512746623306E-002
  -4.2161554322370030E-002   1.1813282640912526E-002   5.6165877445193003E-002
  -5.2910277605682676E-002   1.2443118218938301E-002   5.4099792126080223E-002
  -5.1984815657897261E-002   1.3292796259319267E-002   5.3358296058338070E-002
  -5.1059353710111846E-002   1.3835467049210867E-002   5.2964416291116707E-002
  -5.0133891762326431E-002   1.4071130588613111E-002   5.2918152824416122E-002
  -4.9208429814541009E-002   1.3999786877525969E-002   5.3219505658236292E-002
  -6.1510266641586479E-002   1.4497091861164844E-002   5.3065175356276549E-002
  -6.0185347521805814E-002   1.5500265889041034E-002   5.1658379969005776E-002
  -5.8860428402025156E-002   1.6116190440495490E-002   5.0702882625204670E-002
  -5.7535509282244518E-002   1.6344865515528290E-002   5.0198683324873337E-002
  -5.6210590162463832E-002   1.6186291114139412E-002   5.0145782068011679E-002
  -2.7933657905283585E-002   7.4402741676856121E-003   6.1676565609302736E-002
  -2.7221073960530917E-002   7.5541588921328520E-003   6.1377668997312007E-002
  -2.6508490015778253E-002   7.5813969185306238E-003   6.1310072856165174E-002
  -2.5795906071025589E-002   7.5219882468790713E-003   6.1473777185862367E-002
  -2.5083322126272928E-002   7.3759328771781096E-003   6.1868781986403359E-002
  -3.5069963685950889E-002   9.6267784042990689E-003   5.8984897428881834E-002
  -3.4134922269365146E-002   9.6256240869013673E-003   5.8647539025502050E-002
  -3.3199880852779431E-002   9.5624485943001936E-003   5.8523795094944417E-002
  -3.2264839436193710E-002   9.4372519264957905E-003   5.8613665637209045E-002
  -3.1329798019607960E-002   9.2500340834879569E-003   5.8917150652295844E-002
  -4.2161554322370030E-002   1.1813282640912526E-002   5.6165877445193003E-002
  -4.1021741431972958E-002   1.1697089281669879E-002   5.5814682773270119E-002
  -3.9881928541575851E-002   1.1543500270069933E-002   5.5659416576147785E-002
  -3.8742115651178785E-002   1.1352515606112539E-002   5.5700078853825906E-002
  -3.7602302760781664E-002   1.1124135289797790E-002   5.5936669606304605E-002
  -4.9208429814541009E-002   1.3999786877525969E-002   5.3219505658236292E-002
  -4.7881531448354282E-002   1.3768554476438421E-002   5.2879100240616358E-002
  -4.6554633082167556E-002   1.3524551945839533E-002   5.2716937299775161E-002
  -4.5227734715980843E-002   1.3267779285729258E-002   5.2733016835712826E-002
  -4.3900836349794123E-002   1.2998236496107589E-002   5.2927338848429185E-002
  -5.6210590162463832E-002   1.6186291114139412E-002   5.0145782068011679E-002
  -5.4714292318509175E-002   1.5840019671206920E-002   4.9840791427540651E-002
  -5.3217994474554525E-002   1.5505603621609257E-002   4.9696357265826718E-002
  -5.1721696630599868E-002   1.5183042965345995E-002   4.9712479582869853E-002
  -5.0225398786645212E-002   1.4872337702417443E-002   4.9889158378670057E-002
  -2.5083322126272928E-002   7.3759328771781096E-003   6.1868781986403359E-002
  -2.4315513921115597E-002   7.1837352689796269E-003   6.1686766038690111E-002
  -2.3547705715958267E-002   6.9858998818352544E-003   6.1682408233068295E-002
  -2.2779897510800930E-002   6.7824267157450876E-003   6.1855708569537766E-002
  -2.2012089305643606E-002   6.5733157707089651E-003   6.2206667048098629E-002
  -3.1329798019607960E-002   9.2500340834879569E-003   5.8917150652295844E-002
  -3.0379309482348779E-002   9.0221514184597451E-003   5.8701654922862778E-002
  -2.9428820945089591E-002   8.7749602845939717E-003   5.8673861715542001E-002
  -2.8478332407830400E-002   8.5084606818907789E-003   5.8833771030333618E-002
  -2.7527843870571212E-002   8.2226526103501008E-003   5.9181382867237481E-002
  -3.7602302760781664E-002   1.1124135289797790E-002   5.5936669606304605E-002
  -3.6459089511399673E-002   1.0860567567939815E-002   5.5674023405259912E-002
  -3.5315876262017674E-002   1.0564020687352720E-002   5.5609124106348648E-002
  -3.4172663012635690E-002   1.0234494648036583E-002   5.5741971709570647E-002
  -3.3029449763253685E-002   9.8719894499912919E-003   5.6072566214925831E-002
  -4.3900836349794123E-002   1.2998236496107589E-002   5.2927338848429185E-002
  -4.2554854008268340E-002   1.2698983717419978E-002   5.2603871485881498E-002
  -4.1208871666742586E-002   1.2353081090111398E-002   5.2488195405488047E-002
  -3.9862889325216831E-002   1.1960528614182330E-002   5.2580310607248833E-002
  -3.8516906983691042E-002   1.1521326289632428E-002   5.2880217091163931E-002
  -5.0225398786645212E-002   1.4872337702417443E-002   4.9889158378670057E-002
  -4.8666602972954734E-002   1.4537399866900003E-002   4.9491199164727606E-002
  -4.7107807159264263E-002   1.4142141492870193E-002   4.9311075612960290E-002
  -4.5549011345573778E-002   1.3686562580328120E-002   4.9348787723368238E-002
  -4.3990215531883287E-002   1.3170663129273563E-002   4.9604335495951390E-002
  -2.2012089305643606E-002   6.5733157707089651E-003   6.2206667048098629E-002
  -2.1134426721208178E-002   6.3507724858462566E-003   6.1758078433409580E-002
  -2.0256764136772722E-002   6.1070023002757073E-003   6.1536459147143036E-002
  -1.9379101552337279E-002   5.8420052139977162E-003   6.1541809189298927E-002
  -1.8501438967901837E-002   5.5557812270120577E-003   6.1774128559877350E-002
  -2.7527843870571212E-002   8.2226526103501008E-003   5.9181382867237481E-002
  -2.6426767207575259E-002   7.9213845289654861E-003   5.8726968449152428E-002
  -2.5325690544579317E-002   7.6085048967305530E-003   5.8492412859766002E-002
  -2.4224613881583375E-002   7.2840137136449996E-003   5.8477716099077953E-002
  -2.3123537218587439E-002   6.9479109797090377E-003   5.8682878167088448E-002
  -3.3029449763253685E-002   9.8719894499912919E-003   5.6072566214925831E-002
  -3.1712069521421242E-002   9.4919965720848820E-003   5.5621941343302159E-002
  -3.0394689279588820E-002   9.1100074931851835E-003   5.5384064800652881E-002
  -2.9077309037756377E-002   8.7260222132923403E-003   5.5358936586978158E-002
  -2.7759928795923948E-002   8.3400407324061843E-003   5.5546556702277858E-002
  -3.8516906983691042E-002   1.1521326289632428E-002   5.2880217091163931E-002
  -3.6990333662746108E-002   1.1062608615204111E-002   5.2442997115858536E-002
  -3.5463760341801175E-002   1.0611510089639949E-002   5.2211414969803804E-002
  -3.3937187020856255E-002   1.0168030712939598E-002   5.2185470652999541E-002
  -3.2410613699911307E-002   9.7321704851033031E-003   5.2365164165445774E-002
  -4.3990215531883287E-002   1.3170663129273563E-002   4.9604335495951390E-002
  -4.2261559631549872E-002   1.2633220658323563E-002   4.9190135766821796E-002
  -4.0532903731216444E-002   1.2113012686094646E-002   4.8974463367218751E-002
  -3.8804247830883043E-002   1.1610039212586822E-002   4.8957318297142088E-002
  -3.7075591930549615E-002   1.1124300237800311E-002   4.9138700556592030E-002
  -1.8501438967901837E-002   5.5557812270120577E-003   6.1774128559877350E-002
  -1.7781237481501670E-002   5.2798398575554240E-003   6.1779800638018578E-002
  -1.7061035995101489E-002   5.0456906238645488E-003   6.1941079724910059E-002
  -1.6340834508701316E-002   4.8533335259394565E-003   6.2257965820551667E-002
  -1.5620633022301142E-002   4.7027685637802130E-003   6.2730458924943278E-002
  -2.3123537218587439E-002   6.9479109797090377E-003   5.8682878167088448E-002
  -2.2245632546996998E-002   6.6162573701980809E-003   5.8707504062751964E-002
  -2.1367727875406545E-002   6.3051135603873210E-003   5.8891929320045805E-002
  -2.0489823203816128E-002   6.0144795502766468E-003   5.9236153938970151E-002
  -1.9611918532225679E-002   5.7443553398665026E-003   5.9740177919524795E-002
  -2.7759928795923948E-002   8.3400407324061843E-003   5.5546556702277858E-002
  -2.6720128586262971E-002   7.9526748828407934E-003   5.5568854079398045E-002
  -2.5680328376602033E-002   7.5645364969100445E-003   5.5755143171028927E-002
  -2.4640528166941081E-002   7.1756255746140054E-003   5.6105423977170291E-002
  -2.3600727957280122E-002   6.7859421159526534E-003   5.6619696497822489E-002
  -3.2410613699911307E-002   9.7321704851033031E-003   5.2365164165445774E-002
  -3.1204725599299609E-002   9.2890923954834781E-003   5.2363850687957098E-002
  -2.9998837498687935E-002   8.8239594334326536E-003   5.2530721277859328E-002
  -2.8792949398076230E-002   8.3367715989513917E-003   5.2865775935152362E-002
  -2.7587061297464559E-002   7.8275288920388181E-003   5.3369014659836386E-002
  -3.7075591930549615E-002   1.1124300237800311E-002   4.9138700556592030E-002
  -3.5699423586106921E-002   1.0625509908126218E-002   4.9092493888428901E-002
  -3.4323255241664234E-002   1.0083382369955596E-002   4.9218663640536925E-002
  -3.2947086897221547E-002   9.4979176232885126E-003   4.9517209812916074E-002
  -3.1570918552778868E-002   8.8691156681250938E-003   4.9988132405566432E-002
  -1.5620633022301142E-002   4.7027685637802130E-003   6.2730458924943278E-002
  -1.4594681301835704E-002   4.4047970828596794E-003   6.2315943401744289E-002
  -1.3568729581370301E-002   3.7702204286508695E-003   6.2160447499816557E-002
  -1.2542777860904897E-002   2.7990386011538630E-003   6.2263971219160344E-002
  -1.1516826140439460E-002   1.4912516003686704E-003   6.2626514559775748E-002
  -1.9611918532225679E-002   5.7443553398665026E-003   5.9740177919524795E-002
  -1.8331130534284243E-002   5.3858292875139657E-003   5.9056995808964008E-002
  -1.7050342536342824E-002   4.8299897515770018E-003   5.8624466632083677E-002
  -1.5769554538401391E-002   4.0768367320553889E-003   5.8442590388884302E-002
  -1.4488766540459989E-002   3.1263702289494599E-003   5.8511367079364773E-002
  -2.3600727957280122E-002   6.7859421159526534E-003   5.6619696497822489E-002
  -2.2073470369453591E-002   6.3668614921683075E-003   5.5807139489603558E-002
  -2.0546212781627042E-002   5.8897590745030301E-003   5.5236868727474332E-002
  -1.9018955193800507E-002   5.3546348629570830E-003   5.4908884211434750E-002
  -1.7491697605973931E-002   4.7614888575301384E-003   5.4823185941484831E-002
  -2.7587061297464559E-002   7.8275288920388181E-003   5.3369014659836386E-002
  -2.5821700807343730E-002   7.3478936968225106E-003   5.2566374443663161E-002
  -2.4056340317222896E-002   6.9495283974290549E-003   5.1997653785988647E-002
  -2.2290979827102115E-002   6.6324329938585820E-003   5.1662852686813254E-002
  -2.0525619336981264E-002   6.3966074861108724E-003   5.1561971146136323E-002
  -3.1570918552778868E-002   8.8691156681250938E-003   4.9988132405566432E-002
  -2.9575821847954639E-002   8.3289259014767691E-003   4.9334700671142484E-002
  -2.7580725143130487E-002   8.0092977203551352E-003   4.8906821807626732E-002
  -2.5585628438306331E-002   7.9102311247602614E-003   4.8704495815018706E-002
  -2.3590531733482079E-002   8.0317261146916064E-003   4.8727722693318709E-002
  -5.7152260717011544E-002   0.0000000000000000        3.4691244971245136E-002
  -5.7941731293406615E-002   2.0834687839372335E-003   3.8343582469502736E-002
  -5.8731201869801679E-002   4.1363746159796544E-003   4.2209571490108129E-002
  -5.9520672446196750E-002   6.1587174961272532E-003   4.6289212033061328E-002
  -6.0310143022591814E-002   8.1504974243800429E-003   5.0582504098362319E-002
  -6.5820511561659106E-002   0.0000000000000000        3.7211885691446012E-002
  -6.6625413318298798E-002   2.9138092283342619E-003   4.0834929676829820E-002
  -6.7430315074938491E-002   5.7701745523028305E-003   4.4213459779376567E-002
  -6.8235216831578197E-002   8.5690959719057075E-003   4.7347475999086244E-002
  -6.9040118588217902E-002   1.1310573487142888E-002   5.0236978335958887E-002
  -7.4244969788457779E-002   0.0000000000000000        4.0576307332279356E-002
  -7.5523468130526947E-002   3.7441496727312925E-003   4.4143176852318486E-002
  -7.6801966472596156E-002   7.4039744886260127E-003   4.7007367084335706E-002
  -7.8080464814665324E-002   1.0979474447684160E-002   4.9168878028331017E-002
  -7.9358963156734505E-002   1.4470649549905738E-002   5.0627709684304391E-002
  -8.2425635397407548E-002   0.0000000000000000        4.4784509893745168E-002
  -8.4635895730091074E-002   4.5744901171283223E-003   4.8268323995968747E-002
  -8.6846156062774599E-002   9.0377744249491923E-003   5.0591293404985561E-002
  -8.9056416395458138E-002   1.3389852923462614E-002   5.1753418120795605E-002
  -9.1266676728141649E-002   1.7630725612668586E-002   5.1754698143398878E-002
  -9.0362508388508428E-002   0.0000000000000000        4.9836493375843449E-002
  -9.3962696116991151E-002   5.4048305615253516E-003   5.3210371107780596E-002
  -9.7562883845473874E-002   1.0671574361272369E-002   5.4965238741326125E-002
 -0.10116307157395660        1.5800231399241069E-002   5.5101096276480029E-002
 -0.10476325930243933        2.0790801675431431E-002   5.3617943713242293E-002
  -6.0310143022591814E-002   8.1504974243800429E-003   5.0582504098362319E-002
  -6.0610173927340485E-002   1.0029533415908135E-002   5.1521717119902173E-002
  -6.0910204832089150E-002   1.1713644485881625E-002   5.2248566670067852E-002
  -6.1210235736837822E-002   1.3202830634300534E-002   5.2763052748859306E-002
  -6.1510266641586479E-002   1.4497091861164844E-002   5.3065175356276549E-002
  -6.9040118588217902E-002   1.1310573487142888E-002   5.0236978335958887E-002
  -6.9314753751144625E-002   1.3754909083638158E-002   4.9459199140467994E-002
  -6.9589388914071362E-002   1.5662404747015368E-002   4.8944574899995201E-002
  -6.9864024076998099E-002   1.7033060477274493E-002   4.8693105614540433E-002
  -7.0138659239924822E-002   1.7866876274415515E-002   4.8704791284103779E-002
  -7.9358963156734505E-002   1.4470649549905738E-002   5.0627709684304391E-002
  -7.9132684151447044E-002   1.7480284751368223E-002   4.7791023260219272E-002
  -7.8906405146159569E-002   1.9611165008149120E-002   4.5693010217544509E-002
  -7.8680126140872095E-002   2.0863290320248449E-002   4.4333670556280062E-002
  -7.8453847135584648E-002   2.1236660687666189E-002   4.3713004276425951E-002
  -9.1266676728141649E-002   1.7630725612668586E-002   5.1754698143398878E-002
  -9.0063965128247714E-002   2.1205660419098278E-002   4.6517189479156021E-002
  -8.8861253528353751E-002   2.3559925269282894E-002   4.2493872622715784E-002
  -8.7658541928459816E-002   2.4693520163222418E-002   3.9684747574078111E-002
  -8.6455830328565908E-002   2.4606445100916849E-002   3.8089814333243058E-002
 -0.10476325930243933        2.0790801675431431E-002   5.3617943713242293E-002
 -0.10210859668154666        2.4931036086828316E-002   4.5637697797278179E-002
  -9.9453934060653976E-002   2.7508685530416639E-002   3.9347162115508996E-002
  -9.6799271439761317E-002   2.8523750006196367E-002   3.4746336667934634E-002
  -9.4144608818868630E-002   2.7976229514167540E-002   3.1835221454555147E-002
  -6.1510266641586479E-002   1.4497091861164844E-002   5.3065175356276549E-002
  -6.0185347521805814E-002   1.5500265889041034E-002   5.1658379969005776E-002
  -5.8860428402025156E-002   1.6116190440495490E-002   5.0702882625204670E-002
  -5.7535509282244518E-002   1.6344865515528290E-002   5.0198683324873337E-002
  -5.6210590162463832E-002   1.6186291114139412E-002   5.0145782068011679E-002
  -7.0138659239924822E-002   1.7866876274415515E-002   4.8704791284103779E-002
  -6.8408856755788755E-002   1.8321073322831231E-002   4.7259962400020061E-002
  -6.6679054271652716E-002   1.8552872806914332E-002   4.6173602201177444E-002
  -6.4949251787516635E-002   1.8562274726664926E-002   4.5445710687575858E-002
  -6.3219449303380582E-002   1.8349279082082906E-002   4.5076287859215400E-002
  -7.8453847135584648E-002   2.1236660687666189E-002   4.3713004276425951E-002
  -7.6411990645321823E-002   2.1141880756621413E-002   4.2394993807618457E-002
  -7.4370134155058984E-002   2.0989555173333167E-002   4.1342622665823378E-002
  -7.2328277664796201E-002   2.0779683937801531E-002   4.0555890851040770E-002
  -7.0286421174533376E-002   2.0512267050026442E-002   4.0034798363270563E-002
  -8.6455830328565908E-002   2.4606445100916849E-002   3.8089814333243058E-002
  -8.4194749190404955E-002   2.3962688190411623E-002   3.7063474191800908E-002
  -8.1933668052244044E-002   2.3426237539752020E-002   3.6209944019142556E-002
  -7.9672586914083104E-002   2.2997093148938153E-002   3.5529223815267977E-002
  -7.7411505775922165E-002   2.2675255017969971E-002   3.5021313580177210E-002
  -9.4144608818868630E-002   2.7976229514167540E-002   3.1835221454555147E-002
  -9.1757132391038221E-002   2.6783495624201785E-002   3.1265403552567468E-002
  -8.9369655963207811E-002   2.5862919906170831E-002   3.0775566261134906E-002
  -8.6982179535377402E-002   2.5214502360074737E-002   3.0365709580257541E-002
  -8.4594703107546992E-002   2.4838242985913472E-002   3.0035833509935300E-002
  -5.6210590162463832E-002   1.6186291114139412E-002   5.0145782068011679E-002
  -5.4714292318509175E-002   1.5840019671206920E-002   4.9840791427540651E-002
  -5.3217994474554525E-002   1.5505603621609257E-002   4.9696357265826718E-002
  -5.1721696630599868E-002   1.5183042965345995E-002   4.9712479582869853E-002
  -5.0225398786645212E-002   1.4872337702417443E-002   4.9889158378670057E-002
  -6.3219449303380582E-002   1.8349279082082906E-002   4.5076287859215400E-002
  -6.1546795399254957E-002   1.8010480417770119E-002   4.4720307529025033E-002
  -5.9874141495129318E-002   1.7642473278328265E-002   4.4556482840419569E-002
  -5.8201487591003694E-002   1.7245257663757459E-002   4.4584813793399014E-002
  -5.6528833686878048E-002   1.6818833574057529E-002   4.4805300387963265E-002
  -7.0286421174533376E-002   2.0512267050026442E-002   4.0034798363270563E-002
  -6.8405812047408920E-002   2.0180941164333256E-002   3.9586764474897243E-002
  -6.6525202920284507E-002   1.9779342935047441E-002   3.9362485390936605E-002
  -6.4644593793160052E-002   1.9307472362168891E-002   3.9361961111388608E-002
  -6.2763984666035638E-002   1.8765329445697657E-002   3.9585191636253354E-002
  -7.7411505775922165E-002   2.2675255017969971E-002   3.5021313580177210E-002
  -7.5291342262971142E-002   2.2351401910896383E-002   3.4440162265157240E-002
  -7.3171178750020105E-002   2.1916212591766616E-002   3.4114364917377800E-002
  -7.1051015237069082E-002   2.1369687060580327E-002   3.4043921536838821E-002
  -6.8930851724118045E-002   2.0711825317337722E-002   3.4228832123540373E-002
  -8.4594703107546992E-002   2.4838242985913472E-002   3.0035833509935300E-002
  -8.2203386045941573E-002   2.4521862657459564E-002   2.9280500899805079E-002
  -7.9812068984336099E-002   2.4053082248485645E-002   2.8812121419743056E-002
  -7.7420751922730638E-002   2.3431901758991784E-002   2.8630695069749433E-002
  -7.5029434861125205E-002   2.2658321188977898E-002   2.8736221849824162E-002
  -5.0225398786645212E-002   1.4872337702417443E-002   4.9889158378670057E-002
  -4.8666602972954734E-002   1.4537399866900003E-002   4.9491199164727606E-002
  -4.7107807159264263E-002   1.4142141492870193E-002   4.9311075612960290E-002
  -4.5549011345573778E-002   1.3686562580328120E-002   4.9348787723368238E-002
  -4.3990215531883287E-002   1.3170663129273563E-002   4.9604335495951390E-002
  -5.6528833686878048E-002   1.6818833574057529E-002   4.4805300387963265E-002
  -5.4760050389133993E-002   1.6361572731228180E-002   4.4421384132153421E-002
  -5.2991267091389890E-002   1.5871846857269077E-002   4.4239607182275556E-002
  -5.1222483793645836E-002   1.5349655952180260E-002   4.4259969538329585E-002
  -4.9453700495901746E-002   1.4795000015961568E-002   4.4482471200315732E-002
  -6.2763984666035638E-002   1.8765329445697657E-002   3.9585191636253354E-002
  -6.0800910240481176E-002   1.8185745595556468E-002   3.9243173845958622E-002
  -5.8837835814926714E-002   1.7601552221667986E-002   3.9087599005352663E-002
  -5.6874761389372239E-002   1.7012749324032371E-002   3.9118467114435528E-002
  -5.4911686963817784E-002   1.6419336902649490E-002   3.9335778173207145E-002
  -6.8930851724118045E-002   2.0711825317337722E-002   3.4228832123540373E-002
  -6.6789182526996393E-002   2.0009918459884785E-002   3.3956568306143298E-002
  -6.4647513329874687E-002   1.9331257586066922E-002   3.3855051082191757E-002
  -6.2505844132753036E-002   1.8675842695884581E-002   3.3924280451685891E-002
  -6.0364174935631364E-002   1.8043673789337425E-002   3.4164256414625657E-002
  -7.5029434861125205E-002   2.2658321188977898E-002   2.8736221849824162E-002
  -7.2724867248679520E-002   2.1834091324212948E-002   2.8561567512707275E-002
  -7.0420299636233849E-002   2.1060962950465854E-002   2.8541963412792817E-002
  -6.8115732023788178E-002   2.0338936067736658E-002   2.8677409550080794E-002
  -6.5811164411342521E-002   1.9668010676025416E-002   2.8967905924571158E-002
  -4.3990215531883287E-002   1.3170663129273563E-002   4.9604335495951390E-002
  -4.2261559631549872E-002   1.2633220658323563E-002   4.9190135766821796E-002
  -4.0532903731216444E-002   1.2113012686094646E-002   4.8974463367218751E-002
  -3.8804247830883043E-002   1.1610039212586822E-002   4.8957318297142088E-002
  -3.7075591930549615E-002   1.1124300237800311E-002   4.9138700556592030E-002
  -4.9453700495901746E-002   1.4795000015961568E-002   4.4482471200315732E-002
  -4.7525801612571875E-002   1.4227598399133581E-002   4.4086589705074716E-002
  -4.5597902729242010E-002   1.3667170452216562E-002   4.3890666846300150E-002
  -4.3670003845912110E-002   1.3113716175210930E-002   4.3894702623992046E-002
  -4.1742104962582259E-002   1.2567235568116453E-002   4.4098697038150336E-002
  -5.4911686963817784E-002   1.6419336902649490E-002   3.9335778173207145E-002
  -5.2783113790551534E-002   1.5821976139943600E-002   3.8947954083044675E-002
  -5.0654540617285235E-002   1.5221328218338763E-002   3.8761519936288590E-002
  -4.8525967444018950E-002   1.4617393137835151E-002   3.8776475732938909E-002
  -4.6397394270752693E-002   1.4010170898432595E-002   3.8992821472995515E-002
  -6.0364174935631364E-002   1.8043673789337425E-002   3.4164256414625657E-002
  -5.8033496165488745E-002   1.7416353880753591E-002   3.3774228900731701E-002
  -5.5702817395346139E-002   1.6775485984460877E-002   3.3587022637184140E-002
  -5.3372138625203513E-002   1.6121070100459260E-002   3.3602637623982842E-002
  -5.1041459855060957E-002   1.5453106228748709E-002   3.3821073861127801E-002
  -6.5811164411342521E-002   1.9668010676025416E-002   2.8967905924571158E-002
  -6.3276948737383640E-002   1.9010731621563609E-002   2.8565414158135766E-002
  -6.0742733063424731E-002   1.8329643750582839E-002   2.8367174948986634E-002
  -5.8208517389465864E-002   1.7624747063083302E-002   2.8373188297123778E-002
  -5.5674301715506941E-002   1.6896041559064878E-002   2.8583454202547098E-002
  -3.7075591930549615E-002   1.1124300237800311E-002   4.9138700556592030E-002
  -3.5699423586106921E-002   1.0625509908126218E-002   4.9092493888428901E-002
  -3.4323255241664234E-002   1.0083382369955596E-002   4.9218663640536925E-002
  -3.2947086897221547E-002   9.4979176232885126E-003   4.9517209812916074E-002
  -3.1570918552778868E-002   8.8691156681250938E-003   4.9988132405566432E-002
  -4.1742104962582259E-002   1.2567235568116453E-002   4.4098697038150336E-002
  -4.0200216867753762E-002   1.2010344759992519E-002   4.4021491783730826E-002
  -3.8658328772925257E-002   1.1425659879898284E-002   4.4103349609811826E-002
  -3.7116440678096801E-002   1.0813180927833923E-002   4.4344270516393391E-002
  -3.5574552583268249E-002   1.0172907903799377E-002   4.4744254503475411E-002
  -4.6397394270752693E-002   1.4010170898432595E-002   3.8992821472995515E-002
  -4.4703099765309000E-002   1.3395179611858682E-002   3.8900160768845948E-002
  -4.3008805259865314E-002   1.2767937389840972E-002   3.8953249805426221E-002
  -4.1314510754421621E-002   1.2128444232379222E-002   3.9152088582736479E-002
  -3.9620216248977935E-002   1.1476700139473661E-002   3.9496677100776478E-002
  -5.1041459855060957E-002   1.5453106228748709E-002   3.3821073861127801E-002
  -4.9208072278772629E-002   1.4780014463724969E-002   3.3728500843774434E-002
  -4.7374684702484376E-002   1.4110214899783660E-002   3.3768364227380158E-002
  -4.5541297126196138E-002   1.3443707536924688E-002   3.3940664011945426E-002
  -4.3707909549907858E-002   1.2780492375147945E-002   3.4245400197469619E-002
  -5.5674301715506941E-002   1.6896041559064878E-002   2.8583454202547098E-002
  -5.3715134408144710E-002   1.6164849315591173E-002   2.8506512008516172E-002
  -5.1755967100782466E-002   1.5452492409726390E-002   2.8548692875673715E-002
  -4.9796799793420256E-002   1.4758970841469887E-002   2.8709996804019991E-002
  -4.7837632486058046E-002   1.4084284610822173E-002   2.8990423793554820E-002
  -3.1570918552778868E-002   8.8691156681250938E-003   4.9988132405566432E-002
  -2.9575821847954639E-002   8.3289259014767691E-003   4.9334700671142484E-002
  -2.7580725143130487E-002   8.0092977203551352E-003   4.8906821807626732E-002
  -2.5585628438306331E-002   7.9102311247602614E-003   4.8704495815018706E-002
  -2.3590531733482079E-002   8.0317261146916064E-003   4.8727722693318709E-002
  -3.5574552583268249E-002   1.0172907903799377E-002   4.4744254503475411E-002
  -3.3359815581474085E-002   9.5736909694008332E-003   4.4208114478277549E-002
  -3.1145078579679880E-002   9.0843802862435735E-003   4.3885702176111735E-002
  -2.8930341577885606E-002   8.7049758543283305E-003   4.3777017596977927E-002
  -2.6715604576091456E-002   8.4354776736546011E-003   4.3882060740876527E-002
  -3.9620216248977935E-002   1.1476700139473661E-002   3.9496677100776478E-002
  -3.7197664098089583E-002   1.0818456037324481E-002   3.8967173450519629E-002
  -3.4775111947201232E-002   1.0159462852132178E-002   3.8639572375419137E-002
  -3.2352559796312817E-002   9.4997205838965662E-003   3.8513873875474752E-002
  -2.9930007645424445E-002   8.8392292326175959E-003   3.8590077950686585E-002
  -4.3707909549907858E-002   1.2780492375147945E-002   3.4245400197469619E-002
  -4.1089367397801203E-002   1.2063221105248448E-002   3.3611877587868932E-002
  -3.8470825245694507E-002   1.1234545418020755E-002   3.3168432405548551E-002
  -3.5852283093587838E-002   1.0294465313464719E-002   3.2915064650508641E-002
  -3.3233740941481155E-002   9.2429807915806461E-003   3.2851774322748939E-002
  -4.7837632486058046E-002   1.4084284610822173E-002   2.8990423793554820E-002
  -4.5034925480608889E-002   1.3307986173172137E-002   2.8142226890325361E-002
  -4.2232218475159816E-002   1.2309627983909235E-002   2.7472282266500253E-002
  -3.9429511469710674E-002   1.1089210043032958E-002   2.6980589922079731E-002
  -3.6626804464261531E-002   9.6467323505435854E-003   2.6667149857063643E-002
  -9.0362508388508428E-002   0.0000000000000000        4.9836493375843449E-002
  -9.3962696116991151E-002   5.4048305615253516E-003   5.3210371107780596E-002
  -9.7562883845473874E-002   1.0671574361272369E-002   5.4965238741326125E-002
 -0.10116307157395660        1.5800231399241069E-002   5.5101096276480029E-002
 -0.10476325930243933        2.0790801675431431E-002   5.3617943713242293E-002
 -0.10329401649833470        0.0000000000000000        5.8664910495884397E-002
 -0.10683156465936297        1.0884591434651911E-002   5.2119962794463355E-002
 -0.11036911282039123        1.9172445143272866E-002   4.7319304326342855E-002
 -0.11390666098141949        2.4863561125862875E-002   4.4262935091522897E-002
 -0.11744420914244774        2.7957939382421925E-002   4.2950855090003473E-002
 -0.12645858746346061        0.0000000000000000        7.4202413971178230E-002
 -0.12657019672534225        1.6364352307778472E-002   5.5279989872146343E-002
 -0.12668180598722389        2.7673315925273362E-002   4.1465154338107206E-002
 -0.12679341524910551        3.3926890852484674E-002   3.2757907369060743E-002
 -0.12690502451098715        3.5125077089412413E-002   2.9158248965007023E-002
 -0.15985622128388616        0.0000000000000000        9.6449003801724928E-002
 -0.15317859231492903        2.1844113180905036E-002   6.2690452340829581E-002
 -0.14650096334597185        3.6174186707273862E-002   3.7402788776619164E-002
 -0.13982333437701469        4.2990220579106495E-002   2.0586013109093602E-002
 -0.13314570540805748        4.2292214796402910E-002   1.2240125338252925E-002
 -0.20348691795961138        0.0000000000000000       0.12540467998752450     
 -0.18665675142812321        2.7323874054031590E-002   7.4351350200513089E-002
 -0.16982658489663510        4.4675057489274347E-002   3.5132207641878743E-002
 -0.15299641836514694        5.2053550305728287E-002   7.7472523116214470E-003
 -0.13616625183365880        4.9459352503393408E-002  -7.8035157902587513E-003
 -0.10476325930243933        2.0790801675431431E-002   5.3617943713242293E-002
 -0.10210859668154666        2.4931036086828316E-002   4.5637697797278179E-002
  -9.9453934060653976E-002   2.7508685530416639E-002   3.9347162115508996E-002
  -9.6799271439761317E-002   2.8523750006196367E-002   3.4746336667934634E-002
  -9.4144608818868630E-002   2.7976229514167540E-002   3.1835221454555147E-002
 -0.11744420914244774        2.7957939382421925E-002   4.2950855090003473E-002
 -0.11348787910185161        2.9429886497644032E-002   3.6697346068791277E-002
 -0.10953154906125545        3.0253709056223224E-002   3.1357461652791165E-002
 -0.10557521902065931        3.0429407058159458E-002   2.6931201842003108E-002
 -0.10161888898006319        2.9956980503452822E-002   2.3418566636427163E-002
 -0.12690502451098715        3.5125077089412413E-002   2.9158248965007023E-002
 -0.12242311267967029        3.3928736908459732E-002   2.5545937249712387E-002
 -0.11794120084835344        3.2998732582029816E-002   2.2071164510647022E-002
 -0.11345928901703663        3.2335064110122519E-002   1.8733930747810972E-002
 -0.10897737718571976        3.1937731492738083E-002   1.5534235961204216E-002
 -0.13314570540805748        4.2292214796402910E-002   1.2240125338252925E-002
 -0.12891429741500274        3.8427587319275418E-002   1.2183471340041505E-002
 -0.12468288942194800        3.5743756107836332E-002   1.1488270689076535E-002
 -0.12045148142889325        3.4240721162085687E-002   1.0154523385358185E-002
 -0.11622007343583851        3.3918482482023400E-002   8.1822294288862851E-003
 -0.13616625183365880        4.9459352503393408E-002  -7.8035157902587513E-003
 -0.13296143330784893        4.2926437730091124E-002  -3.3900516602212542E-003
 -0.12975661478203906        3.8488779633642972E-002  -3.9121981192014564E-004
 -0.12655179625622925        3.6146378214048681E-002   1.1929797546448005E-003
 -0.12334697773041933        3.5899233471308634E-002   1.3625470394734718E-003
  -9.4144608818868630E-002   2.7976229514167540E-002   3.1835221454555147E-002
  -9.1757132391038221E-002   2.6783495624201785E-002   3.1265403552567468E-002
  -8.9369655963207811E-002   2.5862919906170831E-002   3.0775566261134906E-002
  -8.6982179535377402E-002   2.5214502360074737E-002   3.0365709580257541E-002
  -8.4594703107546992E-002   2.4838242985913472E-002   3.0035833509935300E-002
 -0.10161888898006319        2.9956980503452822E-002   2.3418566636427163E-002
  -9.9137310859626987E-002   2.9186225123265009E-002   2.3140474310835709E-002
  -9.6655732739190772E-002   2.8466936648757740E-002   2.2970604759900554E-002
  -9.4174154618754613E-002   2.7799115079931068E-002   2.2908957983621837E-002
  -9.1692576498318398E-002   2.7182760416784912E-002   2.2955533981999524E-002
 -0.10897737718571976        3.1937731492738083E-002   1.5534235961204216E-002
 -0.10637345520857656        3.1588954622328164E-002   1.5327177945754668E-002
 -0.10376953323143340        3.1070953391344629E-002   1.5256584869062745E-002
 -0.10116561125429024        3.0383727799787302E-002   1.5322456731128552E-002
  -9.8561689277147008E-002   2.9527277847656380E-002   1.5524793531951950E-002
 -0.11622007343583851        3.3918482482023400E-002   8.1822294288862851E-003
 -0.11346556543788706        3.3991684121391363E-002   7.8255144573245693E-003
 -0.11071105743993566        3.3674970133931413E-002   7.6335065886215213E-003
 -0.10795654944198424        3.2968340519643556E-002   7.6062058227774855E-003
 -0.10520204144403281        3.1871795278527890E-002   7.7436121597921834E-003
 -0.12334697773041933        3.5899233471308634E-002   1.3625470394734718E-003
 -0.12041364154755843        3.6394413620454522E-002   6.3548384554497350E-004
 -0.11748030536469754        3.6278986876518315E-002   1.0136991857678801E-004
 -0.11454696918183666        3.5552953239499904E-002  -2.3979474143130675E-004
 -0.11161363299897575        3.4216312709399288E-002  -3.8801013447931076E-004
  -8.4594703107546992E-002   2.4838242985913472E-002   3.0035833509935300E-002
  -8.2203386045941573E-002   2.4521862657459564E-002   2.9280500899805079E-002
  -7.9812068984336099E-002   2.4053082248485645E-002   2.8812121419743056E-002
  -7.7420751922730638E-002   2.3431901758991784E-002   2.8630695069749433E-002
  -7.5029434861125205E-002   2.2658321188977898E-002   2.8736221849824162E-002
  -9.1692576498318398E-002   2.7182760416784912E-002   2.2955533981999524E-002
  -8.9042631878635745E-002   2.6565990627494332E-002   2.2298287792576241E-002
  -8.6392687258953021E-002   2.5896923680234274E-002   2.1871343589239131E-002
  -8.3742742639270340E-002   2.5175559575004620E-002   2.1674701371988216E-002
  -8.1092798019587700E-002   2.4401898311805503E-002   2.1708361140823459E-002
  -9.8561689277147008E-002   2.9527277847656380E-002   1.5524793531951950E-002
  -9.5709768243369214E-002   2.8610118597529058E-002   1.5065736685786063E-002
  -9.2857847209591449E-002   2.7740765111982795E-002   1.4780330681724334E-002
  -9.0005926175813683E-002   2.6919217391017432E-002   1.4668575519766506E-002
  -8.7154005142035890E-002   2.6145475434633039E-002   1.4730471199912824E-002
 -0.10520204144403281        3.1871795278527890E-002   7.7436121597921834E-003
 -0.10220479514014209        3.0654246567563832E-002   7.5828475794343653E-003
  -9.9207548836251352E-002   2.9584606543731164E-002   7.5390826971983875E-003
  -9.6210302532360667E-002   2.8662875207030283E-002   7.6123175130842612E-003
  -9.3213056228469898E-002   2.7889052557460527E-002   7.8025520270919389E-003
 -0.11161363299897575        3.4216312709399288E-002  -3.8801013447931076E-004
 -0.10852771256895422        3.2698374537598635E-002  -1.5037952647883879E-004
 -0.10544179213893273        3.1428447975479917E-002   1.4759963566149392E-004
 -0.10235587170891122        3.0406533023042935E-002   5.0592735194166655E-004
  -9.9269951278889712E-002   2.9632629680288125E-002   9.2460362236124194E-004
  -7.5029434861125205E-002   2.2658321188977898E-002   2.8736221849824162E-002
  -7.2724867248679520E-002   2.1834091324212948E-002   2.8561567512707275E-002
  -7.0420299636233849E-002   2.1060962950465854E-002   2.8541963412792817E-002
  -6.8115732023788178E-002   2.0338936067736658E-002   2.8677409550080794E-002
  -6.5811164411342521E-002   1.9668010676025416E-002   2.8967905924571158E-002
  -8.1092798019587700E-002   2.4401898311805503E-002   2.1708361140823459E-002
  -7.8632524600501713E-002   2.3608256456821269E-002   2.1568237141867383E-002
  -7.6172251181415851E-002   2.2826950576237001E-002   2.1584474518989365E-002
  -7.3711977762329919E-002   2.2057980670052209E-002   2.1757073272189485E-002
  -7.1251704343244016E-002   2.1301346738267446E-002   2.2086033401467559E-002
  -8.7154005142035890E-002   2.6145475434633039E-002   1.4730471199912824E-002
  -8.4536714777434088E-002   2.5382421589429806E-002   1.4586112022499251E-002
  -8.1919424412832328E-002   2.4592938202008151E-002   1.4599425360039563E-002
  -7.9302134048230527E-002   2.3777025272367931E-002   1.4770411212533622E-002
  -7.6684843683628753E-002   2.2934682800509365E-002   1.5099069579981320E-002
  -9.3213056228469898E-002   2.7889052557460527E-002   7.8025520270919389E-003
  -9.0437437779476590E-002   2.7156586722038318E-002   7.6151921546029656E-003
  -8.7661819330483282E-002   2.6358925827779218E-002   7.5868159359433448E-003
  -8.4886200881490015E-002   2.5496069874683620E-002   7.7174233711131222E-003
  -8.2110582432496665E-002   2.4568018862751284E-002   8.0070144601122467E-003
  -9.9269951278889712E-002   2.9632629680288125E-002   9.2460362236124194E-004
  -9.6334693606629218E-002   2.8930751854646525E-002   6.5547753817857268E-004
  -9.3399435934368724E-002   2.8124913453550199E-002   5.4664624670086592E-004
  -9.0464178262108230E-002   2.7215114476999237E-002   5.9810974792812166E-004
  -8.7528920589847736E-002   2.6201354924993314E-002   8.0986804186022887E-004
  -6.5811164411342521E-002   1.9668010676025416E-002   2.8967905924571158E-002
  -6.3276948737383640E-002   1.9010731621563609E-002   2.8565414158135766E-002
  -6.0742733063424731E-002   1.8329643750582839E-002   2.8367174948986634E-002
  -5.8208517389465864E-002   1.7624747063083302E-002   2.8373188297123778E-002
  -5.5674301715506941E-002   1.6896041559064878E-002   2.8583454202547098E-002
  -7.1251704343244016E-002   2.1301346738267446E-002   2.2086033401467559E-002
  -6.8515999071017269E-002   2.0550193300732267E-002   2.1675587366321192E-002
  -6.5780293798790468E-002   1.9797664877296811E-002   2.1463867970424239E-002
  -6.3044588526563722E-002   1.9043761467961280E-002   2.1450875213776879E-002
  -6.0308883254336934E-002   1.8288483072725625E-002   2.1636609096379156E-002
  -7.6684843683628753E-002   2.2934682800509365E-002   1.5099069579981320E-002
  -7.3753174731170795E-002   2.2089654979900716E-002   1.4703103106742527E-002
  -7.0821505778712823E-002   2.1265686004010666E-002   1.4500337354716605E-002
  -6.7889836826254865E-002   2.0462775872839088E-002   1.4490772323903455E-002
  -6.4958167873796907E-002   1.9680924586386428E-002   1.4674408014303128E-002
  -8.2110582432496665E-002   2.4568018862751284E-002   8.0070144601122467E-003
  -7.8988475717844203E-002   2.3629116659069381E-002   7.6479613793997564E-003
  -7.5866369003191825E-002   2.2733707130724385E-002   7.4765831018635247E-003
  -7.2744262288539377E-002   2.1881790277717316E-002   7.4928796275036376E-003
  -6.9622155573886971E-002   2.1073366100047120E-002   7.6968509563193760E-003
  -8.7528920589847736E-002   2.6201354924993314E-002   8.0986804186022887E-004
  -8.4221902031037521E-002   2.5168578338237768E-002   5.1016218429317250E-004
  -8.0914883472227417E-002   2.4201728257438548E-002   3.9260521186532116E-004
  -7.7607864913417313E-002   2.3300804682594947E-002   4.5719712457702871E-004
  -7.4300846354607097E-002   2.2465807613707867E-002   7.0393792242795517E-004
  -5.5674301715506941E-002   1.6896041559064878E-002   2.8583454202547098E-002
  -5.3715134408144710E-002   1.6164849315591173E-002   2.8506512008516172E-002
  -5.1755967100782466E-002   1.5452492409726390E-002   2.8548692875673715E-002
  -4.9796799793420256E-002   1.4758970841469887E-002   2.8709996804019991E-002
  -4.7837632486058046E-002   1.4084284610822173E-002   2.8990423793554820E-002
  -6.0308883254336934E-002   1.8288483072725625E-002   2.1636609096379156E-002
  -5.8217715470278666E-002   1.7527546862659366E-002   2.1562288584148964E-002
  -5.6126547686220475E-002   1.6756670008831936E-002   2.1632845964122308E-002
  -5.4035379902162256E-002   1.5975852511243303E-002   2.1848281236298984E-002
  -5.1944212118104030E-002   1.5185094369893737E-002   2.2208594400678794E-002
  -6.4958167873796907E-002   1.9680924586386428E-002   1.4674408014303128E-002
  -6.2709244782028079E-002   1.8890244409727489E-002   1.4573933202504316E-002
  -6.0460321690259181E-002   1.8060847607937601E-002   1.4644091113923736E-002
  -5.8211398598490366E-002   1.7192734181016946E-002   1.4884881748560942E-002
  -5.5962475506721523E-002   1.6285904128965217E-002   1.5296305106415845E-002
  -6.9622155573886971E-002   2.1073366100047120E-002   7.6968509563193760E-003
  -6.7189722343392849E-002   2.0252941956795313E-002   7.5414458635819637E-003
  -6.4757289112898728E-002   1.9365025207042929E-002   7.5824283250775001E-003
  -6.2324855882404578E-002   1.8409615850790085E-002   7.8197983408053208E-003
  -5.9892422651910499E-002   1.7386713888036628E-002   8.2535559107660868E-003
  -7.4300846354607097E-002   2.2465807613707867E-002   7.0393792242795517E-004
  -7.1659148154373020E-002   2.1615639503863748E-002   4.6482656738255912E-004
  -6.9017449954138999E-002   2.0669202806148645E-002   4.4785759758422805E-004
  -6.6375751753904977E-002   1.9626497520563849E-002   6.5303101303356564E-004
  -6.3734053553670900E-002   1.8487523647108040E-002   1.0803468137293715E-003
  -4.7837632486058046E-002   1.4084284610822173E-002   2.8990423793554820E-002
  -4.5034925480608889E-002   1.3307986173172137E-002   2.8142226890325361E-002
  -4.2232218475159816E-002   1.2309627983909235E-002   2.7472282266500253E-002
  -3.9429511469710674E-002   1.1089210043032958E-002   2.6980589922079731E-002
  -3.6626804464261531E-002   9.6467323505435854E-003   2.6667149857063643E-002
  -5.1944212118104030E-002   1.5185094369893737E-002   2.2208594400678794E-002
  -4.8963783891028276E-002   1.4367189177993789E-002   2.1314976078623482E-002
  -4.5983355663952487E-002   1.3504930528753664E-002   2.0598547920416821E-002
  -4.3002927436876698E-002   1.2598318422173928E-002   2.0059309926059074E-002
  -4.0022499209800999E-002   1.1647352858254689E-002   1.9697262095550006E-002
  -5.5962475506721523E-002   1.6285904128965217E-002   1.5296305106415845E-002
  -5.2805388173574816E-002   1.5426392182814913E-002   1.4534971659808021E-002
  -4.9648300840428143E-002   1.4700233073598142E-002   1.3949766261493281E-002
  -4.6491213507281387E-002   1.4107426801315203E-002   1.3540688911471487E-002
  -4.3334126174134860E-002   1.3647973365965682E-002   1.3307739609742741E-002
  -5.9892422651910499E-002   1.7386713888036628E-002   8.2535559107660868E-003
  -5.6559738328248579E-002   1.6485595187636301E-002   7.8022136338792535E-003
  -5.3227054004586716E-002   1.5895535618442761E-002   7.5259372897298286E-003
  -4.9894369680924776E-002   1.5616535180456269E-002   7.4247268783174227E-003
  -4.6561685357262947E-002   1.5648593873676897E-002   7.4985823996428086E-003
  -6.3734053553670900E-002   1.8487523647108040E-002   1.0803468137293715E-003
  -6.0226834355049497E-002   1.7544798192457689E-002   1.1167020008370221E-003
  -5.6719615156428260E-002   1.7090838163286992E-002   1.3270610051260290E-003
  -5.3212395957806857E-002   1.7125643559597323E-002   1.7114238265966975E-003
  -4.9705176759185621E-002   1.7649214381387779E-002   2.2697904652486667E-003
 </DataArray>
 </PointData>
 </Piece>
 <Piece  NumberOfPoints="          1600 "  NumberOfCells="         1024 ">
 <Points>
 <DataArray  type="Float64" NumberOfComponents="3"  format="ascii" >
  0.50000000000000000        0.0000000000000000        0.0000000000000000     
  0.53125000000000000        0.0000000000000000        0.0000000000000000     
  0.56250000000000000        0.0000000000000000        0.0000000000000000     
  0.59375000000000000        0.0000000000000000        0.0000000000000000     
  0.62500000000000000        0.0000000000000000        0.0000000000000000     
  0.50000000000000000        3.1250000000000000E-002   0.0000000000000000     
  0.53125000000000000        3.1250000000000000E-002   0.0000000000000000     
  0.56250000000000000        3.1250000000000000E-002   0.0000000000000000     
  0.59375000000000000        3.1250000000000000E-002   0.0000000000000000     
  0.62500000000000000        3.1250000000000000E-002   0.0000000000000000     
  0.50000000000000000        6.2500000000000000E-002   0.0000000000000000     
  0.53125000000000000        6.2500000000000000E-002   0.0000000000000000     
  0.56250000000000000        6.2500000000000000E-002   0.0000000000000000     
  0.59375000000000000        6.2500000000000000E-002   0.0000000000000000     
  0.62500000000000000        6.2500000000000000E-002   0.0000000000000000     
  0.50000000000000000        9.3750000000000000E-002   0.0000000000000000     
  0.53125000000000000        9.3750000000000000E-002   0.0000000000000000     
  0.56250000000000000        9.3750000000000000E-002   0.0000000000000000     
  0.59375000000000000        9.3750000000000000E-002   0.0000000000000000     
  0.62500000000000000        9.3750000000000000E-002   0.0000000000000000     
  0.50000000000000000       0.12500000000000000        0.0000000000000000     
  0.53125000000000000       0.12500000000000000        0.0000000000000000     
  0.56250000000000000       0.12500000000000000        0.0000000000000000     
  0.59375000000000000       0.12500000000000000        0.0000000000000000     
  0.62500000000000000       0.12500000000000000        0.0000000000000000     
  0.62500000000000000        0.0000000000000000        0.0000000000000000     
  0.65625000000000000        0.0000000000000000        0.0000000000000000     
  0.68750000000000000        0.0000000000000000        0.0000000000000000     
  0.71875000000000000        0.0000000000000000        0.0000000000000000     
  0.75000000000000000        0.0000000000000000        0.0000000000000000     
  0.62500000000000000        3.1250000000000000E-002   0.0000000000000000     
  0.65625000000000000        3.1250000000000000E-002   0.0000000000000000     
  0.68750000000000000        3.1250000000000000E-002   0.0000000000000000     
  0.71875000000000000        3.1250000000000000E-002   0.0000000000000000     
  0.75000000000000000        3.1250000000000000E-002   0.0000000000000000     
  0.62500000000000000        6.2500000000000000E-002   0.0000000000000000     
  0.65625000000000000        6.2500000000000000E-002   0.0000000000000000     
  0.68750000000000000        6.2500000000000000E-002   0.0000000000000000     
  0.71875000000000000        6.2500000000000000E-002   0.0000000000000000     
  0.75000000000000000        6.2500000000000000E-002   0.0000000000000000     
  0.62500000000000000        9.3750000000000000E-002   0.0000000000000000     
  0.65625000000000000        9.3750000000000000E-002   0.0000000000000000     
  0.68750000000000000        9.3750000000000000E-002   0.0000000000000000     
  0.71875000000000000        9.3750000000000000E-002   0.0000000000000000     
  0.75000000000000000        9.3750000000000000E-002   0.0000000000000000     
  0.62500000000000000       0.12500000000000000        0.0000000000000000     
  0.65625000000000000       0.12500000000000000        0.0000000000000000     
  0.68750000000000000       0.12500000000000000        0.0000000000000000     
  0.71875000000000000       0.12500000000000000        0.0000000000000000     
  0.75000000000000000       0.12500000000000000        0.0000000000000000     
  0.75000000000000000        0.0000000000000000        0.0000000000000000     
  0.78125000000000000        0.0000000000000000        0.0000000000000000     
  0.81250000000000000        0.0000000000000000        0.0000000000000000     
  0.84375000000000000        0.0000000000000000        0.0000000000000000     
  0.87500000000000000        0.0000000000000000        0.0000000000000000     
  0.75000000000000000        3.1250000000000000E-002   0.0000000000000000     
  0.78125000000000000        3.1250000000000000E-002   0.0000000000000000     
  0.81250000000000000        3.1250000000000000E-002   0.0000000000000000     
  0.84375000000000000        3.1250000000000000E-002   0.0000000000000000     
  0.87500000000000000        3.1250000000000000E-002   0.0000000000000000     
  0.75000000000000000        6.2500000000000000E-002   0.0000000000000000     
  0.78125000000000000        6.2500000000000000E-002   0.0000000000000000     
  0.81250000000000000        6.2500000000000000E-002   0.0000000000000000     
  0.84375000000000000        6.2500000000000000E-002   0.0000000000000000     
  0.87500000000000000        6.2500000000000000E-002   0.0000000000000000     
  0.75000000000000000        9.3750000000000000E-002   0.0000000000000000     
  0.78125000000000000        9.3750000000000000E-002   0.0000000000000000     
  0.81250000000000000        9.3750000000000000E-002   0.0000000000000000     
  0.84375000000000000        9.3750000000000000E-002   0.0000000000000000     
  0.87500000000000000        9.3750000000000000E-002   0.0000000000000000     
  0.75000000000000000       0.12500000000000000        0.0000000000000000     
  0.78125000000000000       0.12500000000000000        0.0000000000000000     
  0.81250000000000000       0.12500000000000000        0.0000000000000000     
  0.84375000000000000       0.12500000000000000        0.0000000000000000     
  0.87500000000000000       0.12500000000000000        0.0000000000000000     
  0.87500000000000000        0.0000000000000000        0.0000000000000000     
  0.90625000000000000        0.0000000000000000        0.0000000000000000     
  0.93750000000000000        0.0000000000000000        0.0000000000000000     
  0.96875000000000000        0.0000000000000000        0.0000000000000000     
   1.0000000000000000        0.0000000000000000        0.0000000000000000     
  0.87500000000000000        3.1250000000000000E-002   0.0000000000000000     
  0.90625000000000000        3.1250000000000000E-002   0.0000000000000000     
  0.93750000000000000        3.1250000000000000E-002   0.0000000000000000     
  0.96875000000000000        3.1250000000000000E-002   0.0000000000000000     
   1.0000000000000000        3.1250000000000000E-002   0.0000000000000000     
  0.87500000000000000        6.2500000000000000E-002   0.0000000000000000     
  0.90625000000000000        6.2500000000000000E-002   0.0000000000000000     
  0.93750000000000000        6.2500000000000000E-002   0.0000000000000000     
  0.96875000000000000        6.2500000000000000E-002   0.0000000000000000     
   1.0000000000000000        6.2500000000000000E-002   0.0000000000000000     
  0.87500000000000000        9.3750000000000000E-002   0.0000000000000000     
  0.90625000000000000        9.3750000000000000E-002   0.0000000000000000     
  0.93750000000000000        9.3750000000000000E-002   0.0000000000000000     
  0.96875000000000000        9.3750000000000000E-002   0.0000000000000000     
   1.0000000000000000        9.3750000000000000E-002   0.0000000000000000     
  0.87500000000000000       0.12500000000000000        0.0000000000000000     
  0.90625000000000000       0.12500000000000000        0.0000000000000000     
  0.93750000000000000       0.12500000000000000        0.0000000000000000     
  0.96875000000000000       0.12500000000000000        0.0000000000000000     
   1.0000000000000000       0.12500000000000000        0.0000000000000000     
   1.0000000000000000        0.0000000000000000        0.0000000000000000     
   1.0312500000000000        0.0000000000000000        0.0000000000000000     
   1.0625000000000000        0.0000000000000000        0.0000000000000000     
   1.0937500000000000        0.0000000000000000        0.0000000000000000     
   1.1250000000000000        0.0000000000000000        0.0000000000000000     
   1.0000000000000000        3.1250000000000000E-002   0.0000000000000000     
   1.0312500000000000        3.1250000000000000E-002   0.0000000000000000     
   1.0625000000000000        3.1250000000000000E-002   0.0000000000000000     
   1.0937500000000000        3.1250000000000000E-002   0.0000000000000000     
   1.1250000000000000        3.1250000000000000E-002   0.0000000000000000     
   1.0000000000000000        6.2500000000000000E-002   0.0000000000000000     
   1.0312500000000000        6.2500000000000000E-002   0.0000000000000000     
   1.0625000000000000        6.2500000000000000E-002   0.0000000000000000     
   1.0937500000000000        6.2500000000000000E-002   0.0000000000000000     
   1.1250000000000000        6.2500000000000000E-002   0.0000000000000000     
   1.0000000000000000        9.3750000000000000E-002   0.0000000000000000     
   1.0312500000000000        9.3750000000000000E-002   0.0000000000000000     
   1.0625000000000000        9.3750000000000000E-002   0.0000000000000000     
   1.0937500000000000        9.3750000000000000E-002   0.0000000000000000     
   1.1250000000000000        9.3750000000000000E-002   0.0000000000000000     
   1.0000000000000000       0.12500000000000000        0.0000000000000000     
   1.0312500000000000       0.12500000000000000        0.0000000000000000     
   1.0625000000000000       0.12500000000000000        0.0000000000000000     
   1.0937500000000000       0.12500000000000000        0.0000000000000000     
   1.1250000000000000       0.12500000000000000        0.0000000000000000     
   1.1250000000000000        0.0000000000000000        0.0000000000000000     
   1.1562500000000000        0.0000000000000000        0.0000000000000000     
   1.1875000000000000        0.0000000000000000        0.0000000000000000     
   1.2187500000000000        0.0000000000000000        0.0000000000000000     
   1.2500000000000000        0.0000000000000000        0.0000000000000000     
   1.1250000000000000        3.1250000000000000E-002   0.0000000000000000     
   1.1562500000000000        3.1250000000000000E-002   0.0000000000000000     
   1.1875000000000000        3.1250000000000000E-002   0.0000000000000000     
   1.2187500000000000        3.1250000000000000E-002   0.0000000000000000     
   1.2500000000000000        3.1250000000000000E-002   0.0000000000000000     
   1.1250000000000000        6.2500000000000000E-002   0.0000000000000000     
   1.1562500000000000        6.2500000000000000E-002   0.0000000000000000     
   1.1875000000000000        6.2500000000000000E-002   0.0000000000000000     
   1.2187500000000000        6.2500000000000000E-002   0.0000000000000000     
   1.2500000000000000        6.2500000000000000E-002   0.0000000000000000     
   1.1250000000000000        9.3750000000000000E-002   0.0000000000000000     
   1.1562500000000000        9.3750000000000000E-002   0.0000000000000000     
   1.1875000000000000        9.3750000000000000E-002   0.0000000000000000     
   1.2187500000000000        9.3750000000000000E-002   0.0000000000000000     
   1.2500000000000000        9.3750000000000000E-002   0.0000000000000000     
   1.1250000000000000       0.12500000000000000        0.0000000000000000     
   1.1562500000000000       0.12500000000000000        0.0000000000000000     
   1.1875000000000000       0.12500000000000000        0.0000000000000000     
   1.2187500000000000       0.12500000000000000        0.0000000000000000     
   1.2500000000000000       0.12500000000000000        0.0000000000000000     
   1.2500000000000000        0.0000000000000000        0.0000000000000000     
   1.2812500000000000        0.0000000000000000        0.0000000000000000     
   1.3125000000000000        0.0000000000000000        0.0000000000000000     
   1.3437500000000000        0.0000000000000000        0.0000000000000000     
   1.3750000000000000        0.0000000000000000        0.0000000000000000     
   1.2500000000000000        3.1250000000000000E-002   0.0000000000000000     
   1.2812500000000000        3.1250000000000000E-002   0.0000000000000000     
   1.3125000000000000        3.1250000000000000E-002   0.0000000000000000     
   1.3437500000000000        3.1250000000000000E-002   0.0000000000000000     
   1.3750000000000000        3.1250000000000000E-002   0.0000000000000000     
   1.2500000000000000        6.2500000000000000E-002   0.0000000000000000     
   1.2812500000000000        6.2500000000000000E-002   0.0000000000000000     
   1.3125000000000000        6.2500000000000000E-002   0.0000000000000000     
   1.3437500000000000        6.2500000000000000E-002   0.0000000000000000     
   1.3750000000000000        6.2500000000000000E-002   0.0000000000000000     
   1.2500000000000000        9.3750000000000000E-002   0.0000000000000000     
   1.2812500000000000        9.3750000000000000E-002   0.0000000000000000     
   1.3125000000000000        9.3750000000000000E-002   0.0000000000000000     
   1.3437500000000000        9.3750000000000000E-002   0.0000000000000000     
   1.3750000000000000        9.3750000000000000E-002   0.0000000000000000     
   1.2500000000000000       0.12500000000000000        0.0000000000000000     
   1.2812500000000000       0.12500000000000000        0.0000000000000000     
   1.3125000000000000       0.12500000000000000        0.0000000000000000     
   1.3437500000000000       0.12500000000000000        0.0000000000000000     
   1.3750000000000000       0.12500000000000000        0.0000000000000000     
   1.3750000000000000        0.0000000000000000        0.0000000000000000     
   1.4062500000000000        0.0000000000000000        0.0000000000000000     
   1.4375000000000000        0.0000000000000000        0.0000000000000000     
   1.4687500000000000        0.0000000000000000        0.0000000000000000     
   1.5000000000000000        0.0000000000000000        0.0000000000000000     
   1.3750000000000000        3.1250000000000000E-002   0.0000000000000000     
   1.4062500000000000        3.1250000000000000E-002   0.0000000000000000     
   1.4375000000000000        3.1250000000000000E-002   0.0000000000000000     
   1.4687500000000000        3.1250000000000000E-002   0.0000000000000000     
   1.5000000000000000        3.1250000000000000E-002   0.0000000000000000     
   1.3750000000000000        6.2500000000000000E-002   0.0000000000000000     
   1.4062500000000000        6.2500000000000000E-002   0.0000000000000000     
   1.4375000000000000        6.2500000000000000E-002   0.0000000000000000     
   1.4687500000000000        6.2500000000000000E-002   0.0000000000000000     
   1.5000000000000000        6.2500000000000000E-002   0.0000000000000000     
   1.3750000000000000        9.3750000000000000E-002   0.0000000000000000     
   1.4062500000000000        9.3750000000000000E-002   0.0000000000000000     
   1.4375000000000000        9.3750000000000000E-002   0.0000000000000000     
   1.4687500000000000        9.3750000000000000E-002   0.0000000000000000     
   1.5000000000000000        9.3750000000000000E-002   0.0000000000000000     
   1.3750000000000000       0.12500000000000000        0.0000000000000000     
   1.4062500000000000       0.12500000000000000        0.0000000000000000     
   1.4375000000000000       0.12500000000000000        0.0000000000000000     
   1.4687500000000000       0.12500000000000000        0.0000000000000000     
   1.5000000000000000       0.12500000000000000        0.0000000000000000     
  0.50000000000000000       0.12500000000000000        0.0000000000000000     
  0.53125000000000000       0.12500000000000000        0.0000000000000000     
  0.56250000000000000       0.12500000000000000        0.0000000000000000     
  0.59375000000000000       0.12500000000000000        0.0000000000000000     
  0.62500000000000000       0.12500000000000000        0.0000000000000000     
  0.50000000000000000       0.15625000000000000        0.0000000000000000     
  0.53125000000000000       0.15625000000000000        0.0000000000000000     
  0.56250000000000000       0.15625000000000000        0.0000000000000000     
  0.59375000000000000       0.15625000000000000        0.0000000000000000     
  0.62500000000000000       0.15625000000000000        0.0000000000000000     
  0.50000000000000000       0.18750000000000000        0.0000000000000000     
  0.53125000000000000       0.18750000000000000        0.0000000000000000     
  0.56250000000000000       0.18750000000000000        0.0000000000000000     
  0.59375000000000000       0.18750000000000000        0.0000000000000000     
  0.62500000000000000       0.18750000000000000        0.0000000000000000     
  0.50000000000000000       0.21875000000000000        0.0000000000000000     
  0.53125000000000000       0.21875000000000000        0.0000000000000000     
  0.56250000000000000       0.21875000000000000        0.0000000000000000     
  0.59375000000000000       0.21875000000000000        0.0000000000000000     
  0.62500000000000000       0.21875000000000000        0.0000000000000000     
  0.50000000000000000       0.25000000000000000        0.0000000000000000     
  0.53125000000000000       0.25000000000000000        0.0000000000000000     
  0.56250000000000000       0.25000000000000000        0.0000000000000000     
  0.59375000000000000       0.25000000000000000        0.0000000000000000     
  0.62500000000000000       0.25000000000000000        0.0000000000000000     
  0.62500000000000000       0.12500000000000000        0.0000000000000000     
  0.65625000000000000       0.12500000000000000        0.0000000000000000     
  0.68750000000000000       0.12500000000000000        0.0000000000000000     
  0.71875000000000000       0.12500000000000000        0.0000000000000000     
  0.75000000000000000       0.12500000000000000        0.0000000000000000     
  0.62500000000000000       0.15625000000000000        0.0000000000000000     
  0.65625000000000000       0.15625000000000000        0.0000000000000000     
  0.68750000000000000       0.15625000000000000        0.0000000000000000     
  0.71875000000000000       0.15625000000000000        0.0000000000000000     
  0.75000000000000000       0.15625000000000000        0.0000000000000000     
  0.62500000000000000       0.18750000000000000        0.0000000000000000     
  0.65625000000000000       0.18750000000000000        0.0000000000000000     
  0.68750000000000000       0.18750000000000000        0.0000000000000000     
  0.71875000000000000       0.18750000000000000        0.0000000000000000     
  0.75000000000000000       0.18750000000000000        0.0000000000000000     
  0.62500000000000000       0.21875000000000000        0.0000000000000000     
  0.65625000000000000       0.21875000000000000        0.0000000000000000     
  0.68750000000000000       0.21875000000000000        0.0000000000000000     
  0.71875000000000000       0.21875000000000000        0.0000000000000000     
  0.75000000000000000       0.21875000000000000        0.0000000000000000     
  0.62500000000000000       0.25000000000000000        0.0000000000000000     
  0.65625000000000000       0.25000000000000000        0.0000000000000000     
  0.68750000000000000       0.25000000000000000        0.0000000000000000     
  0.71875000000000000       0.25000000000000000        0.0000000000000000     
  0.75000000000000000       0.25000000000000000        0.0000000000000000     
  0.75000000000000000       0.12500000000000000        0.0000000000000000     
  0.78125000000000000       0.12500000000000000        0.0000000000000000     
  0.81250000000000000       0.12500000000000000        0.0000000000000000     
  0.84375000000000000       0.12500000000000000        0.0000000000000000     
  0.87500000000000000       0.12500000000000000        0.0000000000000000     
  0.75000000000000000       0.15625000000000000        0.0000000000000000     
  0.78125000000000000       0.15625000000000000        0.0000000000000000     
  0.81250000000000000       0.15625000000000000        0.0000000000000000     
  0.84375000000000000       0.15625000000000000        0.0000000000000000     
  0.87500000000000000       0.15625000000000000        0.0000000000000000     
  0.75000000000000000       0.18750000000000000        0.0000000000000000     
  0.78125000000000000       0.18750000000000000        0.0000000000000000     
  0.81250000000000000       0.18750000000000000        0.0000000000000000     
  0.84375000000000000       0.18750000000000000        0.0000000000000000     
  0.87500000000000000       0.18750000000000000        0.0000000000000000     
  0.75000000000000000       0.21875000000000000        0.0000000000000000     
  0.78125000000000000       0.21875000000000000        0.0000000000000000     
  0.81250000000000000       0.21875000000000000        0.0000000000000000     
  0.84375000000000000       0.21875000000000000        0.0000000000000000     
  0.87500000000000000       0.21875000000000000        0.0000000000000000     
  0.75000000000000000       0.25000000000000000        0.0000000000000000     
  0.78125000000000000       0.25000000000000000        0.0000000000000000     
  0.81250000000000000       0.25000000000000000        0.0000000000000000     
  0.84375000000000000       0.25000000000000000        0.0000000000000000     
  0.87500000000000000       0.25000000000000000        0.0000000000000000     
  0.87500000000000000       0.12500000000000000        0.0000000000000000     
  0.90625000000000000       0.12500000000000000        0.0000000000000000     
  0.93750000000000000       0.12500000000000000        0.0000000000000000     
  0.96875000000000000       0.12500000000000000        0.0000000000000000     
   1.0000000000000000       0.12500000000000000        0.0000000000000000     
  0.87500000000000000       0.15625000000000000        0.0000000000000000     
  0.90625000000000000       0.15625000000000000        0.0000000000000000     
  0.93750000000000000       0.15625000000000000        0.0000000000000000     
  0.96875000000000000       0.15625000000000000        0.0000000000000000     
   1.0000000000000000       0.15625000000000000        0.0000000000000000     
  0.87500000000000000       0.18750000000000000        0.0000000000000000     
  0.90625000000000000       0.18750000000000000        0.0000000000000000     
  0.93750000000000000       0.18750000000000000        0.0000000000000000     
  0.96875000000000000       0.18750000000000000        0.0000000000000000     
   1.0000000000000000       0.18750000000000000        0.0000000000000000     
  0.87500000000000000       0.21875000000000000        0.0000000000000000     
  0.90625000000000000       0.21875000000000000        0.0000000000000000     
  0.93750000000000000       0.21875000000000000        0.0000000000000000     
  0.96875000000000000       0.21875000000000000        0.0000000000000000     
   1.0000000000000000       0.21875000000000000        0.0000000000000000     
  0.87500000000000000       0.25000000000000000        0.0000000000000000     
  0.90625000000000000       0.25000000000000000        0.0000000000000000     
  0.93750000000000000       0.25000000000000000        0.0000000000000000     
  0.96875000000000000       0.25000000000000000        0.0000000000000000     
   1.0000000000000000       0.25000000000000000        0.0000000000000000     
   1.0000000000000000       0.12500000000000000        0.0000000000000000     
   1.0312500000000000       0.12500000000000000        0.0000000000000000     
   1.0625000000000000       0.12500000000000000        0.0000000000000000     
   1.0937500000000000       0.12500000000000000        0.0000000000000000     
   1.1250000000000000       0.12500000000000000        0.0000000000000000     
   1.0000000000000000       0.15625000000000000        0.0000000000000000     
   1.0312500000000000       0.15625000000000000        0.0000000000000000     
   1.0625000000000000       0.15625000000000000        0.0000000000000000     
   1.0937500000000000       0.15625000000000000        0.0000000000000000     
   1.1250000000000000       0.15625000000000000        0.0000000000000000     
   1.0000000000000000       0.18750000000000000        0.0000000000000000     
   1.0312500000000000       0.18750000000000000        0.0000000000000000     
   1.0625000000000000       0.18750000000000000        0.0000000000000000     
   1.0937500000000000       0.18750000000000000        0.0000000000000000     
   1.1250000000000000       0.18750000000000000        0.0000000000000000     
   1.0000000000000000       0.21875000000000000        0.0000000000000000     
   1.0312500000000000       0.21875000000000000        0.0000000000000000     
   1.0625000000000000       0.21875000000000000        0.0000000000000000     
   1.0937500000000000       0.21875000000000000        0.0000000000000000     
   1.1250000000000000       0.21875000000000000        0.0000000000000000     
   1.0000000000000000       0.25000000000000000        0.0000000000000000     
   1.0312500000000000       0.25000000000000000        0.0000000000000000     
   1.0625000000000000       0.25000000000000000        0.0000000000000000     
   1.0937500000000000       0.25000000000000000        0.0000000000000000     
   1.1250000000000000       0.25000000000000000        0.0000000000000000     
   1.1250000000000000       0.12500000000000000        0.0000000000000000     
   1.1562500000000000       0.12500000000000000        0.0000000000000000     
   1.1875000000000000       0.12500000000000000        0.0000000000000000     
   1.2187500000000000       0.12500000000000000        0.0000000000000000     
   1.2500000000000000       0.12500000000000000        0.0000000000000000     
   1.1250000000000000       0.15625000000000000        0.0000000000000000     
   1.1562500000000000       0.15625000000000000        0.0000000000000000     
   1.1875000000000000       0.15625000000000000        0.0000000000000000     
   1.2187500000000000       0.15625000000000000        0.0000000000000000     
   1.2500000000000000       0.15625000000000000        0.0000000000000000     
   1.1250000000000000       0.18750000000000000        0.0000000000000000     
   1.1562500000000000       0.18750000000000000        0.0000000000000000     
   1.1875000000000000       0.18750000000000000        0.0000000000000000     
   1.2187500000000000       0.18750000000000000        0.0000000000000000     
   1.2500000000000000       0.18750000000000000        0.0000000000000000     
   1.1250000000000000       0.21875000000000000        0.0000000000000000     
   1.1562500000000000       0.21875000000000000        0.0000000000000000     
   1.1875000000000000       0.21875000000000000        0.0000000000000000     
   1.2187500000000000       0.21875000000000000        0.0000000000000000     
   1.2500000000000000       0.21875000000000000        0.0000000000000000     
   1.1250000000000000       0.25000000000000000        0.0000000000000000     
   1.1562500000000000       0.25000000000000000        0.0000000000000000     
   1.1875000000000000       0.25000000000000000        0.0000000000000000     
   1.2187500000000000       0.25000000000000000        0.0000000000000000     
   1.2500000000000000       0.25000000000000000        0.0000000000000000     
   1.2500000000000000       0.12500000000000000        0.0000000000000000     
   1.2812500000000000       0.12500000000000000        0.0000000000000000     
   1.3125000000000000       0.12500000000000000        0.0000000000000000     
   1.3437500000000000       0.12500000000000000        0.0000000000000000     
   1.3750000000000000       0.12500000000000000        0.0000000000000000     
   1.2500000000000000       0.15625000000000000        0.0000000000000000     
   1.2812500000000000       0.15625000000000000        0.0000000000000000     
   1.3125000000000000       0.15625000000000000        0.0000000000000000     
   1.3437500000000000       0.15625000000000000        0.0000000000000000     
   1.3750000000000000       0.15625000000000000        0.0000000000000000     
   1.2500000000000000       0.18750000000000000        0.0000000000000000     
   1.2812500000000000       0.18750000000000000        0.0000000000000000     
   1.3125000000000000       0.18750000000000000        0.0000000000000000     
   1.3437500000000000       0.18750000000000000        0.0000000000000000     
   1.3750000000000000       0.18750000000000000        0.0000000000000000     
   1.2500000000000000       0.21875000000000000        0.0000000000000000     
   1.2812500000000000       0.21875000000000000        0.0000000000000000     
   1.3125000000000000       0.21875000000000000        0.0000000000000000     
   1.3437500000000000       0.21875000000000000        0.0000000000000000     
   1.3750000000000000       0.21875000000000000        0.0000000000000000     
   1.2500000000000000       0.25000000000000000        0.0000000000000000     
   1.2812500000000000       0.25000000000000000        0.0000000000000000     
   1.3125000000000000       0.25000000000000000        0.0000000000000000     
   1.3437500000000000       0.25000000000000000        0.0000000000000000     
   1.3750000000000000       0.25000000000000000        0.0000000000000000     
   1.3750000000000000       0.12500000000000000        0.0000000000000000     
   1.4062500000000000       0.12500000000000000        0.0000000000000000     
   1.4375000000000000       0.12500000000000000        0.0000000000000000     
   1.4687500000000000       0.12500000000000000        0.0000000000000000     
   1.5000000000000000       0.12500000000000000        0.0000000000000000     
   1.3750000000000000       0.15625000000000000        0.0000000000000000     
   1.4062500000000000       0.15625000000000000        0.0000000000000000     
   1.4375000000000000       0.15625000000000000        0.0000000000000000     
   1.4687500000000000       0.15625000000000000        0.0000000000000000     
   1.5000000000000000       0.15625000000000000        0.0000000000000000     
   1.3750000000000000       0.18750000000000000        0.0000000000000000     
   1.4062500000000000       0.18750000000000000        0.0000000000000000     
   1.4375000000000000       0.18750000000000000        0.0000000000000000     
   1.4687500000000000       0.18750000000000000        0.0000000000000000     
   1.5000000000000000       0.18750000000000000        0.0000000000000000     
   1.3750000000000000       0.21875000000000000        0.0000000000000000     
   1.4062500000000000       0.21875000000000000        0.0000000000000000     
   1.4375000000000000       0.21875000000000000        0.0000000000000000     
   1.4687500000000000       0.21875000000000000        0.0000000000000000     
   1.5000000000000000       0.21875000000000000        0.0000000000000000     
   1.3750000000000000       0.25000000000000000        0.0000000000000000     
   1.4062500000000000       0.25000000000000000        0.0000000000000000     
   1.4375000000000000       0.25000000000000000        0.0000000000000000     
   1.4687500000000000       0.25000000000000000        0.0000000000000000     
   1.5000000000000000       0.25000000000000000        0.0000000000000000     
  0.50000000000000000       0.25000000000000000        0.0000000000000000     
  0.53125000000000000       0.25000000000000000        0.0000000000000000     
  0.56250000000000000       0.25000000000000000        0.0000000000000000     
  0.59375000000000000       0.25000000000000000        0.0000000000000000     
  0.62500000000000000       0.25000000000000000        0.0000000000000000     
  0.50000000000000000       0.28125000000000000        0.0000000000000000     
  0.53125000000000000       0.28125000000000000        0.0000000000000000     
  0.56250000000000000       0.28125000000000000        0.0000000000000000     
  0.59375000000000000       0.28125000000000000        0.0000000000000000     
  0.62500000000000000       0.28125000000000000        0.0000000000000000     
  0.50000000000000000       0.31250000000000000        0.0000000000000000     
  0.53125000000000000       0.31250000000000000        0.0000000000000000     
  0.56250000000000000       0.31250000000000000        0.0000000000000000     
  0.59375000000000000       0.31250000000000000        0.0000000000000000     
  0.62500000000000000       0.31250000000000000        0.0000000000000000     
  0.50000000000000000       0.34375000000000000        0.0000000000000000     
  0.53125000000000000       0.34375000000000000        0.0000000000000000     
  0.56250000000000000       0.34375000000000000        0.0000000000000000     
  0.59375000000000000       0.34375000000000000        0.0000000000000000     
  0.62500000000000000       0.34375000000000000        0.0000000000000000     
  0.50000000000000000       0.37500000000000000        0.0000000000000000     
  0.53125000000000000       0.37500000000000000        0.0000000000000000     
  0.56250000000000000       0.37500000000000000        0.0000000000000000     
  0.59375000000000000       0.37500000000000000        0.0000000000000000     
  0.62500000000000000       0.37500000000000000        0.0000000000000000     
  0.62500000000000000       0.25000000000000000        0.0000000000000000     
  0.65625000000000000       0.25000000000000000        0.0000000000000000     
  0.68750000000000000       0.25000000000000000        0.0000000000000000     
  0.71875000000000000       0.25000000000000000        0.0000000000000000     
  0.75000000000000000       0.25000000000000000        0.0000000000000000     
  0.62500000000000000       0.28125000000000000        0.0000000000000000     
  0.65625000000000000       0.28125000000000000        0.0000000000000000     
  0.68750000000000000       0.28125000000000000        0.0000000000000000     
  0.71875000000000000       0.28125000000000000        0.0000000000000000     
  0.75000000000000000       0.28125000000000000        0.0000000000000000     
  0.62500000000000000       0.31250000000000000        0.0000000000000000     
  0.65625000000000000       0.31250000000000000        0.0000000000000000     
  0.68750000000000000       0.31250000000000000        0.0000000000000000     
  0.71875000000000000       0.31250000000000000        0.0000000000000000     
  0.75000000000000000       0.31250000000000000        0.0000000000000000     
  0.62500000000000000       0.34375000000000000        0.0000000000000000     
  0.65625000000000000       0.34375000000000000        0.0000000000000000     
  0.68750000000000000       0.34375000000000000        0.0000000000000000     
  0.71875000000000000       0.34375000000000000        0.0000000000000000     
  0.75000000000000000       0.34375000000000000        0.0000000000000000     
  0.62500000000000000       0.37500000000000000        0.0000000000000000     
  0.65625000000000000       0.37500000000000000        0.0000000000000000     
  0.68750000000000000       0.37500000000000000        0.0000000000000000     
  0.71875000000000000       0.37500000000000000        0.0000000000000000     
  0.75000000000000000       0.37500000000000000        0.0000000000000000     
  0.75000000000000000       0.25000000000000000        0.0000000000000000     
  0.78125000000000000       0.25000000000000000        0.0000000000000000     
  0.81250000000000000       0.25000000000000000        0.0000000000000000     
  0.84375000000000000       0.25000000000000000        0.0000000000000000     
  0.87500000000000000       0.25000000000000000        0.0000000000000000     
  0.75000000000000000       0.28125000000000000        0.0000000000000000     
  0.78125000000000000       0.28125000000000000        0.0000000000000000     
  0.81250000000000000       0.28125000000000000        0.0000000000000000     
  0.84375000000000000       0.28125000000000000        0.0000000000000000     
  0.87500000000000000       0.28125000000000000        0.0000000000000000     
  0.75000000000000000       0.31250000000000000        0.0000000000000000     
  0.78125000000000000       0.31250000000000000        0.0000000000000000     
  0.81250000000000000       0.31250000000000000        0.0000000000000000     
  0.84375000000000000       0.31250000000000000        0.0000000000000000     
  0.87500000000000000       0.31250000000000000        0.0000000000000000     
  0.75000000000000000       0.34375000000000000        0.0000000000000000     
  0.78125000000000000       0.34375000000000000        0.0000000000000000     
  0.81250000000000000       0.34375000000000000        0.0000000000000000     
  0.84375000000000000       0.34375000000000000        0.0000000000000000     
  0.87500000000000000       0.34375000000000000        0.0000000000000000     
  0.75000000000000000       0.37500000000000000        0.0000000000000000     
  0.78125000000000000       0.37500000000000000        0.0000000000000000     
  0.81250000000000000       0.37500000000000000        0.0000000000000000     
  0.84375000000000000       0.37500000000000000        0.0000000000000000     
  0.87500000000000000       0.37500000000000000        0.0000000000000000     
  0.87500000000000000       0.25000000000000000        0.0000000000000000     
  0.90625000000000000       0.25000000000000000        0.0000000000000000     
  0.93750000000000000       0.25000000000000000        0.0000000000000000     
  0.96875000000000000       0.25000000000000000        0.0000000000000000     
   1.0000000000000000       0.25000000000000000        0.0000000000000000     
  0.87500000000000000       0.28125000000000000        0.0000000000000000     
  0.90625000000000000       0.28125000000000000        0.0000000000000000     
  0.93750000000000000       0.28125000000000000        0.0000000000000000     
  0.96875000000000000       0.28125000000000000        0.0000000000000000     
   1.0000000000000000       0.28125000000000000        0.0000000000000000     
  0.87500000000000000       0.31250000000000000        0.0000000000000000     
  0.90625000000000000       0.31250000000000000        0.0000000000000000     
  0.93750000000000000       0.31250000000000000        0.0000000000000000     
  0.96875000000000000       0.31250000000000000        0.0000000000000000     
   1.0000000000000000       0.31250000000000000        0.0000000000000000     
  0.87500000000000000       0.34375000000000000        0.0000000000000000     
  0.90625000000000000       0.34375000000000000        0.0000000000000000     
  0.93750000000000000       0.34375000000000000        0.0000000000000000     
  0.96875000000000000       0.34375000000000000        0.0000000000000000     
   1.0000000000000000       0.34375000000000000        0.0000000000000000     
  0.87500000000000000       0.37500000000000000        0.0000000000000000     
  0.90625000000000000       0.37500000000000000        0.0000000000000000     
  0.93750000000000000       0.37500000000000000        0.0000000000000000     
  0.96875000000000000       0.37500000000000000        0.0000000000000000     
   1.0000000000000000       0.37500000000000000        0.0000000000000000     
   1.0000000000000000       0.25000000000000000        0.0000000000000000     
   1.0312500000000000       0.25000000000000000        0.0000000000000000     
   1.0625000000000000       0.25000000000000000        0.0000000000000000     
   1.0937500000000000       0.25000000000000000        0.0000000000000000     
   1.1250000000000000       0.25000000000000000        0.0000000000000000     
   1.0000000000000000       0.28125000000000000        0.0000000000000000     
   1.0312500000000000       0.28125000000000000        0.0000000000000000     
   1.0625000000000000       0.28125000000000000        0.0000000000000000     
   1.0937500000000000       0.28125000000000000        0.0000000000000000     
   1.1250000000000000       0.28125000000000000        0.0000000000000000     
   1.0000000000000000       0.31250000000000000        0.0000000000000000     
   1.0312500000000000       0.31250000000000000        0.0000000000000000     
   1.0625000000000000       0.31250000000000000        0.0000000000000000     
   1.0937500000000000       0.31250000000000000        0.0000000000000000     
   1.1250000000000000       0.31250000000000000        0.0000000000000000     
   1.0000000000000000       0.34375000000000000        0.0000000000000000     
   1.0312500000000000       0.34375000000000000        0.0000000000000000     
   1.0625000000000000       0.34375000000000000        0.0000000000000000     
   1.0937500000000000       0.34375000000000000        0.0000000000000000     
   1.1250000000000000       0.34375000000000000        0.0000000000000000     
   1.0000000000000000       0.37500000000000000        0.0000000000000000     
   1.0312500000000000       0.37500000000000000        0.0000000000000000     
   1.0625000000000000       0.37500000000000000        0.0000000000000000     
   1.0937500000000000       0.37500000000000000        0.0000000000000000     
   1.1250000000000000       0.37500000000000000        0.0000000000000000     
   1.1250000000000000       0.25000000000000000        0.0000000000000000     
   1.1562500000000000       0.25000000000000000        0.0000000000000000     
   1.1875000000000000       0.25000000000000000        0.0000000000000000     
   1.2187500000000000       0.25000000000000000        0.0000000000000000     
   1.2500000000000000       0.25000000000000000        0.0000000000000000     
   1.1250000000000000       0.28125000000000000        0.0000000000000000     
   1.1562500000000000       0.28125000000000000        0.0000000000000000     
   1.1875000000000000       0.28125000000000000        0.0000000000000000     
   1.2187500000000000       0.28125000000000000        0.0000000000000000     
   1.2500000000000000       0.28125000000000000        0.0000000000000000     
   1.1250000000000000       0.31250000000000000        0.0000000000000000     
   1.1562500000000000       0.31250000000000000        0.0000000000000000     
   1.1875000000000000       0.31250000000000000        0.0000000000000000     
   1.2187500000000000       0.31250000000000000        0.0000000000000000     
   1.2500000000000000       0.31250000000000000        0.0000000000000000     
   1.1250000000000000       0.34375000000000000        0.0000000000000000     
   1.1562500000000000       0.34375000000000000        0.0000000000000000     
   1.1875000000000000       0.34375000000000000        0.0000000000000000     
   1.2187500000000000       0.34375000000000000        0.0000000000000000     
   1.2500000000000000       0.34375000000000000        0.0000000000000000     
   1.1250000000000000       0.37500000000000000        0.0000000000000000     
   1.1562500000000000       0.37500000000000000        0.0000000000000000     
   1.1875000000000000       0.37500000000000000        0.0000000000000000     
   1.2187500000000000       0.37500000000000000        0.0000000000000000     
   1.2500000000000000       0.37500000000000000        0.0000000000000000     
   1.2500000000000000       0.25000000000000000        0.0000000000000000     
   1.2812500000000000       0.25000000000000000        0.0000000000000000     
   1.3125000000000000       0.25000000000000000        0.0000000000000000     
   1.3437500000000000       0.25000000000000000        0.0000000000000000     
   1.3750000000000000       0.25000000000000000        0.0000000000000000     
   1.2500000000000000       0.28125000000000000        0.0000000000000000     
   1.2812500000000000       0.28125000000000000        0.0000000000000000     
   1.3125000000000000       0.28125000000000000        0.0000000000000000     
   1.3437500000000000       0.28125000000000000        0.0000000000000000     
   1.3750000000000000       0.28125000000000000        0.0000000000000000     
   1.2500000000000000       0.31250000000000000        0.0000000000000000     
   1.2812500000000000       0.31250000000000000        0.0000000000000000     
   1.3125000000000000       0.31250000000000000        0.0000000000000000     
   1.3437500000000000       0.31250000000000000        0.0000000000000000     
   1.3750000000000000       0.31250000000000000        0.0000000000000000     
   1.2500000000000000       0.34375000000000000        0.0000000000000000     
   1.2812500000000000       0.34375000000000000        0.0000000000000000     
   1.3125000000000000       0.34375000000000000        0.0000000000000000     
   1.3437500000000000       0.34375000000000000        0.0000000000000000     
   1.3750000000000000       0.34375000000000000        0.0000000000000000     
   1.2500000000000000       0.37500000000000000        0.0000000000000000     
   1.2812500000000000       0.37500000000000000        0.0000000000000000     
   1.3125000000000000       0.37500000000000000        0.0000000000000000     
   1.3437500000000000       0.37500000000000000        0.0000000000000000     
   1.3750000000000000       0.37500000000000000        0.0000000000000000     
   1.3750000000000000       0.25000000000000000        0.0000000000000000     
   1.4062500000000000       0.25000000000000000        0.0000000000000000     
   1.4375000000000000       0.25000000000000000        0.0000000000000000     
   1.4687500000000000       0.25000000000000000        0.0000000000000000     
   1.5000000000000000       0.25000000000000000        0.0000000000000000     
   1.3750000000000000       0.28125000000000000        0.0000000000000000     
   1.4062500000000000       0.28125000000000000        0.0000000000000000     
   1.4375000000000000       0.28125000000000000        0.0000000000000000     
   1.4687500000000000       0.28125000000000000        0.0000000000000000     
   1.5000000000000000       0.28125000000000000        0.0000000000000000     
   1.3750000000000000       0.31250000000000000        0.0000000000000000     
   1.4062500000000000       0.31250000000000000        0.0000000000000000     
   1.4375000000000000       0.31250000000000000        0.0000000000000000     
   1.4687500000000000       0.31250000000000000        0.0000000000000000     
   1.5000000000000000       0.31250000000000000        0.0000000000000000     
   1.3750000000000000       0.34375000000000000        0.0000000000000000     
   1.4062500000000000       0.34375000000000000        0.0000000000000000     
   1.4375000000000000       0.34375000000000000        0.0000000000000000     
   1.4687500000000000       0.34375000000000000        0.0000000000000000     
   1.5000000000000000       0.34375000000000000        0.0000000000000000     
   1.3750000000000000       0.37500000000000000        0.0000000000000000     
   1.4062500000000000       0.37500000000000000        0.0000000000000000     
   1.4375000000000000       0.37500000000000000        0.0000000000000000     
   1.4687500000000000       0.37500000000000000        0.0000000000000000     
   1.5000000000000000       0.37500000000000000        0.0000000000000000     
  0.50000000000000000       0.37500000000000000        0.0000000000000000     
  0.53125000000000000       0.37500000000000000        0.0000000000000000     
  0.56250000000000000       0.37500000000000000        0.0000000000000000     
  0.59375000000000000       0.37500000000000000        0.0000000000000000     
  0.62500000000000000       0.37500000000000000        0.0000000000000000     
  0.50000000000000000       0.40625000000000000        0.0000000000000000     
  0.53125000000000000       0.40625000000000000        0.0000000000000000     
  0.56250000000000000       0.40625000000000000        0.0000000000000000     
  0.59375000000000000       0.40625000000000000        0.0000000000000000     
  0.62500000000000000       0.40625000000000000        0.0000000000000000     
  0.50000000000000000       0.43750000000000000        0.0000000000000000     
  0.53125000000000000       0.43750000000000000        0.0000000000000000     
  0.56250000000000000       0.43750000000000000        0.0000000000000000     
  0.59375000000000000       0.43750000000000000        0.0000000000000000     
  0.62500000000000000       0.43750000000000000        0.0000000000000000     
  0.50000000000000000       0.46875000000000000        0.0000000000000000     
  0.53125000000000000       0.46875000000000000        0.0000000000000000     
  0.56250000000000000       0.46875000000000000        0.0000000000000000     
  0.59375000000000000       0.46875000000000000        0.0000000000000000     
  0.62500000000000000       0.46875000000000000        0.0000000000000000     
  0.50000000000000000       0.50000000000000000        0.0000000000000000     
  0.53125000000000000       0.50000000000000000        0.0000000000000000     
  0.56250000000000000       0.50000000000000000        0.0000000000000000     
  0.59375000000000000       0.50000000000000000        0.0000000000000000     
  0.62500000000000000       0.50000000000000000        0.0000000000000000     
  0.62500000000000000       0.37500000000000000        0.0000000000000000     
  0.65625000000000000       0.37500000000000000        0.0000000000000000     
  0.68750000000000000       0.37500000000000000        0.0000000000000000     
  0.71875000000000000       0.37500000000000000        0.0000000000000000     
  0.75000000000000000       0.37500000000000000        0.0000000000000000     
  0.62500000000000000       0.40625000000000000        0.0000000000000000     
  0.65625000000000000       0.40625000000000000        0.0000000000000000     
  0.68750000000000000       0.40625000000000000        0.0000000000000000     
  0.71875000000000000       0.40625000000000000        0.0000000000000000     
  0.75000000000000000       0.40625000000000000        0.0000000000000000     
  0.62500000000000000       0.43750000000000000        0.0000000000000000     
  0.65625000000000000       0.43750000000000000        0.0000000000000000     
  0.68750000000000000       0.43750000000000000        0.0000000000000000     
  0.71875000000000000       0.43750000000000000        0.0000000000000000     
  0.75000000000000000       0.43750000000000000        0.0000000000000000     
  0.62500000000000000       0.46875000000000000        0.0000000000000000     
  0.65625000000000000       0.46875000000000000        0.0000000000000000     
  0.68750000000000000       0.46875000000000000        0.0000000000000000     
  0.71875000000000000       0.46875000000000000        0.0000000000000000     
  0.75000000000000000       0.46875000000000000        0.0000000000000000     
  0.62500000000000000       0.50000000000000000        0.0000000000000000     
  0.65625000000000000       0.50000000000000000        0.0000000000000000     
  0.68750000000000000       0.50000000000000000        0.0000000000000000     
  0.71875000000000000       0.50000000000000000        0.0000000000000000     
  0.75000000000000000       0.50000000000000000        0.0000000000000000     
  0.75000000000000000       0.37500000000000000        0.0000000000000000     
  0.78125000000000000       0.37500000000000000        0.0000000000000000     
  0.81250000000000000       0.37500000000000000        0.0000000000000000     
  0.84375000000000000       0.37500000000000000        0.0000000000000000     
  0.87500000000000000       0.37500000000000000        0.0000000000000000     
  0.75000000000000000       0.40625000000000000        0.0000000000000000     
  0.78125000000000000       0.40625000000000000        0.0000000000000000     
  0.81250000000000000       0.40625000000000000        0.0000000000000000     
  0.84375000000000000       0.40625000000000000        0.0000000000000000     
  0.87500000000000000       0.40625000000000000        0.0000000000000000     
  0.75000000000000000       0.43750000000000000        0.0000000000000000     
  0.78125000000000000       0.43750000000000000        0.0000000000000000     
  0.81250000000000000       0.43750000000000000        0.0000000000000000     
  0.84375000000000000       0.43750000000000000        0.0000000000000000     
  0.87500000000000000       0.43750000000000000        0.0000000000000000     
  0.75000000000000000       0.46875000000000000        0.0000000000000000     
  0.78125000000000000       0.46875000000000000        0.0000000000000000     
  0.81250000000000000       0.46875000000000000        0.0000000000000000     
  0.84375000000000000       0.46875000000000000        0.0000000000000000     
  0.87500000000000000       0.46875000000000000        0.0000000000000000     
  0.75000000000000000       0.50000000000000000        0.0000000000000000     
  0.78125000000000000       0.50000000000000000        0.0000000000000000     
  0.81250000000000000       0.50000000000000000        0.0000000000000000     
  0.84375000000000000       0.50000000000000000        0.0000000000000000     
  0.87500000000000000       0.50000000000000000        0.0000000000000000     
  0.87500000000000000       0.37500000000000000        0.0000000000000000     
  0.90625000000000000       0.37500000000000000        0.0000000000000000     
  0.93750000000000000       0.37500000000000000        0.0000000000000000     
  0.96875000000000000       0.37500000000000000        0.0000000000000000     
   1.0000000000000000       0.37500000000000000        0.0000000000000000     
  0.87500000000000000       0.40625000000000000        0.0000000000000000     
  0.90625000000000000       0.40625000000000000        0.0000000000000000     
  0.93750000000000000       0.40625000000000000        0.0000000000000000     
  0.96875000000000000       0.40625000000000000        0.0000000000000000     
   1.0000000000000000       0.40625000000000000        0.0000000000000000     
  0.87500000000000000       0.43750000000000000        0.0000000000000000     
  0.90625000000000000       0.43750000000000000        0.0000000000000000     
  0.93750000000000000       0.43750000000000000        0.0000000000000000     
  0.96875000000000000       0.43750000000000000        0.0000000000000000     
   1.0000000000000000       0.43750000000000000        0.0000000000000000     
  0.87500000000000000       0.46875000000000000        0.0000000000000000     
  0.90625000000000000       0.46875000000000000        0.0000000000000000     
  0.93750000000000000       0.46875000000000000        0.0000000000000000     
  0.96875000000000000       0.46875000000000000        0.0000000000000000     
   1.0000000000000000       0.46875000000000000        0.0000000000000000     
  0.87500000000000000       0.50000000000000000        0.0000000000000000     
  0.90625000000000000       0.50000000000000000        0.0000000000000000     
  0.93750000000000000       0.50000000000000000        0.0000000000000000     
  0.96875000000000000       0.50000000000000000        0.0000000000000000     
   1.0000000000000000       0.50000000000000000        0.0000000000000000     
   1.0000000000000000       0.37500000000000000        0.0000000000000000     
   1.0312500000000000       0.37500000000000000        0.0000000000000000     
   1.0625000000000000       0.37500000000000000        0.0000000000000000     
   1.0937500000000000       0.37500000000000000        0.0000000000000000     
   1.1250000000000000       0.37500000000000000        0.0000000000000000     
   1.0000000000000000       0.40625000000000000        0.0000000000000000     
   1.0312500000000000       0.40625000000000000        0.0000000000000000     
   1.0625000000000000       0.40625000000000000        0.0000000000000000     
   1.0937500000000000       0.40625000000000000        0.0000000000000000     
   1.1250000000000000       0.40625000000000000        0.0000000000000000     
   1.0000000000000000       0.43750000000000000        0.0000000000000000     
   1.0312500000000000       0.43750000000000000        0.0000000000000000     
   1.0625000000000000       0.43750000000000000        0.0000000000000000     
   1.0937500000000000       0.43750000000000000        0.0000000000000000     
   1.1250000000000000       0.43750000000000000        0.0000000000000000     
   1.0000000000000000       0.46875000000000000        0.0000000000000000     
   1.0312500000000000       0.46875000000000000        0.0000000000000000     
   1.0625000000000000       0.46875000000000000        0.0000000000000000     
   1.0937500000000000       0.46875000000000000        0.0000000000000000     
   1.1250000000000000       0.46875000000000000        0.0000000000000000     
   1.0000000000000000       0.50000000000000000        0.0000000000000000     
   1.0312500000000000       0.50000000000000000        0.0000000000000000     
   1.0625000000000000       0.50000000000000000        0.0000000000000000     
   1.0937500000000000       0.50000000000000000        0.0000000000000000     
   1.1250000000000000       0.50000000000000000        0.0000000000000000     
   1.1250000000000000       0.37500000000000000        0.0000000000000000     
   1.1562500000000000       0.37500000000000000        0.0000000000000000     
   1.1875000000000000       0.37500000000000000        0.0000000000000000     
   1.2187500000000000       0.37500000000000000        0.0000000000000000     
   1.2500000000000000       0.37500000000000000        0.0000000000000000     
   1.1250000000000000       0.40625000000000000        0.0000000000000000     
   1.1562500000000000       0.40625000000000000        0.0000000000000000     
   1.1875000000000000       0.40625000000000000        0.0000000000000000     
   1.2187500000000000       0.40625000000000000        0.0000000000000000     
   1.2500000000000000       0.40625000000000000        0.0000000000000000     
   1.1250000000000000       0.43750000000000000        0.0000000000000000     
   1.1562500000000000       0.43750000000000000        0.0000000000000000     
   1.1875000000000000       0.43750000000000000        0.0000000000000000     
   1.2187500000000000       0.43750000000000000        0.0000000000000000     
   1.2500000000000000       0.43750000000000000        0.0000000000000000     
   1.1250000000000000       0.46875000000000000        0.0000000000000000     
   1.1562500000000000       0.46875000000000000        0.0000000000000000     
   1.1875000000000000       0.46875000000000000        0.0000000000000000     
   1.2187500000000000       0.46875000000000000        0.0000000000000000     
   1.2500000000000000       0.46875000000000000        0.0000000000000000     
   1.1250000000000000       0.50000000000000000        0.0000000000000000     
   1.1562500000000000       0.50000000000000000        0.0000000000000000     
   1.1875000000000000       0.50000000000000000        0.0000000000000000     
   1.2187500000000000       0.50000000000000000        0.0000000000000000     
   1.2500000000000000       0.50000000000000000        0.0000000000000000     
   1.2500000000000000       0.37500000000000000        0.0000000000000000     
   1.2812500000000000       0.37500000000000000        0.0000000000000000     
   1.3125000000000000       0.37500000000000000        0.0000000000000000     
   1.3437500000000000       0.37500000000000000        0.0000000000000000     
   1.3750000000000000       0.37500000000000000        0.0000000000000000     
   1.2500000000000000       0.40625000000000000        0.0000000000000000     
   1.2812500000000000       0.40625000000000000        0.0000000000000000     
   1.3125000000000000       0.40625000000000000        0.0000000000000000     
   1.3437500000000000       0.40625000000000000        0.0000000000000000     
   1.3750000000000000       0.40625000000000000        0.0000000000000000     
   1.2500000000000000       0.43750000000000000        0.0000000000000000     
   1.2812500000000000       0.43750000000000000        0.0000000000000000     
   1.3125000000000000       0.43750000000000000        0.0000000000000000     
   1.3437500000000000       0.43750000000000000        0.0000000000000000     
   1.3750000000000000       0.43750000000000000        0.0000000000000000     
   1.2500000000000000       0.46875000000000000        0.0000000000000000     
   1.2812500000000000       0.46875000000000000        0.0000000000000000     
   1.3125000000000000       0.46875000000000000        0.0000000000000000     
   1.3437500000000000       0.46875000000000000        0.0000000000000000     
   1.3750000000000000       0.46875000000000000        0.0000000000000000     
   1.2500000000000000       0.50000000000000000        0.0000000000000000     
   1.2812500000000000       0.50000000000000000        0.0000000000000000     
   1.3125000000000000       0.50000000000000000        0.0000000000000000     
   1.3437500000000000       0.50000000000000000        0.0000000000000000     
   1.3750000000000000       0.50000000000000000        0.0000000000000000     
   1.3750000000000000       0.37500000000000000        0.0000000000000000     
   1.4062500000000000       0.37500000000000000        0.0000000000000000     
   1.4375000000000000       0.37500000000000000        0.0000000000000000     
   1.4687500000000000       0.37500000000000000        0.0000000000000000     
   1.5000000000000000       0.37500000000000000        0.0000000000000000     
   1.3750000000000000       0.40625000000000000        0.0000000000000000     
   1.4062500000000000       0.40625000000000000        0.0000000000000000     
   1.4375000000000000       0.40625000000000000        0.0000000000000000     
   1.4687500000000000       0.40625000000000000        0.0000000000000000     
   1.5000000000000000       0.40625000000000000        0.0000000000000000     
   1.3750000000000000       0.43750000000000000        0.0000000000000000     
   1.4062500000000000       0.43750000000000000        0.0000000000000000     
   1.4375000000000000       0.43750000000000000        0.0000000000000000     
   1.4687500000000000       0.43750000000000000        0.0000000000000000     
   1.5000000000000000       0.43750000000000000        0.0000000000000000     
   1.3750000000000000       0.46875000000000000        0.0000000000000000     
   1.4062500000000000       0.46875000000000000        0.0000000000000000     
   1.4375000000000000       0.46875000000000000        0.0000000000000000     
   1.4687500000000000       0.46875000000000000        0.0000000000000000     
   1.5000000000000000       0.46875000000000000        0.0000000000000000     
   1.3750000000000000       0.50000000000000000        0.0000000000000000     
   1.4062500000000000       0.50000000000000000        0.0000000000000000     
   1.4375000000000000       0.50000000000000000        0.0000000000000000     
   1.4687500000000000       0.50000000000000000        0.0000000000000000     
   1.5000000000000000       0.50000000000000000        0.0000000000000000     
  0.50000000000000000       0.50000000000000000        0.0000000000000000     
  0.53125000000000000       0.50000000000000000        0.0000000000000000     
  0.56250000000000000       0.50000000000000000        0.0000000000000000     
  0.59375000000000000       0.50000000000000000        0.0000000000000000     
  0.62500000000000000       0.50000000000000000        0.0000000000000000     
  0.50000000000000000       0.53125000000000000        0.0000000000000000     
  0.53125000000000000       0.53125000000000000        0.0000000000000000     
  0.56250000000000000       0.53125000000000000        0.0000000000000000     
  0.59375000000000000       0.53125000000000000        0.0000000000000000     
  0.62500000000000000       0.53125000000000000        0.0000000000000000     
  0.50000000000000000       0.56250000000000000        0.0000000000000000     
  0.53125000000000000       0.56250000000000000        0.0000000000000000     
  0.56250000000000000       0.56250000000000000        0.0000000000000000     
  0.59375000000000000       0.56250000000000000        0.0000000000000000     
  0.62500000000000000       0.56250000000000000        0.0000000000000000     
  0.50000000000000000       0.59375000000000000        0.0000000000000000     
  0.53125000000000000       0.59375000000000000        0.0000000000000000     
  0.56250000000000000       0.59375000000000000        0.0000000000000000     
  0.59375000000000000       0.59375000000000000        0.0000000000000000     
  0.62500000000000000       0.59375000000000000        0.0000000000000000     
  0.50000000000000000       0.62500000000000000        0.0000000000000000     
  0.53125000000000000       0.62500000000000000        0.0000000000000000     
  0.56250000000000000       0.62500000000000000        0.0000000000000000     
  0.59375000000000000       0.62500000000000000        0.0000000000000000     
  0.62500000000000000       0.62500000000000000        0.0000000000000000     
  0.62500000000000000       0.50000000000000000        0.0000000000000000     
  0.65625000000000000       0.50000000000000000        0.0000000000000000     
  0.68750000000000000       0.50000000000000000        0.0000000000000000     
  0.71875000000000000       0.50000000000000000        0.0000000000000000     
  0.75000000000000000       0.50000000000000000        0.0000000000000000     
  0.62500000000000000       0.53125000000000000        0.0000000000000000     
  0.65625000000000000       0.53125000000000000        0.0000000000000000     
  0.68750000000000000       0.53125000000000000        0.0000000000000000     
  0.71875000000000000       0.53125000000000000        0.0000000000000000     
  0.75000000000000000       0.53125000000000000        0.0000000000000000     
  0.62500000000000000       0.56250000000000000        0.0000000000000000     
  0.65625000000000000       0.56250000000000000        0.0000000000000000     
  0.68750000000000000       0.56250000000000000        0.0000000000000000     
  0.71875000000000000       0.56250000000000000        0.0000000000000000     
  0.75000000000000000       0.56250000000000000        0.0000000000000000     
  0.62500000000000000       0.59375000000000000        0.0000000000000000     
  0.65625000000000000       0.59375000000000000        0.0000000000000000     
  0.68750000000000000       0.59375000000000000        0.0000000000000000     
  0.71875000000000000       0.59375000000000000        0.0000000000000000     
  0.75000000000000000       0.59375000000000000        0.0000000000000000     
  0.62500000000000000       0.62500000000000000        0.0000000000000000     
  0.65625000000000000       0.62500000000000000        0.0000000000000000     
  0.68750000000000000       0.62500000000000000        0.0000000000000000     
  0.71875000000000000       0.62500000000000000        0.0000000000000000     
  0.75000000000000000       0.62500000000000000        0.0000000000000000     
  0.75000000000000000       0.50000000000000000        0.0000000000000000     
  0.78125000000000000       0.50000000000000000        0.0000000000000000     
  0.81250000000000000       0.50000000000000000        0.0000000000000000     
  0.84375000000000000       0.50000000000000000        0.0000000000000000     
  0.87500000000000000       0.50000000000000000        0.0000000000000000     
  0.75000000000000000       0.53125000000000000        0.0000000000000000     
  0.78125000000000000       0.53125000000000000        0.0000000000000000     
  0.81250000000000000       0.53125000000000000        0.0000000000000000     
  0.84375000000000000       0.53125000000000000        0.0000000000000000     
  0.87500000000000000       0.53125000000000000        0.0000000000000000     
  0.75000000000000000       0.56250000000000000        0.0000000000000000     
  0.78125000000000000       0.56250000000000000        0.0000000000000000     
  0.81250000000000000       0.56250000000000000        0.0000000000000000     
  0.84375000000000000       0.56250000000000000        0.0000000000000000     
  0.87500000000000000       0.56250000000000000        0.0000000000000000     
  0.75000000000000000       0.59375000000000000        0.0000000000000000     
  0.78125000000000000       0.59375000000000000        0.0000000000000000     
  0.81250000000000000       0.59375000000000000        0.0000000000000000     
  0.84375000000000000       0.59375000000000000        0.0000000000000000     
  0.87500000000000000       0.59375000000000000        0.0000000000000000     
  0.75000000000000000       0.62500000000000000        0.0000000000000000     
  0.78125000000000000       0.62500000000000000        0.0000000000000000     
  0.81250000000000000       0.62500000000000000        0.0000000000000000     
  0.84375000000000000       0.62500000000000000        0.0000000000000000     
  0.87500000000000000       0.62500000000000000        0.0000000000000000     
  0.87500000000000000       0.50000000000000000        0.0000000000000000     
  0.90625000000000000       0.50000000000000000        0.0000000000000000     
  0.93750000000000000       0.50000000000000000        0.0000000000000000     
  0.96875000000000000       0.50000000000000000        0.0000000000000000     
   1.0000000000000000       0.50000000000000000        0.0000000000000000     
  0.87500000000000000       0.53125000000000000        0.0000000000000000     
  0.90625000000000000       0.53125000000000000        0.0000000000000000     
  0.93750000000000000       0.53125000000000000        0.0000000000000000     
  0.96875000000000000       0.53125000000000000        0.0000000000000000     
   1.0000000000000000       0.53125000000000000        0.0000000000000000     
  0.87500000000000000       0.56250000000000000        0.0000000000000000     
  0.90625000000000000       0.56250000000000000        0.0000000000000000     
  0.93750000000000000       0.56250000000000000        0.0000000000000000     
  0.96875000000000000       0.56250000000000000        0.0000000000000000     
   1.0000000000000000       0.56250000000000000        0.0000000000000000     
  0.87500000000000000       0.59375000000000000        0.0000000000000000     
  0.90625000000000000       0.59375000000000000        0.0000000000000000     
  0.93750000000000000       0.59375000000000000        0.0000000000000000     
  0.96875000000000000       0.59375000000000000        0.0000000000000000     
   1.0000000000000000       0.59375000000000000        0.0000000000000000     
  0.87500000000000000       0.62500000000000000        0.0000000000000000     
  0.90625000000000000       0.62500000000000000        0.0000000000000000     
  0.93750000000000000       0.62500000000000000        0.0000000000000000     
  0.96875000000000000       0.62500000000000000        0.0000000000000000     
   1.0000000000000000       0.62500000000000000        0.0000000000000000     
   1.0000000000000000       0.50000000000000000        0.0000000000000000     
   1.0312500000000000       0.50000000000000000        0.0000000000000000     
   1.0625000000000000       0.50000000000000000        0.0000000000000000     
   1.0937500000000000       0.50000000000000000        0.0000000000000000     
   1.1250000000000000       0.50000000000000000        0.0000000000000000     
   1.0000000000000000       0.53125000000000000        0.0000000000000000     
   1.0312500000000000       0.53125000000000000        0.0000000000000000     
   1.0625000000000000       0.53125000000000000        0.0000000000000000     
   1.0937500000000000       0.53125000000000000        0.0000000000000000     
   1.1250000000000000       0.53125000000000000        0.0000000000000000     
   1.0000000000000000       0.56250000000000000        0.0000000000000000     
   1.0312500000000000       0.56250000000000000        0.0000000000000000     
   1.0625000000000000       0.56250000000000000        0.0000000000000000     
   1.0937500000000000       0.56250000000000000        0.0000000000000000     
   1.1250000000000000       0.56250000000000000        0.0000000000000000     
   1.0000000000000000       0.59375000000000000        0.0000000000000000     
   1.0312500000000000       0.59375000000000000        0.0000000000000000     
   1.0625000000000000       0.59375000000000000        0.0000000000000000     
   1.0937500000000000       0.59375000000000000        0.0000000000000000     
   1.1250000000000000       0.59375000000000000        0.0000000000000000     
   1.0000000000000000       0.62500000000000000        0.0000000000000000     
   1.0312500000000000       0.62500000000000000        0.0000000000000000     
   1.0625000000000000       0.62500000000000000        0.0000000000000000     
   1.0937500000000000       0.62500000000000000        0.0000000000000000     
   1.1250000000000000       0.62500000000000000        0.0000000000000000     
   1.1250000000000000       0.50000000000000000        0.0000000000000000     
   1.1562500000000000       0.50000000000000000        0.0000000000000000     
   1.1875000000000000       0.50000000000000000        0.0000000000000000     
   1.2187500000000000       0.50000000000000000        0.0000000000000000     
   1.2500000000000000       0.50000000000000000        0.0000000000000000     
   1.1250000000000000       0.53125000000000000        0.0000000000000000     
   1.1562500000000000       0.53125000000000000        0.0000000000000000     
   1.1875000000000000       0.53125000000000000        0.0000000000000000     
   1.2187500000000000       0.53125000000000000        0.0000000000000000     
   1.2500000000000000       0.53125000000000000        0.0000000000000000     
   1.1250000000000000       0.56250000000000000        0.0000000000000000     
   1.1562500000000000       0.56250000000000000        0.0000000000000000     
   1.1875000000000000       0.56250000000000000        0.0000000000000000     
   1.2187500000000000       0.56250000000000000        0.0000000000000000     
   1.2500000000000000       0.56250000000000000        0.0000000000000000     
   1.1250000000000000       0.59375000000000000        0.0000000000000000     
   1.1562500000000000       0.59375000000000000        0.0000000000000000     
   1.1875000000000000       0.59375000000000000        0.0000000000000000     
   1.2187500000000000       0.59375000000000000        0.0000000000000000     
   1.2500000000000000       0.59375000000000000        0.0000000000000000     
   1.1250000000000000       0.62500000000000000        0.0000000000000000     
   1.1562500000000000       0.62500000000000000        0.0000000000000000     
   1.1875000000000000       0.62500000000000000        0.0000000000000000     
   1.2187500000000000       0.62500000000000000        0.0000000000000000     
   1.2500000000000000       0.62500000000000000        0.0000000000000000     
   1.2500000000000000       0.50000000000000000        0.0000000000000000     
   1.2812500000000000       0.50000000000000000        0.0000000000000000     
   1.3125000000000000       0.50000000000000000        0.0000000000000000     
   1.3437500000000000       0.50000000000000000        0.0000000000000000     
   1.3750000000000000       0.50000000000000000        0.0000000000000000     
   1.2500000000000000       0.53125000000000000        0.0000000000000000     
   1.2812500000000000       0.53125000000000000        0.0000000000000000     
   1.3125000000000000       0.53125000000000000        0.0000000000000000     
   1.3437500000000000       0.53125000000000000        0.0000000000000000     
   1.3750000000000000       0.53125000000000000        0.0000000000000000     
   1.2500000000000000       0.56250000000000000        0.0000000000000000     
   1.2812500000000000       0.56250000000000000        0.0000000000000000     
   1.3125000000000000       0.56250000000000000        0.0000000000000000     
   1.3437500000000000       0.56250000000000000        0.0000000000000000     
   1.3750000000000000       0.56250000000000000        0.0000000000000000     
   1.2500000000000000       0.59375000000000000        0.0000000000000000     
   1.2812500000000000       0.59375000000000000        0.0000000000000000     
   1.3125000000000000       0.59375000000000000        0.0000000000000000     
   1.3437500000000000       0.59375000000000000        0.0000000000000000     
   1.3750000000000000       0.59375000000000000        0.0000000000000000     
   1.2500000000000000       0.62500000000000000        0.0000000000000000     
   1.2812500000000000       0.62500000000000000        0.0000000000000000     
   1.3125000000000000       0.62500000000000000        0.0000000000000000     
   1.3437500000000000       0.62500000000000000        0.0000000000000000     
   1.3750000000000000       0.62500000000000000        0.0000000000000000     
   1.3750000000000000       0.50000000000000000        0.0000000000000000     
   1.4062500000000000       0.50000000000000000        0.0000000000000000     
   1.4375000000000000       0.50000000000000000        0.0000000000000000     
   1.4687500000000000       0.50000000000000000        0.0000000000000000     
   1.5000000000000000       0.50000000000000000        0.0000000000000000     
   1.3750000000000000       0.53125000000000000        0.0000000000000000     
   1.4062500000000000       0.53125000000000000        0.0000000000000000     
   1.4375000000000000       0.53125000000000000        0.0000000000000000     
   1.4687500000000000       0.53125000000000000        0.0000000000000000     
   1.5000000000000000       0.53125000000000000        0.0000000000000000     
   1.3750000000000000       0.56250000000000000        0.0000000000000000     
   1.4062500000000000       0.56250000000000000        0.0000000000000000     
   1.4375000000000000       0.56250000000000000        0.0000000000000000     
   1.4687500000000000       0.56250000000000000        0.0000000000000000     
   1.5000000000000000       0.56250000000000000        0.0000000000000000     
   1.3750000000000000       0.59375000000000000        0.0000000000000000     
   1.4062500000000000       0.59375000000000000        0.0000000000000000     
   1.4375000000000000       0.59375000000000000        0.0000000000000000     
   1.4687500000000000       0.59375000000000000        0.0000000000000000     
   1.5000000000000000       0.59375000000000000        0.0000000000000000     
   1.3750000000000000       0.62500000000000000        0.0000000000000000     
   1.4062500000000000       0.62500000000000000        0.0000000000000000     
   1.4375000000000000       0.62500000000000000        0.0000000000000000     
   1.4687500000000000       0.62500000000000000        0.0000000000000000     
   1.5000000000000000       0.62500000000000000        0.0000000000000000     
  0.50000000000000000       0.62500000000000000        0.0000000000000000     
  0.53125000000000000       0.62500000000000000        0.0000000000000000     
  0.56250000000000000       0.62500000000000000        0.0000000000000000     
  0.59375000000000000       0.62500000000000000        0.0000000000000000     
  0.62500000000000000       0.62500000000000000        0.0000000000000000     
  0.50000000000000000       0.65625000000000000        0.0000000000000000     
  0.53125000000000000       0.65625000000000000        0.0000000000000000     
  0.56250000000000000       0.65625000000000000        0.0000000000000000     
  0.59375000000000000       0.65625000000000000        0.0000000000000000     
  0.62500000000000000       0.65625000000000000        0.0000000000000000     
  0.50000000000000000       0.68750000000000000        0.0000000000000000     
  0.53125000000000000       0.68750000000000000        0.0000000000000000     
  0.56250000000000000       0.68750000000000000        0.0000000000000000     
  0.59375000000000000       0.68750000000000000        0.0000000000000000     
  0.62500000000000000       0.68750000000000000        0.0000000000000000     
  0.50000000000000000       0.71875000000000000        0.0000000000000000     
  0.53125000000000000       0.71875000000000000        0.0000000000000000     
  0.56250000000000000       0.71875000000000000        0.0000000000000000     
  0.59375000000000000       0.71875000000000000        0.0000000000000000     
  0.62500000000000000       0.71875000000000000        0.0000000000000000     
  0.50000000000000000       0.75000000000000000        0.0000000000000000     
  0.53125000000000000       0.75000000000000000        0.0000000000000000     
  0.56250000000000000       0.75000000000000000        0.0000000000000000     
  0.59375000000000000       0.75000000000000000        0.0000000000000000     
  0.62500000000000000       0.75000000000000000        0.0000000000000000     
  0.62500000000000000       0.62500000000000000        0.0000000000000000     
  0.65625000000000000       0.62500000000000000        0.0000000000000000     
  0.68750000000000000       0.62500000000000000        0.0000000000000000     
  0.71875000000000000       0.62500000000000000        0.0000000000000000     
  0.75000000000000000       0.62500000000000000        0.0000000000000000     
  0.62500000000000000       0.65625000000000000        0.0000000000000000     
  0.65625000000000000       0.65625000000000000        0.0000000000000000     
  0.68750000000000000       0.65625000000000000        0.0000000000000000     
  0.71875000000000000       0.65625000000000000        0.0000000000000000     
  0.75000000000000000       0.65625000000000000        0.0000000000000000     
  0.62500000000000000       0.68750000000000000        0.0000000000000000     
  0.65625000000000000       0.68750000000000000        0.0000000000000000     
  0.68750000000000000       0.68750000000000000        0.0000000000000000     
  0.71875000000000000       0.68750000000000000        0.0000000000000000     
  0.75000000000000000       0.68750000000000000        0.0000000000000000     
  0.62500000000000000       0.71875000000000000        0.0000000000000000     
  0.65625000000000000       0.71875000000000000        0.0000000000000000     
  0.68750000000000000       0.71875000000000000        0.0000000000000000     
  0.71875000000000000       0.71875000000000000        0.0000000000000000     
  0.75000000000000000       0.71875000000000000        0.0000000000000000     
  0.62500000000000000       0.75000000000000000        0.0000000000000000     
  0.65625000000000000       0.75000000000000000        0.0000000000000000     
  0.68750000000000000       0.75000000000000000        0.0000000000000000     
  0.71875000000000000       0.75000000000000000        0.0000000000000000     
  0.75000000000000000       0.75000000000000000        0.0000000000000000     
  0.75000000000000000       0.62500000000000000        0.0000000000000000     
  0.78125000000000000       0.62500000000000000        0.0000000000000000     
  0.81250000000000000       0.62500000000000000        0.0000000000000000     
  0.84375000000000000       0.62500000000000000        0.0000000000000000     
  0.87500000000000000       0.62500000000000000        0.0000000000000000     
  0.75000000000000000       0.65625000000000000        0.0000000000000000     
  0.78125000000000000       0.65625000000000000        0.0000000000000000     
  0.81250000000000000       0.65625000000000000        0.0000000000000000     
  0.84375000000000000       0.65625000000000000        0.0000000000000000     
  0.87500000000000000       0.65625000000000000        0.0000000000000000     
  0.75000000000000000       0.68750000000000000        0.0000000000000000     
  0.78125000000000000       0.68750000000000000        0.0000000000000000     
  0.81250000000000000       0.68750000000000000        0.0000000000000000     
  0.84375000000000000       0.68750000000000000        0.0000000000000000     
  0.87500000000000000       0.68750000000000000        0.0000000000000000     
  0.75000000000000000       0.71875000000000000        0.0000000000000000     
  0.78125000000000000       0.71875000000000000        0.0000000000000000     
  0.81250000000000000       0.71875000000000000        0.0000000000000000     
  0.84375000000000000       0.71875000000000000        0.0000000000000000     
  0.87500000000000000       0.71875000000000000        0.0000000000000000     
  0.75000000000000000       0.75000000000000000        0.0000000000000000     
  0.78125000000000000       0.75000000000000000        0.0000000000000000     
  0.81250000000000000       0.75000000000000000        0.0000000000000000     
  0.84375000000000000       0.75000000000000000        0.0000000000000000     
  0.87500000000000000       0.75000000000000000        0.0000000000000000     
  0.87500000000000000       0.62500000000000000        0.0000000000000000     
  0.90625000000000000       0.62500000000000000        0.0000000000000000     
  0.93750000000000000       0.62500000000000000        0.0000000000000000     
  0.96875000000000000       0.62500000000000000        0.0000000000000000     
   1.0000000000000000       0.62500000000000000        0.0000000000000000     
  0.87500000000000000       0.65625000000000000        0.0000000000000000     
  0.90625000000000000       0.65625000000000000        0.0000000000000000     
  0.93750000000000000       0.65625000000000000        0.0000000000000000     
  0.96875000000000000       0.65625000000000000        0.0000000000000000     
   1.0000000000000000       0.65625000000000000        0.0000000000000000     
  0.87500000000000000       0.68750000000000000        0.0000000000000000     
  0.90625000000000000       0.68750000000000000        0.0000000000000000     
  0.93750000000000000       0.68750000000000000        0.0000000000000000     
  0.96875000000000000       0.68750000000000000        0.0000000000000000     
   1.0000000000000000       0.68750000000000000        0.0000000000000000     
  0.87500000000000000       0.71875000000000000        0.0000000000000000     
  0.90625000000000000       0.71875000000000000        0.0000000000000000     
  0.93750000000000000       0.71875000000000000        0.0000000000000000     
  0.96875000000000000       0.71875000000000000        0.0000000000000000     
   1.0000000000000000       0.71875000000000000        0.0000000000000000     
  0.87500000000000000       0.75000000000000000        0.0000000000000000     
  0.90625000000000000       0.75000000000000000        0.0000000000000000     
  0.93750000000000000       0.75000000000000000        0.0000000000000000     
  0.96875000000000000       0.75000000000000000        0.0000000000000000     
   1.0000000000000000       0.75000000000000000        0.0000000000000000     
   1.0000000000000000       0.62500000000000000        0.0000000000000000     
   1.0312500000000000       0.62500000000000000        0.0000000000000000     
   1.0625000000000000       0.62500000000000000        0.0000000000000000     
   1.0937500000000000       0.62500000000000000        0.0000000000000000     
   1.1250000000000000       0.62500000000000000        0.0000000000000000     
   1.0000000000000000       0.65625000000000000        0.0000000000000000     
   1.0312500000000000       0.65625000000000000        0.0000000000000000     
   1.0625000000000000       0.65625000000000000        0.0000000000000000     
   1.0937500000000000       0.65625000000000000        0.0000000000000000     
   1.1250000000000000       0.65625000000000000        0.0000000000000000     
   1.0000000000000000       0.68750000000000000        0.0000000000000000     
   1.0312500000000000       0.68750000000000000        0.0000000000000000     
   1.0625000000000000       0.68750000000000000        0.0000000000000000     
   1.0937500000000000       0.68750000000000000        0.0000000000000000     
   1.1250000000000000       0.68750000000000000        0.0000000000000000     
   1.0000000000000000       0.71875000000000000        0.0000000000000000     
   1.0312500000000000       0.71875000000000000        0.0000000000000000     
   1.0625000000000000       0.71875000000000000        0.0000000000000000     
   1.0937500000000000       0.71875000000000000        0.0000000000000000     
   1.1250000000000000       0.71875000000000000        0.0000000000000000     
   1.0000000000000000       0.75000000000000000        0.0000000000000000     
   1.0312500000000000       0.75000000000000000        0.0000000000000000     
   1.0625000000000000       0.75000000000000000        0.0000000000000000     
   1.0937500000000000       0.75000000000000000        0.0000000000000000     
   1.1250000000000000       0.75000000000000000        0.0000000000000000     
   1.1250000000000000       0.62500000000000000        0.0000000000000000     
   1.1562500000000000       0.62500000000000000        0.0000000000000000     
   1.1875000000000000       0.62500000000000000        0.0000000000000000     
   1.2187500000000000       0.62500000000000000        0.0000000000000000     
   1.2500000000000000       0.62500000000000000        0.0000000000000000     
   1.1250000000000000       0.65625000000000000        0.0000000000000000     
   1.1562500000000000       0.65625000000000000        0.0000000000000000     
   1.1875000000000000       0.65625000000000000        0.0000000000000000     
   1.2187500000000000       0.65625000000000000        0.0000000000000000     
   1.2500000000000000       0.65625000000000000        0.0000000000000000     
   1.1250000000000000       0.68750000000000000        0.0000000000000000     
   1.1562500000000000       0.68750000000000000        0.0000000000000000     
   1.1875000000000000       0.68750000000000000        0.0000000000000000     
   1.2187500000000000       0.68750000000000000        0.0000000000000000     
   1.2500000000000000       0.68750000000000000        0.0000000000000000     
   1.1250000000000000       0.71875000000000000        0.0000000000000000     
   1.1562500000000000       0.71875000000000000        0.0000000000000000     
   1.1875000000000000       0.71875000000000000        0.0000000000000000     
   1.2187500000000000       0.71875000000000000        0.0000000000000000     
   1.2500000000000000       0.71875000000000000        0.0000000000000000     
   1.1250000000000000       0.75000000000000000        0.0000000000000000     
   1.1562500000000000       0.75000000000000000        0.0000000000000000     
   1.1875000000000000       0.75000000000000000        0.0000000000000000     
   1.2187500000000000       0.75000000000000000        0.0000000000000000     
   1.2500000000000000       0.75000000000000000        0.0000000000000000     
   1.2500000000000000       0.62500000000000000        0.0000000000000000     
   1.2812500000000000       0.62500000000000000        0.0000000000000000     
   1.3125000000000000       0.62500000000000000        0.0000000000000000     
   1.3437500000000000       0.62500000000000000        0.0000000000000000     
   1.3750000000000000       0.62500000000000000        0.0000000000000000     
   1.2500000000000000       0.65625000000000000        0.0000000000000000     
   1.2812500000000000       0.65625000000000000        0.0000000000000000     
   1.3125000000000000       0.65625000000000000        0.0000000000000000     
   1.3437500000000000       0.65625000000000000        0.0000000000000000     
   1.3750000000000000       0.65625000000000000        0.0000000000000000     
   1.2500000000000000       0.68750000000000000        0.0000000000000000     
   1.2812500000000000       0.68750000000000000        0.0000000000000000     
   1.3125000000000000       0.68750000000000000        0.0000000000000000     
   1.3437500000000000       0.68750000000000000        0.0000000000000000     
   1.3750000000000000       0.68750000000000000        0.0000000000000000     
   1.2500000000000000       0.71875000000000000        0.0000000000000000     
   1.2812500000000000       0.71875000000000000        0.0000000000000000     
   1.3125000000000000       0.71875000000000000        0.0000000000000000     
   1.3437500000000000       0.71875000000000000        0.0000000000000000     
   1.3750000000000000       0.71875000000000000        0.0000000000000000     
   1.2500000000000000       0.75000000000000000        0.0000000000000000     
   1.2812500000000000       0.75000000000000000        0.0000000000000000     
   1.3125000000000000       0.75000000000000000        0.0000000000000000     
   1.3437500000000000       0.75000000000000000        0.0000000000000000     
   1.3750000000000000       0.75000000000000000        0.0000000000000000     
   1.3750000000000000       0.62500000000000000        0.0000000000000000     
   1.4062500000000000       0.62500000000000000        0.0000000000000000     
   1.4375000000000000       0.62500000000000000        0.0000000000000000     
   1.4687500000000000       0.62500000000000000        0.0000000000000000     
   1.5000000000000000       0.62500000000000000        0.0000000000000000     
   1.3750000000000000       0.65625000000000000        0.0000000000000000     
   1.4062500000000000       0.65625000000000000        0.0000000000000000     
   1.4375000000000000       0.65625000000000000        0.0000000000000000     
   1.4687500000000000       0.65625000000000000        0.0000000000000000     
   1.5000000000000000       0.65625000000000000        0.0000000000000000     
   1.3750000000000000       0.68750000000000000        0.0000000000000000     
   1.4062500000000000       0.68750000000000000        0.0000000000000000     
   1.4375000000000000       0.68750000000000000        0.0000000000000000     
   1.4687500000000000       0.68750000000000000        0.0000000000000000     
   1.5000000000000000       0.68750000000000000        0.0000000000000000     
   1.3750000000000000       0.71875000000000000        0.0000000000000000     
   1.4062500000000000       0.71875000000000000        0.0000000000000000     
   1.4375000000000000       0.71875000000000000        0.0000000000000000     
   1.4687500000000000       0.71875000000000000        0.0000000000000000     
   1.5000000000000000       0.71875000000000000        0.0000000000000000     
   1.3750000000000000       0.75000000000000000        0.0000000000000000     
   1.4062500000000000       0.75000000000000000        0.0000000000000000     
   1.4375000000000000       0.75000000000000000        0.0000000000000000     
   1.4687500000000000       0.75000000000000000        0.0000000000000000     
   1.5000000000000000       0.75000000000000000        0.0000000000000000     
  0.50000000000000000       0.75000000000000000        0.0000000000000000     
  0.53125000000000000       0.75000000000000000        0.0000000000000000     
  0.56250000000000000       0.75000000000000000        0.0000000000000000     
  0.59375000000000000       0.75000000000000000        0.0000000000000000     
  0.62500000000000000       0.75000000000000000        0.0000000000000000     
  0.50000000000000000       0.78125000000000000        0.0000000000000000     
  0.53125000000000000       0.78125000000000000        0.0000000000000000     
  0.56250000000000000       0.78125000000000000        0.0000000000000000     
  0.59375000000000000       0.78125000000000000        0.0000000000000000     
  0.62500000000000000       0.78125000000000000        0.0000000000000000     
  0.50000000000000000       0.81250000000000000        0.0000000000000000     
  0.53125000000000000       0.81250000000000000        0.0000000000000000     
  0.56250000000000000       0.81250000000000000        0.0000000000000000     
  0.59375000000000000       0.81250000000000000        0.0000000000000000     
  0.62500000000000000       0.81250000000000000        0.0000000000000000     
  0.50000000000000000       0.84375000000000000        0.0000000000000000     
  0.53125000000000000       0.84375000000000000        0.0000000000000000     
  0.56250000000000000       0.84375000000000000        0.0000000000000000     
  0.59375000000000000       0.84375000000000000        0.0000000000000000     
  0.62500000000000000       0.84375000000000000        0.0000000000000000     
  0.50000000000000000       0.87500000000000000        0.0000000000000000     
  0.53125000000000000       0.87500000000000000        0.0000000000000000     
  0.56250000000000000       0.87500000000000000        0.0000000000000000     
  0.59375000000000000       0.87500000000000000        0.0000000000000000     
  0.62500000000000000       0.87500000000000000        0.0000000000000000     
  0.62500000000000000       0.75000000000000000        0.0000000000000000     
  0.65625000000000000       0.75000000000000000        0.0000000000000000     
  0.68750000000000000       0.75000000000000000        0.0000000000000000     
  0.71875000000000000       0.75000000000000000        0.0000000000000000     
  0.75000000000000000       0.75000000000000000        0.0000000000000000     
  0.62500000000000000       0.78125000000000000        0.0000000000000000     
  0.65625000000000000       0.78125000000000000        0.0000000000000000     
  0.68750000000000000       0.78125000000000000        0.0000000000000000     
  0.71875000000000000       0.78125000000000000        0.0000000000000000     
  0.75000000000000000       0.78125000000000000        0.0000000000000000     
  0.62500000000000000       0.81250000000000000        0.0000000000000000     
  0.65625000000000000       0.81250000000000000        0.0000000000000000     
  0.68750000000000000       0.81250000000000000        0.0000000000000000     
  0.71875000000000000       0.81250000000000000        0.0000000000000000     
  0.75000000000000000       0.81250000000000000        0.0000000000000000     
  0.62500000000000000       0.84375000000000000        0.0000000000000000     
  0.65625000000000000       0.84375000000000000        0.0000000000000000     
  0.68750000000000000       0.84375000000000000        0.0000000000000000     
  0.71875000000000000       0.84375000000000000        0.0000000000000000     
  0.75000000000000000       0.84375000000000000        0.0000000000000000     
  0.62500000000000000       0.87500000000000000        0.0000000000000000     
  0.65625000000000000       0.87500000000000000        0.0000000000000000     
  0.68750000000000000       0.87500000000000000        0.0000000000000000     
  0.71875000000000000       0.87500000000000000        0.0000000000000000     
  0.75000000000000000       0.87500000000000000        0.0000000000000000     
  0.75000000000000000       0.75000000000000000        0.0000000000000000     
  0.78125000000000000       0.75000000000000000        0.0000000000000000     
  0.81250000000000000       0.75000000000000000        0.0000000000000000     
  0.84375000000000000       0.75000000000000000        0.0000000000000000     
  0.87500000000000000       0.75000000000000000        0.0000000000000000     
  0.75000000000000000       0.78125000000000000        0.0000000000000000     
  0.78125000000000000       0.78125000000000000        0.0000000000000000     
  0.81250000000000000       0.78125000000000000        0.0000000000000000     
  0.84375000000000000       0.78125000000000000        0.0000000000000000     
  0.87500000000000000       0.78125000000000000        0.0000000000000000     
  0.75000000000000000       0.81250000000000000        0.0000000000000000     
  0.78125000000000000       0.81250000000000000        0.0000000000000000     
  0.81250000000000000       0.81250000000000000        0.0000000000000000     
  0.84375000000000000       0.81250000000000000        0.0000000000000000     
  0.87500000000000000       0.81250000000000000        0.0000000000000000     
  0.75000000000000000       0.84375000000000000        0.0000000000000000     
  0.78125000000000000       0.84375000000000000        0.0000000000000000     
  0.81250000000000000       0.84375000000000000        0.0000000000000000     
  0.84375000000000000       0.84375000000000000        0.0000000000000000     
  0.87500000000000000       0.84375000000000000        0.0000000000000000     
  0.75000000000000000       0.87500000000000000        0.0000000000000000     
  0.78125000000000000       0.87500000000000000        0.0000000000000000     
  0.81250000000000000       0.87500000000000000        0.0000000000000000     
  0.84375000000000000       0.87500000000000000        0.0000000000000000     
  0.87500000000000000       0.87500000000000000        0.0000000000000000     
  0.87500000000000000       0.75000000000000000        0.0000000000000000     
  0.90625000000000000       0.75000000000000000        0.0000000000000000     
  0.93750000000000000       0.75000000000000000        0.0000000000000000     
  0.96875000000000000       0.75000000000000000        0.0000000000000000     
   1.0000000000000000       0.75000000000000000        0.0000000000000000     
  0.87500000000000000       0.78125000000000000        0.0000000000000000     
  0.90625000000000000       0.78125000000000000        0.0000000000000000     
  0.93750000000000000       0.78125000000000000        0.0000000000000000     
  0.96875000000000000       0.78125000000000000        0.0000000000000000     
   1.0000000000000000       0.78125000000000000        0.0000000000000000     
  0.87500000000000000       0.81250000000000000        0.0000000000000000     
  0.90625000000000000       0.81250000000000000        0.0000000000000000     
  0.93750000000000000       0.81250000000000000        0.0000000000000000     
  0.96875000000000000       0.81250000000000000        0.0000000000000000     
   1.0000000000000000       0.81250000000000000        0.0000000000000000     
  0.87500000000000000       0.84375000000000000        0.0000000000000000     
  0.90625000000000000       0.84375000000000000        0.0000000000000000     
  0.93750000000000000       0.84375000000000000        0.0000000000000000     
  0.96875000000000000       0.84375000000000000        0.0000000000000000     
   1.0000000000000000       0.84375000000000000        0.0000000000000000     
  0.87500000000000000       0.87500000000000000        0.0000000000000000     
  0.90625000000000000       0.87500000000000000        0.0000000000000000     
  0.93750000000000000       0.87500000000000000        0.0000000000000000     
  0.96875000000000000       0.87500000000000000        0.0000000000000000     
   1.0000000000000000       0.87500000000000000        0.0000000000000000     
   1.0000000000000000       0.75000000000000000        0.0000000000000000     
   1.0312500000000000       0.75000000000000000        0.0000000000000000     
   1.0625000000000000       0.75000000000000000        0.0000000000000000     
   1.0937500000000000       0.75000000000000000        0.0000000000000000     
   1.1250000000000000       0.75000000000000000        0.0000000000000000     
   1.0000000000000000       0.78125000000000000        0.0000000000000000     
   1.0312500000000000       0.78125000000000000        0.0000000000000000     
   1.0625000000000000       0.78125000000000000        0.0000000000000000     
   1.0937500000000000       0.78125000000000000        0.0000000000000000     
   1.1250000000000000       0.78125000000000000        0.0000000000000000     
   1.0000000000000000       0.81250000000000000        0.0000000000000000     
   1.0312500000000000       0.81250000000000000        0.0000000000000000     
   1.0625000000000000       0.81250000000000000        0.0000000000000000     
   1.0937500000000000       0.81250000000000000        0.0000000000000000     
   1.1250000000000000       0.81250000000000000        0.0000000000000000     
   1.0000000000000000       0.84375000000000000        0.0000000000000000     
   1.0312500000000000       0.84375000000000000        0.0000000000000000     
   1.0625000000000000       0.84375000000000000        0.0000000000000000     
   1.0937500000000000       0.84375000000000000        0.0000000000000000     
   1.1250000000000000       0.84375000000000000        0.0000000000000000     
   1.0000000000000000       0.87500000000000000        0.0000000000000000     
   1.0312500000000000       0.87500000000000000        0.0000000000000000     
   1.0625000000000000       0.87500000000000000        0.0000000000000000     
   1.0937500000000000       0.87500000000000000        0.0000000000000000     
   1.1250000000000000       0.87500000000000000        0.0000000000000000     
   1.1250000000000000       0.75000000000000000        0.0000000000000000     
   1.1562500000000000       0.75000000000000000        0.0000000000000000     
   1.1875000000000000       0.75000000000000000        0.0000000000000000     
   1.2187500000000000       0.75000000000000000        0.0000000000000000     
   1.2500000000000000       0.75000000000000000        0.0000000000000000     
   1.1250000000000000       0.78125000000000000        0.0000000000000000     
   1.1562500000000000       0.78125000000000000        0.0000000000000000     
   1.1875000000000000       0.78125000000000000        0.0000000000000000     
   1.2187500000000000       0.78125000000000000        0.0000000000000000     
   1.2500000000000000       0.78125000000000000        0.0000000000000000     
   1.1250000000000000       0.81250000000000000        0.0000000000000000     
   1.1562500000000000       0.81250000000000000        0.0000000000000000     
   1.1875000000000000       0.81250000000000000        0.0000000000000000     
   1.2187500000000000       0.81250000000000000        0.0000000000000000     
   1.2500000000000000       0.81250000000000000        0.0000000000000000     
   1.1250000000000000       0.84375000000000000        0.0000000000000000     
   1.1562500000000000       0.84375000000000000        0.0000000000000000     
   1.1875000000000000       0.84375000000000000        0.0000000000000000     
   1.2187500000000000       0.84375000000000000        0.0000000000000000     
   1.2500000000000000       0.84375000000000000        0.0000000000000000     
   1.1250000000000000       0.87500000000000000        0.0000000000000000     
   1.1562500000000000       0.87500000000000000        0.0000000000000000     
   1.1875000000000000       0.87500000000000000        0.0000000000000000     
   1.2187500000000000       0.87500000000000000        0.0000000000000000     
   1.2500000000000000       0.87500000000000000        0.0000000000000000     
   1.2500000000000000       0.75000000000000000        0.0000000000000000     
   1.2812500000000000       0.75000000000000000        0.0000000000000000     
   1.3125000000000000       0.75000000000000000        0.0000000000000000     
   1.3437500000000000       0.75000000000000000        0.0000000000000000     
   1.3750000000000000       0.75000000000000000        0.0000000000000000     
   1.2500000000000000       0.78125000000000000        0.0000000000000000     
   1.2812500000000000       0.78125000000000000        0.0000000000000000     
   1.3125000000000000       0.78125000000000000        0.0000000000000000     
   1.3437500000000000       0.78125000000000000        0.0000000000000000     
   1.3750000000000000       0.78125000000000000        0.0000000000000000     
   1.2500000000000000       0.81250000000000000        0.0000000000000000     
   1.2812500000000000       0.81250000000000000        0.0000000000000000     
   1.3125000000000000       0.81250000000000000        0.0000000000000000     
   1.3437500000000000       0.81250000000000000        0.0000000000000000     
   1.3750000000000000       0.81250000000000000        0.0000000000000000     
   1.2500000000000000       0.84375000000000000        0.0000000000000000     
   1.2812500000000000       0.84375000000000000        0.0000000000000000     
   1.3125000000000000       0.84375000000000000        0.0000000000000000     
   1.3437500000000000       0.84375000000000000        0.0000000000000000     
   1.3750000000000000       0.84375000000000000        0.0000000000000000     
   1.2500000000000000       0.87500000000000000        0.0000000000000000     
   1.2812500000000000       0.87500000000000000        0.0000000000000000     
   1.3125000000000000       0.87500000000000000        0.0000000000000000     
   1.3437500000000000       0.87500000000000000        0.0000000000000000     
   1.3750000000000000       0.87500000000000000        0.0000000000000000     
   1.3750000000000000       0.75000000000000000        0.0000000000000000     
   1.4062500000000000       0.75000000000000000        0.0000000000000000     
   1.4375000000000000       0.75000000000000000        0.0000000000000000     
   1.4687500000000000       0.75000000000000000        0.0000000000000000     
   1.5000000000000000       0.75000000000000000        0.0000000000000000     
   1.3750000000000000       0.78125000000000000        0.0000000000000000     
   1.4062500000000000       0.78125000000000000        0.0000000000000000     
   1.4375000000000000       0.78125000000000000        0.0000000000000000     
   1.4687500000000000       0.78125000000000000        0.0000000000000000     
   1.5000000000000000       0.78125000000000000        0.0000000000000000     
   1.3750000000000000       0.81250000000000000        0.0000000000000000     
   1.4062500000000000       0.81250000000000000        0.0000000000000000     
   1.4375000000000000       0.81250000000000000        0.0000000000000000     
   1.4687500000000000       0.81250000000000000        0.0000000000000000     
   1.5000000000000000       0.81250000000000000        0.0000000000000000     
   1.3750000000000000       0.84375000000000000        0.0000000000000000     
   1.4062500000000000       0.84375000000000000        0.0000000000000000     
   1.4375000000000000       0.84375000000000000        0.0000000000000000     
   1.4687500000000000       0.84375000000000000        0.0000000000000000     
   1.5000000000000000       0.84375000000000000        0.0000000000000000     
   1.3750000000000000       0.87500000000000000        0.0000000000000000     
   1.4062500000000000       0.87500000000000000        0.0000000000000000     
   1.4375000000000000       0.87500000000000000        0.0000000000000000     
   1.4687500000000000       0.87500000000000000        0.0000000000000000     
   1.5000000000000000       0.87500000000000000        0.0000000000000000     
  0.50000000000000000       0.87500000000000000        0.0000000000000000     
  0.53125000000000000       0.87500000000000000        0.0000000000000000     
  0.56250000000000000       0.87500000000000000        0.0000000000000000     
  0.59375000000000000       0.87500000000000000        0.0000000000000000     
  0.62500000000000000       0.87500000000000000        0.0000000000000000     
  0.50000000000000000       0.90625000000000000        0.0000000000000000     
  0.53125000000000000       0.90625000000000000        0.0000000000000000     
  0.56250000000000000       0.90625000000000000        0.0000000000000000     
  0.59375000000000000       0.90625000000000000        0.0000000000000000     
  0.62500000000000000       0.90625000000000000        0.0000000000000000     
  0.50000000000000000       0.93750000000000000        0.0000000000000000     
  0.53125000000000000       0.93750000000000000        0.0000000000000000     
  0.56250000000000000       0.93750000000000000        0.0000000000000000     
  0.59375000000000000       0.93750000000000000        0.0000000000000000     
  0.62500000000000000       0.93750000000000000        0.0000000000000000     
  0.50000000000000000       0.96875000000000000        0.0000000000000000     
  0.53125000000000000       0.96875000000000000        0.0000000000000000     
  0.56250000000000000       0.96875000000000000        0.0000000000000000     
  0.59375000000000000       0.96875000000000000        0.0000000000000000     
  0.62500000000000000       0.96875000000000000        0.0000000000000000     
  0.50000000000000000        1.0000000000000000        0.0000000000000000     
  0.53125000000000000        1.0000000000000000        0.0000000000000000     
  0.56250000000000000        1.0000000000000000        0.0000000000000000     
  0.59375000000000000        1.0000000000000000        0.0000000000000000     
  0.62500000000000000        1.0000000000000000        0.0000000000000000     
  0.62500000000000000       0.87500000000000000        0.0000000000000000     
  0.65625000000000000       0.87500000000000000        0.0000000000000000     
  0.68750000000000000       0.87500000000000000        0.0000000000000000     
  0.71875000000000000       0.87500000000000000        0.0000000000000000     
  0.75000000000000000       0.87500000000000000        0.0000000000000000     
  0.62500000000000000       0.90625000000000000        0.0000000000000000     
  0.65625000000000000       0.90625000000000000        0.0000000000000000     
  0.68750000000000000       0.90625000000000000        0.0000000000000000     
  0.71875000000000000       0.90625000000000000        0.0000000000000000     
  0.75000000000000000       0.90625000000000000        0.0000000000000000     
  0.62500000000000000       0.93750000000000000        0.0000000000000000     
  0.65625000000000000       0.93750000000000000        0.0000000000000000     
  0.68750000000000000       0.93750000000000000        0.0000000000000000     
  0.71875000000000000       0.93750000000000000        0.0000000000000000     
  0.75000000000000000       0.93750000000000000        0.0000000000000000     
  0.62500000000000000       0.96875000000000000        0.0000000000000000     
  0.65625000000000000       0.96875000000000000        0.0000000000000000     
  0.68750000000000000       0.96875000000000000        0.0000000000000000     
  0.71875000000000000       0.96875000000000000        0.0000000000000000     
  0.75000000000000000       0.96875000000000000        0.0000000000000000     
  0.62500000000000000        1.0000000000000000        0.0000000000000000     
  0.65625000000000000        1.0000000000000000        0.0000000000000000     
  0.68750000000000000        1.0000000000000000        0.0000000000000000     
  0.71875000000000000        1.0000000000000000        0.0000000000000000     
  0.75000000000000000        1.0000000000000000        0.0000000000000000     
  0.75000000000000000       0.87500000000000000        0.0000000000000000     
  0.78125000000000000       0.87500000000000000        0.0000000000000000     
  0.81250000000000000       0.87500000000000000        0.0000000000000000     
  0.84375000000000000       0.87500000000000000        0.0000000000000000     
  0.87500000000000000       0.87500000000000000        0.0000000000000000     
  0.75000000000000000       0.90625000000000000        0.0000000000000000     
  0.78125000000000000       0.90625000000000000        0.0000000000000000     
  0.81250000000000000       0.90625000000000000        0.0000000000000000     
  0.84375000000000000       0.90625000000000000        0.0000000000000000     
  0.87500000000000000       0.90625000000000000        0.0000000000000000     
  0.75000000000000000       0.93750000000000000        0.0000000000000000     
  0.78125000000000000       0.93750000000000000        0.0000000000000000     
  0.81250000000000000       0.93750000000000000        0.0000000000000000     
  0.84375000000000000       0.93750000000000000        0.0000000000000000     
  0.87500000000000000       0.93750000000000000        0.0000000000000000     
  0.75000000000000000       0.96875000000000000        0.0000000000000000     
  0.78125000000000000       0.96875000000000000        0.0000000000000000     
  0.81250000000000000       0.96875000000000000        0.0000000000000000     
  0.84375000000000000       0.96875000000000000        0.0000000000000000     
  0.87500000000000000       0.96875000000000000        0.0000000000000000     
  0.75000000000000000        1.0000000000000000        0.0000000000000000     
  0.78125000000000000        1.0000000000000000        0.0000000000000000     
  0.81250000000000000        1.0000000000000000        0.0000000000000000     
  0.84375000000000000        1.0000000000000000        0.0000000000000000     
  0.87500000000000000        1.0000000000000000        0.0000000000000000     
  0.87500000000000000       0.87500000000000000        0.0000000000000000     
  0.90625000000000000       0.87500000000000000        0.0000000000000000     
  0.93750000000000000       0.87500000000000000        0.0000000000000000     
  0.96875000000000000       0.87500000000000000        0.0000000000000000     
   1.0000000000000000       0.87500000000000000        0.0000000000000000     
  0.87500000000000000       0.90625000000000000        0.0000000000000000     
  0.90625000000000000       0.90625000000000000        0.0000000000000000     
  0.93750000000000000       0.90625000000000000        0.0000000000000000     
  0.96875000000000000       0.90625000000000000        0.0000000000000000     
   1.0000000000000000       0.90625000000000000        0.0000000000000000     
  0.87500000000000000       0.93750000000000000        0.0000000000000000     
  0.90625000000000000       0.93750000000000000        0.0000000000000000     
  0.93750000000000000       0.93750000000000000        0.0000000000000000     
  0.96875000000000000       0.93750000000000000        0.0000000000000000     
   1.0000000000000000       0.93750000000000000        0.0000000000000000     
  0.87500000000000000       0.96875000000000000        0.0000000000000000     
  0.90625000000000000       0.96875000000000000        0.0000000000000000     
  0.93750000000000000       0.96875000000000000        0.0000000000000000     
  0.96875000000000000       0.96875000000000000        0.0000000000000000     
   1.0000000000000000       0.96875000000000000        0.0000000000000000     
  0.87500000000000000        1.0000000000000000        0.0000000000000000     
  0.90625000000000000        1.0000000000000000        0.0000000000000000     
  0.93750000000000000        1.0000000000000000        0.0000000000000000     
  0.96875000000000000        1.0000000000000000        0.0000000000000000     
   1.0000000000000000        1.0000000000000000        0.0000000000000000     
   1.0000000000000000       0.87500000000000000        0.0000000000000000     
   1.0312500000000000       0.87500000000000000        0.0000000000000000     
   1.0625000000000000       0.87500000000000000        0.0000000000000000     
   1.0937500000000000       0.87500000000000000        0.0000000000000000     
   1.1250000000000000       0.87500000000000000        0.0000000000000000     
   1.0000000000000000       0.90625000000000000        0.0000000000000000     
   1.0312500000000000       0.90625000000000000        0.0000000000000000     
   1.0625000000000000       0.90625000000000000        0.0000000000000000     
   1.0937500000000000       0.90625000000000000        0.0000000000000000     
   1.1250000000000000       0.90625000000000000        0.0000000000000000     
   1.0000000000000000       0.93750000000000000        0.0000000000000000     
   1.0312500000000000       0.93750000000000000        0.0000000000000000     
   1.0625000000000000       0.93750000000000000        0.0000000000000000     
   1.0937500000000000       0.93750000000000000        0.0000000000000000     
   1.1250000000000000       0.93750000000000000        0.0000000000000000     
   1.0000000000000000       0.96875000000000000        0.0000000000000000     
   1.0312500000000000       0.96875000000000000        0.0000000000000000     
   1.0625000000000000       0.96875000000000000        0.0000000000000000     
   1.0937500000000000       0.96875000000000000        0.0000000000000000     
   1.1250000000000000       0.96875000000000000        0.0000000000000000     
   1.0000000000000000        1.0000000000000000        0.0000000000000000     
   1.0312500000000000        1.0000000000000000        0.0000000000000000     
   1.0625000000000000        1.0000000000000000        0.0000000000000000     
   1.0937500000000000        1.0000000000000000        0.0000000000000000     
   1.1250000000000000        1.0000000000000000        0.0000000000000000     
   1.1250000000000000       0.87500000000000000        0.0000000000000000     
   1.1562500000000000       0.87500000000000000        0.0000000000000000     
   1.1875000000000000       0.87500000000000000        0.0000000000000000     
   1.2187500000000000       0.87500000000000000        0.0000000000000000     
   1.2500000000000000       0.87500000000000000        0.0000000000000000     
   1.1250000000000000       0.90625000000000000        0.0000000000000000     
   1.1562500000000000       0.90625000000000000        0.0000000000000000     
   1.1875000000000000       0.90625000000000000        0.0000000000000000     
   1.2187500000000000       0.90625000000000000        0.0000000000000000     
   1.2500000000000000       0.90625000000000000        0.0000000000000000     
   1.1250000000000000       0.93750000000000000        0.0000000000000000     
   1.1562500000000000       0.93750000000000000        0.0000000000000000     
   1.1875000000000000       0.93750000000000000        0.0000000000000000     
   1.2187500000000000       0.93750000000000000        0.0000000000000000     
   1.2500000000000000       0.93750000000000000        0.0000000000000000     
   1.1250000000000000       0.96875000000000000        0.0000000000000000     
   1.1562500000000000       0.96875000000000000        0.0000000000000000     
   1.1875000000000000       0.96875000000000000        0.0000000000000000     
   1.2187500000000000       0.96875000000000000        0.0000000000000000     
   1.2500000000000000       0.96875000000000000        0.0000000000000000     
   1.1250000000000000        1.0000000000000000        0.0000000000000000     
   1.1562500000000000        1.0000000000000000        0.0000000000000000     
   1.1875000000000000        1.0000000000000000        0.0000000000000000     
   1.2187500000000000        1.0000000000000000        0.0000000000000000     
   1.2500000000000000        1.0000000000000000        0.0000000000000000     
   1.2500000000000000       0.87500000000000000        0.0000000000000000     
   1.2812500000000000       0.87500000000000000        0.0000000000000000     
   1.3125000000000000       0.87500000000000000        0.0000000000000000     
   1.3437500000000000       0.87500000000000000        0.0000000000000000     
   1.3750000000000000       0.87500000000000000        0.0000000000000000     
   1.2500000000000000       0.90625000000000000        0.0000000000000000     
   1.2812500000000000       0.90625000000000000        0.0000000000000000     
   1.3125000000000000       0.90625000000000000        0.0000000000000000     
   1.3437500000000000       0.90625000000000000        0.0000000000000000     
   1.3750000000000000       0.90625000000000000        0.0000000000000000     
   1.2500000000000000       0.93750000000000000        0.0000000000000000     
   1.2812500000000000       0.93750000000000000        0.0000000000000000     
   1.3125000000000000       0.93750000000000000        0.0000000000000000     
   1.3437500000000000       0.93750000000000000        0.0000000000000000     
   1.3750000000000000       0.93750000000000000        0.0000000000000000     
   1.2500000000000000       0.96875000000000000        0.0000000000000000     
   1.2812500000000000       0.96875000000000000        0.0000000000000000     
   1.3125000000000000       0.96875000000000000        0.0000000000000000     
   1.3437500000000000       0.96875000000000000        0.0000000000000000     
   1.3750000000000000       0.96875000000000000        0.0000000000000000     
   1.2500000000000000        1.0000000000000000        0.0000000000000000     
   1.2812500000000000        1.0000000000000000        0.0000000000000000     
   1.3125000000000000        1.0000000000000000        0.0000000000000000     
   1.3437500000000000        1.0000000000000000        0.0000000000000000     
   1.3750000000000000        1.0000000000000000        0.0000000000000000     
   1.3750000000000000       0.87500000000000000        0.0000000000000000     
   1.4062500000000000       0.87500000000000000        0.0000000000000000     
   1.4375000000000000       0.87500000000000000        0.0000000000000000     
   1.4687500000000000       0.87500000000000000        0.0000000000000000     
   1.5000000000000000       0.87500000000000000        0.0000000000000000     
   1.3750000000000000       0.90625000000000000        0.0000000000000000     
   1.4062500000000000       0.90625000000000000        0.0000000000000000     
   1.4375000000000000       0.90625000000000000        0.0000000000000000     
   1.4687500000000000       0.90625000000000000        0.0000000000000000     
   1.5000000000000000       0.90625000000000000        0.0000000000000000     
   1.3750000000000000       0.93750000000000000        0.0000000000000000     
   1.4062500000000000       0.93750000000000000        0.0000000000000000     
   1.4375000000000000       0.93750000000000000        0.0000000000000000     
   1.4687500000000000       0.93750000000000000        0.0000000000000000     
   1.5000000000000000       0.93750000000000000        0.0000000000000000     
   1.3750000000000000       0.96875000000000000        0.0000000000000000     
   1.4062500000000000       0.96875000000000000        0.0000000000000000     
   1.4375000000000000       0.96875000000000000        0.0000000000000000     
   1.4687500000000000       0.96875000000000000        0.0000000000000000     
   1.5000000000000000       0.96875000000000000        0.0000000000000000     
   1.3750000000000000        1.0000000000000000        0.0000000000000000     
   1.4062500000000000        1.0000000000000000        0.0000000000000000     
   1.4375000000000000        1.0000000000000000        0.0000000000000000     
   1.4687500000000000        1.0000000000000000        0.0000000000000000     
   1.5000000000000000        1.0000000000000000        0.0000000000000000     
 </DataArray>
 </Points>
 <Cells>
 <DataArray  type="Int32"  Name="connectivity"  format="ascii">
           0           1           6           5
           1           2           7           6
           2           3           8           7
           3           4           9           8
           5           6          11          10
           6           7          12          11
           7           8          13          12
           8           9          14          13
          10          11          16          15
          11          12          17          16
          12          13          18          17
          13          14          19          18
          15          16          21          20
          16          17          22          21
          17          18          23          22
          18          19          24          23
          25          26          31          30
          26          27          32          31
          27          28          33          32
          28          29          34          33
          30          31          36          35
          31          32          37          36
          32          33          38          37
          33          34          39          38
          35          36          41          40
          36          37          42          41
          37          38          43          42
          38          39          44          43
          40          41          46          45
          41          42          47          46
          42          43          48          47
          43          44          49          48
          50          51          56          55
          51          52          57          56
          52          53          58          57
          53          54          59          58
          55          56          61          60
          56          57          62          61
          57          58          63          62
          58          59          64          63
          60          61          66          65
          61          62          67          66
          62          63          68          67
          63          64          69          68
          65          66          71          70
          66          67          72          71
          67          68          73          72
          68          69          74          73
          75          76          81          80
          76          77          82          81
          77          78          83          82
          78          79          84          83
          80          81          86          85
          81          82          87          86
          82          83          88          87
          83          84          89          88
          85          86          91          90
          86          87          92          91
          87          88          93          92
          88          89          94          93
          90          91          96          95
          91          92          97          96
          92          93          98          97
          93          94          99          98
         100         101         106         105
         101         102         107         106
         102         103         108         107
         103         104         109         108
         105         106         111         110
         106         107         112         111
         107         108         113         112
         108         109         114         113
         110         111         116         115
         111         112         117         116
         112         113         118         117
         113         114         119         118
         115         116         121         120
         116         117         122         121
         117         118         123         122
         118         119         124         123
         125         126         131         130
         126         127         132         131
         127         128         133         132
         128         129         134         133
         130         131         136         135
         131         132         137         136
         132         133         138         137
         133         134         139         138
         135         136         141         140
         136         137         142         141
         137         138         143         142
         138         139         144         143
         140         141         146         145
         141         142         147         146
         142         143         148         147
         143         144         149         148
         150         151         156         155
         151         152         157         156
         152         153         158         157
         153         154         159         158
         155         156         161         160
         156         157         162         161
         157         158         163         162
         158         159         164         163
         160         161         166         165
         161         162         167         166
         162         163         168         167
         163         164         169         168
         165         166         171         170
         166         167         172         171
         167         168         173         172
         168         169         174         173
         175         176         181         180
         176         177         182         181
         177         178         183         182
         178         179         184         183
         180         181         186         185
         181         182         187         186
         182         183         188         187
         183         184         189         188
         185         186         191         190
         186         187         192         191
         187         188         193         192
         188         189         194         193
         190         191         196         195
         191         192         197         196
         192         193         198         197
         193         194         199         198
         200         201         206         205
         201         202         207         206
         202         203         208         207
         203         204         209         208
         205         206         211         210
         206         207         212         211
         207         208         213         212
         208         209         214         213
         210         211         216         215
         211         212         217         216
         212         213         218         217
         213         214         219         218
         215         216         221         220
         216         217         222         221
         217         218         223         222
         218         219         224         223
         225         226         231         230
         226         227         232         231
         227         228         233         232
         228         229         234         233
         230         231         236         235
         231         232         237         236
         232         233         238         237
         233         234         239         238
         235         236         241         240
         236         237         242         241
         237         238         243         242
         238         239         244         243
         240         241         246         245
         241         242         247         246
         242         243         248         247
         243         244         249         248
         250         251         256         255
         251         252         257         256
         252         253         258         257
         253         254         259         258
         255         256         261         260
         256         257         262         261
         257         258         263         262
         258         259         264         263
         260         261         266         265
         261         262         267         266
         262         263         268         267
         263         264         269         268
         265         266         271         270
         266         267         272         271
         267         268         273         272
         268         269         274         273
         275         276         281         280
         276         277         282         281
         277         278         283         282
         278         279         284         283
         280         281         286         285
         281         282         287         286
         282         283         288         287
         283         284         289         288
         285         286         291         290
         286         287         292         291
         287         288         293         292
         288         289         294         293
         290         291         296         295
         291         292         297         296
         292         293         298         297
         293         294         299         298
         300         301         306         305
         301         302         307         306
         302         303         308         307
         303         304         309         308
         305         306         311         310
         306         307         312         311
         307         308         313         312
         308         309         314         313
         310         311         316         315
         311         312         317         316
         312         313         318         317
         313         314         319         318
         315         316         321         320
         316         317         322         321
         317         318         323         322
         318         319         324         323
         325         326         331         330
         326         327         332         331
         327         328         333         332
         328         329         334         333
         330         331         336         335
         331         332         337         336
         332         333         338         337
         333         334         339         338
         335         336         341         340
         336         337         342         341
         337         338         343         342
         338         339         344         343
         340         341         346         345
         341         342         347         346
         342         343         348         347
         343         344         349         348
         350         351         356         355
         351         352         357         356
         352         353         358         357
         353         354         359         358
         355         356         361         360
         356         357         362         361
         357         358         363         362
         358         359         364         363
         360         361         366         365
         361         362         367         366
         362         363         368         367
         363         364         369         368
         365         366         371         370
         366         367         372         371
         367         368         373         372
         368         369         374         373
         375         376         381         380
         376         377         382         381
         377         378         383         382
         378         379         384         383
         380         381         386         385
         381         382         387         386
         382         383         388         387
         383         384         389         388
         385         386         391         390
         386         387         392         391
         387         388         393         392
         388         389         394         393
         390         391         396         395
         391         392         397         396
         392         393         398         397
         393         394         399         398
         400         401         406         405
         401         402         407         406
         402         403         408         407
         403         404         409         408
         405         406         411         410
         406         407         412         411
         407         408         413         412
         408         409         414         413
         410         411         416         415
         411         412         417         416
         412         413         418         417
         413         414         419         418
         415         416         421         420
         416         417         422         421
         417         418         423         422
         418         419         424         423
         425         426         431         430
         426         427         432         431
         427         428         433         432
         428         429         434         433
         430         431         436         435
         431         432         437         436
         432         433         438         437
         433         434         439         438
         435         436         441         440
         436         437         442         441
         437         438         443         442
         438         439         444         443
         440         441         446         445
         441         442         447         446
         442         443         448         447
         443         444         449         448
         450         451         456         455
         451         452         457         456
         452         453         458         457
         453         454         459         458
         455         456         461         460
         456         457         462         461
         457         458         463         462
         458         459         464         463
         460         461         466         465
         461         462         467         466
         462         463         468         467
         463         464         469         468
         465         466         471         470
         466         467         472         471
         467         468         473         472
         468         469         474         473
         475         476         481         480
         476         477         482         481
         477         478         483         482
         478         479         484         483
         480         481         486         485
         481         482         487         486
         482         483         488         487
         483         484         489         488
         485         486         491         490
         486         487         492         491
         487         488         493         492
         488         489         494         493
         490         491         496         495
         491         492         497         496
         492         493         498         497
         493         494         499         498
         500         501         506         505
         501         502         507         506
         502         503         508         507
         503         504         509         508
         505         506         511         510
         506         507         512         511
         507         508         513         512
         508         509         514         513
         510         511         516         515
         511         512         517         516
         512         513         518         517
         513         514         519         518
         515         516         521         520
         516         517         522         521
         517         518         523         522
         518         519         524         523
         525         526         531         530
         526         527         532         531
         527         528         533         532
         528         529         534         533
         530         531         536         535
         531         532         537         536
         532         533         538         537
         533         534         539         538
         535         536         541         540
         536         537         542         541
         537         538         543         542
         538         539         544         543
         540         541         546         545
         541         542         547         546
         542         543         548         547
         543         544         549         548
         550         551         556         555
         551         552         557         556
         552         553         558         557
         553         554         559         558
         555         556         561         560
         556         557         562         561
         557         558         563         562
         558         559         564         563
         560         561         566         565
         561         562         567         566
         562         563         568         567
         563         564         569         568
         565         566         571         570
         566         567         572         571
         567         568         573         572
         568         569         574         573
         575         576         581         580
         576         577         582         581
         577         578         583         582
         578         579         584         583
         580         581         586         585
         581         582         587         586
         582         583         588         587
         583         584         589         588
         585         586         591         590
         586         587         592         591
         587         588         593         592
         588         589         594         593
         590         591         596         595
         591         592         597         596
         592         593         598         597
         593         594         599         598
         600         601         606         605
         601         602         607         606
         602         603         608         607
         603         604         609         608
         605         606         611         610
         606         607         612         611
         607         608         613         612
         608         609         614         613
         610         611         616         615
         611         612         617         616
         612         613         618         617
         613         614         619         618
         615         616         621         620
         616         617         622         621
         617         618         623         622
         618         619         624         623
         625         626         631         630
         626         627         632         631
         627         628         633         632
         628         629         634         633
         630         631         636         635
         631         632         637         636
         632         633         638         637
         633         634         639         638
         635         636         641         640
         636         637         642         641
         637         638         643         642
         638         639         644         643
         640         641         646         645
         641         642         647         646
         642         643         648         647
         643         644         649         648
         650         651         656         655
         651         652         657         656
         652         653         658         657
         653         654         659         658
         655         656         661         660
         656         657         662         661
         657         658         663         662
         658         659         664         663
         660         661         666         665
         661         662         667         666
         662         663         668         667
         663         664         669         668
         665         666         671         670
         666         667         672         671
         667         668         673         672
         668         669         674         673
         675         676         681         680
         676         677         682         681
         677         678         683         682
         678         679         684         683
         680         681         686         685
         681         682         687         686
         682         683         688         687
         683         684         689         688
         685         686         691         690
         686         687         692         691
         687         688         693         692
         688         689         694         693
         690         691         696         695
         691         692         697         696
         692         693         698         697
         693         694         699         698
         700         701         706         705
         701         702         707         706
         702         703         708         707
         703         704         709         708
         705         706         711         710
         706         707         712         711
         707         708         713         712
         708         709         714         713
         710         711         716         715
         711         712         717         716
         712         713         718         717
         713         714         719         718
         715         716         721         720
         716         717         722         721
         717         718         723         722
         718         719         724         723
         725         726         731         730
         726         727         732         731
         727         728         733         732
         728         729         734         733
         730         731         736         735
         731         732         737         736
         732         733         738         737
         733         734         739         738
         735         736         741         740
         736         737         742         741
         737         738         743         742
         738         739         744         743
         740         741         746         745
         741         742         747         746
         742         743         748         747
         743         744         749         748
         750         751         756         755
         751         752         757         756
         752         753         758         757
         753         754         759         758
         755         756         761         760
         756         757         762         761
         757         758         763         762
         758         759         764         763
         760         761         766         765
         761         762         767         766
         762         763         768         767
         763         764         769         768
         765         766         771         770
         766         767         772         771
         767         768         773         772
         768         769         774         773
         775         776         781         780
         776         777         782         781
         777         778         783         782
         778         779         784         783
         780         781         786         785
         781         782         787         786
         782         783         788         787
         783         784         789         788
         785         786         791         790
         786         787         792         791
         787         788         793         792
         788         789         794         793
         790         791         796         795
         791         792         797         796
         792         793         798         797
         793         794         799         798
         800         801         806         805
         801         802         807         806
         802         803         808         807
         803         804         809         808
         805         806         811         810
         806         807         812         811
         807         808         813         812
         808         809         814         813
         810         811         816         815
         811         812         817         816
         812         813         818         817
         813         814         819         818
         815         816         821         820
         816         817         822         821
         817         818         823         822
         818         819         824         823
         825         826         831         830
         826         827         832         831
         827         828         833         832
         828         829         834         833
         830         831         836         835
         831         832         837         836
         832         833         838         837
         833         834         839         838
         835         836         841         840
         836         837         842         841
         837         838         843         842
         838         839         844         843
         840         841         846         845
         841         842         847         846
         842         843         848         847
         843         844         849         848
         850         851         856         855
         851         852         857         856
         852         853         858         857
         853         854         859         858
         855         856         861         860
         856         857         862         861
         857         858         863         862
         858         859         864         863
         860         861         866         865
         861         862         867         866
         862         863         868         867
         863         864         869         868
         865         866         871         870
         866         867         872         871
         867         868         873         872
         868         869         874         873
         875         876         881         880
         876         877         882         881
         877         878         883         882
         878         879         884         883
         880         881         886         885
         881         882         887         886
         882         883         888         887
         883         884         889         888
         885         886         891         890
         886         887         892         891
         887         888         893         892
         888         889         894         893
         890         891         896         895
         891         892         897         896
         892         893         898         897
         893         894         899         898
         900         901         906         905
         901         902         907         906
         902         903         908         907
         903         904         909         908
         905         906         911         910
         906         907         912         911
         907         908         913         912
         908         909         914         913
         910         911         916         915
         911         912         917         916
         912         913         918         917
         913         914         919         918
         915         916         921         920
         916         917         922         921
         917         918         923         922
         918         919         924         923
         925         926         931         930
         926         927         932         931
         927         928         933         932
         928         929         934         933
         930         931         936         935
         931         932         937         936
         932         933         938         937
         933         934         939         938
         935         936         941         940
         936         937         942         941
         937         938         943         942
         938         939         944         943
         940         941         946         945
         941         942         947         946
         942         943         948         947
         943         944         949         948
         950         951         956         955
         951         952         957         956
         952         953         958         957
         953         954         959         958
         955         956         961         960
         956         957         962         961
         957         958         963         962
         958         959         964         963
         960         961         966         965
         961         962         967         966
         962         963         968         967
         963         964         969         968
         965         966         971         970
         966         967         972         971
         967         968         973         972
         968         969         974         973
         975         976         981         980
         976         977         982         981
         977         978         983         982
         978         979         984         983
         980         981         986         985
         981         982         987         986
         982         983         988         987
         983         984         989         988
         985         986         991         990
         986         987         992         991
         987         988         993         992
         988         989         994         993
         990         991         996         995
         991         992         997         996
         992         993         998         997
         993         994         999         998
        1000        1001        1006        1005
        1001        1002        1007        1006
        1002        1003        1008        1007
        1003        1004        1009        1008
        1005        1006        1011        1010
        1006        1007        1012        1011
        1007        1008        1013        1012
        1008        1009        1014        1013
        1010        1011        1016        1015
        1011        1012        1017        1016
        1012        1013        1018        1017
        1013        1014        1019        1018
        1015        1016        1021        1020
        1016        1017        1022        1021
        1017        1018        1023        1022
        1018        1019        1024        1023
        1025        1026        1031        1030
        1026        1027        1032        1031
        1027        1028        1033        1032
        1028        1029        1034        1033
        1030        1031        1036        1035
        1031        1032        1037        1036
        1032        1033        1038        1037
        1033        1034        1039        1038
        1035        1036        1041        1040
        1036        1037        1042        1041
        1037        1038        1043        1042
        1038        1039        1044        1043
        1040        1041        1046        1045
        1041        1042        1047        1046
        1042        1043        1048        1047
        1043        1044        1049        1048
        1050        1051        1056        1055
        1051        1052        1057        1056
        1052        1053        1058        1057
        1053        1054        1059        1058
        1055        1056        1061        1060
        1056        1057        1062        1061
        1057        1058        1063        1062
        1058        1059        1064        1063
        1060        1061        1066        1065
        1061        1062        1067        1066
        1062        1063        1068        1067
        1063        1064        1069        1068
        1065        1066        1071        1070
        1066        1067        1072        1071
        1067        1068        1073        1072
        1068        1069        1074        1073
        1075        1076        1081        1080
        1076        1077        1082        1081
        1077        1078        1083        1082
        1078        1079        1084        1083
        1080        1081        1086        1085
        1081        1082        1087        1086
        1082        1083        1088        1087
        1083        1084        1089        1088
        1085        1086        1091        1090
        1086        1087        1092        1091
        1087        1088        1093        1092
        1088        1089        1094        1093
        1090        1091        1096        1095
        1091        1092        1097        1096
        1092        1093        1098        1097
        1093        1094        1099        1098
        1100        1101        1106        1105
        1101        1102        1107        1106
        1102        1103        1108        1107
        1103        1104        1109        1108
        1105        1106        1111        1110
        1106        1107        1112        1111
        1107        1108        1113        1112
        1108        1109        1114        1113
        1110        1111        1116        1115
        1111        1112        1117        1116
        1112        1113        1118        1117
        1113        1114        1119        1118
        1115        1116        1121        1120
        1116        1117        1122        1121
        1117        1118        1123        1122
        1118        1119        1124        1123
        1125        1126        1131        1130
        1126        1127        1132        1131
        1127        1128        1133        1132
        1128        1129        1134        1133
        1130        1131        1136        1135
        1131        1132        1137        1136
        1132        1133        1138        1137
        1133        1134        1139        1138
        1135        1136        1141        1140
        1136        1137        1142        1141
        1137        1138        1143        1142
        1138        1139        1144        1143
        1140        1141        1146        1145
        1141        1142        1147        1146
        1142        1143        1148        1147
        1143        1144        1149        1148
        1150        1151        1156        1155
        1151        1152        1157        1156
        1152        1153        1158        1157
        1153        1154        1159        1158
        1155        1156        1161        1160
        1156        1157        1162        1161
        1157        1158        1163        1162
        1158        1159        1164        1163
        1160        1161        1166        1165
        1161        1162        1167        1166
        1162        1163        1168        1167
        1163        1164        1169        1168
        1165        1166        1171        1170
        1166        1167        1172        1171
        1167        1168        1173        1172
        1168        1169        1174        1173
        1175        1176        1181        1180
        1176        1177        1182        1181
        1177        1178        1183        1182
        1178        1179        1184        1183
        1180        1181        1186        1185
        1181        1182        1187        1186
        1182        1183        1188        1187
        1183        1184        1189        1188
        1185        1186        1191        1190
        1186        1187        1192        1191
        1187        1188        1193        1192
        1188        1189        1194        1193
        1190        1191        1196        1195
        1191        1192        1197        1196
        1192        1193        1198        1197
        1193        1194        1199        1198
        1200        1201        1206        1205
        1201        1202        1207        1206
        1202        1203        1208        1207
        1203        1204        1209        1208
        1205        1206        1211        1210
        1206        1207        1212        1211
        1207        1208        1213        1212
        1208        1209        1214        1213
        1210        1211        1216        1215
        1211        1212        1217        1216
        1212        1213        1218        1217
        1213        1214        1219        1218
        1215        1216        1221        1220
        1216        1217        1222        1221
        1217        1218        1223        1222
        1218        1219        1224        1223
        1225        1226        1231        1230
        1226        1227        1232        1231
        1227        1228        1233        1232
        1228        1229        1234        1233
        1230        1231        1236        1235
        1231        1232        1237        1236
        1232        1233        1238        1237
        1233        1234        1239        1238
        1235        1236        1241        1240
        1236        1237        1242        1241
        1237        1238        1243        1242
        1238        1239        1244        1243
        1240        1241        1246        1245
        1241        1242        1247        1246
        1242        1243        1248        1247
        1243        1244        1249        1248
        1250        1251        1256        1255
        1251        1252        1257        1256
        1252        1253        1258        1257
        1253        1254        1259        1258
        1255        1256        1261        1260
        1256        1257        1262        1261
        1257        1258        1263        1262
        1258        1259        1264        1263
        1260        1261        1266        1265
        1261        1262        1267        1266
        1262        1263        1268        1267
        1263        1264        1269        1268
        1265        1266        1271        1270
        1266        1267        1272        1271
        1267        1268        1273        1272
        1268        1269        1274        1273
        1275        1276        1281        1280
        1276        1277        1282        1281
        1277        1278        1283        1282
        1278        1279        1284        1283
        1280        1281        1286        1285
        1281        1282        1287        1286
        1282        1283        1288        1287
        1283        1284        1289        1288
        1285        1286        1291        1290
        1286        1287        1292        1291
        1287        1288        1293        1292
        1288        1289        1294        1293
        1290        1291        1296        1295
        1291        1292        1297        1296
        1292        1293        1298        1297
        1293        1294        1299        1298
        1300        1301        1306        1305
        1301        1302        1307        1306
        1302        1303        1308        1307
        1303        1304        1309        1308
        1305        1306        1311        1310
        1306        1307        1312        1311
        1307        1308        1313        1312
        1308        1309        1314        1313
        1310        1311        1316        1315
        1311        1312        1317        1316
        1312        1313        1318        1317
        1313        1314        1319        1318
        1315        1316        1321        1320
        1316        1317        1322        1321
        1317        1318        1323        1322
        1318        1319        1324        1323
        1325        1326        1331        1330
        1326        1327        1332        1331
        1327        1328        1333        1332
        1328        1329        1334        1333
        1330        1331        1336        1335
        1331        1332        1337        1336
        1332        1333        1338        1337
        1333        1334        1339        1338
        1335        1336        1341        1340
        1336        1337        1342        1341
        1337        1338        1343        1342
        1338        1339        1344        1343
        1340        1341        1346        1345
        1341        1342        1347        1346
        1342        1343        1348        1347
        1343        1344        1349        1348
        1350        1351        1356        1355
        1351        1352        1357        1356
        1352        1353        1358        1357
        1353        1354        1359        1358
        1355        1356        1361        1360
        1356        1357        1362        1361
        1357        1358        1363        1362
        1358        1359        1364        1363
        1360        1361        1366        1365
        1361        1362        1367        1366
        1362        1363        1368        1367
        1363        1364        1369        1368
        1365        1366        1371        1370
        1366        1367        1372        1371
        1367        1368        1373        1372
        1368        1369        1374        1373
        1375        1376        1381        1380
        1376        1377        1382        1381
        1377        1378        1383        1382
        1378        1379        1384        1383
        1380        1381        1386        1385
        1381        1382        1387        1386
        1382        1383        1388        1387
        1383        1384        1389        1388
        1385        1386        1391        1390
        1386        1387        1392        1391
        1387        1388        1393        1392
        1388        1389        1394        1393
        1390        1391        1396        1395
        1391        1392        1397        1396
        1392        1393        1398        1397
        1393        1394        1399        1398
        1400        1401        1406        1405
        1401        1402        1407        1406
        1402        1403        1408        1407
        1403        1404        1409        1408
        1405        1406        1411        1410
        1406        1407        1412        1411
        1407        1408        1413        1412
        1408        1409        1414        1413
        1410        1411        1416        1415
        1411        1412        1417        1416
        1412        1413        1418        1417
        1413        1414        1419        1418
        1415        1416        1421        1420
        1416        1417        1422        1421
        1417        1418        1423        1422
        1418        1419        1424        1423
        1425        1426        1431        1430
        1426        1427        1432        1431
        1427        1428        1433        1432
        1428        1429        1434        1433
        1430        1431        1436        1435
        1431        1432        1437        1436
        1432        1433        1438        1437
        1433        1434        1439        1438
        1435        1436        1441        1440
        1436        1437        1442        1441
        1437        1438        1443        1442
        1438        1439        1444        1443
        1440        1441        1446        1445
        1441        1442        1447        1446
        1442        1443        1448        1447
        1443        1444        1449        1448
        1450        1451        1456        1455
        1451        1452        1457        1456
        1452        1453        1458        1457
        1453        1454        1459        1458
        1455        1456        1461        1460
        1456        1457        1462        1461
        1457        1458        1463        1462
        1458        1459        1464        1463
        1460        1461        1466        1465
        1461        1462        1467        1466
        1462        1463        1468        1467
        1463        1464        1469        1468
        1465        1466        1471        1470
        1466        1467        1472        1471
        1467        1468        1473        1472
        1468        1469        1474        1473
        1475        1476        1481        1480
        1476        1477        1482        1481
        1477        1478        1483        1482
        1478        1479        1484        1483
        1480        1481        1486        1485
        1481        1482        1487        1486
        1482        1483        1488        1487
        1483        1484        1489        1488
        1485        1486        1491        1490
        1486        1487        1492        1491
        1487        1488        1493        1492
        1488        1489        1494        1493
        1490        1491        1496        1495
        1491        1492        1497        1496
        1492        1493        1498        1497
        1493        1494        1499        1498
        1500        1501        1506        1505
        1501        1502        1507        1506
        1502        1503        1508        1507
        1503        1504        1509        1508
        1505        1506        1511        1510
        1506        1507        1512        1511
        1507        1508        1513        1512
        1508        1509        1514        1513
        1510        1511        1516        1515
        1511        1512        1517        1516
        1512        1513        1518        1517
        1513        1514        1519        1518
        1515        1516        1521        1520
        1516        1517        1522        1521
        1517        1518        1523        1522
        1518        1519        1524        1523
        1525        1526        1531        1530
        1526        1527        1532        1531
        1527        1528        1533        1532
        1528        1529        1534        1533
        1530        1531        1536        1535
        1531        1532        1537        1536
        1532        1533        1538        1537
        1533        1534        1539        1538
        1535        1536        1541        1540
        1536        1537        1542        1541
        1537        1538        1543        1542
        1538        1539        1544        1543
        1540        1541        1546        1545
        1541        1542        1547        1546
        1542        1543        1548        1547
        1543        1544        1549        1548
        1550        1551        1556        1555
        1551        1552        1557        1556
        1552        1553        1558        1557
        1553        1554        1559        1558
        1555        1556        1561        1560
        1556        1557        1562        1561
        1557        1558        1563        1562
        1558        1559        1564        1563
        1560        1561        1566        1565
        1561        1562        1567        1566
        1562        1563        1568        1567
        1563        1564        1569        1568
        1565        1566        1571        1570
        1566        1567        1572        1571
        1567        1568        1573        1572
        1568        1569        1574        1573
        1575        1576        1581        1580
        1576        1577        1582        1581
        1577        1578        1583        1582
        1578        1579        1584        1583
        1580        1581        1586        1585
        1581        1582        1587        1586
        1582        1583        1588        1587
        1583        1584        1589        1588
        1585        1586        1591        1590
        1586        1587        1592        1591
        1587        1588        1593        1592
        1588        1589        1594        1593
        1590        1591        1596        1595
        1591        1592        1597        1596
        1592        1593        1598        1597
        1593        1594        1599        1598
 </DataArray>
 <DataArray  type="Int32"  Name="offsets"  format="ascii"> 
           4
           8
          12
          16
          20
          24
          28
          32
          36
          40
          44
          48
          52
          56
          60
          64
          68
          72
          76
          80
          84
          88
          92
          96
         100
         104
         108
         112
         116
         120
         124
         128
         132
         136
         140
         144
         148
         152
         156
         160
         164
         168
         172
         176
         180
         184
         188
         192
         196
         200
         204
         208
         212
         216
         220
         224
         228
         232
         236
         240
         244
         248
         252
         256
         260
         264
         268
         272
         276
         280
         284
         288
         292
         296
         300
         304
         308
         312
         316
         320
         324
         328
         332
         336
         340
         344
         348
         352
         356
         360
         364
         368
         372
         376
         380
         384
         388
         392
         396
         400
         404
         408
         412
         416
         420
         424
         428
         432
         436
         440
         444
         448
         452
         456
         460
         464
         468
         472
         476
         480
         484
         488
         492
         496
         500
         504
         508
         512
         516
         520
         524
         528
         532
         536
         540
         544
         548
         552
         556
         560
         564
         568
         572
         576
         580
         584
         588
         592
         596
         600
         604
         608
         612
         616
         620
         624
         628
         632
         636
         640
         644
         648
         652
         656
         660
         664
         668
         672
         676
         680
         684
         688
         692
         696
         700
         704
         708
         712
         716
         720
         724
         728
         732
         736
         740
         744
         748
         752
         756
         760
         764
         768
         772
         776
         780
         784
         788
         792
         796
         800
         804
         808
         812
         816
         820
         824
         828
         832
         836
         840
         844
         848
         852
         856
         860
         864
         868
         872
         876
         880
         884
         888
         892
         896
         900
         904
         908
         912
         916
         920
         924
         928
         932
         936
         940
         944
         948
         952
         956
         960
         964
         968
         972
         976
         980
         984
         988
         992
         996
        1000
        1004
        1008
        1012
        1016
        1020
        1024
        1028
        1032
        1036
        1040
        1044
        1048
        1052
        1056
        1060
        1064
        1068
        1072
        1076
        1080
        1084
        1088
        1092
        1096
        1100
        1104
        1108
        1112
        1116
        1120
        1124
        1128
        1132
        1136
        1140
        1144
        1148
        1152
        1156
        1160
        1164
        1168
        1172
        1176
        1180
        1184
        1188
        1192
        1196
        1200
        1204
        1208
        1212
        1216
        1220
        1224
        1228
        1232
        1236
        1240
        1244
        1248
        1252
        1256
        1260
        1264
        1268
        1272
        1276
        1280
        1284
        1288
        1292
        1296
        1300
        1304
        1308
        1312
        1316
        1320
        1324
        1328
        1332
        1336
        1340
        1344
        1348
        1352
        1356
        1360
        1364
        1368
        1372
        1376
        1380
        1384
        1388
        1392
        1396
        1400
        1404
        1408
        1412
        1416
        1420
        1424
        1428
        1432
        1436
        1440
        1444
        1448
        1452
        1456
        1460
        1464
        1468
        1472
        1476
        1480
        1484
        1488
        1492
        1496
        1500
        1504
        1508
        1512
        1516
        1520
        1524
        1528
        1532
        1536
        1540
        1544
        1548
        1552
        1556
        1560
        1564
        1568
        1572
        1576
        1580
        1584
        1588
        1592
        1596
        1600
        1604
        1608
        1612
        1616
        1620
        1624
        1628
        1632
        1636
        1640
        1644
        1648
        1652
        1656
        1660
        1664
        1668
        1672
        1676
        1680
        1684
        1688
        1692
        1696
        1700
        1704
        1708
        1712
        1716
        1720
        1724
        1728
        1732
        1736
        1740
        1744
        1748
        1752
        1756
        1760
        1764
        1768
        1772
        1776
        1780
        1784
        1788
        1792
        1796
        1800
        1804
        1808
        1812
        1816
        1820
        1824
        1828
        1832
        1836
        1840
        1844
        1848
        1852
        1856
        1860
        1864
        1868
        1872
        1876
        1880
        1884
        1888
        1892
        1896
        1900
        1904
        1908
        1912
        1916
        1920
        1924
        1928
        1932
        1936
        1940
        1944
        1948
        1952
        1956
        1960
        1964
        1968
        1972
        1976
        1980
        1984
        1988
        1992
        1996
        2000
        2004
        2008
        2012
        2016
        2020
        2024
        2028
        2032
        2036
        2040
        2044
        2048
        2052
        2056
        2060
        2064
        2068
        2072
        2076
        2080
        2084
        2088
        2092
        2096
        2100
        2104
        2108
        2112
        2116
        2120
        2124
        2128
        2132
        2136
        2140
        2144
        2148
        2152
        2156
        2160
        2164
        2168
        2172
        2176
        2180
        2184
        2188
        2192
        2196
        2200
        2204
        2208
        2212
        2216
        2220
        2224
        2228
        2232
        2236
        2240
        2244
        2248
        2252
        2256
        2260
        2264
        2268
        2272
        2276
        2280
        2284
        2288
        2292
        2296
        2300
        2304
        2308
        2312
        2316
        2320
        2324
        2328
        2332
        2336
        2340
        2344
        2348
        2352
        2356
        2360
        2364
        2368
        2372
        2376
        2380
        2384
        2388
        2392
        2396
        2400
        2404
        2408
        2412
        2416
        2420
        2424
        2428
        2432
        2436
        2440
        2444
        2448
        2452
        2456
        2460
        2464
        2468
        2472
        2476
        2480
        2484
        2488
        2492
        2496
        2500
        2504
        2508
        2512
        2516
        2520
        2524
        2528
        2532
        2536
        2540
        2544
        2548
        2552
        2556
        2560
        2564
        2568
        2572
        2576
        2580
        2584
        2588
        2592
        2596
        2600
        2604
        2608
        2612
        2616
        2620
        2624
        2628
        2632
        2636
        2640
        2644
        2648
        2652
        2656
        2660
        2664
        2668
        2672
        2676
        2680
        2684
        2688
        2692
        2696
        2700
        2704
        2708
        2712
        2716
        2720
        2724
        2728
        2732
        2736
        2740
        2744
        2748
        2752
        2756
        2760
        2764
        2768
        2772
        2776
        2780
        2784
        2788
        2792
        2796
        2800
        2804
        2808
        2812
        2816
        2820
        2824
        2828
        2832
        2836
        2840
        2844
        2848
        2852
        2856
        2860
        2864
        2868
        2872
        2876
        2880
        2884
        2888
        2892
        2896
        2900
        2904
        2908
        2912
        2916
        2920
        2924
        2928
        2932
        2936
        2940
        2944
        2948
        2952
        2956
        2960
        2964
        2968
        2972
        2976
        2980
        2984
        2988
        2992
        2996
        3000
        3004
        3008
        3012
        3016
        3020
        3024
        3028
        3032
        3036
        3040
        3044
        3048
        3052
        3056
        3060
        3064
        3068
        3072
        3076
        3080
        3084
        3088
        3092
        3096
        3100
        3104
        3108
        3112
        3116
        3120
        3124
        3128
        3132
        3136
        3140
        3144
        3148
        3152
        3156
        3160
        3164
        3168
        3172
        3176
        3180
        3184
        3188
        3192
        3196
        3200
        3204
        3208
        3212
        3216
        3220
        3224
        3228
        3232
        3236
        3240
        3244
        3248
        3252
        3256
        3260
        3264
        3268
        3272
        3276
        3280
        3284
        3288
        3292
        3296
        3300
        3304
        3308
        3312
        3316
        3320
        3324
        3328
        3332
        3336
        3340
        3344
        3348
        3352
        3356
        3360
        3364
        3368
        3372
        3376
        3380
        3384
        3388
        3392
        3396
        3400
        3404
        3408
        3412
        3416
        3420
        3424
        3428
        3432
        3436
        3440
        3444
        3448
        3452
        3456
        3460
        3464
        3468
        3472
        3476
        3480
        3484
        3488
        3492
        3496
        3500
        3504
        3508
        3512
        3516
        3520
        3524
        3528
        3532
        3536
        3540
        3544
        3548
        3552
        3556
        3560
        3564
        3568
        3572
        3576
        3580
        3584
        3588
        3592
        3596
        3600
        3604
        3608
        3612
        3616
        3620
        3624
        3628
        3632
        3636
        3640
        3644
        3648
        3652
        3656
        3660
        3664
        3668
        3672
        3676
        3680
        3684
        3688
        3692
        3696
        3700
        3704
        3708
        3712
        3716
        3720
        3724
        3728
        3732
        3736
        3740
        3744
        3748
        3752
        3756
        3760
        3764
        3768
        3772
        3776
        3780
        3784
        3788
        3792
        3796
        3800
        3804
        3808
        3812
        3816
        3820
        3824
        3828
        3832
        3836
        3840
        3844
        3848
        3852
        3856
        3860
        3864
        3868
        3872
        3876
        3880
        3884
        3888
        3892
        3896
        3900
        3904
        3908
        3912
        3916
        3920
        3924
        3928
        3932
        3936
        3940
        3944
        3948
        3952
        3956
        3960
        3964
        3968
        3972
        3976
        3980
        3984
        3988
        3992
        3996
        4000
        4004
        4008
        4012
        4016
        4020
        4024
        4028
        4032
        4036
        4040
        4044
        4048
        4052
        4056
        4060
        4064
        4068
        4072
        4076
        4080
        4084
        4088
        4092
        4096
 </DataArray>
 <DataArray  type="UInt8"  Name="types"  format="ascii">
 9
 9
 9
 9
 9
 9
 9
 9
 9
 9
 9
 9
 9
 9
 9
 9
 9
 9
 9
 9
 9
 9
 9
 9
 9
 9
 9
 9
 9
 9
 9
 9
 9
 9
 9
 9
 9
 9
 9
 9
 9
 9
 9
 9
 9
 9
 9
 9
 9
 9
 9
 9
 9
 9
 9
 9
 9
 9
 9
 9
 9
 9
 9
 9
 9
 9
 9
 9
 9
 9
 9
 9
 9
 9
 9
 9
 9
 9
 9
 9
 9
 9
 9
 9
 9
 9
 9
 9
 9
 9
 9
 9
 9
 9
 9
 9
 9
 9
 9
 9
 9
 9
 9
 9
 9
 9
 9
 9
 9
 9
 9
 9
 9
 9
 9
 9
 9
 9
 9
 9
 9
 9
 9
 9
 9
 9
 9
 9
 9
 9
 9
 9
 9
 9
 9
 9
 9
 9
 9
 9
 9
 9
 9
 9
 9
 9
 9
 9
 9
 9
 9
 9
 9
 9
 9
 9
 9
 9
 9
 9
 9
 9
 9
 9
 9
 9
 9
 9
 9
 9
 9
 9
 9
 9
 9
 9
 9
 9
 9
 9
 9
 9
 9
 9
 9
 9
 9
 9
 9
 9
 9
 9
 9
 9
 9
 9
 9
 9
 9
 9
 9
 9
 9
 9
 9
 9
 9
 9
 9
 9
 9
 9
 9
 9
 9
 9
 9
 9
 9
 9
 9
 9
 9
 9
 9
 9
 9
 9
 9
 9
 9
 9
 9
 9
 9
 9
 9
 9
 9
 9
 9
 9
 9
 9
 9
 9
 9
 9
 9
 9
 9
 9
 9
 9
 9
 9
 9
 9
 9
 9
 9
 9
 9
 9
 9
 9
 9
 9
 9
 9
 9
 9
 9
 9
 9
 9
 9
 9
 9
 9
 9
 9
 9
 9
 9
 9
 9
 9
 9
 9
 9
 9
 9
 9
 9
 9
 9
 9
 9
 9
 9
 9
 9
 9
 9
 9
 9
 9
 9
 9
 9
 9
 9
 9
 9
 9
 9
 9
 9
 9
 9
 9
 9
 9
 9
 9
 9
 9
 9
 9
 9
 9
 9
 9
 9
 9
 9
 9
 9
 9
 9
 9
 9
 9
 9
 9
 9
 9
 9
 9
 9
 9
 9
 9
 9
 9
 9
 9
 9
 9
 9
 9
 9
 9
 9
 9
 9
 9
 9
 9
 9
 9
 9
 9
 9
 9
 9
 9
 9
 9
 9
 9
 9
 9
 9
 9
 9
 9
 9
 9
 9
 9
 9
 9
 9
 9
 9
 9
 9
 9
 9
 9
 9
 9
 9
 9
 9
 9
 9
 9
 9
 9
 9
 9
 9
 9
 9
 9
 9
 9
 9
 9
 9
 9
 9
 9
 9
 9
 9
 9
 9
 9
 9
 9
 9
 9
 9
 9
 9
 9
 9
 9
 9
 9
 9
 9
 9
 9
 9
 9
 9
 9
 9
 9
 9
 9
 9
 9
 9
 9
 9
 9
 9
 9
 9
 9
 9
 9
 9
 9
 9
 9
 9
 9
 9
 9
 9
 9
 9
 9
 9
 9
 9
 9
 9
 9
 9
 9
 9
 9
 9
 9
 9
 9
 9
 9
 9
 9
 9
 9
 9
 9
 9
 9
 9
 9
 9
 9
 9
 9
 9
 9
 9
 9
 9
 9
 9
 9
 9
 9
 9
 9
 9
 9
 9
 9
 9
 9
 9
 9
 9
 9
 9
 9
 9
 9
 9
 9
 9
 9
 9
 9
 9
 9
 9
 9
 9
 9
 9
 9
 9
 9
 9
 9
 9
 9
 9
 9
 9
 9
 9
 9
 9
 9
 9
 9
 9
 9
 9
 9
 9
 9
 9
 9
 9
 9
 9
 9
 9
 9
 9
 9
 9
 9
 9
 9
 9
 9
 9
 9
 9
 9
 9
 9
 9
 9
 9
 9
 9
 9
 9
 9
 9
 9
 9
 9
 9
 9
 9
 9
 9
 9
 9
 9
 9
 9
 9
 9
 9
 9
 9
 9
 9
 9
 9
 9
 9
 9
 9
 9
 9
 9
 9
 9
 9
 9
 9
 9
 9
 9
 9
 9
 9
 9
 9
 9
 9
 9
 9
 9
 9
 9
 9
 9
 9
 9
 9
 9
 9
 9
 9
 9
 9
 9
 9
 9
 9
 9
 9
 9
 9
 9
 9
 9
 9
 9
 9
 9
 9
 9
 9
 9
 9
 9
 9
 9
 9
 9
 9
 9
 9
 9
 9
 9
 9
 9
 9
 9
 9
 9
 9
 9
 9
 9
 9
 9
 9
 9
 9
 9
 9
 9
 9
 9
 9
 9
 9
 9
 9
 9
 9
 9
 9
 9
 9
 9
 9
 9
 9
 9
 9
 9
 9
 9
 9
 9
 9
 9
 9
 9
 9
 9
 9
 9
 9
 9
 9
 9
 9
 9
 9
 9
 9
 9
 9
 9
 9
 9
 9
 9
 9
 9
 9
 9
 9
 9
 9
 9
 9
 9
 9
 9
 9
 9
 9
 9
 9
 9
 9
 9
 9
 9
 9
 9
 9
 9
 9
 9
 9
 9
 9
 9
 9
 9
 9
 9
 9
 9
 9
 9
 9
 9
 9
 9
 9
 9
 9
 9
 9
 9
 9
 9
 9
 9
 9
 9
 9
 9
 9
 9
 9
 9
 9
 9
 9
 9
 9
 9
 9
 9
 9
 9
 9
 9
 9
 9
 9
 9
 9
 9
 9
 9
 9
 9
 9
 9
 9
 9
 9
 9
 9
 9
 9
 9
 9
 9
 9
 9
 9
 9
 9
 9
 9
 9
 9
 9
 9
 9
 9
 9
 9
 9
 9
 9
 9
 9
 9
 9
 9
 9
 9
 9
 9
 9
 9
 9
 9
 9
 9
 9
 9
 9
 9
 9
 9
 9
 9
 9
 9
 9
 9
 9
 9
 9
 9
 9
 9
 9
 9
 9
 9
 9
 9
 9
 9
 9
 9
 9
 9
 9
 9
 9
 9
 9
 9
 9
 9
 9
 9
 9
 9
 9
 9
 9
 9
 9
 9
 9
 9
 9
 9
 9
 9
 9
 9
 9
 9
 9
 9
 9
 9
 9
 9
 9
 9
 9
 9
 9
 9
 9
 9
 9
 9
 9
 9
 9
 9
 9
 9
 9
 9
 9
 9
 9
 9
 9
 9
 9
 9
 9
 9
 9
 9
 9
 9
 9
 9
 9
 9
 9
 9
 9
 9
 9
 9
 9
 9
 9
 9
 9
 9
 9
 9
 9
 9
 9
 9
 9
 9
 9
 9
 9
 9
 9
 9
 9
 9
 9
 9
 9
 9
 9
 9
 9
 </DataArray>
 </Cells> 
 <PointData>
 <DataArray  type="Float64" Name="disp" NumberOfComponents="3" format="ascii">
   6.5416774672800243E-002   6.2933672102835084E-002   0.0000000000000000     
   6.8457791349811753E-002   6.8250908522852594E-002   0.0000000000000000     
   7.1402039514667504E-002   7.3768308297705767E-002   0.0000000000000000     
   7.4249519167367523E-002   7.9485871427394592E-002   0.0000000000000000     
   7.7000230307911768E-002   8.5403597911919066E-002   0.0000000000000000     
   6.0097416842194731E-002   6.1866457454053461E-002   0.0000000000000000     
   6.2977243343799685E-002   6.7275863295695251E-002   0.0000000000000000     
   6.5762362110511841E-002   7.2867299537617988E-002   0.0000000000000000     
   6.8452773142331197E-002   7.8640766179821714E-002   0.0000000000000000     
   7.1048476439257768E-002   8.4596263222306400E-002   0.0000000000000000     
   5.5053222080312922E-002   6.0942357538283504E-002   0.0000000000000000     
   5.7757989900631232E-002   6.6411853140334487E-002   0.0000000000000000     
   6.0371736270836591E-002   7.2053270177010006E-002   0.0000000000000000     
   6.2894461190928994E-002   7.7866608648310062E-002   0.0000000000000000     
   6.5326164660908459E-002   8.3851868554234668E-002   0.0000000000000000     
   5.0284190387154822E-002   6.0161372355525211E-002   0.0000000000000000     
   5.2800031020306393E-002   6.5658878056770287E-002   0.0000000000000000     
   5.5230161995641763E-002   7.1326220215881767E-002   0.0000000000000000     
   5.7574583313160899E-002   7.7163398832859623E-002   0.0000000000000000     
   5.9833294972863826E-002   8.3170413907703841E-002   0.0000000000000000     
   4.5790321762720423E-002   5.9523501905778577E-002   0.0000000000000000     
   4.8103366702825195E-002   6.5016938045002706E-002   0.0000000000000000     
   5.0337639284927363E-002   7.0686149654233310E-002   0.0000000000000000     
   5.2493139509026940E-002   7.6531136733470367E-002   0.0000000000000000     
   5.4569867375123905E-002   8.2551899282713906E-002   0.0000000000000000     
   7.7000230307911768E-002   8.5403597911919066E-002   0.0000000000000000     
   7.9660307458729998E-002   9.1500847806150268E-002   0.0000000000000000     
   8.2235885142251969E-002   9.7756981164959358E-002   0.0000000000000000     
   8.4726963358477625E-002  0.10417199798834624        0.0000000000000000     
   8.7133542107407022E-002  0.11074589827631098        0.0000000000000000     
   7.1048476439257768E-002   8.4596263222306400E-002   0.0000000000000000     
   7.3555847996878851E-002   9.0722246811447541E-002   0.0000000000000000     
   7.5981263810781782E-002   9.7007173093620669E-002   0.0000000000000000     
   7.8324723880966590E-002  0.10345104206882574        0.0000000000000000     
   8.0586228207433219E-002  0.11005385373706279        0.0000000000000000     
   6.5326164660908459E-002   8.3851868554234668E-002   0.0000000000000000     
   6.7673364201109559E-002   9.0002841523068769E-002   0.0000000000000000     
   6.9942577331866956E-002   9.6313319183097407E-002   0.0000000000000000     
   7.2133804053180622E-002  0.10278330153432055        0.0000000000000000     
   7.4247044365050585E-002  0.10941278857673821        0.0000000000000000     
   5.9833294972863826E-002   8.3170413907703841E-002   0.0000000000000000     
   6.2012856071422144E-002   8.9342631941013981E-002   0.0000000000000000     
   6.4119825705507436E-002   9.5675419433389586E-002   0.0000000000000000     
   6.6154203875119763E-002  0.10216877638483068        0.0000000000000000     
   6.8115990580259078E-002  0.10882270279533725        0.0000000000000000     
   5.4569867375123905E-002   8.2551899282713906E-002   0.0000000000000000     
   5.6574323607816578E-002   8.8741618065283134E-002   0.0000000000000000     
   5.8513008931703268E-002   9.5093473844497192E-002   0.0000000000000000     
   6.0385923346783978E-002  0.10160746662035612        0.0000000000000000     
   6.2193066853058712E-002  0.10828359639285992        0.0000000000000000     
   8.7133542107407022E-002  0.11074589827631098        0.0000000000000000     
   8.9445438141747796E-002  0.11746463304729285        0.0000000000000000     
   9.1652468214207694E-002  0.12431415331973110        0.0000000000000000     
   9.3754632324786633E-002  0.13129445909362575        0.0000000000000000     
   9.5751930473484667E-002  0.13840555036897678        0.0000000000000000     
   8.0586228207433219E-002  0.11005385373706279        0.0000000000000000     
   8.2757387780407532E-002  0.11680148363960674        0.0000000000000000     
   8.4829813590115294E-002  0.12367980731773251        0.0000000000000000     
   8.6803505636556533E-002  0.13068882477144014        0.0000000000000000     
   8.8678463919731207E-002  0.13782853600072961        0.0000000000000000     
   7.4247044365050585E-002  0.10941278857673821        0.0000000000000000     
   7.6275043885547927E-002  0.11618731821163519        0.0000000000000000     
   7.8210548232743801E-002  0.12309242834029627        0.0000000000000000     
   8.0053557406638193E-002  0.13012811896272147        0.0000000000000000     
   8.1804071407231130E-002  0.13729439007891078        0.0000000000000000     
   6.8115990580259078E-002  0.10882270279533725        0.0000000000000000     
   6.9998406457169010E-002  0.11562213676337819        0.0000000000000000     
   7.1794672142093230E-002  0.12255201638742232        0.0000000000000000     
   7.3504787635031696E-002  0.12961234166746968        0.0000000000000000     
   7.5128752935984408E-002  0.13680311260352029        0.0000000000000000     
   6.2193066853058712E-002  0.10828359639285992        0.0000000000000000     
   6.3927475495270780E-002  0.11510593929483573        0.0000000000000000     
   6.5582185318163538E-002  0.12205857145911070        0.0000000000000000     
   6.7157196321736973E-002  0.12914149288568483        0.0000000000000000     
   6.8652508505991083E-002  0.13635470357455814        0.0000000000000000     
   9.5751930473484667E-002  0.13840555036897678        0.0000000000000000     
   9.7652435239225926E-002  0.14563762089791296        0.0000000000000000     
   9.9464219200934526E-002  0.15298086443256301        0.0000000000000000     
  0.10118728235861051       0.16043528097292695        0.0000000000000000     
  0.10282162471225384       0.16800087051900475        0.0000000000000000     
   8.8678463919731207E-002  0.13782853600072961        0.0000000000000000     
   9.0462343783408727E-002  0.14508893349416380        0.0000000000000000     
   9.2162800571358491E-002  0.15246000974030563        0.0000000000000000     
   9.3779834283580499E-002  0.15994176473915508        0.0000000000000000     
   9.5313444920074722E-002  0.16753419849071219        0.0000000000000000     
   8.1804071407231130E-002  0.13729439007891078        0.0000000000000000     
   8.3469087154078830E-002  0.14458115251849615        0.0000000000000000     
   8.5055601566737596E-002  0.15197831711110951        0.0000000000000000     
   8.6563614645207468E-002  0.15948588385675083        0.0000000000000000     
   8.7993126389488405E-002  0.16710385275542017        0.0000000000000000     
   7.5128752935984408E-002  0.13680311260352029        0.0000000000000000     
   7.6672665351236208E-002  0.14411427797090998        0.0000000000000000     
   7.8142622187071881E-002  0.15153578654497457        0.0000000000000000     
   7.9538623443491427E-002  0.15906763832571413        0.0000000000000000     
   8.0860669120494846E-002  0.16670983331312855        0.0000000000000000     
   6.8652508505991083E-002  0.13635470357455814        0.0000000000000000     
   7.0073078374880859E-002  0.14368830985140529        0.0000000000000000     
   7.1423862432361290E-002  0.15113241804190086        0.0000000000000000     
   7.2704860678432362E-002  0.15868702814604493        0.0000000000000000     
   7.3916073113094088E-002  0.16635214016383751        0.0000000000000000     
  0.10282162471225384       0.16800087051900475        0.0000000000000000     
  0.10436858150131204       0.17566667344969711        0.0000000000000000     
  0.10582948796523264       0.18342173014390467        0.0000000000000000     
  0.10720434410401561       0.19126604060162744        0.0000000000000000     
  0.10849314991766099       0.19919960482286547        0.0000000000000000     
   9.5313444920074722E-002  0.16753419849071219        0.0000000000000000     
   9.6763080997467429E-002  0.17522670871013776        0.0000000000000000     
   9.8128191032384904E-002  0.18300869311259263        0.0000000000000000     
   9.9408775024827131E-002  0.19088015169807684        0.0000000000000000     
  0.10060483297479411       0.19884108446659035        0.0000000000000000     
   8.7993126389488405E-002  0.16710385275542017        0.0000000000000000     
   8.9342301550447117E-002  0.17482181700363381        0.0000000000000000     
   9.0609304878950331E-002  0.18262936979790825        0.0000000000000000     
   9.1794136374998031E-002  0.19052651113824340        0.0000000000000000     
   9.2896796038590260E-002  0.19851324102463930        0.0000000000000000     
   8.0860669120494846E-002  0.16670983331312855        0.0000000000000000     
   8.2106243160251030E-002  0.17445199833018524        0.0000000000000000     
   8.3272829504928855E-002  0.18228376019985140        0.0000000000000000     
   8.4360428154528308E-002  0.19020511892212708        0.0000000000000000     
   8.5369039109049402E-002  0.19821607449701223        0.0000000000000000     
   7.3916073113094088E-002  0.16635214016383751        0.0000000000000000     
   7.5054905826879237E-002  0.17411725268979206        0.0000000000000000     
   7.6118764910320519E-002  0.18197186431842222        0.0000000000000000     
   7.7107650363417962E-002  0.18991597504972793        0.0000000000000000     
   7.8021562186171567E-002  0.19794958488370923        0.0000000000000000     
  0.10849314991766099       0.19919960482286547        0.0000000000000000     
  0.10970128902596236       0.20721871100714231        0.0000000000000000     
  0.11083414504871336       0.21531964735398168        0.0000000000000000     
  0.11189171798591398       0.22350241386338349        0.0000000000000000     
  0.11287400783756421       0.23176701053534782        0.0000000000000000     
  0.10060483297479411       0.19884108446659035        0.0000000000000000     
  0.10172206032261921       0.20688561068450884        0.0000000000000000     
  0.10276615250863579       0.21500784961820785        0.0000000000000000     
  0.10373710953284383       0.22320780126768749        0.0000000000000000     
  0.10463493139524338       0.23148546563294770        0.0000000000000000     
   9.2896796038590260E-002  0.19851324102463930        0.0000000000000000     
   9.3922333211197348E-002  0.20658239762117331        0.0000000000000000     
   9.4875797234289724E-002  0.21472681909192290        0.0000000000000000     
   9.5757188107867361E-002  0.22294650543688802        0.0000000000000000     
   9.6566505831930258E-002  0.23124145665606868        0.0000000000000000     
   8.5369039109049402E-002  0.19821607449701223        0.0000000000000000     
   8.6302107691696800E-002  0.20630907181713581        0.0000000000000000     
   8.7163079225675191E-002  0.21447655577512675        0.0000000000000000     
   8.7951953710984535E-002  0.22271852637098510        0.0000000000000000     
   8.8668731147624885E-002  0.23103498360471078        0.0000000000000000     
   7.8021562186171567E-002  0.19794958488370923        0.0000000000000000     
   7.8861383764117554E-002  0.20606563327239633        0.0000000000000000     
   7.9627998482792159E-002  0.21425705966781947        0.0000000000000000     
   8.0321406342195395E-002  0.22252386406997868        0.0000000000000000     
   8.0941607342327263E-002  0.23086604647887396        0.0000000000000000     
  0.11287400783756421       0.23176701053534782        0.0000000000000000     
  0.11380908041692425       0.24012996646609752        0.0000000000000000     
  0.11472500153725432       0.24860781075185562        0.0000000000000000     
  0.11562177119855441       0.25720054339262194        0.0000000000000000     
  0.11649938940082449       0.26590816438839671        0.0000000000000000     
  0.10463493139524338       0.23148546563294770        0.0000000000000000     
  0.10546457931411832       0.23986422569034502        0.0000000000000000     
  0.10623101450775262       0.24836746441623589        0.0000000000000000     
  0.10693423697614626       0.25699518181062037        0.0000000000000000     
  0.10757424671929926       0.26574737787349845        0.0000000000000000     
   9.6566505831930258E-002  0.23124145665606868        0.0000000000000000     
   9.7294561951281930E-002  0.23963801454773390        0.0000000000000000     
   9.7932168010725823E-002  0.24816252091015265        0.0000000000000000     
   9.8479324010261965E-002  0.25681497574332496        0.0000000000000000     
   9.8936029949890356E-002  0.26559537904725089        0.0000000000000000     
   8.8668731147624885E-002  0.23103498360471078        0.0000000000000000     
   8.9299028328415075E-002  0.23945133303826424        0.0000000000000000     
   8.9828462046173965E-002  0.24799298023360594        0.0000000000000000     
   9.0257032300901555E-002  0.25665992519073588        0.0000000000000000     
   9.0584739092597816E-002  0.26545216790965398        0.0000000000000000     
   8.0941607342327263E-002  0.23086604647887396        0.0000000000000000     
   8.1477978445517782E-002  0.23930418116193600        0.0000000000000000     
   8.1919896614097029E-002  0.24785884238659570        0.0000000000000000     
   8.2267361848064977E-002  0.25653003015285292        0.0000000000000000     
   8.2520374147421638E-002  0.26531774446070777        0.0000000000000000     
  0.11649938940082449       0.26590816438839671        0.0000000000000000     
  0.11729828553501499       0.27489522911547348        0.0000000000000000     
  0.11795888899207624       0.28432629295014605        0.0000000000000000     
  0.11848119977200824       0.29420135589241442        0.0000000000000000     
  0.11886521787481101       0.30452041794227858        0.0000000000000000     
  0.10757424671929926       0.26574737787349845        0.0000000000000000     
  0.10813211272009927       0.27475618759385489        0.0000000000000000     
  0.10858890396143402       0.28415374596067461        0.0000000000000000     
  0.10894462044330348       0.29394005297395753        0.0000000000000000     
  0.10919926216570766       0.30411510863370356        0.0000000000000000     
   9.8936029949890356E-002  0.26559537904725089        0.0000000000000000     
   9.9313324652073931E-002  0.27460203207759865        0.0000000000000000     
   9.9622246939275627E-002  0.28393323609003657        0.0000000000000000     
   9.9862796811495444E-002  0.29358899108456465        0.0000000000000000     
  0.10003497426873340       0.30356929706118296        0.0000000000000000     
   9.0584739092597816E-002  0.26545216790965398        0.0000000000000000     
   9.0841921330938921E-002  0.27443276256670468        0.0000000000000000     
   9.1058917925601043E-002  0.28366476333823193        0.0000000000000000     
   9.1235728876584127E-002  0.29314817022423600        0.0000000000000000     
   9.1372354183888213E-002  0.30288298322471668        0.0000000000000000     
   8.2520374147421638E-002  0.26531774446070777        0.0000000000000000     
   8.2717902756694300E-002  0.27424837906117283        0.0000000000000000     
   8.2898916920410265E-002  0.28334832770526069        0.0000000000000000     
   8.3063416638569532E-002  0.29261759039297142        0.0000000000000000     
   8.3211401911172100E-002  0.30205616712430494        0.0000000000000000     
   4.5790321762720423E-002   5.9523501905778577E-002   0.0000000000000000     
   4.8103366702825195E-002   6.5016938045002706E-002   0.0000000000000000     
   5.0337639284927363E-002   7.0686149654233310E-002   0.0000000000000000     
   5.2493139509026940E-002   7.6531136733470367E-002   0.0000000000000000     
   5.4569867375123905E-002   8.2551899282713906E-002   0.0000000000000000     
   4.1473422172792790E-002   5.8952496069209895E-002   0.0000000000000000     
   4.3581402776525155E-002   6.4435520736774818E-002   0.0000000000000000     
   4.5617976549039180E-002   7.0101746632270756E-002   0.0000000000000000     
   4.7583143490334871E-002   7.5951173755697723E-002   0.0000000000000000     
   4.9476903600412223E-002   8.1983802107055706E-002   0.0000000000000000     
   3.7235297583154997E-002   5.8372104725985481E-002   0.0000000000000000     
   3.9147545069743828E-002   6.3864113763829791E-002   0.0000000000000000     
   4.0994982198322982E-002   6.9541699290200321E-002   0.0000000000000000     
   4.2777608968892489E-002   7.5404861305097035E-002   0.0000000000000000     
   4.4495425381452326E-002   8.1453599808519975E-002   0.0000000000000000     
   3.3075947993807038E-002   5.7782327876105308E-002   0.0000000000000000     
   3.4801793582481207E-002   6.3302717126167626E-002   0.0000000000000000     
   3.6468656232778805E-002   6.9006007628021962E-002   0.0000000000000000     
   3.8076535944699806E-002   7.4892199381668328E-002   0.0000000000000000     
   3.9625432718244216E-002   8.0961292387106726E-002   0.0000000000000000     
   2.8995373404748913E-002   5.7183165519569396E-002   0.0000000000000000     
   3.0544148314737316E-002   6.2751330823788309E-002   0.0000000000000000     
   3.2038998652406621E-002   6.8494671645735708E-002   0.0000000000000000     
   3.3479924417756816E-002   7.4413187985411591E-002   0.0000000000000000     
   3.4866925610787906E-002   8.0506879842815987E-002   0.0000000000000000     
   5.4569867375123905E-002   8.2551899282713906E-002   0.0000000000000000     
   5.6574323607816578E-002   8.8741618065283134E-002   0.0000000000000000     
   5.8513008931703268E-002   9.5093473844497192E-002   0.0000000000000000     
   6.0385923346783978E-002  0.10160746662035612        0.0000000000000000     
   6.2193066853058712E-002  0.10828359639285992        0.0000000000000000     
   4.9476903600412223E-002   8.1983802107055706E-002   0.0000000000000000     
   5.1305551129693691E-002   8.8189816714769498E-002   0.0000000000000000     
   5.3075380328601728E-002   9.4559402607263976E-002   0.0000000000000000     
   5.4786391197136304E-002  0.10109255978453906        0.0000000000000000     
   5.6438583735297441E-002  0.10778928824659480        0.0000000000000000     
   4.4495425381452326E-002   8.1453599808519975E-002   0.0000000000000000     
   4.6154322956454268E-002   8.7677244708366409E-002   0.0000000000000000     
   4.7760193214350065E-002   9.4065125912533631E-002   0.0000000000000000     
   4.9313036155139732E-002  0.10061724342102164        0.0000000000000000     
   5.0812851778823262E-002  0.10733359723383046        0.0000000000000000     
   3.9625432718244216E-002   8.0961292387106726E-002   0.0000000000000000     
   4.1120639088098321E-002   8.7203902046073797E-002   0.0000000000000000     
   4.2567447588948329E-002   9.3610643760306200E-002   0.0000000000000000     
   4.3965858220794275E-002  0.10018151752980388        0.0000000000000000     
   4.5315870983636139E-002  0.10691652335456690        0.0000000000000000     
   3.4866925610787906E-002   8.0506879842815987E-002   0.0000000000000000     
   3.6204499524625823E-002   8.6769788727891720E-002   0.0000000000000000     
   3.7497143452396499E-002   9.3195956150581655E-002   0.0000000000000000     
   3.8744857394099920E-002   9.9785382110885792E-002   0.0000000000000000     
   3.9947641349736093E-002  0.10653806660880415        0.0000000000000000     
   6.2193066853058712E-002  0.10828359639285992        0.0000000000000000     
   6.3927475495270780E-002  0.11510593929483573        0.0000000000000000     
   6.5582185318163538E-002  0.12205857145911070        0.0000000000000000     
   6.7157196321736973E-002  0.12914149288568483        0.0000000000000000     
   6.8652508505991083E-002  0.13635470357455814        0.0000000000000000     
   5.6438583735297441E-002  0.10778928824659480        0.0000000000000000     
   5.8024725751339809E-002  0.11463289927065591        0.0000000000000000     
   5.9537585053518027E-002  0.12160670413394710        0.0000000000000000     
   6.0977161641832117E-002  0.12871070283646843        0.0000000000000000     
   6.2343455516282065E-002  0.13594489537821980        0.0000000000000000     
   5.0812851778823262E-002  0.10733359723383046        0.0000000000000000     
   5.2252631976862675E-002  0.11419719015548674        0.0000000000000000     
   5.3625368640719977E-002  0.12119102499051725        0.0000000000000000     
   5.4931061770395195E-002  0.12831510173892194        0.0000000000000000     
   5.6169711365888303E-002  0.13556942040070083        0.0000000000000000     
   4.5315870983636139E-002  0.10691652335456690        0.0000000000000000     
   4.6611194171839364E-002  0.11379881194932831        0.0000000000000000     
   4.7845536079769387E-002  0.12081153402882114        0.0000000000000000     
   4.9018896707426193E-002  0.12795468959304543        0.0000000000000000     
   5.0131276054809798E-002  0.13522827864200110        0.0000000000000000     
   3.9947641349736093E-002  0.10653806660880415        0.0000000000000000     
   4.1100412336269911E-002  0.11343776465218053        0.0000000000000000     
   4.2198087370666264E-002  0.12046823124885875        0.0000000000000000     
   4.3240666452925139E-002  0.12762946639883882        0.0000000000000000     
   4.4228149583046543E-002  0.13492147010212072        0.0000000000000000     
   6.8652508505991083E-002  0.13635470357455814        0.0000000000000000     
   7.0073078374880859E-002  0.14368830985140529        0.0000000000000000     
   7.1423862432361290E-002  0.15113241804190086        0.0000000000000000     
   7.2704860678432362E-002  0.15868702814604493        0.0000000000000000     
   7.3916073113094088E-002  0.16635214016383751        0.0000000000000000     
   6.2343455516282065E-002  0.13594489537821980        0.0000000000000000     
   6.3640302936753324E-002  0.14329959010438070        0.0000000000000000     
   6.4871540163131305E-002  0.15076509536013047        0.0000000000000000     
   6.6037167195416024E-002  0.15834141114546901        0.0000000000000000     
   6.7137184033607494E-002  0.16602853746039636        0.0000000000000000     
   5.6169711365888303E-002  0.13556942040070083        0.0000000000000000     
   5.7344315748594110E-002  0.14294446067423494        0.0000000000000000     
   5.8457873239907386E-002  0.15043070225790531        0.0000000000000000     
   5.9510383839828151E-002  0.15802814515171187        0.0000000000000000     
   6.0501847548356393E-002  0.16573678935565475        0.0000000000000000     
   5.0131276054809798E-002  0.13522827864200110        0.0000000000000000     
   5.1185116810403226E-002  0.14262292156096790        0.0000000000000000     
   5.2182861662689539E-002  0.15012923873522538        0.0000000000000000     
   5.3124510611668736E-002  0.15774723016477360        0.0000000000000000     
   5.4010063657340797E-002  0.16547689584961253        0.0000000000000000     
   4.4228149583046543E-002  0.13492147010212072        0.0000000000000000     
   4.5162706122180686E-002  0.14233497276457965        0.0000000000000000     
   4.6046505431477758E-002  0.14986070479209079        0.0000000000000000     
   4.6879547510937765E-002  0.15749866618465422        0.0000000000000000     
   4.7661832360560701E-002  0.16524885694226979        0.0000000000000000     
   7.3916073113094088E-002  0.16635214016383751        0.0000000000000000     
   7.5054905826879237E-002  0.17411725268979206        0.0000000000000000     
   7.6118764910320519E-002  0.18197186431842222        0.0000000000000000     
   7.7107650363417962E-002  0.18991597504972793        0.0000000000000000     
   7.8021562186171567E-002  0.19794958488370923        0.0000000000000000     
   6.7137184033607494E-002  0.16602853746039636        0.0000000000000000     
   6.8169158136499333E-002  0.17381573037353834        0.0000000000000000     
   6.9130656962885201E-002  0.18169224595352063        0.0000000000000000     
   7.0021680512765097E-002  0.18965808420034325        0.0000000000000000     
   7.0842228786139008E-002  0.19771324511400609        0.0000000000000000     
   6.0501847548356393E-002  0.16573678935565475        0.0000000000000000     
   6.1429868675278970E-002  0.17354558167250825        0.0000000000000000     
   6.2292051530382767E-002  0.18144346890504676        0.0000000000000000     
   6.3088396113667775E-002  0.18943045105327022        0.0000000000000000     
   6.3818902425133980E-002  0.19750652811717875        0.0000000000000000     
   5.4010063657340797E-002  0.16547689584961253        0.0000000000000000     
   5.4837037443218162E-002  0.17330680658670167        0.0000000000000000     
   5.5602948612813230E-002  0.18122553317300050        0.0000000000000000     
   5.6307797166126015E-002  0.18923307560850897        0.0000000000000000     
   5.6951583103156525E-002  0.19732943389322721        0.0000000000000000     
   4.7661832360560701E-002  0.16524885694226979        0.0000000000000000     
   4.8390664440316880E-002  0.17309940511611868        0.0000000000000000     
   4.9063348210176591E-002  0.18103843875738193        0.0000000000000000     
   4.9679883670139834E-002  0.18906595786605951        0.0000000000000000     
   5.0240270820206601E-002  0.19718196244215141        0.0000000000000000     
   7.8021562186171567E-002  0.19794958488370923        0.0000000000000000     
   7.8861383764117554E-002  0.20606563327239633        0.0000000000000000     
   7.9627998482792159E-002  0.21425705966781947        0.0000000000000000     
   8.0321406342195395E-002  0.22252386406997868        0.0000000000000000     
   8.0941607342327263E-002  0.23086604647887396        0.0000000000000000     
   7.0842228786139008E-002  0.19771324511400609        0.0000000000000000     
   7.1590713329896208E-002  0.20585128856105531        0.0000000000000000     
   7.2265545690926011E-002  0.21406577440803679        0.0000000000000000     
   7.2866725869228377E-002  0.22235670265495061        0.0000000000000000     
   7.3394253864803305E-002  0.23072407330179670        0.0000000000000000     
   6.3818902425133980E-002  0.19750652811717875        0.0000000000000000     
   6.4480648290469428E-002  0.20566524425721319        0.0000000000000000     
   6.5070711535362064E-002  0.21390014363381452        0.0000000000000000     
   6.5589092159811915E-002  0.22221122624698264        0.0000000000000000     
   6.6035790163818983E-002  0.23059849209671768        0.0000000000000000     
   5.6951583103156525E-002  0.19732943389322721        0.0000000000000000     
   5.7531188645837152E-002  0.20550750036087012        0.0000000000000000     
   5.8043496016100322E-002  0.21376016734515260        0.0000000000000000     
   5.8488505213946031E-002  0.22208743484607490        0.0000000000000000     
   5.8866216239374290E-002  0.23048930286363681        0.0000000000000000     
   5.0240270820206601E-002  0.19718196244215141        0.0000000000000000     
   5.0742334395999414E-002  0.20537805687202595        0.0000000000000000     
   5.1183899133140795E-002  0.21364584554205121        0.0000000000000000     
   5.1564965031630730E-002  0.22198532845222727        0.0000000000000000     
   5.1885532091469219E-002  0.23039650560255409        0.0000000000000000     
   8.0941607342327263E-002  0.23086604647887396        0.0000000000000000     
   8.1477978445517782E-002  0.23930418116193600        0.0000000000000000     
   8.1919896614097029E-002  0.24785884238659570        0.0000000000000000     
   8.2267361848064977E-002  0.25653003015285292        0.0000000000000000     
   8.2520374147421638E-002  0.26531774446070777        0.0000000000000000     
   7.3394253864803305E-002  0.23072407330179670        0.0000000000000000     
   7.3844850543196575E-002  0.23918156588398265        0.0000000000000000     
   7.4215236769953952E-002  0.24774285993691586        0.0000000000000000     
   7.4505412545075422E-002  0.25640795546059642        0.0000000000000000     
   7.4715377868560973E-002  0.26517685245502415        0.0000000000000000     
   6.6035790163818983E-002  0.23059849209671768        0.0000000000000000     
   6.6413082862057993E-002  0.23906849416963757        0.0000000000000000     
   6.6723247569203656E-002  0.24762778545236042        0.0000000000000000     
   6.6966284285255986E-002  0.25627636594488623        0.0000000000000000     
   6.7142193010214984E-002  0.26501423564721494        0.0000000000000000     
   5.8866216239374290E-002  0.23048930286363681        0.0000000000000000     
   5.9182675402102008E-002  0.23896496601890080        0.0000000000000000     
   5.9443929011846162E-002  0.24751361893292936        0.0000000000000000     
   5.9649977068606724E-002  0.25613526160572253        0.0000000000000000     
   5.9800819572383687E-002  0.26482989403728019        0.0000000000000000     
   5.1885532091469219E-002  0.23039650560255409        0.0000000000000000     
   5.2153628163328664E-002  0.23887098143177229        0.0000000000000000     
   5.2377281097881458E-002  0.24740036037862267        0.0000000000000000     
   5.2556490895127587E-002  0.25598464244310515        0.0000000000000000     
   5.2691257555067067E-002  0.26462382762521980        0.0000000000000000     
   8.2520374147421638E-002  0.26531774446070777        0.0000000000000000     
   8.2717902756694300E-002  0.27424837906117283        0.0000000000000000     
   8.2898916920410265E-002  0.28334832770526069        0.0000000000000000     
   8.3063416638569532E-002  0.29261759039297142        0.0000000000000000     
   8.3211401911172100E-002  0.30205616712430494        0.0000000000000000     
   7.4715377868560973E-002  0.26517685245502415        0.0000000000000000     
   7.4886065857284162E-002  0.27404319308128622        0.0000000000000000     
   7.5058409628118522E-002  0.28300061950046956        0.0000000000000000     
   7.5232409181064053E-002  0.29204913171257418        0.0000000000000000     
   7.5408064516120754E-002  0.30118872971760013        0.0000000000000000     
   6.7142193010214984E-002  0.26501423564721494        0.0000000000000000     
   6.7291207560652655E-002  0.27381151614732752        0.0000000000000000     
   6.7453561753141045E-002  0.28263832903320513        0.0000000000000000     
   6.7629255587680084E-002  0.29149467430484760        0.0000000000000000     
   6.7818289064269829E-002  0.30038055196225488        0.0000000000000000     
   5.9800819572383687E-002  0.26482989403728019        0.0000000000000000     
   5.9933327866799807E-002  0.27355334825929695        0.0000000000000000     
   6.0084373295477785E-002  0.28226145630346733        0.0000000000000000     
   6.0253955858417634E-002  0.29095421816979145        0.0000000000000000     
   6.0442075555619340E-002  0.29963163385826924        0.0000000000000000     
   5.2691257555067067E-002  0.26462382762521980        0.0000000000000000     
   5.2812426775725570E-002  0.27326868941719423        0.0000000000000000     
   5.2950844255128769E-002  0.28187000131125634        0.0000000000000000     
   5.3106509993276672E-002  0.29042776330740594        0.0000000000000000     
   5.3279423990169279E-002  0.29894197540564316        0.0000000000000000     
   2.8995373404748913E-002   5.7183165519569396E-002   0.0000000000000000     
   3.0544148314737316E-002   6.2751330823788309E-002   0.0000000000000000     
   3.2038998652406621E-002   6.8494671645735708E-002   0.0000000000000000     
   3.3479924417756816E-002   7.4413187985411591E-002   0.0000000000000000     
   3.4866925610787906E-002   8.0506879842815987E-002   0.0000000000000000     
   2.5025358836422214E-002   5.6640541746071298E-002   0.0000000000000000     
   2.6396650836464690E-002   6.2253449011378414E-002   0.0000000000000000     
   2.7719312246510988E-002   6.8034441661609282E-002   0.0000000000000000     
   2.8993343066561116E-002   7.3983519696763866E-002   0.0000000000000000     
   3.0218743296615058E-002   8.0100683116842222E-002   0.0000000000000000     
   2.1197689309268547E-002   5.6220380645304588E-002   0.0000000000000000     
   2.2381342717615885E-002   6.1852565843624523E-002   0.0000000000000000     
   2.3522899804396476E-002   6.7652067993910381E-002   0.0000000000000000     
   2.4622360569610289E-002   7.3618887096162197E-002   0.0000000000000000     
   2.5679725013257347E-002   7.9753023150379937E-002   0.0000000000000000     
   1.7512364823287902E-002   5.5922682217269266E-002   0.0000000000000000     
   1.8498223958190917E-002   6.1548681320526613E-002   0.0000000000000000     
   1.9449761326063068E-002   6.7347550642639045E-002   0.0000000000000000     
   2.0366976926904357E-002   7.3319290183606556E-002   0.0000000000000000     
   2.1249870760714780E-002   7.9463899943429173E-002   0.0000000000000000     
   1.3969385378480288E-002   5.5747446461965333E-002   0.0000000000000000     
   1.4747294558189773E-002   6.1341795442084700E-002   0.0000000000000000     
   1.5499896811510781E-002   6.7120889607795248E-002   0.0000000000000000     
   1.6227192138443307E-002   7.3084728959096970E-002   0.0000000000000000     
   1.6929180538987357E-002   7.9233313495989860E-002   0.0000000000000000     
   3.4866925610787906E-002   8.0506879842815987E-002   0.0000000000000000     
   3.6204499524625823E-002   8.6769788727891720E-002   0.0000000000000000     
   3.7497143452396499E-002   9.3195956150581655E-002   0.0000000000000000     
   3.8744857394099920E-002   9.9785382110885792E-002   0.0000000000000000     
   3.9947641349736093E-002  0.10653806660880415        0.0000000000000000     
   3.0218743296615058E-002   8.0100683116842222E-002   0.0000000000000000     
   3.1399090177485205E-002   8.6382965297195302E-002   0.0000000000000000     
   3.2537960949983930E-002   9.2827399613174072E-002   0.0000000000000000     
   3.3635355614111247E-002   9.9433986064778573E-002   0.0000000000000000     
   3.4691274169867128E-002  0.10620272465200878        0.0000000000000000     
   2.5679725013257347E-002   7.9753023150379937E-002   0.0000000000000000     
   2.6697596958124844E-002   8.6051492297359714E-002   0.0000000000000000     
   2.7678580227000003E-002   9.2511310677897529E-002   0.0000000000000000     
   2.8622674819882808E-002   9.9132478291993412E-002   0.0000000000000000     
   2.9529880736773265E-002  0.10591499513964736        0.0000000000000000     
   2.1249870760714780E-002   7.9463899943429173E-002   0.0000000000000000     
   2.2100019866544755E-002   8.5775369728384940E-002   0.0000000000000000     
   2.2919001283444696E-002   9.2247689344751999E-002   0.0000000000000000     
   2.3706815011414608E-002   9.8880858792530349E-002   0.0000000000000000     
   2.4463461050454494E-002  0.10567487807171996        0.0000000000000000     
   1.6929180538987357E-002   7.9233313495989860E-002   0.0000000000000000     
   1.7606358902744926E-002   8.5554597590271023E-002   0.0000000000000000     
   1.8259224119318025E-002   9.2036535613737508E-002   0.0000000000000000     
   1.8887776188706656E-002   9.8679127566389344E-002   0.0000000000000000     
   1.9492015110910810E-002  0.10548237344822650        0.0000000000000000     
   3.9947641349736093E-002  0.10653806660880415        0.0000000000000000     
   4.1100412336269911E-002  0.11343776465218053        0.0000000000000000     
   4.2198087370666264E-002  0.12046823124885875        0.0000000000000000     
   4.3240666452925139E-002  0.12762946639883882        0.0000000000000000     
   4.4228149583046543E-002  0.13492147010212072        0.0000000000000000     
   3.4691274169867128E-002  0.10620272465200878        0.0000000000000000     
   3.5701897893072390E-002  0.11311812103279105        0.0000000000000000     
   3.6663408059547799E-002  0.12016468086505172        0.0000000000000000     
   3.7575804669293368E-002  0.12734240414879083        0.0000000000000000     
   3.8439087722309070E-002  0.13465129088400835        0.0000000000000000     
   2.9529880736773265E-002  0.10591499513964736        0.0000000000000000     
   3.0397262265164891E-002  0.11284395385990743        0.0000000000000000     
   3.1221883692551210E-002  0.11990444709182171        0.0000000000000000     
   3.2003745018932217E-002  0.12709647483539016        0.0000000000000000     
   3.2742846244307906E-002  0.13442003709061276        0.0000000000000000     
   2.4463461050454494E-002  0.10567487807171996        0.0000000000000000     
   2.5186505452547421E-002  0.11261526313352976        0.0000000000000000     
   2.5873514269676490E-002  0.11968752992916870        0.0000000000000000     
   2.6524487501841700E-002  0.12689167845863678        0.0000000000000000     
   2.7139425149043033E-002  0.13422770872193396        0.0000000000000000     
   1.9492015110910810E-002  0.10548237344822650        0.0000000000000000     
   2.0069627455219983E-002  0.11243204885365797        0.0000000000000000     
   2.0618299790923646E-002  0.11951392937709268        0.0000000000000000     
   2.1138032118021812E-002  0.12672801501853065        0.0000000000000000     
   2.1628824436514475E-002  0.13407430577797194        0.0000000000000000     
   4.4228149583046543E-002  0.13492147010212072        0.0000000000000000     
   4.5162706122180686E-002  0.14233497276457965        0.0000000000000000     
   4.6046505431477758E-002  0.14986070479209079        0.0000000000000000     
   4.6879547510937765E-002  0.15749866618465422        0.0000000000000000     
   4.7661832360560701E-002  0.16524885694226979        0.0000000000000000     
   3.8439087722309070E-002  0.13465129088400835        0.0000000000000000     
   3.9255258520886856E-002  0.14208214222015342        0.0000000000000000     
   4.0026318367318625E-002  0.14962575930667518        0.0000000000000000     
   4.0752267261604407E-002  0.15728214214357364        0.0000000000000000     
   4.1433105203744144E-002  0.16505129073084882        0.0000000000000000     
   3.2742846244307906E-002  0.13442003709061276        0.0000000000000000     
   3.3440948843482129E-002  0.14186595786277248        0.0000000000000000     
   3.4099814291258759E-002  0.14942506115715226        0.0000000000000000     
   3.4719442587637761E-002  0.15709734697375205        0.0000000000000000     
   3.5299833732619169E-002  0.16488281531257185        0.0000000000000000     
   2.7139425149043033E-002  0.13422770872193396        0.0000000000000000     
   2.7719777089966511E-002  0.14168641969243684        0.0000000000000000     
   2.8266993203298122E-002  0.14925861034352197        0.0000000000000000     
   2.8781073489037867E-002  0.15694428067518937        0.0000000000000000     
   2.9262017947185744E-002  0.16474343068743902        0.0000000000000000     
   2.1628824436514475E-002  0.13407430577797194        0.0000000000000000     
   2.2091743260339993E-002  0.14154352770914647        0.0000000000000000     
   2.2527855103436741E-002  0.14912640686578438        0.0000000000000000     
   2.2937159965804706E-002  0.15682294324788565        0.0000000000000000     
   2.3319657847443893E-002  0.16463313685545025        0.0000000000000000     
   4.7661832360560701E-002  0.16524885694226979        0.0000000000000000     
   4.8390664440316880E-002  0.17309940511611868        0.0000000000000000     
   4.9063348210176591E-002  0.18103843875738193        0.0000000000000000     
   4.9679883670139834E-002  0.18906595786605951        0.0000000000000000     
   5.0240270820206601E-002  0.19718196244215141        0.0000000000000000     
   4.1433105203744144E-002  0.16505129073084882        0.0000000000000000     
   4.2065979063761708E-002  0.17292088762724575        0.0000000000000000     
   4.2648035711680882E-002  0.18087861539150976        0.0000000000000000     
   4.3179275147501653E-002  0.18892447402364071        0.0000000000000000     
   4.3659697371224049E-002  0.19705846352363865        0.0000000000000000     
   3.5299833732619169E-002  0.16488281531257185        0.0000000000000000     
   3.5838210710739213E-002  0.17276876448656953        0.0000000000000000     
   3.6331796506534141E-002  0.18074249280870278        0.0000000000000000     
   3.6780591120003960E-002  0.18880400027897157        0.0000000000000000     
   3.7184594551148677E-002  0.19695328689737601        0.0000000000000000     
   2.9262017947185744E-002  0.16474343068743902        0.0000000000000000     
   2.9707359381249378E-002  0.17264303569408987        0.0000000000000000     
   3.0114630594736375E-002  0.18063007100896092        0.0000000000000000     
   3.0483831587646750E-002  0.18870453663205217        0.0000000000000000     
   3.0814962359980484E-002  0.19686643256336356        0.0000000000000000     
   2.3319657847443893E-002  0.16463313685545025        0.0000000000000000     
   2.3673425075292222E-002  0.17254370124980686        0.0000000000000000     
   2.3996537976287591E-002  0.18054134999228422        0.0000000000000000     
   2.4288996550430014E-002  0.18862608308288237        0.0000000000000000     
   2.4550800797719485E-002  0.19679790052160123        0.0000000000000000     
   5.0240270820206601E-002  0.19718196244215141        0.0000000000000000     
   5.0742334395999414E-002  0.20537805687202595        0.0000000000000000     
   5.1183899133140795E-002  0.21364584554205121        0.0000000000000000     
   5.1564965031630730E-002  0.22198532845222727        0.0000000000000000     
   5.1885532091469219E-002  0.23039650560255409        0.0000000000000000     
   4.3659697371224049E-002  0.19705846352363865        0.0000000000000000     
   4.4088444754964123E-002  0.20527058791058628        0.0000000000000000     
   4.4464659670837972E-002  0.21355085120356629        0.0000000000000000     
   4.4788342118845609E-002  0.22189925340257866        0.0000000000000000     
   4.5059492098987006E-002  0.23031579450762343        0.0000000000000000     
   3.7184594551148677E-002  0.19695328689737601        0.0000000000000000     
   3.7543878936739175E-002  0.20517876759645662        0.0000000000000000     
   3.7858516413546373E-002  0.21346885730875395        0.0000000000000000     
   3.8128506981570269E-002  0.22182355603426807        0.0000000000000000     
   3.8353850640810878E-002  0.23024286377299888        0.0000000000000000     
   3.0814962359980484E-002  0.19686643256336356        0.0000000000000000     
   3.1108636941324572E-002  0.20510259592963698        0.0000000000000000     
   3.1365469361265982E-002  0.21339986385761425        0.0000000000000000     
   3.1585459619804739E-002  0.22175823634729541        0.0000000000000000     
   3.1768607716940810E-002  0.23017771339868046        0.0000000000000000     
   2.4550800797719485E-002  0.19679790052160123        0.0000000000000000     
   2.4782718768720315E-002  0.20504207291012733        0.0000000000000000     
   2.4985518513996816E-002  0.21334387085014714        0.0000000000000000     
   2.5159200033548983E-002  0.22170329434166075        0.0000000000000000     
   2.5303763327376820E-002  0.23012034338466805        0.0000000000000000     
   5.1885532091469219E-002  0.23039650560255409        0.0000000000000000     
   5.2153628163328664E-002  0.23887098143177229        0.0000000000000000     
   5.2377281097881458E-002  0.24740036037862267        0.0000000000000000     
   5.2556490895127587E-002  0.25598464244310515        0.0000000000000000     
   5.2691257555067067E-002  0.26462382762521980        0.0000000000000000     
   4.5059492098987006E-002  0.23031579450762343        0.0000000000000000     
   4.5286842819472720E-002  0.23878509792299113        0.0000000000000000     
   4.5479127488513245E-002  0.24729178705297214        0.0000000000000000     
   4.5636346106108602E-002  0.25583586189756657        0.0000000000000000     
   4.5758498672258799E-002  0.26441732245677441        0.0000000000000000     
   3.8353850640810878E-002  0.23024286377299888        0.0000000000000000     
   3.8543221044268938E-002  0.23870587300729615        0.0000000000000000     
   3.8705291844945235E-002  0.24719167621950952        0.0000000000000000     
   3.8840063042839768E-002  0.25570027340963902        0.0000000000000000     
   3.8947534637952530E-002  0.26423166457768454        0.0000000000000000     
   3.1768607716940810E-002  0.23017771339868046        0.0000000000000000     
   3.1922762837717333E-002  0.23863330668468755        0.0000000000000000     
   3.2055774167177420E-002  0.24710002787823485        0.0000000000000000     
   3.2167641705321062E-002  0.25557787697932238        0.0000000000000000     
   3.2258365452148267E-002  0.26406685398795027        0.0000000000000000     
   2.5303763327376820E-002  0.23012034338466805        0.0000000000000000     
   2.5425468199817898E-002  0.23856739895516513        0.0000000000000000     
   2.5530574455209794E-002  0.24701684202914806        0.0000000000000000     
   2.5619082093552500E-002  0.25546867260661682        0.0000000000000000     
   2.5690991114846025E-002  0.26392289068757141        0.0000000000000000     
   5.2691257555067067E-002  0.26462382762521980        0.0000000000000000     
   5.2812426775725570E-002  0.27326868941719423        0.0000000000000000     
   5.2950844255128769E-002  0.28187000131125634        0.0000000000000000     
   5.3106509993276672E-002  0.29042776330740594        0.0000000000000000     
   5.3279423990169279E-002  0.29894197540564316        0.0000000000000000     
   4.5758498672258799E-002  0.26441732245677441        0.0000000000000000     
   4.5869748046470593E-002  0.27298624244013564        0.0000000000000000     
   4.5994257088250799E-002  0.28149269555719025        0.0000000000000000     
   4.6132025797599389E-002  0.28993668180793813        0.0000000000000000     
   4.6283054174516378E-002  0.29831820119237945        0.0000000000000000     
   3.8947534637952530E-002  0.26423166457768454        0.0000000000000000     
   3.9046535438075493E-002  0.27273471014723710        0.0000000000000000     
   3.9155894251000620E-002  0.28115827054188725        0.0000000000000000     
   3.9275611076727911E-002  0.28950234576163519        0.0000000000000000     
   3.9405685915257352E-002  0.29776693580648073        0.0000000000000000     
   3.2258365452148267E-002  0.26406685398795027        0.0000000000000000     
   3.2342788950540262E-002  0.27251409253849845        0.0000000000000000     
   3.2435755743378251E-002  0.28086672626534737        0.0000000000000000     
   3.2537265830662243E-002  0.28912475516849695        0.0000000000000000     
   3.2647319212392223E-002  0.29728817924794704        0.0000000000000000     
   2.5690991114846025E-002  0.26392289068757141        0.0000000000000000     
   2.5758508583864907E-002  0.27232438961391991        0.0000000000000000     
   2.5833841565383688E-002  0.28061806272757062        0.0000000000000000     
   2.5916990059402380E-002  0.28880391002852346        0.0000000000000000     
   2.6007954065920977E-002  0.29688193151677844        0.0000000000000000     
   1.3969385378480288E-002   5.5747446461965333E-002   0.0000000000000000     
   1.4747294558189773E-002   6.1341795442084700E-002   0.0000000000000000     
   1.5499896811510781E-002   6.7120889607795248E-002   0.0000000000000000     
   1.6227192138443307E-002   7.3084728959096970E-002   0.0000000000000000     
   1.6929180538987357E-002   7.9233313495989860E-002   0.0000000000000000     
   1.0494956820811373E-002   5.5637980012534387E-002   0.0000000000000000     
   1.1063977548742426E-002   6.1199006172960771E-002   0.0000000000000000     
   1.1616577297815806E-002   6.6956103321441848E-002   0.0000000000000000     
   1.2152756068031517E-002   7.2909271457977626E-002   0.0000000000000000     
   1.2672513859389556E-002   7.9058510582568103E-002   0.0000000000000000     
   7.0152849962468369E-003   5.5537589502118061E-002   0.0000000000000000     
   7.3836959609788425E-003   6.1087411477816794E-002   0.0000000000000000     
   7.7430738220543487E-003   6.6837210215641693E-002   0.0000000000000000     
   8.0934185794733562E-003   7.2786985715592722E-002   0.0000000000000000     
   8.4347302332358660E-003   7.8936737977669910E-002   0.0000000000000000     
   3.5303699047866772E-003   5.5446274930716334E-002   0.0000000000000000     
   3.7064497948990239E-003   6.1007011356652784E-002   0.0000000000000000     
   3.8793863842264079E-003   6.6764210290394754E-002   0.0000000000000000     
   4.0491796727688267E-003   7.2717871731942274E-002   0.0000000000000000     
   4.2158296605262846E-003   7.8867995681295336E-002   0.0000000000000000     
   4.0211546430894956E-005   5.5364036298329228E-002   0.0000000000000000     
   3.2239050502971909E-005   6.0957805809468725E-002   0.0000000000000000     
   2.5514984331983354E-005   6.6737103545701087E-002   0.0000000000000000     
   2.0039347917930023E-005   7.2701929507026267E-002   0.0000000000000000     
   1.5812141260811239E-005   7.8852283693444325E-002   0.0000000000000000     
   1.6929180538987357E-002   7.9233313495989860E-002   0.0000000000000000     
   1.7606358902744926E-002   8.5554597590271023E-002   0.0000000000000000     
   1.8259224119318025E-002   9.2036535613737508E-002   0.0000000000000000     
   1.8887776188706656E-002   9.8679127566389344E-002   0.0000000000000000     
   1.9492015110910810E-002  0.10548237344822650        0.0000000000000000     
   1.2672513859389556E-002   7.9058510582568103E-002   0.0000000000000000     
   1.3175466181391968E-002   8.5386228112195872E-002   0.0000000000000000     
   1.3661228543540793E-002   9.1874831463843468E-002   0.0000000000000000     
   1.4129800945836034E-002   9.8524320637510973E-002   0.0000000000000000     
   1.4581183388277689E-002  0.10533469563319831        0.0000000000000000     
   8.4347302332358660E-003   7.8936737977669910E-002   0.0000000000000000     
   8.7661938171524796E-003   8.5267313523337426E-002   0.0000000000000000     
   9.0869943650338063E-003   9.1759558874059399E-002   0.0000000000000000     
   9.3971318768798374E-003   9.8413474029835801E-002   0.0000000000000000     
   9.6966063526905816E-003  0.10522905899066667        0.0000000000000000     
   4.2158296605262846E-003   7.8867995681295336E-002   0.0000000000000000     
   4.3785418100264657E-003   8.5197853823695699E-002   0.0000000000000000     
   4.5365215837970601E-003   9.1690717844385206E-002   0.0000000000000000     
   4.6897689818380687E-003   9.8346587743363856E-002   0.0000000000000000     
   4.8382840041494889E-003  0.10516546352063159        0.0000000000000000     
   1.5812141260811239E-005   7.8852283693444325E-002   0.0000000000000000     
   1.2510160013924068E-005   8.5177849013270718E-002   0.0000000000000000     
   9.8101998305617820E-006   9.1668308374820984E-002   0.0000000000000000     
   7.7122607107243002E-006   9.8323661778095095E-002   0.0000000000000000     
   6.2163426544142517E-006  0.10514390922309308        0.0000000000000000     
   1.9492015110910810E-002  0.10548237344822650        0.0000000000000000     
   2.0069627455219983E-002  0.11243204885365797        0.0000000000000000     
   2.0618299790923646E-002  0.11951392937709268        0.0000000000000000     
   2.1138032118021812E-002  0.12672801501853065        0.0000000000000000     
   2.1628824436514475E-002  0.13407430577797194        0.0000000000000000     
   1.4581183388277689E-002  0.10533469563319831        0.0000000000000000     
   1.5013142443777496E-002  0.11229172162525389        0.0000000000000000     
   1.5423444685247194E-002  0.11938116378802607        0.0000000000000000     
   1.5812090112686781E-002  0.12660302212151486        0.0000000000000000     
   1.6179078726096259E-002  0.13395729662572026        0.0000000000000000     
   9.6966063526905816E-003  0.10522905899066667        0.0000000000000000     
   9.9835645888148947E-003  0.11219169205327938        0.0000000000000000     
   1.0256153381601640E-002  0.11928675151440125        0.0000000000000000     
   1.0514372731050820E-002  0.12651423737403228        0.0000000000000000     
   1.0758222637162427E-002  0.13387414963217253        0.0000000000000000     
   4.8382840041494889E-003  0.10516546352063159        0.0000000000000000     
   4.9808938903321779E-003  0.11213196013773441        0.0000000000000000     
   5.1164258799869912E-003  0.11923069255621820        0.0000000000000000     
   5.2448799731139254E-003  0.12646166077608301        0.0000000000000000     
   5.3662561697129839E-003  0.13382486479732875        0.0000000000000000     
   6.2163426544142517E-006  0.10514390922309308        0.0000000000000000     
   5.1303483293478960E-006  0.11211252587861900        0.0000000000000000     
   4.2621804032436615E-006  0.11921298691347694        0.0000000000000000     
   3.6118388761054512E-006  0.12644529232766691        0.0000000000000000     
   3.1793237479293621E-006  0.13380944212118892        0.0000000000000000     
   2.1628824436514475E-002  0.13407430577797194        0.0000000000000000     
   2.2091743260339993E-002  0.14154352770914647        0.0000000000000000     
   2.2527855103436741E-002  0.14912640686578438        0.0000000000000000     
   2.2937159965804706E-002  0.15682294324788565        0.0000000000000000     
   2.3319657847443893E-002  0.16463313685545025        0.0000000000000000     
   1.6179078726096259E-002  0.13395729662572026        0.0000000000000000     
   1.6525088060962145E-002  0.14143466252515302        0.0000000000000000     
   1.6850795652770971E-002  0.14902579504432398        0.0000000000000000     
   1.7156201501522732E-002  0.15673069418323304        0.0000000000000000     
   1.7441305607217433E-002  0.16454935994188027        0.0000000000000000     
   1.0758222637162427E-002  0.13387414963217253        0.0000000000000000     
   1.0988052198192530E-002  0.14135720475270813        0.0000000000000000     
   1.1204210512397186E-002  0.14895411919952523        0.0000000000000000     
   1.1406697579776401E-002  0.15666489297262384        0.0000000000000000     
   1.1595513400330170E-002  0.16448952607200393        0.0000000000000000     
   5.3662561697129839E-003  0.13382486479732875        0.0000000000000000     
   5.4806356720311453E-003  0.14131115439181174        0.0000000000000000     
   5.5880996823153874E-003  0.14891137933138815        0.0000000000000000     
   5.6886482005657118E-003  0.15662553961605796        0.0000000000000000     
   5.7822812267821194E-003  0.16445363524582124        0.0000000000000000     
   3.1793237479293621E-006  0.13380944212118892        0.0000000000000000     
   2.8384824779916027E-006  0.14129651144246388        0.0000000000000000     
   2.4631625255698997E-006  0.14889757543991272        0.0000000000000000     
   2.0533638906649579E-006  0.15661263411353551        0.0000000000000000     
   1.6090865732733620E-006  0.16444168746333215        0.0000000000000000     
   2.3319657847443893E-002  0.16463313685545025        0.0000000000000000     
   2.3673425075292222E-002  0.17254370124980686        0.0000000000000000     
   2.3996537976287591E-002  0.18054134999228422        0.0000000000000000     
   2.4288996550430014E-002  0.18862608308288237        0.0000000000000000     
   2.4550800797719485E-002  0.19679790052160123        0.0000000000000000     
   1.7441305607217433E-002  0.16454935994188027        0.0000000000000000     
   1.7704806254786098E-002  0.17246830713055430        0.0000000000000000     
   1.7945401729159788E-002  0.18047405055954369        0.0000000000000000     
   1.8163092030338494E-002  0.18856659022884839        0.0000000000000000     
   1.8357877158322215E-002  0.19674592613846850        0.0000000000000000     
   1.1595513400330170E-002  0.16448952607200393        0.0000000000000000     
   1.1769901381649394E-002  0.17241439931316593        0.0000000000000000     
   1.1929104931324978E-002  0.18042589351161006        0.0000000000000000     
   1.2073124049356919E-002  0.18852400866733637        0.0000000000000000     
   1.2201958735745221E-002  0.19670874478034481        0.0000000000000000     
   5.7822812267821194E-003  0.16445363524582124        0.0000000000000000     
   5.8687104558821021E-003  0.17238197779764178        0.0000000000000000     
   5.9476475827831589E-003  0.18039687884848352        0.0000000000000000     
   6.0190926074852940E-003  0.18849833839834626        0.0000000000000000     
   6.0830455299885006E-003  0.19668635644723018        0.0000000000000000     
   1.6090865732733620E-006  0.16444168746333215        0.0000000000000000     
   1.2334774842220897E-006  0.17237104258398186        0.0000000000000000     
   1.0296835343350831E-006  0.18038700657016385        0.0000000000000000     
   9.9770472361461904E-007  0.18848957942187808        0.0000000000000000     
   1.1375410520564691E-006  0.19667876113912458        0.0000000000000000     
   2.4550800797719485E-002  0.19679790052160123        0.0000000000000000     
   2.4782718768720315E-002  0.20504207291012733        0.0000000000000000     
   2.4985518513996816E-002  0.21334387085014714        0.0000000000000000     
   2.5159200033548983E-002  0.22170329434166075        0.0000000000000000     
   2.5303763327376820E-002  0.23012034338466805        0.0000000000000000     
   1.8357877158322215E-002  0.19674592613846850        0.0000000000000000     
   1.8530439623552997E-002  0.20499595346137237        0.0000000000000000     
   1.8681461936472885E-002  0.21330056737052833        0.0000000000000000     
   1.8810944097081873E-002  0.22165976786593644        0.0000000000000000     
   1.8918886105379971E-002  0.23007355494759665        0.0000000000000000     
   1.2201958735745221E-002  0.19670874478034481        0.0000000000000000     
   1.2316114710449209E-002  0.20496299250681677        0.0000000000000000     
   1.2416097693428226E-002  0.21326964250293343        0.0000000000000000     
   1.2501907684682269E-002  0.22162869476869493        0.0000000000000000     
   1.2573544684211336E-002  0.23004014930410119        0.0000000000000000     
   6.0830455299885006E-003  0.19668635644723018        0.0000000000000000     
   6.1397440294089587E-003  0.20494319004646050        0.0000000000000000     
   6.1894257848628450E-003  0.21325109624736252        0.0000000000000000     
   6.2320907963501638E-003  0.22161007504993624        0.0000000000000000     
   6.2677390638709116E-003  0.23002012645418163        0.0000000000000000     
   1.1375410520564691E-006  0.19667876113912458        0.0000000000000000     
   1.3275804322404345E-006  0.20493654608030362        0.0000000000000000     
   1.4462107767411123E-006  0.21324492860381555        0.0000000000000000     
   1.4934320855602371E-006  0.22160390870966035        0.0000000000000000     
   1.4692443586956407E-006  0.23001348639783797        0.0000000000000000     
   2.5303763327376820E-002  0.23012034338466805        0.0000000000000000     
   2.5425468199817898E-002  0.23856739895516513        0.0000000000000000     
   2.5530574455209794E-002  0.24701684202914806        0.0000000000000000     
   2.5619082093552500E-002  0.25546867260661682        0.0000000000000000     
   2.5690991114846025E-002  0.26392289068757141        0.0000000000000000     
   1.8918886105379971E-002  0.23007355494759665        0.0000000000000000     
   1.9009680528336459E-002  0.23851264584885576        0.0000000000000000     
   1.9087719932920622E-002  0.24694775780306047        0.0000000000000000     
   1.9153004319132461E-002  0.25537889081021087        0.0000000000000000     
   1.9205533686971976E-002  0.26380604487030684        0.0000000000000000     
   1.2573544684211336E-002  0.23004014930410119        0.0000000000000000     
   1.2633743221038834E-002  0.23847354339588603        0.0000000000000000     
   1.2685237824188161E-002  0.24689841433078338        0.0000000000000000     
   1.2728028493659319E-002  0.25531476210879311        0.0000000000000000     
   1.2762115229452309E-002  0.26372258672991539        0.0000000000000000     
   6.2677390638709116E-003  0.23002012645418163        0.0000000000000000     
   6.2976562779250142E-003  0.23845009159625602        0.0000000000000000     
   6.3231281290124022E-003  0.24686881161231669        0.0000000000000000     
   6.3441546171330750E-003  0.25527628650236367        0.0000000000000000     
   6.3607357422870324E-003  0.26367251626639698        0.0000000000000000     
   1.4692443586956407E-006  0.23001348639783797        0.0000000000000000     
   1.4196989950071744E-006  0.23844229044996565        0.0000000000000000     
   1.3908473933520876E-006  0.24685894964766050        0.0000000000000000     
   1.3826895537290794E-006  0.25526346399092248        0.0000000000000000     
   1.3952254761424865E-006  0.26365583347975169        0.0000000000000000     
   2.5690991114846025E-002  0.26392289068757141        0.0000000000000000     
   2.5758508583864907E-002  0.27232438961391991        0.0000000000000000     
   2.5833841565383688E-002  0.28061806272757062        0.0000000000000000     
   2.5916990059402380E-002  0.28880391002852346        0.0000000000000000     
   2.6007954065920977E-002  0.29688193151677844        0.0000000000000000     
   1.9205533686971976E-002  0.26380604487030684        0.0000000000000000     
   1.9255279525101070E-002  0.27217192764829812        0.0000000000000000     
   1.9312213322181655E-002  0.28041924680913410        0.0000000000000000     
   1.9376335078213736E-002  0.28854800235281491        0.0000000000000000     
   1.9447644793197310E-002  0.29655819427934060        0.0000000000000000     
   1.2762115229452309E-002  0.26372258672991539        0.0000000000000000     
   1.2794686961300403E-002  0.27206303291642941        0.0000000000000000     
   1.2832932618936871E-002  0.28027724539061488        0.0000000000000000     
   1.2876852202361712E-002  0.28836522415247151        0.0000000000000000     
   1.2926445711574927E-002  0.29632696920199941        0.0000000000000000     
   6.3607357422870324E-003  0.26367251626639698        0.0000000000000000     
   6.3767308924629063E-003  0.27199770541831414        0.0000000000000000     
   6.3959994556493319E-003  0.28019205847201284        0.0000000000000000     
   6.4185414318463033E-003  0.28825557542749303        0.0000000000000000     
   6.4443568210538274E-003  0.29618825628475481        0.0000000000000000     
   1.3952254761424865E-006  0.26365583347975169        0.0000000000000000     
   1.4113185885795531E-006  0.27197594515395218        0.0000000000000000     
   1.4138323190389076E-006  0.28016368605332820        0.0000000000000000     
   1.4027666675139633E-006  0.28821905617787974        0.0000000000000000     
   1.3781216340099517E-006  0.29614205552760681        0.0000000000000000     
   4.0211546430894956E-005   5.5364036298329228E-002   0.0000000000000000     
   3.2239050502971909E-005   6.0957805809468725E-002   0.0000000000000000     
   2.5514984331983354E-005   6.6737103545701087E-002   0.0000000000000000     
   2.0039347917930023E-005   7.2701929507026267E-002   0.0000000000000000     
   1.5812141260811239E-005   7.8852283693444325E-002   0.0000000000000000     
  -3.4582477371582388E-003   5.5330995593265528E-002   0.0000000000000000     
  -3.6487765776099619E-003   6.0958717883436313E-002   0.0000000000000000     
  -3.8338639968829723E-003   6.6760463735080031E-002   0.0000000000000000     
  -4.0135099949772700E-003   7.2736233148196702E-002   0.0000000000000000     
  -4.1877145718928546E-003   7.8886026122786321E-002   0.0000000000000000     
  -6.9680656043184519E-003   5.5387274803834034E-002   0.0000000000000000     
  -7.3464373948404242E-003   6.1028670625727185E-002   0.0000000000000000     
  -7.7140741786725104E-003   6.6838864612051019E-002   0.0000000000000000     
  -8.0709759558147062E-003   7.2817856762805527E-002   0.0000000000000000     
  -8.4171427262670177E-003   7.8965647077990739E-002   0.0000000000000000     
  -1.0489242055049744E-002   5.5532873930034768E-002   0.0000000000000000     
  -1.1060743401188417E-002   6.1167664036341364E-002   0.0000000000000000     
  -1.1615115561036627E-002   6.6972306176614024E-002   0.0000000000000000     
  -1.2152358534594383E-002   7.2946800350852783E-002   0.0000000000000000     
  -1.2672472321861675E-002   7.9091146559057593E-002   0.0000000000000000     
  -1.4021777089352115E-002   5.5767792971867708E-002   0.0000000000000000     
  -1.4791694596653932E-002   6.1375698115278834E-002   0.0000000000000000     
  -1.5536988143975326E-002   6.7160788428769075E-002   0.0000000000000000     
  -1.6257657731316294E-002   7.3123063912338415E-002   0.0000000000000000     
  -1.6953703358676832E-002   7.9262524565986869E-002   0.0000000000000000     
   1.5812141260811239E-005   7.8852283693444325E-002   0.0000000000000000     
   1.2510160013924068E-005   8.5177849013270718E-002   0.0000000000000000     
   9.8101998305617820E-006   9.1668308374820984E-002   0.0000000000000000     
   7.7122607107243002E-006   9.8323661778095095E-002   0.0000000000000000     
   6.2163426544142517E-006  0.10514390922309308        0.0000000000000000     
  -4.1877145718928546E-003   7.8886026122786321E-002   0.0000000000000000     
  -4.3562953595797918E-003   8.5206065353689048E-002   0.0000000000000000     
  -4.5190699899881484E-003   9.1692573535745114E-002   0.0000000000000000     
  -4.6760384631179255E-003   9.8345550668954493E-002   0.0000000000000000     
  -4.8272007789691212E-003  0.10516499675331716        0.0000000000000000     
  -8.4171427262670177E-003   7.8965647077990739E-002   0.0000000000000000     
  -8.7522689754493278E-003   8.5281269106577337E-002   0.0000000000000000     
  -9.0760491887815261E-003   9.1763756397536089E-002   0.0000000000000000     
  -9.3884833662636127E-003   9.8413108950866940E-002   0.0000000000000000     
  -9.6895715078955912E-003  0.10522932676656993        0.0000000000000000     
  -1.2672472321861675E-002   7.9091146559057593E-002   0.0000000000000000     
  -1.3175410687594683E-002   8.5403460271935600E-002   0.0000000000000000     
  -1.3661127396549571E-002   9.1881856960193881E-002   0.0000000000000000     
  -1.4129622448726340E-002   9.8526336623832492E-002   0.0000000000000000     
  -1.4580895844124992E-002  0.10533689926285138        0.0000000000000000     
  -1.6953703358676832E-002   7.9262524565986869E-002   0.0000000000000000     
  -1.7625720496015858E-002   8.5572638849763794E-002   0.0000000000000000     
  -1.8274304613292287E-002   9.2046875223718530E-002   0.0000000000000000     
  -1.8899455710506104E-002   9.8685233687851093E-002   0.0000000000000000     
  -1.9501173787657332E-002  0.10548771424216150        0.0000000000000000     
   6.2163426544142517E-006  0.10514390922309308        0.0000000000000000     
   5.1303483293478960E-006  0.11211252587861900        0.0000000000000000     
   4.2621804032436615E-006  0.11921298691347694        0.0000000000000000     
   3.6118388761054512E-006  0.12644529232766691        0.0000000000000000     
   3.1793237479293621E-006  0.13380944212118892        0.0000000000000000     
  -4.8272007789691212E-003  0.10516499675331716        0.0000000000000000     
  -4.9717240175778752E-003  0.11213341694803312        0.0000000000000000     
  -5.1087752589803297E-003  0.11923331641230234        0.0000000000000000     
  -5.2383545031764811E-003  0.12646469514612479        0.0000000000000000     
  -5.3604617501663322E-003  0.13382755314950051        0.0000000000000000     
  -9.6895715078955912E-003  0.10522932676656993        0.0000000000000000     
  -9.9776671877737678E-003  0.11219466101807679        0.0000000000000000     
  -1.0251123979994461E-002  0.11929136287881922        0.0000000000000000     
  -1.0509941884557674E-002  0.12651943234879726        0.0000000000000000     
  -1.0754120901463396E-002  0.13387886942801092        0.0000000000000000     
  -1.4580895844124992E-002  0.10533689926285138        0.0000000000000000     
  -1.5012699162258333E-002  0.11229625808874996        0.0000000000000000     
  -1.5422783982639153E-002  0.11938712631302764        0.0000000000000000     
  -1.5811150305267460E-002  0.12660950393568438        0.0000000000000000     
  -1.6177798130143261E-002  0.13396339095672025        0.0000000000000000     
  -1.9501173787657332E-002  0.10548771424216150        0.0000000000000000     
  -2.0076819941031564E-002  0.11243820816005266        0.0000000000000000     
  -2.0623755266914404E-002  0.11952060671492752        0.0000000000000000     
  -2.1141979765305862E-002  0.12673490990678610        0.0000000000000000     
  -2.1631493436205920E-002  0.13408111773562842        0.0000000000000000     
   3.1793237479293621E-006  0.13380944212118892        0.0000000000000000     
   2.8384824779916027E-006  0.14129651144246388        0.0000000000000000     
   2.4631625255698997E-006  0.14889757543991272        0.0000000000000000     
   2.0533638906649579E-006  0.15661263411353551        0.0000000000000000     
   1.6090865732733620E-006  0.16444168746333215        0.0000000000000000     
  -5.3604617501663322E-003  0.13382755314950051        0.0000000000000000     
  -5.4754099652213331E-003  0.14131314240535314        0.0000000000000000     
  -5.5835121136129338E-003  0.14891271489660643        0.0000000000000000     
  -5.6847681953411319E-003  0.15662627062326034        0.0000000000000000     
  -5.7791782104059325E-003  0.16445380958531494        0.0000000000000000     
  -1.0754120901463396E-002  0.13387886942801092        0.0000000000000000     
  -1.0984180265821238E-002  0.14136091378116805        0.0000000000000000     
  -1.1200639212740794E-002  0.14895680507297662        0.0000000000000000     
  -1.1403497742222071E-002  0.15666654330343657        0.0000000000000000     
  -1.1592755854265065E-002  0.16449012847254796        0.0000000000000000     
  -1.6177798130143261E-002  0.13396339095672025        0.0000000000000000     
  -1.6523472419321714E-002  0.14143982556990869        0.0000000000000000     
  -1.6848918134858015E-002  0.14902984596902336        0.0000000000000000     
  -1.7154135276752150E-002  0.15673345215406415        0.0000000000000000     
  -1.7439123845004123E-002  0.16455064412503112        0.0000000000000000     
  -2.1631493436205920E-002  0.13408111773562842        0.0000000000000000     
  -2.2093286425722773E-002  0.14154987777157502        0.0000000000000000     
  -2.2528348879964587E-002  0.14913183758474660        0.0000000000000000     
  -2.2936680798931366E-002  0.15682699717514309        0.0000000000000000     
  -2.3318282182623114E-002  0.16463535654276454        0.0000000000000000     
   1.6090865732733620E-006  0.16444168746333215        0.0000000000000000     
   1.2334774842220897E-006  0.17237104258398186        0.0000000000000000     
   1.0296835343350831E-006  0.18038700657016385        0.0000000000000000     
   9.9770472361461904E-007  0.18848957942187808        0.0000000000000000     
   1.1375410520564691E-006  0.19667876113912458        0.0000000000000000     
  -5.7791782104059325E-003  0.16445380958531494        0.0000000000000000     
  -5.8662655374405433E-003  0.17238171981603975        0.0000000000000000     
  -5.9455535550781754E-003  0.18039638934870447        0.0000000000000000     
  -6.0170422633188357E-003  0.18849781818330899        0.0000000000000000     
  -6.0807316621625191E-003  0.19668600631985336        0.0000000000000000     
  -1.1592755854265065E-002  0.16449012847254796        0.0000000000000000     
  -1.1767522572788489E-002  0.17241413563766911        0.0000000000000000     
  -1.1926906921711057E-002  0.18042513985615849        0.0000000000000000     
  -1.2070908901032769E-002  0.18852314112801613        0.0000000000000000     
  -1.2199528510753632E-002  0.19670813945324200        0.0000000000000000     
  -1.7439123845004123E-002  0.16455064412503112        0.0000000000000000     
  -1.7702537628559615E-002  0.17246829004886988        0.0000000000000000     
  -1.7943030416364306E-002  0.18047325809252598        0.0000000000000000     
  -1.8160602208418194E-002  0.18856554825599953        0.0000000000000000     
  -1.8355253004721277E-002  0.19674516053929039        0.0000000000000000     
  -2.3318282182623114E-002  0.16463535654276454        0.0000000000000000     
  -2.3671310704753926E-002  0.17254418304964209        0.0000000000000000     
  -2.3993924039037922E-002  0.18054074405780696        0.0000000000000000     
  -2.4286122185475101E-002  0.18862503956725912        0.0000000000000000     
  -2.4547905144065466E-002  0.19679706957799858        0.0000000000000000     
   1.1375410520564691E-006  0.19667876113912458        0.0000000000000000     
   1.3275804322404345E-006  0.20493654608030362        0.0000000000000000     
   1.4462107767411123E-006  0.21324492860381555        0.0000000000000000     
   1.4934320855602371E-006  0.22160390870966035        0.0000000000000000     
   1.4692443586956407E-006  0.23001348639783797        0.0000000000000000     
  -6.0807316621625191E-003  0.19668600631985336        0.0000000000000000     
  -6.1370788274646409E-003  0.20494307001089865        0.0000000000000000     
  -6.1865408350806235E-003  0.21325112550900599        0.0000000000000000     
  -6.2291176850104634E-003  0.22161017281417528        0.0000000000000000     
  -6.2648093772541616E-003  0.23002021192640659        0.0000000000000000     
  -1.2199528510753632E-002  0.19670813945324200        0.0000000000000000     
  -1.2313419385265385E-002  0.20496277124079829        0.0000000000000000     
  -1.2413235158959779E-002  0.21326967289964735        0.0000000000000000     
  -1.2498975831836829E-002  0.22162884442978920        0.0000000000000000     
  -1.2570641403896517E-002  0.23004028583122371        0.0000000000000000     
  -1.8355253004721277E-002  0.19674516053929039        0.0000000000000000     
  -1.8527694092969987E-002  0.20499564977000251        0.0000000000000000     
  -1.8678636760860737E-002  0.21330057077573975        0.0000000000000000     
  -1.8808081008393533E-002  0.22165992355650202        0.0000000000000000     
  -1.8916026835568370E-002  0.23007370811228944        0.0000000000000000     
  -2.4547905144065466E-002  0.19679706957799858        0.0000000000000000     
  -2.4779902950578445E-002  0.20504170559851126        0.0000000000000000     
  -2.4982745640783482E-002  0.21334381913728304        0.0000000000000000     
  -2.5156433214680578E-002  0.22170341019431380        0.0000000000000000     
  -2.5300965672269721E-002  0.23012047876960368        0.0000000000000000     
   1.4692443586956407E-006  0.23001348639783797        0.0000000000000000     
   1.4196989950071744E-006  0.23844229044996565        0.0000000000000000     
   1.3908473933520876E-006  0.24685894964766050        0.0000000000000000     
   1.3826895537290794E-006  0.25526346399092248        0.0000000000000000     
   1.3952254761424865E-006  0.26365583347975169        0.0000000000000000     
  -6.2648093772541616E-003  0.23002021192640659        0.0000000000000000     
  -6.2948171825051935E-003  0.23845013394619083        0.0000000000000000     
  -6.3203423714570288E-003  0.24686882997401896        0.0000000000000000     
  -6.3413849441096666E-003  0.25527630000989093        0.0000000000000000     
  -6.3579449004631129E-003  0.26367254405380691        0.0000000000000000     
  -1.2570641403896517E-002  0.23004028583122371        0.0000000000000000     
  -1.2630905033329589E-002  0.23847361607410730        0.0000000000000000     
  -1.2682439878326773E-002  0.24689845412859629        0.0000000000000000     
  -1.2725245938888071E-002  0.25531479999469064        0.0000000000000000     
  -1.2759323215013482E-002  0.26372265367239039        0.0000000000000000     
  -1.8916026835568370E-002  0.23007370811228944        0.0000000000000000     
  -1.9006843853478183E-002  0.23851273683371516        0.0000000000000000     
  -1.9084901673215884E-002  0.24694782211139246        0.0000000000000000     
  -1.9150200294781476E-002  0.25537896394532145        0.0000000000000000     
  -1.9202739718174964E-002  0.26380616233550191        0.0000000000000000     
  -2.5300965672269721E-002  0.23012047876960368        0.0000000000000000     
  -2.5422633642950974E-002  0.23856749622501433        0.0000000000000000     
  -2.5527727756124361E-002  0.24701693392240756        0.0000000000000000     
  -2.5616248011789893E-002  0.25546879186178334        0.0000000000000000     
  -2.5688194409947563E-002  0.26392307004314164        0.0000000000000000     
   1.3952254761424865E-006  0.26365583347975169        0.0000000000000000     
   1.4113185885795531E-006  0.27197594515395218        0.0000000000000000     
   1.4138323190389076E-006  0.28016368605332820        0.0000000000000000     
   1.4027666675139633E-006  0.28821905617787974        0.0000000000000000     
   1.3781216340099517E-006  0.29614205552760681        0.0000000000000000     
  -6.3579449004631129E-003  0.26367254405380691        0.0000000000000000     
  -6.3739127117421702E-003  0.27199775614756838        0.0000000000000000     
  -6.3931788491716525E-003  0.28019213033297691        0.0000000000000000     
  -6.4157433127515553E-003  0.28825566661003266        0.0000000000000000     
  -6.4416061024818814E-003  0.29618836497873541        0.0000000000000000     
  -1.2759323215013482E-002  0.26372265367239039        0.0000000000000000     
  -1.2791882149948940E-002  0.27206314242338780        0.0000000000000000     
  -1.2830133186940380E-002  0.28027739350937531        0.0000000000000000     
  -1.2874076325987801E-002  0.28836540693035284        0.0000000000000000     
  -1.2923711567091203E-002  0.29632718268632047        0.0000000000000000     
  -1.9202739718174964E-002  0.26380616233550191        0.0000000000000000     
  -1.9252496996031727E-002  0.27217210398141045        0.0000000000000000     
  -1.9309449180987145E-002  0.28041947558252328        0.0000000000000000     
  -1.9373596273041228E-002  0.28854827713884051        0.0000000000000000     
  -1.9444938272193957E-002  0.29655850865036210        0.0000000000000000     
  -2.5688194409947563E-002  0.26392307004314164        0.0000000000000000     
  -2.5755757249990532E-002  0.27232464082163621        0.0000000000000000     
  -2.5831126831311953E-002  0.28061837655242078        0.0000000000000000     
  -2.5914303153911820E-002  0.28880427723549545        0.0000000000000000     
  -2.6005286217790139E-002  0.29688234287086013        0.0000000000000000     
  -1.4021777089352115E-002   5.5767792971867708E-002   0.0000000000000000     
  -1.4791694596653932E-002   6.1375698115278834E-002   0.0000000000000000     
  -1.5536988143975326E-002   6.7160788428769075E-002   0.0000000000000000     
  -1.6257657731316294E-002   7.3123063912338415E-002   0.0000000000000000     
  -1.6953703358676832E-002   7.9262524565986869E-002   0.0000000000000000     
  -1.7609789248058984E-002   5.6065409698737571E-002   0.0000000000000000     
  -1.8579187679610341E-002   6.1642199131556906E-002   0.0000000000000000     
  -1.9516136074855511E-002   6.7404316615516019E-002   0.0000000000000000     
  -2.0420634433794500E-002   7.3351762150614896E-002   0.0000000000000000     
  -2.1292682756427289E-002   7.9484535736853573E-002   0.0000000000000000     
  -2.1297397072003767E-002   5.6399101880049061E-002   0.0000000000000000     
  -2.2463119348431003E-002   6.1956593354192839E-002   0.0000000000000000     
  -2.3589003501044106E-002   6.7702895983854705E-002   0.0000000000000000     
  -2.4675049529843052E-002   7.3638009769034632E-002   0.0000000000000000     
  -2.5721257434827859E-002   7.9761934709732654E-002   0.0000000000000000     
  -2.5084600561186460E-002   5.6768869515802164E-002   0.0000000000000000     
  -2.6443489603115922E-002   6.2318880783186668E-002   0.0000000000000000     
  -2.7755590422541082E-002   6.8056526533785161E-002   0.0000000000000000     
  -2.9020903019461957E-002   7.3981806767597677E-002   0.0000000000000000     
  -3.0239427393878537E-002   8.0094721484624168E-002   0.0000000000000000     
  -2.8971399715607072E-002   5.7174712605996901E-002   0.0000000000000000     
  -3.0520298443665089E-002   6.2729061418538359E-002   0.0000000000000000     
  -3.2015896839346476E-002   6.8465208265307373E-002   0.0000000000000000     
  -3.3458194902651214E-002   7.4383153146303962E-002   0.0000000000000000     
  -3.4847192633579320E-002   8.0482896061528086E-002   0.0000000000000000     
  -1.6953703358676832E-002   7.9262524565986869E-002   0.0000000000000000     
  -1.7625720496015858E-002   8.5572638849763794E-002   0.0000000000000000     
  -1.8274304613292287E-002   9.2046875223718530E-002   0.0000000000000000     
  -1.8899455710506104E-002   9.8685233687851093E-002   0.0000000000000000     
  -1.9501173787657332E-002  0.10548771424216150        0.0000000000000000     
  -2.1292682756427289E-002   7.9484535736853573E-002   0.0000000000000000     
  -2.2133717026508307E-002   8.5790970422000165E-002   0.0000000000000000     
  -2.2945173227791965E-002   9.2259399253822857E-002   0.0000000000000000     
  -2.3727051360278254E-002   9.8889822232321678E-002   0.0000000000000000     
  -2.4479351423967188E-002  0.10568223935749657        0.0000000000000000     
  -2.5721257434827859E-002   7.9761934709732654E-002   0.0000000000000000     
  -2.6729918904867492E-002   8.6060620570582960E-002   0.0000000000000000     
  -2.7703325628830908E-002   9.2520017116219780E-002   0.0000000000000000     
  -2.8641477606718122E-002   9.9140124346643085E-002   0.0000000000000000     
  -2.9544374838529123E-002  0.10592094226185293        0.0000000000000000     
  -3.0239427393878537E-002   8.0094721484624168E-002   0.0000000000000000     
  -3.1414326131093392E-002   8.6381589295512193E-002   0.0000000000000000     
  -3.2548761816409123E-002   9.2828728810909256E-002   0.0000000000000000     
  -3.3642734449825705E-002   9.9436140030815398E-002   0.0000000000000000     
  -3.4696244031343151E-002  0.10620382295523052        0.0000000000000000     
  -3.4847192633579320E-002   8.0482896061528086E-002   0.0000000000000000     
  -3.6186938705186036E-002   8.6753876596787863E-002   0.0000000000000000     
  -3.7481481790526593E-002   9.3185534337891326E-002   0.0000000000000000     
  -3.8730821889601010E-002   9.9777869284838519E-002   0.0000000000000000     
  -3.9934959002409273E-002  0.10653088143762940        0.0000000000000000     
  -1.9501173787657332E-002  0.10548771424216150        0.0000000000000000     
  -2.0076819941031564E-002  0.11243820816005266        0.0000000000000000     
  -2.0623755266914404E-002  0.11952060671492752        0.0000000000000000     
  -2.1141979765305862E-002  0.12673490990678610        0.0000000000000000     
  -2.1631493436205920E-002  0.13408111773562842        0.0000000000000000     
  -2.4479351423967188E-002  0.10568223935749657        0.0000000000000000     
  -2.5199074218058001E-002  0.11262178117255557        0.0000000000000000     
  -2.5883220541749938E-002  0.11969357822070667        0.0000000000000000     
  -2.6531790395043012E-002  0.12689763050194991        0.0000000000000000     
  -2.7144783777937217E-002  0.13423393801628519        0.0000000000000000     
  -2.9544374838529123E-002  0.10592094226185293        0.0000000000000000     
  -3.0408506687302165E-002  0.11284824706682944        0.0000000000000000     
  -3.1230362516075482E-002  0.11990781496655289        0.0000000000000000     
  -3.2009942324849078E-002  0.12709964596102319        0.0000000000000000     
  -3.2747246113622959E-002  0.13442374005024044        0.0000000000000000     
  -3.4696244031343151E-002  0.10620382295523052        0.0000000000000000     
  -3.5705117348764061E-002  0.11311760584287425        0.0000000000000000     
  -3.6665181189891032E-002  0.12016331695246608        0.0000000000000000     
  -3.7576435554724064E-002  0.12734095628400599        0.0000000000000000     
  -3.8438880443263164E-002  0.13465052383749404        0.0000000000000000     
  -3.9934959002409273E-002  0.10653088143762940        0.0000000000000000     
  -4.1088906202443695E-002  0.11342985750068998        0.0000000000000000     
  -4.2187676563196587E-002  0.12046008417844629        0.0000000000000000     
  -4.3231270084667962E-002  0.12762156147089831        0.0000000000000000     
  -4.4219686766857808E-002  0.13491428937804603        0.0000000000000000     
  -2.1631493436205920E-002  0.13408111773562842        0.0000000000000000     
  -2.2093286425722773E-002  0.14154987777157502        0.0000000000000000     
  -2.2528348879964587E-002  0.14913183758474660        0.0000000000000000     
  -2.2936680798931366E-002  0.15682699717514309        0.0000000000000000     
  -2.3318282182623114E-002  0.16463535654276454        0.0000000000000000     
  -2.7144783777937217E-002  0.13423393801628519        0.0000000000000000     
  -2.7723455725046222E-002  0.14169277825873897        0.0000000000000000     
  -2.8269061270983699E-002  0.14926442872433757        0.0000000000000000     
  -2.8781600415749661E-002  0.15694888941308094        0.0000000000000000     
  -2.9261073159344096E-002  0.16474616032496917        0.0000000000000000     
  -3.2747246113622959E-002  0.13442374005024044        0.0000000000000000     
  -3.3443813757313860E-002  0.14187023490397255        0.0000000000000000     
  -3.4101185130838520E-002  0.14942926819198751        0.0000000000000000     
  -3.4719360234196958E-002  0.15710083991428542        0.0000000000000000     
  -3.5298339067389155E-002  0.16488495007086615        0.0000000000000000     
  -3.8438880443263164E-002  0.13465052383749404        0.0000000000000000     
  -3.9254360522525698E-002  0.14208224770727568        0.0000000000000000     
  -4.0024720459529053E-002  0.14962635598769647        0.0000000000000000     
  -4.0749960254273257E-002  0.15728284867875636        0.0000000000000000     
  -4.1430079906758274E-002  0.16505172578045535        0.0000000000000000     
  -4.4219686766857808E-002  0.13491428937804603        0.0000000000000000     
  -4.5155096020681740E-002  0.14232881666864838        0.0000000000000000     
  -4.6039667257055314E-002  0.14985569211146435        0.0000000000000000     
  -4.6873400475978558E-002  0.15749491570649385        0.0000000000000000     
  -4.7656295677451464E-002  0.16524648745373696        0.0000000000000000     
  -2.3318282182623114E-002  0.16463535654276454        0.0000000000000000     
  -2.3671310704753926E-002  0.17254418304964209        0.0000000000000000     
  -2.3993924039037922E-002  0.18054074405780696        0.0000000000000000     
  -2.4286122185475101E-002  0.18862503956725912        0.0000000000000000     
  -2.4547905144065466E-002  0.19679706957799858        0.0000000000000000     
  -2.9261073159344096E-002  0.16474616032496917        0.0000000000000000     
  -2.9705197558652030E-002  0.17264388540276027        0.0000000000000000     
  -3.0111691670558490E-002  0.18062970858921240        0.0000000000000000     
  -3.0480555495063472E-002  0.18870362988432549        0.0000000000000000     
  -3.0811789032166973E-002  0.19686564928809958        0.0000000000000000     
  -3.5298339067389155E-002  0.16488495007086615        0.0000000000000000     
  -3.5835553947534543E-002  0.17276946787099903        0.0000000000000000     
  -3.6328437191752584E-002  0.18074226252395331        0.0000000000000000     
  -3.6776988800043264E-002  0.18880333402972907        0.0000000000000000     
  -3.7181208772406583E-002  0.19695268238832622        0.0000000000000000     
  -4.1430079906758274E-002  0.16505172578045535        0.0000000000000000     
  -4.2062379871401469E-002  0.17292093045435827        0.0000000000000000     
  -4.2644160602620218E-002  0.18087840586202977        0.0000000000000000     
  -4.3175422100414487E-002  0.18892415200346988        0.0000000000000000     
  -4.3656164364784304E-002  0.19705816887867850        0.0000000000000000     
  -4.7656295677451464E-002  0.16524648745373696        0.0000000000000000     
  -4.8385675330252814E-002  0.17309827315283810        0.0000000000000000     
  -4.9058861903161367E-002  0.18103813860344176        0.0000000000000000     
  -4.9675855396177152E-002  0.18906608380554790        0.0000000000000000     
  -5.0236655809300132E-002  0.19718210875915651        0.0000000000000000     
  -2.4547905144065466E-002  0.19679706957799858        0.0000000000000000     
  -2.4779902950578445E-002  0.20504170559851126        0.0000000000000000     
  -2.4982745640783482E-002  0.21334381913728304        0.0000000000000000     
  -2.5156433214680578E-002  0.22170341019431380        0.0000000000000000     
  -2.5300965672269721E-002  0.23012047876960368        0.0000000000000000     
  -3.0811789032166973E-002  0.19686564928809958        0.0000000000000000     
  -3.1105732718810581E-002  0.20510221142154492        0.0000000000000000     
  -3.1362726991935895E-002  0.21339976090567192        0.0000000000000000     
  -3.1582771851542887E-002  0.22175829774048048        0.0000000000000000     
  -3.1765867297631582E-002  0.23017782192597061        0.0000000000000000     
  -3.7181208772406583E-002  0.19695268238832622        0.0000000000000000     
  -3.7540870158386225E-002  0.20517843993432389        0.0000000000000000     
  -3.7855746007525816E-002  0.21346873900230109        0.0000000000000000     
  -3.8125836319825412E-002  0.22182357959225793        0.0000000000000000     
  -3.8351141095284959E-002  0.23024296170419434        0.0000000000000000     
  -4.3656164364784304E-002  0.19705816887867850        0.0000000000000000     
  -4.4085315269305335E-002  0.20527039113684800        0.0000000000000000     
  -4.4461802687553280E-002  0.21355075342717056        0.0000000000000000     
  -4.4785626619528111E-002  0.22189925574964614        0.0000000000000000     
  -4.5056787065229850E-002  0.23031589810427483        0.0000000000000000     
  -5.0236655809300132E-002  0.19718210875915651        0.0000000000000000     
  -5.0739068051567957E-002  0.20537806502911743        0.0000000000000000     
  -5.1180897032018259E-002  0.21364580418028029        0.0000000000000000     
  -5.1562142750651019E-002  0.22198532621264519        0.0000000000000000     
  -5.1882805207466257E-002  0.23039663112621211        0.0000000000000000     
  -2.5300965672269721E-002  0.23012047876960368        0.0000000000000000     
  -2.5422633642950974E-002  0.23856749622501433        0.0000000000000000     
  -2.5527727756124361E-002  0.24701693392240756        0.0000000000000000     
  -2.5616248011789893E-002  0.25546879186178334        0.0000000000000000     
  -2.5688194409947563E-002  0.26392307004314164        0.0000000000000000     
  -3.1765867297631582E-002  0.23017782192597061        0.0000000000000000     
  -3.1919940224591353E-002  0.23863341555500886        0.0000000000000000     
  -3.2052917526811567E-002  0.24710016072046181        0.0000000000000000     
  -3.2164799204292237E-002  0.25557805742232925        0.0000000000000000     
  -3.2255585257033356E-002  0.26406710566061153        0.0000000000000000     
  -3.8351141095284959E-002  0.23024296170419434        0.0000000000000000     
  -3.8540429421242708E-002  0.23870601613070269        0.0000000000000000     
  -3.8702470385036866E-002  0.24719187366437528        0.0000000000000000     
  -3.8837263986667418E-002  0.25570053430521239        0.0000000000000000     
  -3.8944810226134406E-002  0.26423199805321362        0.0000000000000000     
  -4.5056787065229850E-002  0.23031589810427483        0.0000000000000000     
  -4.5284101232905050E-002  0.23878529795209577        0.0000000000000000     
  -4.5476386330800263E-002  0.24729207275414836        0.0000000000000000     
  -4.5633642358915483E-002  0.25583622251043237        0.0000000000000000     
  -4.5755869317250723E-002  0.26441774722094807        0.0000000000000000     
  -5.1882805207466257E-002  0.23039663112621211        0.0000000000000000     
  -5.2150955659578363E-002  0.23887126101918821        0.0000000000000000     
  -5.2374665364101736E-002  0.24740075798978062        0.0000000000000000     
  -5.2553934321036389E-002  0.25598512203798951        0.0000000000000000     
  -5.2688762530382301E-002  0.26462435316381466        0.0000000000000000     
  -2.5688194409947563E-002  0.26392307004314164        0.0000000000000000     
  -2.5755757249990532E-002  0.27232464082163621        0.0000000000000000     
  -2.5831126831311953E-002  0.28061837655242078        0.0000000000000000     
  -2.5914303153911820E-002  0.28880427723549545        0.0000000000000000     
  -2.6005286217790139E-002  0.29688234287086013        0.0000000000000000     
  -3.2255585257033356E-002  0.26406710566061153        0.0000000000000000     
  -3.2340083868037002E-002  0.27251442246096380        0.0000000000000000     
  -3.2433103220305258E-002  0.28086712484904142        0.0000000000000000     
  -3.2534643313838124E-002  0.28912521282484449        0.0000000000000000     
  -3.2644704148635607E-002  0.29728868638837302        0.0000000000000000     
  -3.8944810226134406E-002  0.26423199805321362        0.0000000000000000     
  -3.9043897806382788E-002  0.27273511841629156        0.0000000000000000     
  -3.9153315430357535E-002  0.28115874890235848        0.0000000000000000     
  -3.9273063098058683E-002  0.28950288951141423        0.0000000000000000     
  -3.9403140809486224E-002  0.29776754024345892        0.0000000000000000     
  -4.5755869317250723E-002  0.26441774722094807        0.0000000000000000     
  -4.5867199065027855E-002  0.27298672868761975        0.0000000000000000     
  -4.5991763461468785E-002  0.28149324871237197        0.0000000000000000     
  -4.6129562506573484E-002  0.28993730729520456        0.0000000000000000     
  -4.6280596200341972E-002  0.29831890443611775        0.0000000000000000     
  -5.2688762530382301E-002  0.26462435316381466        0.0000000000000000     
  -5.2809987643972253E-002  0.27326925327494817        0.0000000000000000     
  -5.2948447313638985E-002  0.28187062427908177        0.0000000000000000     
  -5.3104141539382539E-002  0.29042846617621559        0.0000000000000000     
  -5.3277070321202866E-002  0.29894277896634958        0.0000000000000000     
  -2.8971399715607072E-002   5.7174712605996901E-002   0.0000000000000000     
  -3.0520298443665089E-002   6.2729061418538359E-002   0.0000000000000000     
  -3.2015896839346476E-002   6.8465208265307373E-002   0.0000000000000000     
  -3.3458194902651214E-002   7.4383153146303962E-002   0.0000000000000000     
  -3.4847192633579320E-002   8.0482896061528086E-002   0.0000000000000000     
  -3.2974261037716203E-002   5.7639064519037761E-002   0.0000000000000000     
  -3.4712350618725102E-002   6.3196862388630953E-002   0.0000000000000000     
  -3.6390813794884694E-002   6.8930175112129247E-002   0.0000000000000000     
  -3.8009650566194986E-002   7.4839002689532613E-002   0.0000000000000000     
  -3.9568860932655978E-002   8.0923345120841095E-002   0.0000000000000000     
  -3.7109651029964448E-002   5.8184358623329255E-002   0.0000000000000000     
  -3.9038450876942514E-002   6.3732010821847498E-002   0.0000000000000000     
  -4.0901232332580181E-002   6.9452661007958688E-002   0.0000000000000000     
  -4.2697995396877422E-002   7.5346309181662796E-002   0.0000000000000000     
  -4.4428740069834265E-002   8.1412955342959878E-002   0.0000000000000000     
  -4.1377569692351825E-002   5.8810594918871396E-002   0.0000000000000000     
  -4.3498599218317370E-002   6.4334506718187967E-002   0.0000000000000000     
  -4.5547152452432953E-002   7.0032665952795670E-002   0.0000000000000000     
  -4.7523229394698545E-002   7.5905072622694511E-002   0.0000000000000000     
  -4.9426830045114174E-002   8.1951726727884436E-002   0.0000000000000000     
  -4.5778017024878326E-002   5.9517773405664158E-002   0.0000000000000000     
  -4.8092795642849642E-002   6.5004350077652387E-002   0.0000000000000000     
  -5.0328574154442987E-002   7.0670189946640233E-002   0.0000000000000000     
  -5.2485352559658340E-002   7.6515293012627703E-002   0.0000000000000000     
  -5.4563130858495727E-002   8.2539659275614768E-002   0.0000000000000000     
  -3.4847192633579320E-002   8.0482896061528086E-002   0.0000000000000000     
  -3.6186938705186036E-002   8.6753876596787863E-002   0.0000000000000000     
  -3.7481481790526593E-002   9.3185534337891326E-002   0.0000000000000000     
  -3.8730821889601010E-002   9.9777869284838519E-002   0.0000000000000000     
  -3.9934959002409273E-002  0.10653088143762940        0.0000000000000000     
  -3.9568860932655978E-002   8.0923345120841095E-002   0.0000000000000000     
  -4.1073321906607861E-002   8.7176095133187331E-002   0.0000000000000000     
  -4.2527910500390814E-002   9.3590145453704046E-002   0.0000000000000000     
  -4.3932626714004851E-002  0.10016549608239118        0.0000000000000000     
  -4.5287470547449957E-002  0.10690214701924879        0.0000000000000000     
  -4.4428740069834265E-002   8.1412955342959878E-002   0.0000000000000000     
  -4.6099041014821325E-002   8.7646857563488029E-002   0.0000000000000000     
  -4.7714472895209241E-002   9.4042273914885441E-002   0.0000000000000000     
  -4.9275035710998026E-002  0.10059920439715209        0.0000000000000000     
  -5.0780729462187674E-002  0.10731764901028799        0.0000000000000000     
  -4.9426830045114174E-002   8.1951726727884436E-002   0.0000000000000000     
  -5.1264096029826435E-002   8.8166163887689955E-002   0.0000000000000000     
  -5.3041168974981893E-002   9.4541919721435580E-002   0.0000000000000000     
  -5.4758048880580557E-002  0.10107899422912123        0.0000000000000000     
  -5.6414735746622424E-002  0.10777738741074699        0.0000000000000000     
  -5.4563130858495727E-002   8.2539659275614768E-002   0.0000000000000000     
  -5.6568486951623184E-002   8.8734014105793124E-002   0.0000000000000000     
  -5.8507998739708751E-002   9.5089082873354408E-002   0.0000000000000000     
  -6.0381666222752442E-002  0.10160486557829862        0.0000000000000000     
  -6.2189489400754222E-002  0.10828136222062579        0.0000000000000000     
  -3.9934959002409273E-002  0.10653088143762940        0.0000000000000000     
  -4.1088906202443695E-002  0.11342985750068998        0.0000000000000000     
  -4.2187676563196587E-002  0.12046008417844629        0.0000000000000000     
  -4.3231270084667962E-002  0.12762156147089831        0.0000000000000000     
  -4.4219686766857808E-002  0.13491428937804603        0.0000000000000000     
  -4.5287470547449957E-002  0.10690214701924879        0.0000000000000000     
  -4.6586662985179494E-002  0.11378472798536284        0.0000000000000000     
  -4.7824425011646826E-002  0.12079786870181927        0.0000000000000000     
  -4.9000756626851973E-002  0.12794156916861810        0.0000000000000000     
  -5.0115657830794913E-002  0.13521582938575932        0.0000000000000000     
  -5.0780729462187674E-002  0.10731764901028799        0.0000000000000000     
  -5.2225177433809902E-002  0.11418194324197894        0.0000000000000000     
  -5.3602002910896430E-002  0.12117642257991072        0.0000000000000000     
  -5.4911205893447265E-002  0.12830108702408335        0.0000000000000000     
  -5.6152786381462427E-002  0.13555593657449683        0.0000000000000000     
  -5.6414735746622424E-002  0.10777738741074699        0.0000000000000000     
  -5.8004449548334919E-002  0.11462150327053829        0.0000000000000000     
  -5.9520410260945400E-002  0.12159574581272065        0.0000000000000000     
  -6.0962617884453882E-002  0.12870011503729401        0.0000000000000000     
  -6.2331072418860364E-002  0.13593461094425846        0.0000000000000000     
  -6.2189489400754222E-002  0.10828136222062579        0.0000000000000000     
  -6.3924479328754530E-002  0.11510340807104091        0.0000000000000000     
  -6.5579647061793700E-002  0.12205583840024904        0.0000000000000000     
  -6.7154992599871788E-002  0.12913865320825019        0.0000000000000000     
  -6.8650515942988738E-002  0.13635185249504428        0.0000000000000000     
  -4.4219686766857808E-002  0.13491428937804603        0.0000000000000000     
  -4.5155096020681740E-002  0.14232881666864838        0.0000000000000000     
  -4.6039667257055314E-002  0.14985569211146435        0.0000000000000000     
  -4.6873400475978558E-002  0.15749491570649385        0.0000000000000000     
  -4.7656295677451464E-002  0.16524648745373696        0.0000000000000000     
  -5.0115657830794913E-002  0.13521582938575932        0.0000000000000000     
  -5.1171726023643740E-002  0.14261149981765012        0.0000000000000000     
  -5.2171558605566548E-002  0.15011943092869770        0.0000000000000000     
  -5.3115155576563336E-002  0.15773962271890205        0.0000000000000000     
  -5.4002516936634111E-002  0.16547207518826318        0.0000000000000000     
  -5.6152786381462427E-002  0.13555593657449683        0.0000000000000000     
  -5.7329956303273477E-002  0.14293185518384033        0.0000000000000000     
  -5.8445927587212017E-002  0.15041972680480309        0.0000000000000000     
  -5.9500700233278067E-002  0.15801955143738508        0.0000000000000000     
  -6.0494274241471614E-002  0.16573132908158630        0.0000000000000000     
  -6.2331072418860364E-002  0.13593461094425846        0.0000000000000000     
  -6.3629786859570964E-002  0.14328988276721891        0.0000000000000000     
  -6.4862774201991741E-002  0.15075657973978041        0.0000000000000000     
  -6.6030034446122737E-002  0.15833470186194287        0.0000000000000000     
  -6.7131567591963953E-002  0.16602424913370639        0.0000000000000000     
  -6.8650515942988738E-002  0.13635185249504428        0.0000000000000000     
  -7.0071217692536172E-002  0.14368558256778596        0.0000000000000000     
  -7.1422098449905727E-002  0.15112998973362970        0.0000000000000000     
  -7.2703158215097374E-002  0.15868507399257553        0.0000000000000000     
  -7.3914396988111142E-002  0.16635083534462339        0.0000000000000000     
  -4.7656295677451464E-002  0.16524648745373696        0.0000000000000000     
  -4.8385675330252814E-002  0.17309827315283810        0.0000000000000000     
  -4.9058861903161367E-002  0.18103813860344176        0.0000000000000000     
  -4.9675855396177152E-002  0.18906608380554790        0.0000000000000000     
  -5.0236655809300132E-002  0.19718210875915651        0.0000000000000000     
  -5.4002516936634111E-002  0.16547207518826318        0.0000000000000000     
  -5.4831044674509451E-002  0.17330463090385453        0.0000000000000000     
  -5.5598140778919926E-002  0.18122513243274974        0.0000000000000000     
  -5.6303805249865543E-002  0.18923357977494870        0.0000000000000000     
  -5.6948038087346289E-002  0.19732997293045149        0.0000000000000000     
  -6.0494274241471614E-002  0.16573132908158630        0.0000000000000000     
  -6.1424092254592284E-002  0.17354313864482371        0.0000000000000000     
  -6.2287596915439752E-002  0.18144305903451427        0.0000000000000000     
  -6.3084788224014005E-002  0.18943109025065788        0.0000000000000000     
  -6.3815666180315034E-002  0.19750723229325462        0.0000000000000000     
  -6.7131567591963953E-002  0.16602424913370639        0.0000000000000000     
  -6.8164818070501329E-002  0.17381379637574562        0.0000000000000000     
  -6.9127230312720847E-002  0.18169191840873528        0.0000000000000000     
  -7.0018804318622549E-002  0.18965861523267535        0.0000000000000000     
  -7.0839540088206351E-002  0.19771388684756599        0.0000000000000000     
  -7.3914396988111142E-002  0.16635083534462339        0.0000000000000000     
  -7.5053222122236557E-002  0.17411660409662019        0.0000000000000000     
  -7.6117040970763231E-002  0.18197171055541284        0.0000000000000000     
  -7.7105853533691135E-002  0.18991615472100126        0.0000000000000000     
  -7.8019659811020256E-002  0.19794993659338550        0.0000000000000000     
  -5.0236655809300132E-002  0.19718210875915651        0.0000000000000000     
  -5.0739068051567957E-002  0.20537806502911743        0.0000000000000000     
  -5.1180897032018259E-002  0.21364580418028029        0.0000000000000000     
  -5.1562142750651019E-002  0.22198532621264519        0.0000000000000000     
  -5.1882805207466257E-002  0.23039663112621211        0.0000000000000000     
  -5.6948038087346289E-002  0.19732997293045149        0.0000000000000000     
  -5.7527892985393923E-002  0.20550771671157061        0.0000000000000000     
  -5.8040423638040163E-002  0.21376021593061878        0.0000000000000000     
  -5.8485630045285036E-002  0.22208747058759590        0.0000000000000000     
  -5.8863512207128509E-002  0.23048948068250202        0.0000000000000000     
  -6.3815666180315034E-002  0.19750723229325462        0.0000000000000000     
  -6.4477554551003097E-002  0.20566560128464623        0.0000000000000000     
  -6.5067777102738450E-002  0.21390031334717430        0.0000000000000000     
  -6.5586333835521024E-002  0.22221136848083911        0.0000000000000000     
  -6.6033224749350916E-002  0.23059876668564042        0.0000000000000000     
  -7.0839540088206351E-002  0.19771388684756599        0.0000000000000000     
  -7.1588052748395470E-002  0.20585171874834418        0.0000000000000000     
  -7.2262957426113023E-002  0.21406609642994709        0.0000000000000000     
  -7.2864254121359051E-002  0.22235701989237480        0.0000000000000000     
  -7.3391942834133486E-002  0.23072448913562726        0.0000000000000000     
  -7.8019659811020256E-002  0.19794993659338550        0.0000000000000000     
  -7.8859387577571063E-002  0.20606606910266445        0.0000000000000000     
  -7.9625964608164013E-002  0.21425756517893693        0.0000000000000000     
  -8.0319390902799062E-002  0.22252442482220300        0.0000000000000000     
  -8.0939666461476240E-002  0.23086664803246260        0.0000000000000000     
  -5.1882805207466257E-002  0.23039663112621211        0.0000000000000000     
  -5.2150955659578363E-002  0.23887126101918821        0.0000000000000000     
  -5.2374665364101736E-002  0.24740075798978062        0.0000000000000000     
  -5.2553934321036389E-002  0.25598512203798951        0.0000000000000000     
  -5.2688762530382301E-002  0.26462435316381466        0.0000000000000000     
  -5.8863512207128509E-002  0.23048948068250202        0.0000000000000000     
  -5.9180112874665312E-002  0.23896533596300024        0.0000000000000000     
  -5.9441474798990167E-002  0.24751412617675361        0.0000000000000000     
  -5.9647597980103072E-002  0.25613585132376215        0.0000000000000000     
  -5.9798482418004020E-002  0.26483051140402591        0.0000000000000000     
  -6.6033224749350916E-002  0.23059876668564042        0.0000000000000000     
  -6.6410693051568548E-002  0.23906895341455220        0.0000000000000000     
  -6.6720981949514396E-002  0.24762837412054839        0.0000000000000000     
  -6.6964091443188462E-002  0.25627702880362896        0.0000000000000000     
  -6.7140021532590743E-002  0.26501491746379385        0.0000000000000000     
  -7.3391942834133486E-002  0.23072448913562726        0.0000000000000000     
  -7.3842696190288062E-002  0.23918211337384415        0.0000000000000000     
  -7.4213186815674417E-002  0.24774350182116500        0.0000000000000000     
  -7.4503414710292551E-002  0.25640865447758987        0.0000000000000000     
  -7.4713379874142463E-002  0.26517757134311876        0.0000000000000000     
  -8.0939666461476240E-002  0.23086664803246260        0.0000000000000000     
  -8.1476122290823849E-002  0.23930481584087598        0.0000000000000000     
  -8.1918089397470223E-002  0.24785950927860345        0.0000000000000000     
  -8.2265567781415333E-002  0.25653072834564500        0.0000000000000000     
  -8.2518557442659193E-002  0.26531847304200046        0.0000000000000000     
  -5.2688762530382301E-002  0.26462435316381466        0.0000000000000000     
  -5.2809987643972253E-002  0.27326925327494817        0.0000000000000000     
  -5.2948447313638985E-002  0.28187062427908177        0.0000000000000000     
  -5.3104141539382539E-002  0.29042846617621559        0.0000000000000000     
  -5.3277070321202866E-002  0.29894277896634958        0.0000000000000000     
  -5.9798482418004020E-002  0.26483051140402591        0.0000000000000000     
  -5.9931016020057612E-002  0.27355398316424884        0.0000000000000000     
  -6.0082086693628446E-002  0.28226214335113514        0.0000000000000000     
  -6.0251694438716516E-002  0.29095499196468483        0.0000000000000000     
  -6.0439839255321835E-002  0.29963252900489784        0.0000000000000000     
  -6.7140021532590743E-002  0.26501491746379385        0.0000000000000000     
  -6.7289036670125590E-002  0.27381220934149375        0.0000000000000000     
  -6.7451401308197392E-002  0.28263907367717905        0.0000000000000000     
  -6.7627115446806108E-002  0.29149551047084971        0.0000000000000000     
  -6.7816179085951805E-002  0.30038151972250593        0.0000000000000000     
  -7.4713379874142463E-002  0.26517757134311876        0.0000000000000000     
  -7.4884049594176216E-002  0.27404393180668285        0.0000000000000000     
  -7.5056391157345845E-002  0.28300141525721340        0.0000000000000000     
  -7.5230404563651362E-002  0.29205002169471045        0.0000000000000000     
  -7.5406089813092742E-002  0.30118975111917384        0.0000000000000000     
  -8.2518557442659193E-002  0.26531847304200046        0.0000000000000000     
  -8.2716054792209462E-002  0.27424915055981625        0.0000000000000000     
  -8.2897056241073824E-002  0.28334916809123833        0.0000000000000000     
  -8.3061561789252211E-002  0.29261852563626678        0.0000000000000000     
  -8.3209571436744706E-002  0.30205722319490158        0.0000000000000000     
  -4.5778017024878326E-002   5.9517773405664158E-002   0.0000000000000000     
  -4.8092795642849642E-002   6.5004350077652387E-002   0.0000000000000000     
  -5.0328574154442987E-002   7.0670189946640233E-002   0.0000000000000000     
  -5.2485352559658340E-002   7.6515293012627703E-002   0.0000000000000000     
  -5.4563130858495727E-002   8.2539659275614768E-002   0.0000000000000000     
  -5.0350677468437403E-002   6.0279666014946998E-002   0.0000000000000000     
  -5.2857494791127689E-002   6.5729275612881957E-002   0.0000000000000000     
  -5.5279257670789686E-002   7.1362407728546767E-002   0.0000000000000000     
  -5.7615966107423422E-002   7.7179062361941400E-002   0.0000000000000000     
  -5.9867620101028862E-002   8.3179239513065883E-002   0.0000000000000000     
  -5.5135235463922530E-002   6.1070044677959331E-002   0.0000000000000000     
  -5.7829151303739862E-002   6.6497018036517891E-002   0.0000000000000000     
  -6.0432963233652492E-002   7.2106494037569649E-002   0.0000000000000000     
  -6.2946671253660380E-002   7.7898472681114592E-002   0.0000000000000000     
  -6.5370275363763553E-002   8.3872953967152733E-002   0.0000000000000000     
  -6.0131691011333678E-002   6.1888909394701166E-002   0.0000000000000000     
  -6.3007765180686182E-002   6.7307577348560216E-002   0.0000000000000000     
  -6.5789690843031365E-002   7.2902448873708905E-002   0.0000000000000000     
  -6.8477467998369235E-002   7.8673523970147277E-002   0.0000000000000000     
  -7.1071096646699805E-002   8.4620802637875345E-002   0.0000000000000000     
  -6.5340044110670875E-002   6.2736260165172503E-002   0.0000000000000000     
  -6.8393336421966613E-002   6.8160953549008890E-002   0.0000000000000000     
  -7.1349440498926331E-002   7.3750272236964537E-002   0.0000000000000000     
  -7.4208356341550000E-002   7.9504216229039484E-002   0.0000000000000000     
  -7.6970083949837620E-002   8.5422785525233719E-002   0.0000000000000000     
  -5.4563130858495727E-002   8.2539659275614768E-002   0.0000000000000000     
  -5.6568486951623184E-002   8.8734014105793124E-002   0.0000000000000000     
  -5.8507998739708751E-002   9.5089082873354408E-002   0.0000000000000000     
  -6.0381666222752442E-002  0.10160486557829862        0.0000000000000000     
  -6.2189489400754222E-002  0.10828136222062579        0.0000000000000000     
  -5.9867620101028862E-002   8.3179239513065883E-002   0.0000000000000000     
  -6.2040968094037099E-002   8.9351347524018035E-002   0.0000000000000000     
  -6.4142758528879240E-002   9.5683794736895714E-002   0.0000000000000000     
  -6.6172991405555229E-002  0.10217658115169892        0.0000000000000000     
  -6.8131666724065135E-002  0.10882970676842765        0.0000000000000000     
  -6.5370275363763553E-002   8.3872953967152733E-002   0.0000000000000000     
  -6.7710293770893770E-002   9.0019103448585241E-002   0.0000000000000000     
  -6.9973244681982766E-002   9.6326086678313216E-002   0.0000000000000000     
  -7.2159128097030567E-002  0.10279390365633677        0.0000000000000000     
  -7.4267944016037174E-002  0.10942255438265580        0.0000000000000000     
  -7.1071096646699805E-002   8.4620802637875345E-002   0.0000000000000000     
  -7.3576463982193155E-002   9.0737281879494702E-002   0.0000000000000000     
  -7.5999457199019349E-002   9.7015958697606985E-002   0.0000000000000000     
  -7.8340076297178429E-002  0.10345683309221215        0.0000000000000000     
  -8.0598321276670368E-002  0.11005990506331027        0.0000000000000000     
  -7.6970083949837620E-002   8.5422785525233719E-002   0.0000000000000000     
  -7.9639478727935267E-002   9.1505882816746459E-002   0.0000000000000000     
  -8.2221396079989004E-002   9.7753410794776924E-002   0.0000000000000000     
  -8.4715836005998815E-002  0.10416536945932513        0.0000000000000000     
  -8.7122798505964716E-002  0.11074175881039106        0.0000000000000000     
  -6.2189489400754222E-002  0.10828136222062579        0.0000000000000000     
  -6.3924479328754530E-002  0.11510340807104091        0.0000000000000000     
  -6.5579647061793700E-002  0.12205583840024904        0.0000000000000000     
  -6.7154992599871788E-002  0.12913865320825019        0.0000000000000000     
  -6.8650515942988738E-002  0.13635185249504428        0.0000000000000000     
  -6.8131666724065135E-002  0.10882970676842765        0.0000000000000000     
  -7.0011632237010776E-002  0.11562830285749488        0.0000000000000000     
  -7.1805735696994083E-002  0.12255750068931362        0.0000000000000000     
  -7.3513977104015013E-002  0.12961730026388391        0.0000000000000000     
  -7.5136356458073608E-002  0.13680770158120564        0.0000000000000000     
  -7.4267944016037174E-002  0.10942255438265580        0.0000000000000000     
  -7.6292273735045671E-002  0.11619683284390828        0.0000000000000000     
  -7.8224698550099170E-002  0.12310153302673210        0.0000000000000000     
  -8.0065218461197643E-002  0.13013665493112728        0.0000000000000000     
  -8.1813833468341118E-002  0.13730219855709386        0.0000000000000000     
  -8.0598321276670368E-002  0.11005990506331027        0.0000000000000000     
  -8.2766403822859186E-002  0.11680899803028114        0.0000000000000000     
  -8.4836535621108933E-002  0.12368793541250452        0.0000000000000000     
  -8.6808716671419622E-002  0.13069671720998047        0.0000000000000000     
  -8.8682946973791213E-002  0.13783534342270889        0.0000000000000000     
  -8.7122798505964716E-002  0.11074175881039106        0.0000000000000000     
  -8.9434022500451377E-002  0.11746479841661339        0.0000000000000000     
  -9.1641246910023455E-002  0.12431670784663082        0.0000000000000000     
  -9.3744471734680979E-002  0.13129748710044328        0.0000000000000000     
  -9.5743696974423920E-002  0.13840713617805081        0.0000000000000000     
  -6.8650515942988738E-002  0.13635185249504428        0.0000000000000000     
  -7.0071217692536172E-002  0.14368558256778596        0.0000000000000000     
  -7.1422098449905727E-002  0.15112998973362970        0.0000000000000000     
  -7.2703158215097374E-002  0.15868507399257553        0.0000000000000000     
  -7.3914396988111142E-002  0.16635083534462339        0.0000000000000000     
  -7.5136356458073608E-002  0.13680770158120564        0.0000000000000000     
  -7.6678840293563644E-002  0.14411845877489590        0.0000000000000000     
  -7.8147395144878923E-002  0.15153932597857164        0.0000000000000000     
  -7.9542021012019376E-002  0.15907030319223289        0.0000000000000000     
  -8.0862717894985101E-002  0.16671139041587957        0.0000000000000000     
  -8.1813833468341118E-002  0.13730219855709386        0.0000000000000000     
  -8.3477246154047877E-002  0.14458801557790324        0.0000000000000000     
  -8.5062159100836254E-002  0.15198395766682693        0.0000000000000000     
  -8.6568572308706224E-002  0.15949002482386485        0.0000000000000000     
  -8.7996485777657785E-002  0.16710621704901713        0.0000000000000000     
  -8.8682946973791213E-002  0.13783534342270889        0.0000000000000000     
  -9.0466435273988885E-002  0.14509425297680789        0.0000000000000000     
  -9.2166390317777763E-002  0.15246388479839545        0.0000000000000000     
  -9.3782812105157876E-002  0.15994423888747147        0.0000000000000000     
  -9.5315700636129194E-002  0.16753531524403600        0.0000000000000000     
  -9.5743696974423920E-002  0.13840713617805081        0.0000000000000000     
  -9.7646407653386641E-002  0.14563717097160997        0.0000000000000000     
  -9.9460088795703450E-002  0.15297910737327727        0.0000000000000000     
 -0.10118474040137433       0.16043294538305275        0.0000000000000000     
 -0.10282036247039930       0.16799868500093634        0.0000000000000000     
  -7.3914396988111142E-002  0.16635083534462339        0.0000000000000000     
  -7.5053222122236557E-002  0.17411660409662019        0.0000000000000000     
  -7.6117040970763231E-002  0.18197171055541284        0.0000000000000000     
  -7.7105853533691135E-002  0.18991615472100126        0.0000000000000000     
  -7.8019659811020256E-002  0.19794993659338550        0.0000000000000000     
  -8.0862717894985101E-002  0.16671139041587957        0.0000000000000000     
  -8.2107094390391822E-002  0.17445254047651518        0.0000000000000000     
  -8.3272759094855361E-002  0.18228370620114320        0.0000000000000000     
  -8.4359712008375679E-002  0.19020488758976364        0.0000000000000000     
  -8.5367953130952801E-002  0.19821608464237639        0.0000000000000000     
  -8.7996485777657785E-002  0.16710621704901713        0.0000000000000000     
  -8.9344224855560969E-002  0.17482258418449823        0.0000000000000000     
  -9.0610114890285726E-002  0.18262917607252263        0.0000000000000000     
  -9.1794155881832110E-002  0.19052599271309056        0.0000000000000000     
  -9.2896347830200079E-002  0.19851303410620180        0.0000000000000000     
  -9.5315700636129194E-002  0.16753531524403600        0.0000000000000000     
  -9.6764613517743958E-002  0.17522673522056925        0.0000000000000000     
  -9.8129108357054337E-002  0.18300812016955126        0.0000000000000000     
  -9.9409185154060387E-002  0.19087947009098208        0.0000000000000000     
 -0.10060484390876206       0.19884078498486166        0.0000000000000000     
 -0.10282036247039930       0.16799868500093634        0.0000000000000000     
 -0.10436826037694079       0.17566499358472837        0.0000000000000000     
 -0.10582973949516120       0.18342053849222895        0.0000000000000000     
 -0.10720479982506052       0.19126531972343822        0.0000000000000000     
 -0.10849344136663877       0.19919933727835604        0.0000000000000000     
  -7.8019659811020256E-002  0.19794993659338550        0.0000000000000000     
  -7.8859387577571063E-002  0.20606606910266445        0.0000000000000000     
  -7.9625964608164013E-002  0.21425756517893693        0.0000000000000000     
  -8.0319390902799062E-002  0.22252442482220300        0.0000000000000000     
  -8.0939666461476240E-002  0.23086664803246260        0.0000000000000000     
  -8.5367953130952801E-002  0.19821608464237639        0.0000000000000000     
  -8.6300818455505857E-002  0.20630946701876410        0.0000000000000000     
  -8.7161643974954003E-002  0.21447720437870926        0.0000000000000000     
  -8.7950429689297199E-002  0.22271929672221175        0.0000000000000000     
  -8.8667175598535486E-002  0.23103574404927174        0.0000000000000000     
  -9.2896347830200079E-002  0.19851303410620180        0.0000000000000000     
  -9.3921604799175884E-002  0.20658272716780016        0.0000000000000000     
  -9.4874840852545730E-002  0.21472749881382930        0.0000000000000000     
  -9.5756055990309605E-002  0.22294734904428931        0.0000000000000000     
  -9.6565250212467549E-002  0.23124227785918006        0.0000000000000000     
 -0.10060484390876206       0.19884078498486166        0.0000000000000000     
 -0.10172174660858110       0.20688584954977254        0.0000000000000000     
 -0.10276555524093918       0.21500844848429718        0.0000000000000000     
 -0.10373626980583629       0.22320858178843553        0.0000000000000000     
 -0.10463389030327247       0.23148624946218757        0.0000000000000000     
 -0.10849344136663877       0.19919933727835604        0.0000000000000000     
 -0.10970124388372153       0.20721883416468134        0.0000000000000000     
 -0.11083378714013435       0.21532005339011279        0.0000000000000000     
 -0.11189107113587725       0.22350299495465042        0.0000000000000000     
 -0.11287309587095018       0.23176765885829431        0.0000000000000000     
  -8.0939666461476240E-002  0.23086664803246260        0.0000000000000000     
  -8.1476122290823849E-002  0.23930481584087598        0.0000000000000000     
  -8.1918089397470223E-002  0.24785950927860345        0.0000000000000000     
  -8.2265567781415333E-002  0.25653072834564500        0.0000000000000000     
  -8.2518557442659193E-002  0.26531847304200046        0.0000000000000000     
  -8.8667175598535486E-002  0.23103574404927174        0.0000000000000000     
  -8.9297464776070923E-002  0.23945203455424791        0.0000000000000000     
  -8.9826880295305583E-002  0.24799365643149907        0.0000000000000000     
  -9.0255422156239495E-002  0.25666060968102522        0.0000000000000000     
  -9.0583090358872631E-002  0.26545289430282637        0.0000000000000000     
  -9.6565250212467549E-002  0.23124227785918006        0.0000000000000000     
  -9.7293217068924201E-002  0.23963874325255990        0.0000000000000000     
  -9.7930750109584241E-002  0.24816320321848720        0.0000000000000000     
  -9.8477849334447642E-002  0.25681565775696180        0.0000000000000000     
  -9.8934514743514446E-002  0.26559610686798374        0.0000000000000000     
 -0.10463389030327247       0.23148624946218757        0.0000000000000000     
 -0.10546337916938374       0.23986494193581212        0.0000000000000000     
 -0.10622969884030618       0.24836814963956783        0.0000000000000000     
 -0.10693284931603984       0.25699587257345463        0.0000000000000000     
 -0.10757283059658466       0.26574811073747256        0.0000000000000000     
 -0.11287309587095018       0.23176765885829431        0.0000000000000000     
 -0.11380795107744948       0.24013063060400444        0.0000000000000000     
 -0.11472372648747145       0.24860849569474092        0.0000000000000000     
 -0.11562042210101603       0.25720125413050376        0.0000000000000000     
 -0.11649803791808327       0.26590890591129296        0.0000000000000000     
  -8.2518557442659193E-002  0.26531847304200046        0.0000000000000000     
  -8.2716054792209462E-002  0.27424915055981625        0.0000000000000000     
  -8.2897056241073824E-002  0.28334916809123833        0.0000000000000000     
  -8.3061561789252211E-002  0.29261852563626678        0.0000000000000000     
  -8.3209571436744706E-002  0.30205722319490158        0.0000000000000000     
  -9.0583090358872631E-002  0.26545289430282637        0.0000000000000000     
  -9.0840237377426511E-002  0.27443355502525968        0.0000000000000000     
  -9.1057215686122642E-002  0.28366563657668242        0.0000000000000000     
  -9.1234025284961023E-002  0.29314913895709444        0.0000000000000000     
  -9.1370666173941670E-002  0.30288406216649588        0.0000000000000000     
  -9.8934514743514446E-002  0.26559610686798374        0.0000000000000000     
  -9.9311782463028506E-002  0.27460283462737917        0.0000000000000000     
  -9.9620688619233774E-002  0.28393412511097432        0.0000000000000000     
  -9.9861233212130168E-002  0.29358997831876910        0.0000000000000000     
 -0.10003341624171772       0.30357039425076360        0.0000000000000000     
 -0.10757283059658466       0.26574811073747256        0.0000000000000000     
 -0.10813069004901549       0.27475698936617471        0.0000000000000000     
 -0.10858747504040711       0.28415463369411414        0.0000000000000000     
 -0.10894318557075956       0.29394104372129071        0.0000000000000000     
 -0.10919782164007283       0.30411621944770456        0.0000000000000000     
 -0.11649803791808327       0.26590890591129296        0.0000000000000000     
 -0.11729696013538743       0.27489601924164636        0.0000000000000000     
 -0.11795757494964278       0.28432716232610178        0.0000000000000000     
 -0.11847988236084929       0.29420233516465927        0.0000000000000000     
 -0.11886388236900700       0.30452153775731883        0.0000000000000000     
 </DataArray>
 <DataArray  type="Float64" Name="stress" NumberOfComponents="3" format="ascii">
   5797491330.4681931       -447194870.21144915       -177071721.13304943     
   5661813293.0467377       -280136517.15279746       -143170847.99892679     
   5512118232.9591331       -159801572.98133183       -108348357.50761496     
   5348406150.2053709       -86190037.697045088       -72604249.659120992     
   5170677044.7854567       -59301911.299929619       -35938524.453454487     
   5545810674.7118063       -247918779.55597496        100884439.57487929     
   5394175282.8782511       -147240582.35391378        111153465.00333172     
   5233601788.8240356       -76356059.220716238        123544482.57066356     
   5064090192.5491600       -35265210.156390905        138057492.27688247     
   4885640494.0536289       -23968035.160936356        154692494.12197441     
   5263154174.4433594       -57935442.254115343        352188300.71538836     
   5098991070.4311371       -22608508.238605022        344750885.62456733     
   4930968784.6437569       -145513.47365069389        340635837.45433837     
   4759087317.0812006        9453542.0407352448        339843156.20468575     
   4583346667.7434788        6188658.3045701981        342372841.87561941     
   4949521829.6628447        122755141.69412351        576839862.28848386     
   4776260655.7054024        93759705.193104506        557621413.86480534     
   4604219220.4182758        68830064.259845018        542925707.14341450     
   4433397523.8014803        47966218.894338369        532752742.12430620     
   4263795565.8550100        31168169.096589565        527102518.80748534     
   4604913640.3702793        294152972.28874397        774839124.29416156     
   4425984038.7010326        201864057.94123316        749765049.72403395     
   4253353096.1476083        130570673.97979093        730414091.63789034     
   4087020812.7099991        80272820.404413223        716786250.03573883     
   3926987188.3882113        50970497.215100050        708881524.91756678     
   5170677044.7854567       -59301911.299929619       -35938524.453454487     
   5011764950.1060572       -48212302.868406773       -28619570.490046043     
   4852731226.7602129       -37528123.325026751       -19948553.833734829     
   4693575874.7479601       -27249372.669682741       -9925474.4845086783     
   4534298894.0692759       -17376050.902439594        1449667.5576394566     
   4885640494.0536289       -23968035.160936356        154692494.12197441     
   4729725348.5006533       -19168427.208051205        156541518.90233904     
   4574006810.9318542       -13713459.307904720        160795365.04363582     
   4418484881.3472338       -7603131.4604959488        167454032.54588747     
   4263159559.7467928       -837443.66583156586        176517521.40908980     
   4583346667.7434788        6188658.3045701981        342372841.87561941     
   4433436353.2256041        5600630.3514554501        339123213.56530631     
   4284040883.3425007        6728751.1809189320        339331165.28397518     
   4135160258.0941801        9573020.7929918766        342996697.03161573     
   3986794477.4806442        14133439.187680006        350119808.80824029     
   4263795565.8550100        31168169.096589565        527102518.80748534     
   4122897964.2808847        26094869.810035706        519125513.49887258     
   3982833443.9921489        23798508.141429663        515658846.88727313     
   3843602004.9887967        24279084.090788126        516702518.97268289     
   3705203647.2708306        27536597.658090353        522256529.75510412     
   3926987188.3882113        50970497.215100050        708881524.91756678     
   3798110181.6665120        42314291.167727470        696548418.70302570     
   3670384492.8808022        37495811.573657751        689778409.85353434     
   3543810122.0310826        36515058.432875395        688571498.36908197     
   3418387069.1173515        39372031.745401144        692927684.24966717     
   4534298894.0692759       -17376050.902439594        1449667.5576394566     
   4331964414.8831310       -20682158.818369150       -5003869.1967265652     
   4129578698.3430099       -24159057.914197445       -6968296.0884114122     
   3927141744.4489236       -27806748.189911604       -4443613.1174182892     
   3724653553.2008710       -31625229.645537376        2570179.7162444796     
   4263159559.7467928       -837443.66583156586        176517521.40908980     
   4072500323.8520665       -4472145.0757396221        168206519.80425158     
   3881776206.4019690       -8323118.3368616104        164463193.98259979     
   3690987207.3965268       -12390363.449142933        165287543.94411302     
   3500133326.8357191       -16673880.412643194        170679569.68882355     
   3986794477.4806442        14133439.187680006        350119808.80824029     
   3808034958.9359097        10237486.501355648        339935424.11798239     
   3629196914.6344166        6079781.2925283909        334397281.13140178     
   3450280344.5761809        1660323.5612146854        333505379.84849733     
   3271285248.7612004       -3020886.6925857067        337259720.26928270     
   3705203647.2708306        27536597.658090353        522256529.75510412     
   3538568320.1346626        23446735.912920475        510182843.74446130     
   3371840823.0403481        19049640.973953009        502833965.35800111     
   3205021155.9879065        14345312.841220379        500209894.59571517     
   3038109318.9773192        9333751.5146764517        502310631.45761484     
   3418387069.1173515        39372031.745401144        692927684.24966717     
   3264100407.4483252        35155603.158961177        678948778.68368900     
   3109707931.6197762        30586460.707455158        669773246.66239262     
   2955209641.6316934        25664604.390831470        665401088.18577480     
   2800605537.4840860        20390034.209126472        665832303.25384891     
   3724653553.2008710       -31625229.645537376        2570179.7162444796     
   3556013387.3680048       -25945969.946196556       -629049.05923943082     
   3386991491.9860582       -21539142.077136755        222716.64249250677     
   3217587867.0550556       -18404746.038262606        5125476.8214415731     
   3047802512.5749598       -16542781.829690337        14079231.477588553     
   3500133326.8357191       -16673880.412643194        170679569.68882355     
   3341428892.6265559       -11780976.452146053        165461780.09684148     
   3182480496.2486525       -7701279.7207880020        164017333.21638104     
   3023288137.7020383       -4434790.2184460163        166346229.04745570     
   2863851816.9867067       -1981507.9451956749        172448467.59005326     
   3271285248.7612004       -3020886.6925857067        337259720.26928270     
   3121723255.4166274        847674.30131089687        330184098.47120684     
   2972055067.2836723        4362252.6672687531        326604167.61897254     
   2822280684.3623533        7522848.4053505659        326519927.71257973     
   2672400106.6526647        10329461.515529037        329931378.75202328     
   3038109318.9773192        9333751.5146764517        502310631.45761484     
   2896896475.7382388        11939982.314254642        493537906.06386840     
   2755715205.0911336        14651455.087074518        487983219.85026604     
   2614565507.0360103        17468169.833173037        485646572.81682342     
   2473447381.5728650        20390126.552529812        486527964.96353519     
   2800605537.4840860        20390034.209126472        665832303.25384891     
   2666948553.5913873        21495947.586639762        655523202.87482560     
   2533460909.6710267        23166327.538593292        648154489.91027081     
   2400142605.7229900        25401174.064978123        643726164.36018312     
   2266993641.7472868        28200487.165790439        642238226.22455633     
   3047802512.5749598       -16542781.829690337        14079231.477588553     
   2883547252.0368323       -13338236.076066256        9281560.7580778785     
   2719465074.9131422       -9556745.6076480150        5303079.4418788077     
   2555555981.2038765       -5198310.4244849682        2143787.5290323347     
   2391819970.9090385       -262930.52656066418       -196314.98050253472     
   2863851816.9867067       -1981507.9451956749        172448467.59005326     
   2702019353.1335812       -456382.28068923950        165494647.75957268     
   2540292842.4377313        1421920.5747365952        159972886.76557219     
   2378672284.8991537        3653400.6210635900        155883184.60804534     
   2217157680.5178208        6238057.8582183123        153225541.28699085     
   2672400106.6526647        10329461.515529037        329931378.75202328     
   2514741495.0078259        10700483.747923136        320743091.17723203     
   2357121706.2630968        11200915.647354007        313599731.87206429     
   2199540740.4184642        11830757.213768721        308501300.83651632     
   2041998597.4739313        12590008.447188973        305447798.07058281     
   2473447381.5728650        20390126.552529812        486527964.96353519     
   2321713677.6595745        20132362.009786725        475026891.01106280     
   2169951666.3892374        19780239.610184193        466183614.76136804     
   2018161347.7618351        19333759.353712201        459998136.21443510     
   1866342721.7773607        18792921.240332127        456470455.37026346     
   2266993641.7472868        28200487.165790439        642238226.22455633     
   2122935901.0888445        27839252.504926562        628346047.26105714     
   1978782722.8161647        27159892.463271737        617724535.43347561     
   1834534106.9292598        26162407.040873647        610373690.74178660     
   1690190053.4281244        24846796.237695515        606293513.18602920     
   2391819970.9090385       -262930.52656066418       -196314.98050253472     
   2249320889.3357830        6551878.4183641672       -6615311.0737526407     
   2103687197.1593947        2917985.3528448343       -11047196.176802933     
   1954918894.3799129       -11164609.722980976       -13491970.289639324     
   1803015980.9972904       -35695906.809284568       -13949633.412288710     
   2217157680.5178208        6238057.8582183123        153225541.28699085     
   2078690656.4054184        12746346.391392827        143191139.76092568     
   1938145826.7502346        12328616.448647261        134341945.38647956     
   1795523191.5522957        4984868.0300309658        126677958.16365060     
   1650822750.8115771       -9284898.8644951582        120199178.09245221     
   2041998597.4739313        12590008.447188973        305447798.07058281     
   1905272476.9978764        18104430.421285033        293030930.34875453     
   1767525356.0393965        20215517.453961134        280997365.93998313     
   1628757234.5984974        18923269.545242012        269347104.84424621     
   1488968112.6751697        14227686.695099354        258080147.06156364     
   1866342721.7773607        18792921.240332127        456470455.37026346     
   1729066351.1131527        22626130.508014441        442904060.68974453     
   1591825785.0268664        26578688.368759990        428919065.48370445     
   1454621023.5185006        30650594.822580040        414515469.75213546     
   1317452066.5880494        34841849.869446695        399693273.49503076     
   1690190053.4281244        24846796.237695515        606293513.18602920     
   1550072278.7512558        26311446.651591778        592810530.78389978     
   1411047113.7126460        31418129.193035126        578107044.01766765     
   1273114558.3123040        40166843.862037241        562183052.88732064     
   1136274612.5502369        52557590.658606350        545038557.39287484     
   1803015980.9972904       -35695906.809284568       -13949633.412288710     
   1771981022.5541935       -16576430.494384408       -8376269.1964169769     
   1748953457.2983174        29234356.444583535       -41552368.598365761     
   1733933285.2297385        101736454.00788748       -113477931.61810943     
   1726920506.3483796        200929862.19523579       -224152958.25567365     
   1650822750.8115771       -9284898.8644951582        120199178.09245221     
   1528085313.7584035       -13848247.501566231        135685040.36154735     
   1409481188.0619543       -4633891.6162342429        124845265.38346641     
   1295010373.7222373        18358168.791544795        87679853.158204883     
   1184672870.7392616        55127933.721795261        24188803.685766000     
   1488968112.6751697        14227686.695099354        258080147.06156364     
   1310024843.7851443       -3369492.8619886041        278958745.24827731     
   1131340804.4213340       -20102573.998365760        285935532.55844265     
   952915994.58373642       -35971556.714030325        279010508.99206156     
   774750414.27235246       -50976441.008982778        258183674.54913095     
   1317452066.5880494        34841849.869446695        399693273.49503076     
   1117799612.6344199        14859833.424362719        421444845.46376127     
   914532306.37647724       -17171690.701763272        441718432.92657667     
   707650147.81421983       -61252722.508917153        460514035.88347489     
   497153136.94766682       -117383261.99708039        477831654.33444679     
   1136274612.5502369        52557590.658606350        545038557.39287484     
   951409620.30621648        40839731.357456923        563143341.00801337     
   759055693.92737389        4158758.2735735774        592193966.48786175     
   559212833.41369152       -57485328.593112141        632190433.83242834     
   351881038.76518559       -144092529.24254328        683132743.04169822     
   1726920506.3483796        200929862.19523579       -224152958.25567365     
   1456466507.2583122        184489665.52214569       -96591439.374438256     
   1153872430.0592861        60915875.152537823        60121368.802229941     
   819138274.75134969       -169791508.91342181        245985466.27433094     
   452264041.33445626       -507632486.67594862        461000853.04183918     
   1184672870.7392616        55127933.721795261        24188803.685766000     
   977615610.48507249        11815526.785658062        155596506.17911118     
   732754987.43351185       -157508089.47507337        312820920.84994841     
   450091001.58457184       -452842915.06041300        495862047.69826746     
   129623652.93824178       -874188949.97034252        704719886.72407854     
   774750414.27235246       -50976441.008982778        258183674.54913095     
   621562529.65995884       -124019267.16631183        386830395.18473488     
   424907997.56171668       -341950918.27646077        537959250.87989664     
   184786817.97765252       -704771394.33934581        711570241.63457561     
  -98801009.092238903       -1212480695.3550162        907663367.44883156     
   497153136.94766682       -117383261.99708039        477831654.33444679     
   388307264.78291792       -223014716.33391318        597110227.64245665     
   230331460.44389114       -492412611.25165892        735536358.89206326     
   23225723.930570722       -925576946.75036454        893110048.08329630     
  -233009944.75702301       -1522507722.8300076        1069831295.2160983     
   351881038.76518559       -144092529.24254328        683132743.04169822     
   277849815.85396701       -285170820.71706092        786436003.55224633     
   149025376.08001313       -608893168.40069628        905552244.88646674     
  -34592280.556676447       -1115259572.2934420        1040481467.0443377     
  -273003154.05608088       -1804270032.3952544        1191223670.0258684     
   4604913640.3702793        294152972.28874397        774839124.29416156     
   4425984038.7010326        201864057.94123316        749765049.72403395     
   4253353096.1476083        130570673.97979093        730414091.63789034     
   4087020812.7099991        80272820.404413223        716786250.03573883     
   3926987188.3882113        50970497.215100050        708881524.91756678     
   4158539482.8080416        142220552.24103761        822581142.51078653     
   4007427261.7788229        95516868.607650042        809881451.06934822     
   3859416901.5558510        59152720.995084763        802336959.62530279     
   3714508402.1391249        33128109.403337955        799947668.17864418     
   3572701763.5286403        17443033.832408190        802713576.72938478     
   3732664481.6765971       -3562120.8774278164        886511043.01907396     
   3607747022.7542858       -5167359.3566272259        882456136.67848194     
   3482734626.3286438       -7089056.1802527905        882988513.84869015     
   3357627292.3996730       -9327211.3483107090        888108174.52969790     
   3232425020.9673758       -11881824.860793352        897815118.72150624     
   3327288636.9759402       -143195047.06665921        966628825.81901455     
   3226943321.6274099       -100188625.95160580        967489106.55143893     
   3123306270.4659796       -68154657.546227574        972368754.30806470     
   3016377483.4916468       -47093141.850531340        981267769.08889723     
   2906156960.7044053       -37004078.864509106        994186150.89393663     
   2942411948.7060809       -276678226.32664979        1062934490.9106126     
   2865016158.3982134       -189546931.17728233        1064980360.6882070     
   2781131833.9678669       -124044083.10283792        1070477681.0034184     
   2690758975.4150419       -80169682.103324533        1079426451.8562393     
   2593897582.7397413       -57923728.178726077        1091826673.2466750     
   3926987188.3882113        50970497.215100050        708881524.91756678     
   3798110181.6665120        42314291.167727470        696548418.70302570     
   3670384492.8808022        37495811.573657751        689778409.85353434     
   3543810122.0310826        36515058.432875395        688571498.36908197     
   3418387069.1173515        39372031.745401144        692927684.24966717     
   3572701763.5286403        17443033.832408190        802713576.72938478     
   3459338606.8899965        16003159.426947117        795913790.34312177     
   3346639846.5268135        16777939.273014069        793819330.12295640     
   3234605482.4390903        19767373.370626211        796430196.06889117     
   3123235514.6268249        24971461.719759583        803746388.18091953     
   3232425020.9673758       -11881824.860793352        897815118.72150624     
   3132124939.5576572       -6840600.0805810690        895980576.89290226     
   3032002332.7628675       -1207793.2505964041        897993590.03145242     
   2932057200.5830064        5016595.6291429996        903854158.13715506     
   2832289543.0180769        11832566.558654547        913562281.21000683     
   2906156960.7044053       -37004078.864509106        994186150.89393663     
   2816469179.6694803       -26216987.354863763        996748778.35237455     
   2726471951.5889587       -16461385.997209311        1002301189.5790205     
   2636165276.4628301       -7737274.7915699482        1010843384.5738733     
   2545549154.2911038       -44653.737925887108        1022375363.3369257     
   2593897582.7397413       -57923728.178726077        1091826673.2466750     
   2512371327.2254801       -42126002.395884752        1098218394.7215371     
   2430048703.0050893       -28982838.966803789        1106742128.7656562     
   2346929710.0785661       -18494237.891497374        1117397875.3790419     
   2263014348.4459143       -10660199.169958115        1130185634.5616813     
   3418387069.1173515        39372031.745401144        692927684.24966717     
   3264100407.4483252        35155603.158961177        678948778.68368900     
   3109707931.6197762        30586460.707455158        669773246.66239262     
   2955209641.6316934        25664604.390831470        665401088.18577480     
   2800605537.4840860        20390034.209126472        665832303.25384891     
   3123235514.6268249        24971461.719759583        803746388.18091953     
   2981671992.7024751        22102424.035727739        791103643.91786122     
   2840093485.6238513        19183435.837449312        783133620.32084870     
   2698499993.3909421        16214497.124889374        779836317.38988912     
   2556891516.0037651        13195607.898097038        781211735.12498569     
   2832289543.0180769        11832566.558654547        913562281.21000683     
   2703075866.8994536        10198931.595337749        902361665.42265832     
   2573938034.6318016        8818109.4686017036        895703117.42272341     
   2444876046.2151237        7690100.1784403324        893586637.21021175     
   2315889901.6494188        6814903.7248566151        896012224.78511393     
   2545549154.2911038       -44653.737925887108        1022375363.3369257     
   2428312030.0392570       -554874.16220557690        1012722843.1980809     
   2311241578.6436324       -509518.39907944202        1007481737.9680202     
   2194337800.1042295        91413.551461935043        1006652047.6467428     
   2077600694.4210496        1247921.6894077063        1010233772.2342550     
   2263014348.4459143       -10660199.169958115        1130185634.5616813     
   2157380482.1218891       -10158993.236893773        1122187177.2441323     
   2052004117.6593370       -8799447.7655951977        1118469481.9567306     
   1946885255.0582633       -6581562.7560319901        1119032548.6994858     
   1842023894.3186576       -3505338.2082412243        1123876377.4723959     
   2800605537.4840860        20390034.209126472        665832303.25384891     
   2666948553.5913873        21495947.586639762        655523202.87482560     
   2533460909.6710267        23166327.538593292        648154489.91027081     
   2400142605.7229900        25401174.064978123        643726164.36018312     
   2266993641.7472868        28200487.165790439        642238226.22455633     
   2556891516.0037651        13195607.898097038        781211735.12498569     
   2431574393.3518782        15377107.922028303        772223023.61496043     
   2306478618.1598554        18296432.812175155        766460990.26500249     
   2181604190.4277110        21953582.568576813        763925635.07510233     
   2056951110.1554255        26348557.191180468        764616958.04526103     
   2315889901.6494188        6814903.7248566151        896012224.78511393     
   2199730613.7971754        10317382.462848663        888404577.54622817     
   2083844680.8923407        14731044.358867288        884309899.21299744     
   1968232102.9349124        20055889.412909627        883728189.78541088     
   1852892879.9248850        26291917.624963641        886659449.26348376     
   2077600694.4210496        1247921.6894077063        1010233772.2342550     
   1971417214.9272866        6316771.2091118097        1004067864.6686261     
   1865559097.8684731        12470162.178647161        1001701216.7542462     
   1760026343.2445951        19708094.597975135        1003133828.4911073     
   1654818951.0556688        28030568.467139184        1008365699.8792162     
   1842023894.3186576       -3505338.2082412243        1123876377.4723959     
   1746634196.7422137        3375274.1608362198        1119212884.9821522     
   1651621869.0882521        11513786.271519065        1118634942.8887491     
   1556986911.3567758        20910198.123823047        1122142551.1921883     
   1462729323.5477786        31564509.717719078        1129735709.8924637     
   2266993641.7472868        28200487.165790439        642238226.22455633     
   2122935901.0888445        27839252.504926562        628346047.26105714     
   1978782722.8161647        27159892.463271737        617724535.43347561     
   1834534106.9292598        26162407.040873647        610373690.74178660     
   1690190053.4281244        24846796.237695515        606293513.18602920     
   2056951110.1554255        26348557.191180468        764616958.04526103     
   1922079955.0866537        27819809.933512807        752740187.63962138     
   1787080881.4977918        28864667.608889461        744236472.68939066     
   1651953889.3888326        29483130.217263520        739105813.19456053     
   1516698978.7597883        29675197.758693635        737348209.15513682     
   1852892879.9248850        26291917.624963641        886659449.26348376     
   1727500848.5014904        29683419.187223792        876760193.02553356     
   1601948417.6521368        32540255.996301651        870336380.56247592     
   1476235587.3768373        34862428.052216172        867388011.87432528     
   1350362357.6755817        36649935.354947269        867915086.96107149     
   1654818951.0556688        28030568.467139184        1008365699.8792162     
   1539198581.3333461        33430080.266022265        1000406063.4187746     
   1423385331.2792118        38186657.625539780        996024259.05273533     
   1307379200.8932617        42300300.545668185        995220286.78109002     
   1191180190.1755037        45771009.026437879        997994146.60383677     
   1462729323.5477786        31564509.717719078        1129735709.8924637     
   1357173153.5822306        39059793.169952691        1123677798.8193696     
   1251391622.3790085        45803872.496596158        1121300108.1601584     
   1145384729.9381120        51796747.697666764        1122602637.9148459     
   1039152476.2595410        57038418.773149729        1127585388.0834272     
   1690190053.4281244        24846796.237695515        606293513.18602920     
   1550072278.7512558        26311446.651591778        592810530.78389978     
   1411047113.7126460        31418129.193035126        578107044.01766765     
   1273114558.3123040        40166843.862037241        562183052.88732064     
   1136274612.5502369        52557590.658606350        545038557.39287484     
   1516698978.7597883        29675197.758693635        737348209.15513682     
   1374804606.8382318        28067927.475701332        728046949.06432986     
   1233165076.8850982        27310130.420780420        719308484.84869897     
   1091780388.9003932        27401806.593953311        711132816.50823128     
   950650542.88411736        28342955.995231092        703519944.04293728     
   1350362357.6755817        36649935.354947269        867915086.96107149     
   1211786532.0501261        33499287.437259734        861818153.56677866     
   1072627780.7232617        28405553.848220766        858067316.28693616     
   932886103.69498861        21368734.587808311        856662575.12153482     
   792561500.96530843        12388829.656052411        857603930.07059801     
   1191180190.1755037        45771009.026437879        997994146.60383677     
   1061018054.3869405        42605526.536304116        994124144.29124451     
   929435225.22714043        34704399.475378245        994383538.33238173     
   796431702.69609082        22067627.843625128        998772328.72723949     
   662007486.79379797        4695211.6410549283        1007290515.4758275     
   1039152476.2595410        57038418.773149729        1127585388.0834272     
   922499173.84867823        55386644.772838920        1124964921.2377222     
   803587410.39673686        46206667.302260935        1128257150.9850297     
   682417185.90370095        29498486.361373484        1137462077.3253419     
   558988500.36960030        5262101.9502646327        1152579700.2586567     
   1136274612.5502369        52557590.658606350        545038557.39287484     
   951409620.30621648        40839731.357456923        563143341.00801337     
   759055693.92737389        4158758.2735735774        592193966.48786175     
   559212833.41369152       -57485328.593112141        632190433.83242834     
   351881038.76518559       -144092529.24254328        683132743.04169822     
   950650542.88411736        28342955.995231092        703519944.04293728     
   791500807.87105942        11190729.754811943        721436695.99728811     
   623730906.31201053       -34695384.972238749        749442657.86597037     
   447340838.20694804       -109315388.18599430        787537829.64896059     
   262330603.55589825       -212669279.88639355        835722211.34628606     
   792561500.96530843        12388829.656052411        857603930.07059801     
   656679503.32496345       -10932019.481088132        874012879.21778929     
   511046106.72744560       -66757531.808805674        899654406.32891929     
   355661311.17275572       -155087707.32709131        934528511.40398216     
   190525116.66089058       -275922546.03595996        978635194.44297791     
   662007486.79379797        4695211.6410549283        1007290515.4758275     
   546945706.66791308       -25528516.350284606        1020871890.6695079     
   421001295.17367125       -92027682.236141652        1042829211.8767321     
   284174252.31109184       -194802286.01645297        1073162479.0974952     
   136464578.08016825       -333852327.69126076        1111871692.3318064     
   558988500.36960030        5262101.9502646327        1152579700.2586567     
   462299417.89991498       -32598760.852768600        1162013730.3524530     
   353596471.65069884       -110505836.25422709        1178967074.5093884     
   232879661.62198186       -228459124.25402436        1203439732.7294781     
   100148987.81373888       -386458624.85224700        1235431705.0127273     
   351881038.76518559       -144092529.24254328        683132743.04169822     
   277849815.85396701       -285170820.71706092        786436003.55224633     
   149025376.08001313       -608893168.40069628        905552244.88646674     
  -34592280.556676447       -1115259572.2934420        1040481467.0443377     
  -273003154.05608088       -1804270032.3952544        1191223670.0258684     
   262330603.55589825       -212669279.88639355        835722211.34628606     
   223619747.23934686       -352302473.11968505        885072682.85677671     
   140670300.30403742       -639397635.08218670        945446202.09923673     
   13482262.749946594       -1073954765.7739553        1016842769.0736488     
  -157944365.42289579       -1655973865.1948988        1099262383.7800162     
   190525116.66089058       -275922546.03595996        978635194.44297791     
   173449103.81987590       -418216297.96375120        986346607.57137299     
   122689126.60405794       -672789931.14088655        1000291135.3400251     
   38245185.013422072       -1039643445.5673934        1020468777.7489361     
  -79882720.952003479       -1518776841.2432311        1046879534.7980995     
   136464578.08016825       -333852327.69126076        1111871692.3318064     
   127337885.59554416       -482912295.24927557        1090257777.6960418     
   95081854.980079651       -709070056.57677531        1070087044.6088393     
   39696486.233764350       -1012325611.6737745        1051359493.0702126     
  -38818220.643393278       -1392678960.5402484        1034075123.0801200     
   100148987.81373888       -386458624.85224700        1235431705.0127273     
   85286092.566358685       -546390464.97626257        1196806193.2307765     
   57848485.432089299       -748238011.38989747        1154833929.9056964     
   17836166.410951436       -992001264.09311652        1109514915.0374603     
  -34750864.497078717       -1277680223.0859540        1060849148.6260871     
   2942411948.7060809       -276678226.32664979        1062934490.9106126     
   2865016158.3982134       -189546931.17728233        1064980360.6882070     
   2781131833.9678669       -124044083.10283792        1070477681.0034184     
   2690758975.4150419       -80169682.103324533        1079426451.8562393     
   2593897582.7397413       -57923728.178726077        1091826673.2466750     
   2639872486.4721074       -132311733.35257983        1203708941.6160483     
   2557528526.8110466       -95555822.913923025        1193019440.6461129     
   2472697460.6229348       -67090267.565426111        1186697293.8001180     
   2385379287.9077768       -46915067.307096004        1184742501.0780654     
   2295574008.6655684       -35030222.138924122        1187155062.4799535     
   2314597218.0615492        5234017.7685132027        1323345020.8761621     
   2229921956.4368029       -7600396.2866876125        1304588481.3533621     
   2146761015.8804383       -15387073.447288156        1291115199.5408340     
   2065114396.3924541       -18126013.713287830        1282925175.4385762     
   1984982097.9728484       -15817217.084683061        1280018409.0465851     
   1966586143.4744086        135959027.03663224        1421842728.6909616     
   1882196447.2754884        74319348.704425335        1399687482.8099694     
   1803322499.7403748        31065499.251578569        1383731398.2255719     
   1729964300.8690717        6197478.6781023741        1373974474.9377716     
   1662121850.6615784       -284713.01601040363        1370416712.9465706     
   1595839262.7106884        259863294.45177737        1499202065.0604415     
   1514351999.3270993        150203412.05941916        1478316445.0159223     
   1442381912.2027464        72267450.531180024        1464545889.8543255     
   1379929001.3376338        26055409.867075920        1457890399.5756543     
   1326993266.7317626        11567290.067105293        1458349974.1799109     
   2593897582.7397413       -57923728.178726077        1091826673.2466750     
   2512371327.2254801       -42126002.395884752        1098218394.7215371     
   2430048703.0050893       -28982838.966803789        1106742128.7656562     
   2346929710.0785661       -18494237.891497374        1117397875.3790419     
   2263014348.4459143       -10660199.169958115        1130185634.5616813     
   2295574008.6655684       -35030222.138924122        1187155062.4799535     
   2219318214.5504408       -23769108.945601940        1188854374.0914009     
   2142458157.1735928       -14522206.624684453        1193522784.8074245     
   2064993836.5350165       -7289515.1761826277        1201160294.6280320     
   1986925252.6347218       -2071034.6000877619        1211766903.5532110     
   1984982097.9728484       -15817217.084683061        1280018409.0465851     
   1916388441.0720510       -8375213.7363183498        1277249433.8130939     
   1847382626.3539381       -2307069.7790089846        1278286644.2194986     
   1777964653.8185079        2387214.7872477770        1283130040.2658024     
   1708134523.4657650        5707639.9624567032        1291779621.9520035     
   1662121850.6615784       -284713.01601040363        1370416712.9465706     
   1603582006.7903073        4055683.2319527864        1363403573.8866167     
   1544822110.5461264        7662571.5702158213        1361033707.0018787     
   1485842161.9290373        10535951.998787940        1363307112.2923548     
   1426642160.9390426        12675824.517671347        1370223789.7580481     
   1326993266.7317626        11567290.067105293        1458349974.1799109     
   1280898911.7052126        13523581.959225178        1447316794.3119702     
   1234776609.7501593        15386717.423000813        1441763973.1545632     
   1188626360.8666079        17156696.458446324        1441691510.7076907     
   1142448165.0545540        18833519.065556228        1447099406.9713507     
   2263014348.4459143       -10660199.169958115        1130185634.5616813     
   2157380482.1218891       -10158993.236893773        1122187177.2441323     
   2052004117.6593370       -8799447.7655951977        1118469481.9567306     
   1946885255.0582633       -6581562.7560319901        1119032548.6994858     
   1842023894.3186576       -3505338.2082412243        1123876377.4723959     
   1986925252.6347218       -2071034.6000877619        1211766903.5532110     
   1892561566.9437325       -2289890.4990227222        1203251498.5616946     
   1798440294.4455671       -1700702.4218782187        1199290869.3728232     
   1704561435.1402316       -303470.36863744259        1199885015.9865932     
   1610924989.0277188        1901805.6606837511        1205033938.4030063     
   1708134523.4657650        5707639.9624567032        1291779621.9520035     
   1625823914.9006357        5003591.1793662310        1282729665.8397691     
   1543740630.8596859        5057290.8101987839        1278508499.3026652     
   1461884671.3429198        5868738.8549765348        1279116122.3406951     
   1380256036.3503323        7437935.3136878610        1284552534.9538581     
   1426642160.9390426        12675824.517671347        1370223789.7580481     
   1357167525.9926019        11721451.798272431        1360621679.0783393     
   1287905126.9016962        11474531.930648208        1356122371.7462542     
   1218854963.6663237        11935064.914806962        1356725867.7617929     
   1150017036.2864847        13103050.750740230        1362432167.1249514     
   1142448165.0545540        18833519.065556228        1447099406.9713507     
   1086592400.2196350        17863691.357705355        1436927538.2774160     
   1030933782.5715964        17551020.939462006        1432132486.7035942     
   975472312.11044705        17895507.810848296        1432714252.2498789     
   920207988.83619022        18897151.971878588        1438672834.9162846     
   1842023894.3186576       -3505338.2082412243        1123876377.4723959     
   1746634196.7422137        3375274.1608362198        1119212884.9821522     
   1651621869.0882521        11513786.271519065        1118634942.8887491     
   1556986911.3567758        20910198.123823047        1122142551.1921883     
   1462729323.5477786        31564509.717719078        1129735709.8924637     
   1610924989.0277188        1901805.6606837511        1205033938.4030063     
   1526005634.6029789        7547384.6460080743        1201001037.7729092     
   1441387938.7104754        14198492.072123885        1201221704.5666020     
   1357071901.3501985        21855127.938989580        1205695938.7841039     
   1273057522.5221574        30517292.246647537        1214423740.4254000     
   1380256036.3503323        7437935.3136878610        1284552534.9538581     
   1306287073.7257574        11992495.509805441        1281061896.2286029     
   1232544058.2431679        17300212.845870197        1281992841.9541070     
   1159026989.9025562        23361087.321860194        1287345372.1303761     
   1085735868.7039261        30175118.937796414        1297119486.7574029     
   1150017036.2864847        13103050.750740230        1362432167.1249514     
   1087478514.1105435        16710606.752204478        1359395460.3492470     
   1025090227.6863275        20818948.592756331        1360948355.0512693     
   962852177.01384401        25428076.272414684        1367090851.2310092     
   900764362.09308553        30537989.791150659        1377822948.8884735     
   920207988.83619022        18897151.971878588        1438672834.9162846     
   869579955.75732958        21701718.373183459        1436001730.1348414     
   819026447.03995740        24754699.312783420        1438088243.8580797     
   768547462.68405533        28056094.790619552        1444932376.0860016     
   718143002.68963945        31605904.806743383        1456534126.8186076     
   1462729323.5477786        31564509.717719078        1129735709.8924637     
   1357173153.5822306        39059793.169952691        1123677798.8193696     
   1251391622.3790085        45803872.496596158        1121300108.1601584     
   1145384729.9381120        51796747.697666764        1122602637.9148459     
   1039152476.2595410        57038418.773149729        1127585388.0834272     
   1273057522.5221574        30517292.246647537        1214423740.4254000     
   1177042622.3176928        35697782.328124762        1209183113.0153697     
   1080804183.7041216        40133144.379244447        1208135886.5547638     
   984342206.68145275        43823378.400040090        1211282061.0435779     
   887656691.24968505        46768484.390505314        1218621636.4818246     
   1085735868.7039261        30175118.937796414        1297119486.7574029     
   1000728468.3620632        33480684.678961039        1292698269.6437747     
   915499352.43966734        36047198.485014945        1292983634.0151052     
   830048520.93674982        37874660.355996609        1297975579.8713927     
   744375973.85330367        38963070.291890085        1307674107.2126389     
   900764362.09308553        30537989.791150659        1377822948.8884735     
   828230691.71534860        32408500.222469300        1374223268.7045872     
   755477128.58565295        33546034.813927799        1375843350.5411892     
   682503672.70400870        33950593.565553546        1382683194.3982770     
   609310324.07040715        33622176.477323592        1394742800.2758620     
   718143002.68963945        31605904.806743383        1456534126.8186076     
   659549292.37754905        32481228.958665431        1453758110.1977961     
   600737512.14207089        32629653.365958780        1456715036.1330097     
   541707661.98321891        32051178.028672993        1465404904.6242435     
   482459741.90099251        30745802.946808353        1479827715.6714923     
   1039152476.2595410        57038418.773149729        1127585388.0834272     
   922499173.84867823        55386644.772838920        1124964921.2377222     
   803587410.39673686        46206667.302260935        1128257150.9850297     
   682417185.90370095        29498486.361373484        1137462077.3253419     
   558988500.36960030        5262101.9502646327        1152579700.2586567     
   887656691.24968505        46768484.390505314        1218621636.4818246     
   786119226.66528666        44518063.453026295        1216221127.6310313     
   682339404.54573035        34793117.398353368        1219673639.0392528     
   576317224.89101386        17593646.226475179        1228979170.7064736     
   468052687.70113373       -7080350.0626102984        1244137722.6327019     
   744375973.85330367        38963070.291890085        1307674107.2126389     
   657783843.28395402        36062851.273854613        1305512343.7803285     
   568965458.68535590        25741785.491663784        1309143924.2730260     
   477920820.05751580        7999872.9453339279        1318568848.6907287     
   384649927.40042824       -17162886.365156949        1333787117.0334337     
   609310324.07040715        33622176.477323592        1394742800.2758620     
   537493023.70466399        30021008.235270858        1392838569.6856043     
   463465572.81559891        19052671.582145229        1396668006.6863561     
   387227971.40320855        717166.51792974770        1406231111.2781100     
   308780219.46749139       -24985506.957369626        1421527883.4608698     
   482459741.90099251        30745802.946808353        1479827715.6714923     
   425246767.92743713        26392534.337339267        1478199805.3468633     
   365839746.93646526        14725775.669815361        1482245886.2792401     
   304238678.92809725       -4254473.0556985736        1491965958.4686160     
   240443563.90231499       -30548211.839254156        1507360021.9150016     
   558988500.36960030        5262101.9502646327        1152579700.2586567     
   462299417.89991498       -32598760.852768600        1162013730.3524530     
   353596471.65069884       -110505836.25422709        1178967074.5093884     
   232879661.62198186       -228459124.25402436        1203439732.7294781     
   100148987.81373888       -386458624.85224700        1235431705.0127273     
   468052687.70113373       -7080350.0626102984        1244137722.6327019     
   390438184.28138053       -41372632.212685838        1242677695.8605428     
   302661667.41304421       -109538292.52470778        1247547589.5283427     
   204723137.09612134       -211577330.99868220        1258747403.6361127     
   96622593.330605462       -347489747.63463598        1276277138.1838243     
   384649927.40042824       -17162886.365156949        1333787117.0334337     
   322711735.53577149       -48906068.110707104        1323593525.4480937     
   252463380.55345923       -108349793.58178255        1318540460.6795123     
   173904862.45349470       -195494062.77836362        1318627922.7276995     
   87036181.235871166       -310338875.70047188        1323855911.5926406     
   308780219.46749139       -24985506.957369626        1421527883.4608698     
   259120071.66308993       -55199068.546839267        1404761219.1150885     
   203001611.07195416       -106940339.42542587        1391945687.9628763     
   140424837.69410321       -180209319.59305766        1383081290.0042353     
   71389751.529520825       -275006009.04980266        1378168025.2391491     
   240443563.90231499       -30548211.839254156        1507360021.9150016     
   199663192.66331387       -60251633.521136463        1486180776.8615384     
   154276358.96852508       -105309930.05564141        1467763271.3784463     
   104283062.81793515       -165723101.44281673        1452107505.4657283     
   49683304.211556807       -241491147.68261743        1439213479.1233828     
   100148987.81373888       -386458624.85224700        1235431705.0127273     
   85286092.566358685       -546390464.97626257        1196806193.2307765     
   57848485.432089299       -748238011.38989747        1154833929.9056964     
   17836166.410951436       -992001264.09311652        1109514915.0374603     
  -34750864.497078717       -1277680223.0859540        1060849148.6260871     
   96622593.330605462       -347489747.63463598        1276277138.1838243     
   79716538.027078688       -488705137.75079441        1221962497.0211871     
   51437559.895977706       -667830270.62553632        1165103765.0489929     
   11785658.937309802       -884865146.25883055        1105700942.2672436     
  -39239164.848910630       -1139809764.6506333        1043754028.6759464     
   87036181.235871166       -310338875.70047188        1323855911.5926406     
   70380282.257873088       -432149820.89430726        1255254228.2851675     
   43553249.511620849       -587864545.31565380        1184911114.9017370     
   6555082.9971289039       -777483048.96446598        1112826571.4423413     
  -40614217.285610735       -1001005331.8407732        1039000597.9069797     
   71389751.529520825       -275006009.04980266        1378168025.2391491     
   57277325.258741021       -376724514.40679634        1296681387.0227282     
   34195554.279028773       -508340835.46022594        1214255979.4639325     
   2144438.5903851986       -669854972.21009052        1130891802.5627730     
  -38876021.807176739       -861266924.65636635        1046588856.3192272     
   49683304.211556807       -241491147.68261743        1439213479.1233828     
   40407667.029678985       -322429218.28827107        1346243973.2338712     
   23364474.198183715       -429259141.05931067        1253138358.7355812     
  -1446274.2829149663       -561980915.99569774        1159896635.6285114     
  -34024578.413618863       -720594543.09743547        1066518803.9126554     
   1595839262.7106884        259863294.45177737        1499202065.0604415     
   1514351999.3270993        150203412.05941916        1478316445.0159223     
   1442381912.2027464        72267450.531180024        1464545889.8543255     
   1379929001.3376338        26055409.867075920        1457890399.5756543     
   1326993266.7317626        11567290.067105293        1458349974.1799109     
   1151478168.0164502        143980768.95155692        1466540658.6700072     
   1102739644.1924160        86613287.560532182        1460132201.2417941     
   1058821663.2717594        45314282.514106154        1459732539.8992331     
   1019724225.2544816        20083753.812272787        1465341674.6423290     
   985447330.14058256        10921701.455033004        1476959605.4710801     
   726164580.47482419        33812495.597116679        1452952716.2756729     
   707014028.21814597        27789184.809779227        1455542015.8819277     
   687987385.50898218        22178905.847493142        1463033842.7765667     
   669084652.34733689        16981658.710268527        1475428196.9595878     
   650305828.73320913        12197443.398100942        1492725078.4309952     
   319898500.08580881       -70641525.611539483        1458438237.8774419     
   327175151.40428555       -26268896.192852497        1464545888.9363282     
   329879078.91441464        2861320.5313440710        1474449798.4863243     
   328010282.61620176        16749124.561067194        1488149966.5274374     
   321568762.50964636        15394515.896312952        1505646393.0596642     
  -67320073.150593758       -169381294.67441010        1482997223.4753129     
  -36776986.249164902       -75560955.447366223        1487143820.4049923     
  -15503256.511942774       -12638473.434341971        1493980407.0285115     
  -3498883.9389230283        19386151.364672277        1503506983.3458745     
  -763868.53010908887        20512918.949667156        1515723549.3570838     
   1326993266.7317626        11567290.067105293        1458349974.1799109     
   1280898911.7052126        13523581.959225178        1447316794.3119702     
   1234776609.7501593        15386717.423000813        1441763973.1545632     
   1188626360.8666079        17156696.458446324        1441691510.7076907     
   1142448165.0545540        18833519.065556228        1447099406.9713507     
   985447330.14058256        10921701.455033004        1476959605.4710801     
   952118995.06408334        9842994.2629850507        1468119063.0213909     
   919112167.95495307        9835980.2954991460        1464318561.6114025     
   886426848.81319177        10900659.552574575        1465558101.2411108     
   854063037.63879895        13037032.034214944        1471837681.9105189     
   650305828.73320913        12197443.398100942        1492725078.4309952     
   628485463.11865854        7706321.9754579067        1486484870.7780783     
   607336060.36734509        5451743.4302735627        1484844386.4940233     
   586857620.47926950        5433707.7625477612        1487803625.5788283     
   567050143.45443392        7652214.9722890854        1495362588.0324945     
   321568762.50964636        15394515.896312952        1505646393.0596642     
   309998315.86893904        7113565.0966465324        1502414217.5820317     
   299448286.98733628        2234006.8273261189        1503341447.8024223     
   289918675.86484569        755841.08838047087        1508428083.7208371     
   281409482.50145924        2679067.8797811121        1517674125.3372765     
  -763868.53010908887        20512918.949667156        1515723549.3570838     
  -3342446.6850762875        8064723.6265464006        1515907103.4332473     
  -4551152.1850707084        182770.48666753620        1519809745.5365994     
  -4389985.0300887190       -3132940.4699562704        1527431475.6671391     
  -2858945.2201256705       -1882409.2433098881        1538772293.8248672     
   1142448165.0545540        18833519.065556228        1447099406.9713507     
   1086592400.2196350        17863691.357705355        1436927538.2774160     
   1030933782.5715964        17551020.939462006        1432132486.7035942     
   975472312.11044705        17895507.810848296        1432714252.2498789     
   920207988.83619022        18897151.971878588        1438672834.9162846     
   854063037.63879895        13037032.034214944        1471837681.9105189     
   812470424.81504381        12998599.081066370        1462303491.1099126     
   770947843.62393165        13193604.903395176        1458149201.3313086     
   729495294.06545770        13622049.501187235        1459374812.5747168     
   688112776.13963461        14283932.874479443        1465980324.8401296     
   567050143.45443392        7652214.9722890854        1495362588.0324945     
   539729493.79011655        8547820.1183315516        1486317773.6452606     
   512351760.20419574        9253145.5256998837        1482655944.1819298     
   484916942.69667363        9768191.1943943501        1484377099.6424997     
   457425041.26755035        10092957.124418378        1491481240.0269711     
   281409482.50145924        2679067.8797811121        1517674125.3372765     
   268369607.14485040        4511354.4694975913        1508970385.8834667     
   255145532.31239641        5729642.8063957691        1505652715.2554517     
   241737258.00409251        6333932.8904623687        1507721113.4532347     
   228144784.21994087        6324224.7217014432        1515175580.4768093     
  -2858945.2201256705       -1882409.2433098881        1538772293.8248672     
  -1609235.1207560499        889202.13455489220        1530261327.8245256     
  -670840.05147580698        2623096.7454564669        1527139514.5518768     
  -43760.012288876576        3319274.5893803337        1529406854.0069158     
   272004.99680739513        2977735.6663339492        1537063346.1896505     
   920207988.83619022        18897151.971878588        1438672834.9162846     
   869579955.75732958        21701718.373183459        1436001730.1348414     
   819026447.03995740        24754699.312783420        1438088243.8580797     
   768547462.68405533        28056094.790619552        1444932376.0860016     
   718143002.68963945        31605904.806743383        1456534126.8186076     
   688112776.13963461        14283932.874479443        1465980324.8401296     
   649656305.66316557        16026853.518129051        1463928870.0761516     
   611263796.76431322        17982979.420501232        1466727532.4457099     
   572935249.44307649        20152310.581595600        1474376311.9488072     
   534670663.69946104        22534847.001420498        1486875208.5854423     
   457425041.26755035        10092957.124418378        1491481240.0269711     
   431404415.19019246        10853516.549405307        1490037112.0326226     
   405437187.90659362        11792071.953589782        1493535599.8006608     
   379523359.41674989        12908623.336957321        1501976703.3310974     
   353662929.72066414        14203170.699518770        1515360422.6239247     
   228144784.21994087        6324224.7217014432        1515175580.4768093     
   214824284.33842441        6181707.4670563862        1514326456.0042531     
   201546620.46680364        6181976.9120638818        1518512445.9229386     
   188311792.60507601        6325033.0567165241        1527733550.2328732     
   175119800.75324789        6610875.9010312259        1541989768.9340560     
   272004.99680739513        2977735.6663339492        1537063346.1896505     
  -84086.892146893311        2011426.2710564716        1536796901.9910436     
  -407905.55506209657        1152694.2959085843        1541658070.8125408     
  -699450.99194503180        401539.74086825736        1551646852.6541402     
  -958723.20278933924       -242037.39404261683        1566763247.5158336     
   718143002.68963945        31605904.806743383        1456534126.8186076     
   659549292.37754905        32481228.958665431        1453758110.1977961     
   600737512.14207089        32629653.365958780        1456715036.1330097     
   541707661.98321891        32051178.028672993        1465404904.6242435     
   482459741.90099251        30745802.946808353        1479827715.6714923     
   534670663.69946104        22534847.001420498        1486875208.5854423     
   490871779.46381670        23131674.663832426        1484738556.5614302     
   446926239.66608143        23239650.452615768        1488313865.8454762     
   402834044.30623549        22858774.367694288        1497601136.4375699     
   358595193.38430220        21989046.409142867        1512600368.3377216     
   353662929.72066414        14203170.699518770        1515360422.6239247     
   324598925.13869733        14503517.945603281        1513946451.9515471     
   295459679.35591775        14553061.188979700        1518223461.3392484     
   266245192.37232193        14351800.429636359        1528191450.7870369     
   236955464.18791258        13899735.667580917        1543850420.2949049     
   175119800.75324789        6610875.9010312259        1541989768.9340560     
   160730729.40218815        6596758.8039572164        1541381796.3681376     
   146337831.21160036        6569885.5751245841        1546443822.6143365     
   131941106.18147303        6530256.2144912407        1557175847.6726415     
   117540554.31182081        6477870.7221083269        1573577871.5430670     
  -958723.20278933924       -242037.39404261683        1566763247.5158336     
  -732807.74571438471       -588602.76111351140        1567044589.8112097     
  -439304.76688377128       -709876.38899887586        1572974949.6707253     
  -78214.266305047757       -605858.27772387327        1584554327.0943861     
   350463.75602357025       -276548.42728255590        1601782722.0821943     
   482459741.90099251        30745802.946808353        1479827715.6714923     
   425246767.92743713        26392534.337339267        1478199805.3468633     
   365839746.93646526        14725775.669815361        1482245886.2792401     
   304238678.92809725       -4254473.0556985736        1491965958.4686160     
   240443563.90231499       -30548211.839254156        1507360021.9150016     
   358595193.38430220        21989046.409142867        1512600368.3377216     
   316336517.44088095        18983768.054129273        1509429110.3219898     
   272424758.89031279        10468214.341962203        1511776092.5521779     
   226859917.73259178       -3557614.7273788899        1519641315.0282845     
   179641993.96772742       -23093719.153871596        1533024777.7502987     
   236955464.18791258        13899735.667580917        1543850420.2949049     
   209206083.38579452        12108946.700356893        1539766939.7333889     
   180344584.38679367        6611097.0768582597        1541045948.4066999     
   150370967.19090918       -2593813.2029192224        1547687446.3148365     
   119285231.79813606       -15505784.138993479        1559691433.4577997     
   117540554.31182081        6477870.7221083269        1573577871.5430670     
   103855465.76218285        5768070.2760319449        1569213293.5810611     
   89599223.425927132        3154423.8745671548        1570055453.8427935     
   74771827.303042099       -1363068.4823314399        1576104352.3282697     
   59373277.393546738       -7784406.7945964336        1587359989.0374718     
   350463.75602357025       -276548.42728255590        1601782722.0821943     
   284664.57004105992       -38861.218855379426        1597768171.8650062     
   188676.00771007061        98194.735077560952        1598804608.8604696     
   62498.069007132086        134619.43443594943        1604892033.0685823     
  -93869.246055723197        70412.879263363749        1616030444.4893427     
   240443563.90231499       -30548211.839254156        1507360021.9150016     
   199663192.66331387       -60251633.521136463        1486180776.8615384     
   154276358.96852508       -105309930.05564141        1467763271.3784463     
   104283062.81793515       -165723101.44281673        1452107505.4657283     
   49683304.211556807       -241491147.68261743        1439213479.1233828     
   179641993.96772742       -23093719.153871596        1533024777.7502987     
   148406674.02927715       -45579334.699158609        1507376446.7759089     
   113718309.92871222       -79575097.451491877        1484643075.8154263     
   75576901.666017145       -125081007.41092682        1464824664.8688645     
   33982449.241204478       -182097064.57742059        1447921213.9362156     
   119285231.79813606       -15505784.138993479        1559691433.4577997     
   98032735.856070295       -30642261.738933466        1530919671.2384274     
   74480614.045555606       -53444158.900371298        1505216089.4765077     
   48628866.366592646       -83911475.623301998        1482580688.1720419     
   20477492.819184735       -122044211.90771726        1463013467.3250408     
   59373277.393546738       -7784406.7945964336        1587359989.0374718     
   48541378.143694907       -15440414.640458047        1556810450.2490802     
   36563271.319069691       -26917114.402229950        1529482312.3616724     
   23438956.919670828       -42214506.079913124        1505375575.3752692     
   9168434.9454976097       -61332589.673510827        1484490239.2898612     
  -93869.246055723197        70412.879263363749        1616030444.4893427     
  -67399.107850302287        26206.596266416509        1585048783.8078673     
  -33718.250758609887        6036.0428903742632        1557441744.4709301     
   7173.3252445170328        9901.2192198076409        1533209326.4785345     
   55275.620139588566        37802.125187668622        1512351529.8306732     
   49683304.211556807       -241491147.68261743        1439213479.1233828     
   40407667.029678985       -322429218.28827107        1346243973.2338712     
   23364474.198183715       -429259141.05931067        1253138358.7355812     
  -1446274.2829149663       -561980915.99569774        1159896635.6285114     
  -34024578.413618863       -720594543.09743547        1066518803.9126554     
   33982449.241204478       -182097064.57742059        1447921213.9362156     
   29826066.949490160       -241954609.50602311        1347463501.3893178     
   19843887.851529658       -321231477.12210602        1246215049.1335661     
   4035911.9473193288       -419927667.42569536        1144175857.1689243     
  -17597860.763146192       -538043180.41679776        1041345925.4954174     
   20477492.819184735       -122044211.90771726        1463013467.3250408     
   19569990.845951594       -161382343.53075677        1357332933.4380248     
   14778450.909827694       -213667268.36343077        1250207028.7420394     
   6102873.0108149499       -278898986.40573496        1141635753.2370877     
  -6456742.8510969877       -357077497.65770030        1031619106.9231846     
   9168434.9454976097       -61332589.673510827        1484490239.2898612     
   9639438.7190625407       -80712420.362480551        1375852269.3799603     
   8168163.3730817884       -106566514.78326784        1265114297.5610201     
   4754608.9075797200       -138894872.93579021        1152276323.8330197     
  -601224.67746058851       -177697494.82011336        1037338348.1959578     
   55275.620139588566        37802.125187668622        1512351529.8306732     
   34410.568803443886        55159.998744666926        1403021509.2151537     
   13025.241296893175        70783.618401699598        1290936855.5904875     
  -8880.3623858053033        84672.984139974404        1176097568.9566777     
  -31306.242250393305        96828.095932372511        1058503649.3137245     
  -67320073.150593758       -169381294.67441010        1482997223.4753129     
  -36776986.249164902       -75560955.447366223        1487143820.4049923     
  -15503256.511942774       -12638473.434341971        1493980407.0285115     
  -3498883.9389230283        19386151.364672277        1503506983.3458745     
  -763868.53010908887        20512918.949667156        1515723549.3570838     
  -400380712.54229534       -97805248.478067726        1503930043.6132698     
  -373826969.50913274       -44117867.244624436        1495676934.0816424     
  -352568014.90531158       -8079780.7756527364        1490926560.6483328     
  -336603848.73083407        10309010.928840026        1489678923.3133485     
  -325934470.98569965        11048507.868855700        1491934022.0766811     
  -745756574.98345041       -29923769.196561366        1507568921.1559751     
  -720870043.23433125       -15672706.181446850        1491553102.0203784     
  -697303731.17969358       -5822375.4812708199        1479852765.3875809     
  -675057638.81953537       -372777.09602934122        1472467911.2575805     
  -654131766.15386248        676088.97426590323        1469398539.6303782     
  -1103447660.4740572        34263143.170111179        1493913856.1034250     
  -1077906207.4247620        9774527.7421577573        1474772324.2212000     
  -1049710405.3350854       -5866257.5511934757        1460759021.2462504     
  -1018860254.2050289       -12659212.709939659        1451873947.1785774     
  -985355754.03459358       -10604337.734094381        1448117102.0181780     
  -1473453969.0141182        94755488.621944129        1462964848.4556258     
  -1444935462.0804238        32223834.526196361        1445334600.6841094     
  -1409788037.3714890       -8211426.9854155779        1433645328.2243450     
  -1368011694.8873084       -26550295.912877262        1427897031.0763338     
  -1319606434.6278934       -22792772.256222069        1428089709.2400761     
  -763868.53010908887        20512918.949667156        1515723549.3570838     
  -3342446.6850762875        8064723.6265464006        1515907103.4332473     
  -4551152.1850707084        182770.48666753620        1519809745.5365994     
  -4389985.0300887190       -3132940.4699562704        1527431475.6671391     
  -2858945.2201256705       -1882409.2433098881        1538772293.8248672     
  -325934470.98569965        11048507.868855700        1491934022.0766811     
  -316831004.94414401        4233988.0911271274        1492345210.1522017     
  -307103680.06006151       -501002.21151255071        1496723419.0720007     
  -296752496.33345020       -3156463.0390569866        1505068648.8360767     
  -285777453.76431161       -3732394.3915097266        1517380899.4444315     
  -654131766.15386248        676088.97426590323        1469398539.6303782     
  -632637876.43838060       -292241.41483947635        1469167012.2573981     
  -611266141.69282103       -1667755.0370199084        1473150438.5457866     
  -590016561.91718364       -3450451.8922726214        1481348818.4955437     
  -568889137.11146796       -5640331.9806006551        1493762152.1066666     
  -985355754.03459358       -10604337.734094381        1448117102.0181780     
  -950763061.16778469       -5513964.8913546801        1446372509.7488377     
  -917038537.08335185       -3317487.9898653626        1449090803.9579566     
  -884182181.78128779       -4014907.0296044946        1456271984.6455338     
  -852193995.26159394       -7606222.0105808377        1467916051.8115668     
  -1319606434.6278934       -22792772.256222069        1428089709.2400761     
  -1271206559.1323619       -11431182.338425100        1423961702.6265197     
  -1224420866.2316475       -5450201.0700218678        1424544515.3085117     
  -1179249355.9257600       -4849828.4510396719        1429838147.2860501     
  -1135692028.2146902       -9630064.4814521074        1439842598.5591357     
  -2858945.2201256705       -1882409.2433098881        1538772293.8248672     
  -1609235.1207560499        889202.13455489220        1530261327.8245256     
  -670840.05147580698        2623096.7454564669        1527139514.5518768     
  -43760.012288876576        3319274.5893803337        1529406854.0069158     
   272004.99680739513        2977735.6663339492        1537063346.1896505     
  -285777453.76431161       -3732394.3915097266        1517380899.4444315     
  -271051187.52408552       -2465622.3777509630        1508500476.1410644     
  -256475811.16053310       -1701816.6195707768        1504944752.3793063     
  -242051324.67364800       -1440977.1169496924        1506713728.1591556     
  -227777728.06343740       -1683103.8699090928        1513807403.4806130     
  -568889137.11146796       -5640331.9806006551        1493762152.1066666     
  -540870466.69062805       -5933644.9190357327        1484699434.1792624     
  -512842260.99303705       -6195173.6016353369        1480896962.6073856     
  -484804520.01869524       -6424918.0283995271        1482354737.3910341     
  -456757243.76760399       -6622878.1993320286        1489072758.5302062     
  -852193995.26159394       -7606222.0105808377        1467916051.8115668     
  -811067072.62037635       -9514865.4892780483        1458858201.9391198     
  -769770189.54898536       -10856974.200729817        1454996145.2361169     
  -728303346.04742515       -11632548.144950747        1456329881.7025568     
  -686666542.11569273       -11841587.321929902        1462859411.3384333     
  -1135692028.2146902       -9630064.4814521074        1439842598.5591357     
  -1081641005.3133321       -13209284.088477612        1430976779.4206395     
  -1027259596.8283815       -15687218.416864574        1427242300.2655005     
  -972547802.75983739       -17063867.466603994        1428639161.0937192     
  -917505623.10770357       -17339231.237711132        1435167361.9052968     
   272004.99680739513        2977735.6663339492        1537063346.1896505     
  -84086.892146893311        2011426.2710564716        1536796901.9910436     
  -407905.55506209657        1152694.2959085843        1541658070.8125408     
  -699450.99194503180        401539.74086825736        1551646852.6541402     
  -958723.20278933924       -242037.39404261683        1566763247.5158336     
  -227777728.06343740       -1683103.8699090928        1513807403.4806130     
  -214923599.29882395       -2650834.6336268634        1513160491.8670928     
  -202116227.02484271       -3774420.3661180064        1517548003.4366283     
  -189355611.24150023       -5053861.0674069449        1526969938.1892149     
  -176641751.94878915       -6489156.7374639735        1541426296.1248524     
  -456757243.76760399       -6622878.1993320286        1489072758.5302062     
  -430959151.02670246       -7671907.3346656561        1487953178.1656547     
  -405286844.49310547       -9140223.8276825696        1491774831.1471126     
  -379740324.16681921       -11027827.678401276        1500537717.4745710     
  -354319590.04784012       -13334718.886810690        1514241837.1480355     
  -686666542.11569273       -11841587.321929902        1462859411.3384333     
  -648190742.07578373       -13051791.832064450        1461174960.8867369     
  -609919757.95985639       -14944716.088803589        1464338553.9439971     
  -571853589.76790690       -17520360.092134565        1472350190.5102117     
  -533992237.49993706       -20778723.842066199        1485209870.5853786     
  -917505623.10770357       -17339231.237711132        1435167361.9052968     
  -866618372.44607162       -18790488.125838578        1432825840.0303354     
  -816014967.42508590       -21187897.149451524        1435239171.8272798     
  -765695408.04475713       -24531458.308589101        1442407357.2961326     
  -715659694.30508184       -28821171.603236020        1454330396.4368887     
  -958723.20278933924       -242037.39404261683        1566763247.5158336     
  -732807.74571438471       -588602.76111351140        1567044589.8112097     
  -439304.76688377128       -709876.38899887586        1572974949.6707253     
  -78214.266305047757       -605858.27772387327        1584554327.0943861     
   350463.75602357025       -276548.42728255590        1601782722.0821943     
  -176641751.94878915       -6489156.7374639735        1541426296.1248524     
  -161878605.95981193       -7194250.2481868267        1541104140.2277448     
  -146992604.91944692       -7489826.9209526554        1546398189.0549488     
  -131983748.82770349       -7375886.7557892576        1557308442.6064701     
  -116852037.68456532       -6852429.7526434362        1573834900.8823159     
  -354319590.04784012       -13334718.886810690        1514241837.1480355     
  -325112964.49789274       -14426465.832461804        1513380661.8430169     
  -295728216.36692828       -14924470.841389403        1518102878.4224846     
  -266165345.65494174       -14828733.913576826        1528408486.8864403     
  -236424352.36193886       -14139255.049043037        1544297487.2348890     
  -533992237.49993706       -20778723.842066199        1485209870.5853786     
  -490435883.35995436       -22285249.513927639        1483874154.6570218     
  -446646139.10932022       -23013808.150285572        1488089017.7733290     
  -402623004.74803203       -22964399.751128197        1497854459.9342983     
  -358366480.27609336       -22137024.316471934        1513170481.1399260     
  -715659694.30508184       -28821171.603236020        1454330396.4368887     
  -657847362.54599953       -30770601.292595237        1452584618.6697712     
  -599746373.14663494       -31757838.847683549        1456356607.1074843     
  -541356726.10697401       -31782884.268446356        1465646361.7500396     
  -482678421.42702967       -30845737.554935351        1480453882.5974255     
   350463.75602357025       -276548.42728255590        1601782722.0821943     
   284664.57004105992       -38861.218855379426        1597768171.8650062     
   188676.00771007061        98194.735077560952        1598804608.8604696     
   62498.069007132086        134619.43443594943        1604892033.0685823     
  -93869.246055723197        70412.879263363749        1616030444.4893427     
  -116852037.68456532       -6852429.7526434362        1573834900.8823159     
  -103323032.72406712       -5820755.7422861271        1569368205.5833781     
  -89264775.872981787       -3024908.7633064091        1570124836.9994128     
  -74677267.131302193        1535111.1843203492        1576104795.1304142     
  -59560506.499026448        7859304.1006005257        1587308079.9763811     
  -236424352.36193886       -14139255.049043037        1544297487.2348890     
  -208808144.67692789       -12165874.663404278        1540031328.3323271     
  -180103243.83436140       -6563517.0859166980        1541160835.6470470     
  -150309649.83424678        2667817.6834008396        1547686009.1790497     
  -119427362.67657873        15528129.644563220        1559606848.9283421     
  -358366480.27609336       -22137024.316471934        1513170481.1399260     
  -316170671.28851110       -19074217.982108340        1509757540.1118498     
  -272326727.87642175       -10517630.232721195        1511912604.8033757     
  -226834650.03982231        3532738.9316987097        1519635675.2145026     
  -179694437.77871576        23076889.511143826        1532926751.3452287     
  -482678421.42702967       -30845737.554935351        1480453882.5974255     
  -425410612.55882692       -26545785.698432162        1478546840.9219503     
  -365935227.99916381       -14887248.203731880        1482380144.4683974     
  -304252267.74802864        4129874.9292102605        1491953793.2367609     
  -240361731.80543220        30505583.700357273        1507267787.2270503     
  -93869.246055723197        70412.879263363749        1616030444.4893427     
  -67399.107850302287        26206.596266416509        1585048783.8078673     
  -33718.250758609887        6036.0428903742632        1557441744.4709301     
   7173.3252445170328        9901.2192198076409        1533209326.4785345     
   55275.620139588566        37802.125187668622        1512351529.8306732     
  -59560506.499026448        7859304.1006005257        1587308079.9763811     
  -48670213.936216503        15471534.995115981        1556785224.1062591     
  -36623912.781082675        26937127.864044003        1529477663.2541738     
  -23421603.033642434        42256082.707326055        1505385397.4201274     
  -9063284.6938824765        61428399.525006101        1484508426.6041219     
  -119427362.67657873        15528129.644563220        1559606848.9283421     
  -98128465.764871255        30660232.293912284        1530883062.0552292     
  -74524762.387433946        53475023.162361987        1505215243.8736463     
  -48616252.544261873        83972502.249925673        1482603394.3836062     
  -20402936.235362217        122152669.55658391        1463047513.5851002     
  -179694437.77871576        23076889.511143826        1532926751.3452287     
  -148442154.59382871        45592298.492611118        1507342297.6547756     
  -113736267.06980175        79619721.937875420        1484654486.3293521     
  -75576775.206615835        125159159.84700501        1464863317.3689680     
  -33963679.004293494        182210612.21992126        1447968790.7736149     
  -240361731.80543220        30505583.700357273        1507267787.2270503     
  -199611280.42309043        60267733.591202021        1486162930.9049003     
  -154258426.82818544        105371224.19059408        1467795390.6212888     
  -104303171.02071281        165816055.49854401        1452165166.3762085     
  -49745513.000674888        241602227.51504356        1439272258.1696668     
   55275.620139588566        37802.125187668622        1512351529.8306732     
   34410.568803443886        55159.998744666926        1403021509.2151537     
   13025.241296893175        70783.618401699598        1290936855.5904875     
  -8880.3623858053033        84672.984139974404        1176097568.9566777     
  -31306.242250393305        96828.095932372511        1058503649.3137245     
  -9063284.6938824765        61428399.525006101        1484508426.6041219     
  -9573381.4975026101        80837364.208981350        1375861960.8489132     
  -8142450.1400419474        106716422.76322386        1265118809.7987022     
  -4770490.6214947477        139065575.18775532        1152278973.4534602     
   542497.05812691152        177884821.48253882        1037342451.8132185     
  -20402936.235362217        122152669.55658391        1463047513.5851002     
  -19522414.179468274        161517196.23451349        1357349742.5336816     
  -14759315.525233984        213823644.90691087        1250213233.9013767     
  -6113640.2726671845        279072015.57375181        1141637987.6881835     
   6414611.5782491863        357262308.23508203        1031624003.8941160     
  -33963679.004293494        182210612.21992126        1447968790.7736149     
  -29812687.477082223        242094656.07536784        1347484854.2694490     
  -19837570.914285138        321392450.04943645        1246220127.8985205     
  -4038329.3158915341        420103994.14215261        1144174611.6608388     
   17585037.318099707        538229288.35353708        1041348305.5564060     
  -49745513.000674888        241602227.51504356        1439272258.1696668     
  -40444201.390358567        322569743.73151004        1346267296.0562165     
  -23377216.307197958        429422838.19079173        1253139491.7901351     
   1455442.2488113344        562161510.89290535        1159888845.3714316     
   34053774.277691334        720785761.83791447        1066515356.8000907     
  -1473453969.0141182        94755488.621944129        1462964848.4556258     
  -1444935462.0804238        32223834.526196361        1445334600.6841094     
  -1409788037.3714890       -8211426.9854155779        1433645328.2243450     
  -1368011694.8873084       -26550295.912877262        1427897031.0763338     
  -1319606434.6278934       -22792772.256222069        1428089709.2400761     
  -1879758305.3585973        42129060.246516943        1363432922.5282087     
  -1827247390.0191603        9485212.3516963720        1354147260.9235790     
  -1771057041.9254117       -10893859.695415974        1350479136.7344823     
  -1711187261.0773516       -19008155.894821882        1352428549.9609082     
  -1647638047.4749823       -14857676.246529579        1359995500.6028619     
  -2278939497.0189824       -8360424.7236837149        1274348484.7908947     
  -2203360281.5487385       -11393698.900052905        1269966343.4954109     
  -2127051118.3451099       -11993813.965151191        1270878301.7192223     
  -2050012007.4080968       -10160769.918968916        1277084359.4623375     
  -1972242948.7377095       -5894566.7615302801        1288584516.7247531     
  -2670997543.9952826       -56712966.288658142        1195711535.2436962     
  -2573274136.6691527       -30412899.229052901        1192791848.3995948     
  -2477770266.6305799       -11511289.794613600        1194842823.1785724     
  -2384485933.8795500       -8137.9853287935257        1201864459.5806210     
  -2293421138.4160714        4096556.1987843513        1213856757.6057441     
  -3055932446.2874885       -102928564.44840395        1127522073.8866045     
  -2936988955.3804173       -47572388.635308027        1122623775.6361425     
  -2823214486.7818246       -9446287.1838132143        1122372701.1125259     
  -2714609040.4917078        11449739.906099200        1126768850.3157587     
  -2611172616.5100732        15115692.634400368        1135812223.2458394     
  -1319606434.6278934       -22792772.256222069        1428089709.2400761     
  -1271206559.1323619       -11431182.338425100        1423961702.6265197     
  -1224420866.2316475       -5450201.0700218678        1424544515.3085117     
  -1179249355.9257600       -4849828.4510396719        1429838147.2860501     
  -1135692028.2146902       -9630064.4814521074        1439842598.5591357     
  -1647638047.4749823       -14857676.246529579        1359995500.6028619     
  -1588848480.1254530       -8192092.0512199998        1355322501.4588354     
  -1531138566.3503156       -5125353.1038869619        1355014447.3044477     
  -1474508306.1495788       -5657459.4045503736        1359071338.1397021     
  -1418957699.5232334       -9788410.9531941414        1367493173.9645936     
  -1972242948.7377095       -5894566.7615302801        1288584516.7247531     
  -1904051901.8367736       -4221451.9794838428        1283990142.2407506     
  -1836405979.4898074       -4365419.0439990759        1283414838.4404826     
  -1769305181.6968143       -6326467.9550894499        1286858605.3239474     
  -1702749508.4577887       -10104598.712741256        1294321442.8911417     
  -2293421138.4160714        4096556.1987843513        1213856757.6057441     
  -2216816824.2663240        480737.87678992748        1209964624.9722664     
  -2140223105.6501245       -3170398.8903621435        1209745688.7166109     
  -2063639982.5674658       -6856854.1026500463        1213199948.8387830     
  -1987067455.0183530       -10578627.760090590        1220327405.3387761     
  -2611172616.5100732        15115692.634400368        1135812223.2458394     
  -2527143247.4141121        5914477.5175778866        1133245949.6533809     
  -2442589944.8312616       -1540292.6429572105        1134006998.1328371     
  -2357512708.7615390       -7248617.8472434282        1138095368.6842110     
  -2271911539.2049289       -11210498.095242977        1145511061.3075047     
  -1135692028.2146902       -9630064.4814521074        1439842598.5591357     
  -1081641005.3133321       -13209284.088477612        1430976779.4206395     
  -1027259596.8283815       -15687218.416864574        1427242300.2655005     
  -972547802.75983739       -17063867.466603994        1428639161.0937192     
  -917505623.10770357       -17339231.237711132        1435167361.9052968     
  -1418957699.5232334       -9788410.9531941414        1367493173.9645936     
  -1351234228.4832194       -11732918.039246857        1358640781.6392033     
  -1283397311.4697955       -13299271.880605280        1354797075.7784274     
  -1215446948.4829698       -14487472.477289379        1355962056.3822689     
  -1147383139.5227375       -15297519.829287529        1362135723.4507196     
  -1702749508.4577887       -10104598.712741256        1294321442.8911417     
  -1621704027.9040935       -10519524.865301490        1285229381.1669719     
  -1540762040.9871833       -11279429.807145238        1281023352.3886731     
  -1459923547.7070558       -12384313.538260996        1281703356.5562444     
  -1379188548.0637102       -13834176.058655560        1287269393.6696894     
  -1987067455.0183530       -10578627.760090590        1220327405.3387761     
  -1893050403.5759635       -9569104.5666618347        1210742578.0039427     
  -1799353785.3805432       -9627692.1964699030        1205921130.0962343     
  -1705977600.4320974       -10754390.649519205        1205863061.6156559     
  -1612921848.7306199       -12949199.925803125        1210568372.5622013     
  -2271911539.2049289       -11210498.095242977        1145511061.3075047     
  -2165273355.4988213       -8881657.1433118582        1135180372.1501191     
  -2059172544.6498790       -8344059.0485939980        1129490408.9011142     
  -1953609106.6580925       -9597703.8110668659        1128441171.5605009     
  -1848583041.5234647       -12642591.430731177        1132032660.1282647     
  -917505623.10770357       -17339231.237711132        1435167361.9052968     
  -866618372.44607162       -18790488.125838578        1432825840.0303354     
  -816014967.42508590       -21187897.149451524        1435239171.8272798     
  -765695408.04475713       -24531458.308589101        1442407357.2961326     
  -715659694.30508184       -28821171.603236020        1454330396.4368887     
  -1147383139.5227375       -15297519.829287529        1362135723.4507196     
  -1084663229.8836784       -17856121.863504052        1358755708.2318509     
  -1022152624.3845234       -21112404.364066005        1359978425.8958912     
  -959851323.02527702       -25066367.330990195        1365803876.4428353     
  -897759325.80593216       -29718010.764253676        1376232059.8726833     
  -1379188548.0637102       -13834176.058655560        1287269393.6696894     
  -1305070610.2729440       -17630512.486670434        1282937850.1911232     
  -1231087435.1213355       -21876057.711879551        1283056918.8064578     
  -1157239022.6088891       -26570811.734295547        1287626599.5156934     
  -1083525372.7356026       -31714774.553910673        1296646892.3188326     
  -1612921848.7306199       -12949199.925803125        1210568372.5622013     
  -1527840513.6138666       -18113659.995335639        1205372265.9081385     
  -1442819399.6355288       -23478857.192914188        1204474650.5589762     
  -1357858506.7956033       -29044791.518533289        1207875526.5147109     
  -1272957835.0940957       -34811462.972217739        1215574893.7753448     
  -1848583041.5234647       -12642591.430731177        1132032660.1282647     
  -1752972939.9064465       -19305564.389497995        1126058955.3829081     
  -1657348517.9271038       -25920802.807169914        1124231621.1534469     
  -1561709775.5854218       -32488306.683713973        1126550657.4398851     
  -1466056712.8814118       -39008076.019171715        1133016064.2422161     
  -715659694.30508184       -28821171.603236020        1454330396.4368887     
  -657847362.54599953       -30770601.292595237        1452584618.6697712     
  -599746373.14663494       -31757838.847683549        1456356607.1074843     
  -541356726.10697401       -31782884.268446356        1465646361.7500396     
  -482678421.42702967       -30845737.554935351        1480453882.5974255     
  -897759325.80593216       -29718010.764253676        1376232059.8726833     
  -826056859.57695305       -31543629.370446831        1373281854.0784938     
  -754182748.02728379       -32797096.907677323        1375470029.1140473     
  -682136991.15693164       -33478413.375958949        1382796584.9793348     
  -609919588.96589160       -33587578.775281906        1395261521.6743624     
  -1083525372.7356026       -31714774.553910673        1296646892.3188326     
  -999016730.25128770       -33741769.541296065        1292355744.1247091     
  -914453454.76588762       -35586654.525058359        1292823591.3852260     
  -829835546.27940774       -37249429.505220562        1298050434.1003826     
  -745163004.79183769       -38730094.481756985        1308036272.2701824     
  -1272957835.0940957       -34811462.972217739        1215574893.7753448     
  -1176726974.5690174       -37365021.805182159        1209806288.8084161     
  -1080558493.3624480       -40126511.699839294        1208417293.9210296     
  -984452391.47439909       -43095932.656233370        1211407909.1131868     
  -888408668.90486705       -46273284.674352050        1218778134.3848834     
  -1466056712.8814118       -39008076.019171715        1133016064.2422161     
  -1359187592.5301280       -42413386.162059188        1125633488.1296127     
  -1252497863.8169525       -46416668.431978464        1122251136.7214518     
  -1145987526.7419114       -51017922.829009652        1122869010.0177398     
  -1039656581.3049835       -56217149.353086591        1127487108.0184715     
  -482678421.42702967       -30845737.554935351        1480453882.5974255     
  -425410612.55882692       -26545785.698432162        1478546840.9219503     
  -365935227.99916381       -14887248.203731880        1482380144.4683974     
  -304252267.74802864        4129874.9292102605        1491953793.2367609     
  -240361731.80543220        30505583.700357273        1507267787.2270503     
  -609919588.96589160       -33587578.775281906        1395261521.6743624     
  -537935112.81772852       -30115571.465233117        1393161012.8361547     
  -463714995.93165213       -19191428.362131372        1396831736.1944039     
  -387259238.30764776       -815149.46594186127        1406273691.7491152     
  -308567839.94572937        25013265.223296687        1421486879.5002909     
  -745163004.79183769       -38730094.481756985        1308036272.2701824     
  -658373612.86503363       -36059557.168561727        1305775038.8234365     
  -569320515.15385902       -25843333.907465547        1309315924.5476916     
  -478003711.65829885       -8081424.6984233260        1318658929.4429479     
  -384423202.37836474        17226170.458537951        1333804053.5092056     
  -888408668.90486705       -46273284.674352050        1218778134.3848834     
  -786726112.70073652       -44377742.808416396        1216388918.8838038     
  -682751785.66577673       -34842964.839716792        1219832709.5282652     
  -576485687.79997373       -17668950.768205374        1229109506.3182669     
  -467927819.10333961        7144299.4060756862        1244219309.2538047     
  -1039656581.3049835       -56217149.353086591        1127487108.0184715     
  -922992612.32483101       -55070128.384771883        1125002653.0172486     
  -804008807.46739638       -46190321.158846885        1128382091.1361136     
  -682705166.73267043       -29577727.675286114        1137625422.3750553     
  -559081690.12065125       -5232347.9340809286        1152732646.7340798     
  -240361731.80543220        30505583.700357273        1507267787.2270503     
  -199611280.42309043        60267733.591202021        1486162930.9049003     
  -154258426.82818544        105371224.19059408        1467795390.6212888     
  -104303171.02071281        165816055.49854401        1452165166.3762085     
  -49745513.000674888        241602227.51504356        1439272258.1696668     
  -308567839.94572937        25013265.223296687        1421486879.5002909     
  -258982952.93906331        55284223.579067841        1404754344.4428630     
  -202947225.08365983        107057984.76396880        1391962795.7198591     
  -140460656.37951058        180334548.77801865        1383112233.3312843     
  -71523246.826631740        275113915.62116921        1378202657.2771304     
  -384423202.37836474        17226170.458537951        1333804053.5092056     
  -322564821.75911623        49037654.675714672        1323600351.4587042     
  -252407161.65495777        108513403.84259139        1318541306.0385170     
  -173950222.06587946        195653417.95919573        1318626917.2486429     
  -87194002.991892591        310457697.02550042        1323857185.0890892     
  -467927819.10333961        7144299.4060756862        1244219309.2538047     
  -390356886.88325441        41528026.881120071        1242700951.9524322     
  -302638236.54207873        109737481.42646961        1247530921.5772588     
  -204771868.07980406        211772663.04213914        1258709218.1282954     
  -96757781.496465057        347633571.72803980        1276235841.6055381     
  -559081690.12065125       -5232347.9340809286        1152732646.7340798     
  -462359148.31146401        32755340.195330679        1162056145.9240363     
  -353640449.74501944        110730217.51560858        1178931642.3360865     
  -232925594.42131037        228692284.02676645        1203359135.9702320     
  -100214582.34033829        386641539.72879565        1235338626.8264740     
  -49745513.000674888        241602227.51504356        1439272258.1696668     
  -40444201.390358567        322569743.73151004        1346267296.0562165     
  -23377216.307197958        429422838.19079173        1253139491.7901351     
   1455442.2488113344        562161510.89290535        1159888845.3714316     
   34053774.277691334        720785761.83791447        1066515356.8000907     
  -71523246.826631740        275113915.62116921        1378202657.2771304     
  -57362304.923383504        376849799.39216298        1296693648.7523673     
  -34230583.722030431        508488280.82349902        1214252959.3237510     
  -2128083.2225758135        670029359.91519678        1130880588.9912753     
   38945196.574995875        861473036.66725659        1046576537.7549490     
  -87194002.991892591        310457697.02550042        1323857185.0890892     
  -70484398.656354517        432268657.99283868        1255250086.9491446     
  -43598909.197463602        587999236.03802514        1184902469.1541240     
  -6537534.6152030826        777649431.16109943        1112814331.7040231     
   40699725.090417922        1001219243.3620472        1038985674.5988417     
  -96757781.496465057        347633571.72803980        1276235841.6055381     
  -79810482.589276582        488826319.53353906        1221936610.6465404     
  -51482192.733486325        667955703.83437490        1165088021.2812424     
  -11772911.929071605        885021724.63063812        1105690073.5096409     
   39317359.823961496        1140024381.9222677        1043742767.3317424     
  -100214582.34033829        386641539.72879565        1235338626.8264740     
  -85340556.722159922        546522784.01421106        1196753219.8445656     
  -57880434.330109328        748357684.21253967        1154809615.7051268     
  -17834215.164184332        992146240.32378566        1109507814.4081583     
   34798100.775610566        1277888452.3479199        1060847815.9536633     
  -3055932446.2874885       -102928564.44840395        1127522073.8866045     
  -2936988955.3804173       -47572388.635308027        1122623775.6361425     
  -2823214486.7818246       -9446287.1838132143        1122372701.1125259     
  -2714609040.4917078        11449739.906099200        1126768850.3157587     
  -2611172616.5100732        15115692.634400368        1135812223.2458394     
  -3410544276.0447102       -53903106.174353361        1034521687.7257569     
  -3286858482.1194744       -23226117.459068894        1023861474.3928806     
  -3165957757.8983693       -1832694.4242566824        1017897159.7543205     
  -3047842103.3814111        10277162.930077434        1016628743.8100786     
  -2932511518.5685997        13103454.603936553        1020056226.5601524     
  -3768431435.9699011       -5860246.9506871700        930091478.69830549     
  -3639864267.6908612        179276.06747484207        916450628.32140779     
  -3511698216.5116253        4881742.0862827301        907554351.60629797     
  -3383933282.4321971        8247151.1057360172        903402648.55297184     
  -3256569465.4525771        10275503.125835896        903995519.16143227     
  -4129593926.0630360        41200013.222594500        814231446.80424714     
  -3996006312.0945787        22643791.944319248        800391237.42172348     
  -3860435862.6215854        10697022.347807646        791344276.66845298     
  -3722882577.6440654        5359704.4330706596        787090564.54443431     
  -3583346457.1620121        6631838.2000989914        787630101.04967356     
  -4494031746.3241396        87277674.345482588        686941592.04358923     
  -4355284615.3306332        44167430.171463013        675683301.69382286     
  -4212170696.2282529        15613146.360327244        669266934.94078636     
  -4064689989.0170140        1614822.9120767117        667692491.78447175     
  -3912842493.6969032        2172459.8267214298        670959972.22488177     
  -2611172616.5100732        15115692.634400368        1135812223.2458394     
  -2527143247.4141121        5914477.5175778866        1133245949.6533809     
  -2442589944.8312616       -1540292.6429572105        1134006998.1328371     
  -2357512708.7615390       -7248617.8472434282        1138095368.6842110     
  -2271911539.2049289       -11210498.095242977        1145511061.3075047     
  -2932511518.5685997        13103454.603936553        1020056226.5601524     
  -2839020952.3250427        5555442.3346606493        1017119270.1148232     
  -2745265513.1063728       -1109660.0175579786        1017751327.2078300     
  -2651245200.9125943       -6891852.4527407885        1021952397.8391688     
  -2556960015.7436910       -11791134.970856428        1029722482.0088439     
  -3256569465.4525771        10275503.125835896        903995519.16143227     
  -3152927155.0145307        4587857.8181720972        900385642.59950554     
  -3049279032.1131358       -1080412.6116645336        900586471.04233205     
  -2945625096.7483845       -6729308.1636584997        904598004.48990893     
  -2841965348.9202881       -12358828.837819934        912420242.94223547     
  -3583346457.1620121        6631838.2000989914        787630101.04967356     
  -3468861855.4825673        3011723.9681127071        783045067.10742640     
  -3354630501.8515334       -1452550.4252448082        782512429.63634896     
  -3240652396.2689209       -6760984.9799969196        786032188.63643634     
  -3126927538.7347183       -12913579.696135283        793604344.10769236     
  -3912842493.6969032        2172459.8267214298        670959972.22488177     
  -3786825053.7291503        827040.78450274467        665097543.63858604     
  -3661319922.3215866       -2226073.4583415985        663529202.98987520     
  -3536327099.4741945       -6986882.9017655849        666254950.27875066     
  -3411846585.1869860       -13455387.545798302        673274785.50520718     
  -2271911539.2049289       -11210498.095242977        1145511061.3075047     
  -2165273355.4988213       -8881657.1433118582        1135180372.1501191     
  -2059172544.6498790       -8344059.0485939980        1129490408.9011142     
  -1953609106.6580925       -9597703.8110668659        1128441171.5605009     
  -1848583041.5234647       -12642591.430731177        1132032660.1282647     
  -2556960015.7436910       -11791134.970856428        1029722482.0088439     
  -2438324826.5250449       -9495136.3201282024        1018874012.7523440     
  -2320026853.1690426       -8323190.5448784828        1012620862.3589255     
  -2202066095.6756735       -8275297.6450797319        1010963030.8285817     
  -2084442554.0449445       -9351457.6207399368        1013900518.1613173     
  -2841965348.9202881       -12358828.837819934        912420242.94223547     
  -2711462888.6042657       -10134592.812838793        901287510.08023357     
  -2581097487.1563554       -8367219.6815878153        894704689.03600383     
  -2450869144.5765696       -7056709.4440805912        892671779.80954325     
  -2320777860.8649073       -6203062.1003035307        895188782.40085411     
  -3126927538.7347183       -12913579.696135283        793604344.10769236     
  -2984687541.7364802       -10800026.621454954        782420864.13379192     
  -2842384446.6118360       -8476146.4587607384        775741888.93235195     
  -2700018253.3607979       -5941939.2080844641        773567418.50337672     
  -2557588961.9833627       -3197404.8694167137        775897452.84686518     
  -3411846585.1869860       -13455387.545798302        673274785.50520718     
  -3257998785.9216890       -11491437.745956063        662274074.91301024     
  -3103887731.5354705       -8649970.8763706684        655732462.04797220     
  -2949513422.0283408       -4930986.9370834827        653649946.91008794     
  -2794875857.4002900       -334485.92806136608        656026529.49936116     
  -1848583041.5234647       -12642591.430731177        1132032660.1282647     
  -1752972939.9064465       -19305564.389497995        1126058955.3829081     
  -1657348517.9271038       -25920802.807169914        1124231621.1534469     
  -1561709775.5854218       -32488306.683713973        1126550657.4398851     
  -1466056712.8814118       -39008076.019171715        1133016064.2422161     
  -2084442554.0449445       -9351457.6207399368        1013900518.1613173     
  -1978010605.9401081       -14486207.197793603        1007535234.5895286     
  -1871703713.3200741       -20037808.390848160        1004995410.8659235     
  -1765521876.1848373       -26006261.199900627        1006281046.9905053     
  -1659465094.5344017       -32391565.624959111        1011392142.9632659     
  -2320777860.8649073       -6203062.1003035307        895188782.40085411     
  -2204440953.8942890       -10084654.582251787        888269314.84764504     
  -2088368478.2556002       -14847684.837306619        884854396.47491050     
  -1972560433.9488409       -20492152.865460277        884944027.28264499     
  -1857016820.9740174       -27018058.666720748        888538207.27085650     
  -2557588961.9833627       -3197404.8694167137        775897452.84686518     
  -2432263983.7689848       -6100906.5428644419        768261196.15725350     
  -2307342812.7336764       -10350432.146519899        763808577.98040199     
  -2182825448.8774314       -15945981.680397868        762539598.31631160     
  -2058711892.2002454       -22887555.144472957        764454257.16498029     
  -2794875857.4002900       -334485.92806136608        656026529.49936116     
  -2661479695.5642033       -2534963.0796335936        647510878.51835835     
  -2528626716.7543063       -6546050.3185086250        641857955.38240325     
  -2396316920.9706073       -12367747.644711614        639067760.09149754     
  -2264550308.2130995       -20000055.058212996        639140292.64563632     
  -1466056712.8814118       -39008076.019171715        1133016064.2422161     
  -1359187592.5301280       -42413386.162059188        1125633488.1296127     
  -1252497863.8169525       -46416668.431978464        1122251136.7214518     
  -1145987526.7419114       -51017922.829009652        1122869010.0177398     
  -1039656581.3049835       -56217149.353086591        1127487108.0184715     
  -1659465094.5344017       -32391565.624959111        1011392142.9632659     
  -1542502886.7060673       -35679993.705626905        1002328733.5927731     
  -1425530844.1680930       -38935639.420822680        997002040.17812920     
  -1308548966.9204791       -42158502.770553887        995412062.71933413     
  -1191557254.9632182       -45348583.754800260        997558801.21639502     
  -1857016820.9740174       -27018058.666720748        888538207.27085650     
  -1730714407.8074756       -30415469.326836824        878014728.71485686     
  -1604212933.5835290       -33149343.128941357        870964457.36611342     
  -1477512398.3021791       -35219680.073030949        867387393.22462463     
  -1350612801.9634280       -36626480.159116447        867283536.29039931     
  -2058711892.2002454       -22887555.144472957        764454257.16498029     
  -1923822155.8343332       -26619813.025684237        752691473.49586296     
  -1788544132.0632558       -29057779.556334496        744138388.28541100     
  -1652877820.8870203       -30201454.736457229        738795001.53362191     
  -1516823222.3056164       -30050838.566031277        736661313.24049914     
  -2264550308.2130995       -20000055.058212996        639140292.64563632     
  -2121826130.7866573       -24293024.802168131        626358967.93579209     
  -1978524439.6072905       -26660948.703041434        616523832.93602192     
  -1834645234.6749959       -27103826.760815740        609634887.64631212     
  -1690188515.9897780       -25621658.975524664        605692132.06668019     
  -1039656581.3049835       -56217149.353086591        1127487108.0184715     
  -922992612.32483101       -55070128.384771883        1125002653.0172486     
  -804008807.46739638       -46190321.158846885        1128382091.1361136     
  -682705166.73267043       -29577727.675286114        1137625422.3750553     
  -559081690.12065125       -5232347.9340809286        1152732646.7340798     
  -1191557254.9632182       -45348583.754800260        997558801.21639502     
  -1061406249.5316789       -42387069.551861405        993879323.34725678     
  -929812019.15382302       -34614805.527864993        994291866.57419229     
  -796774563.82963359       -22031791.682751596        998796430.89719605     
  -662293883.55911672       -4638028.0165589750        1007393016.3162782     
  -1350612801.9634280       -36626480.159116447        867283536.29039931     
  -1212037251.5776746       -33369220.170720398        861386322.80055749     
  -1072895087.1765593       -28223246.797788382        857809258.38277483     
  -933186308.76007652       -21188560.040287435        856552343.03706014     
  -792910916.32822609       -12265159.898233593        857615576.76340628     
  -1516823222.3056164       -30050838.566031277        736661313.24049914     
  -1374885618.4628122       -28016580.241316020        727523651.37715828     
  -1233258011.5356050       -27015644.968591630        718934266.56187630     
  -1091940401.5240016       -27048032.747874796        710893158.79464769     
  -950932788.42797732       -28113743.579099059        703400328.07547355     
  -1690188515.9897780       -25621658.975524664        605692132.06668019     
  -1549951350.1870883       -26329149.763639867        592291309.07705998     
  -1410900792.2309632       -30992000.040303826        577666891.11148226     
  -1273036842.1213884       -39610209.805470943        561818878.16995585     
  -1136359499.8583684       -52183779.059149802        544747270.25247693     
  -559081690.12065125       -5232347.9340809286        1152732646.7340798     
  -462359148.31146401        32755340.195330679        1162056145.9240363     
  -353640449.74501944        110730217.51560858        1178931642.3360865     
  -232925594.42131037        228692284.02676645        1203359135.9702320     
  -100214582.34033829        386641539.72879565        1235338626.8264740     
  -662293883.55911672       -4638028.0165589750        1007393016.3162782     
  -547152393.76083648        25638981.421206951        1020889145.4503697     
  -421134346.76828235        92171181.506544352        1042781086.2828115     
  -284239742.58145458        194958572.23947024        1073068838.8136108     
  -136468581.20035994        334001153.61994135        1111752403.0427744     
  -792910916.32822609       -12265159.898233593        857615576.76340628     
  -656939580.03724098        11024440.398973525        873978136.35147464     
  -511211286.11497635        66837232.800457418        899580322.11415672     
  -355726034.56143630        155173217.30618939        934422134.05146110     
  -190483825.37661859        276032393.91618598        978503572.16338253     
  -950932788.42797732       -28113743.579099059        703400328.07547355     
  -791720707.14068437       -11088282.871361554        721323118.62736285     
  -623871267.78510904        34728371.397318900        749329349.83012736     
  -447384470.36124104        109336219.22697169        787419021.68377244     
  -262260314.86908278        212735260.61759728        835592134.18830669     
  -1136359499.8583684       -52183779.059149802        544747270.25247693     
  -951495775.07116747       -40699188.389828563        562924092.27802420     
  -759114291.77866364       -4155402.7028195262        592028169.43072069     
  -559215049.98087382        57447578.001803905        632059501.71055365     
  -351798049.67778051        144109753.72410518        683018089.11753058     
  -100214582.34033829        386641539.72879565        1235338626.8264740     
  -85340556.722159922        546522784.01421106        1196753219.8445656     
  -57880434.330109328        748357684.21253967        1154809615.7051268     
  -17834215.164184332        992146240.32378566        1109507814.4081583     
   34798100.775610566        1277888452.3479199        1060847815.9536633     
  -136468581.20035994        334001153.61994135        1111752403.0427744     
  -127350282.89485750        483032739.01530176        1090184463.1221991     
  -95096544.242357820        709182458.90064311        1070051005.2471029     
  -39707365.242873609        1012450313.2759354        1051352029.4175007     
   38817254.103594124        1392836302.1411777        1034087535.6333878     
  -190483825.37661859        276032393.91618598        978503572.16338253     
  -173427885.23229444        418322331.16698384        986260666.80610657     
  -122687161.16787693        672894881.48475802        1000244922.6973333     
  -38261653.183356881        1039750044.8695532        1020456339.8370714     
   79848638.721261203        1518887821.3213406        1046894918.2253008     
  -262260314.86908278        212735260.61759728        835592134.18830669     
  -223573363.73447901        352391560.46923506        884981830.89629304     
  -140652285.10666656        639494951.96490216        945391368.05579746     
  -13497078.985635340        1074045435.1046293        1016820745.6668322     
   157892254.62860984        1656043009.8884077        1099269963.7293665     
  -351798049.67778051        144109753.72410518        683018089.11753058     
  -277786718.40141773        285240426.92202669        786347955.39275467     
  -148991916.05873066        608982670.34104562        905490341.32251108     
   34586357.350291014        1115336483.9811690        1040445246.9068017     
   272948101.82564062        1804301867.8423798        1191212672.1456311     
  -4494031746.3241396        87277674.345482588        686941592.04358923     
  -4355284615.3306332        44167430.171463013        675683301.69382286     
  -4212170696.2282529        15613146.360327244        669266934.94078636     
  -4064689989.0170140        1614822.9120767117        667692491.78447175     
  -3912842493.6969032        2172459.8267214298        670959972.22488177     
  -4887568569.7269049        23909850.485291719        501591965.20463198     
  -4726976507.8076162        14868288.168597221        497127157.92352104     
  -4565359214.7870684        9244162.8561162949        496762216.55997568     
  -4402716690.6652508        7037474.5478458405        500497141.11399907     
  -4239048935.4421749        8248223.2437903881        508331931.58558869     
  -5269622057.7897015       -36012972.772905111        328774350.17636400     
  -5089305229.7422256       -11621902.671542883        327204542.78836966     
  -4911304727.6010952        5048081.0753374100        328992543.63878149     
  -4735620551.3662958        13996978.467771292        334138352.72760451     
  -4562252701.0378370        15224789.505743265        342641970.05484074     
  -5640192210.5125437       -92490795.429115534        168488746.95878571     
  -5442270781.1344709       -35303142.348990440        165915456.28836635     
  -5250007234.6703453        3024901.0179972649        165957916.17720187     
  -5063401571.1201553        22493334.671849251        168616126.62529132     
  -4882453790.4839077        23102158.612566471        173890087.63263494     
  -5999279027.8954268       -145523617.48334122        20735155.551893517     
  -5785873161.9843454       -56175430.863712788        13259898.423517713     
  -5581466735.9948111        3174622.6840853691        7658334.1752406014     
  -5386059749.9268169        32526543.160089254        3930462.8070525764     
  -5199652203.7803640        31880330.564286947        2076284.3189734938     
  -3912842493.6969032        2172459.8267214298        670959972.22488177     
  -3786825053.7291503        827040.78450274467        665097543.63858604     
  -3661319922.3215866       -2226073.4583415985        663529202.98987520     
  -3536327099.4741945       -6986882.9017655849        666254950.27875066     
  -3411846585.1869860       -13455387.545798302        673274785.50520718     
  -4239048935.4421749        8248223.2437903881        508331931.58558869     
  -4103326549.4639926        2687804.2412216663        503168641.68341577     
  -3967566245.3068829       -2746220.8315896988        502149299.22714758     
  -3831768022.9708481       -8053851.9746501446        505273904.21677905     
  -3695931882.4558868       -13235089.187952995        512542456.65231556     
  -4562252701.0378370        15224789.505743265        342641970.05484074     
  -4417254341.8826017        5320678.6928219795        338819750.03241664     
  -4271667837.8093328       -2622949.0599939823        338991336.96421242     
  -4125493188.8180294       -8606093.7526934147        343156730.85023034     
  -3978730394.9086914       -12628755.385275364        351315931.69047105     
  -4882453790.4839077        23102158.612566471        173890087.63263494     
  -4728608430.9849882        8725664.1392796040        172050868.68558678     
  -4573624699.8289289       -1856258.1435453892        174055316.20107237     
  -4417502597.0157261       -8643608.2358877659        179903430.17910340     
  -4260242122.5453844       -11636386.137771130        189595210.61967236     
  -5199652203.7803640        31880330.564286947        2076284.3189734938     
  -5037388816.7711420        12902760.580610752        2861997.6429252648     
  -4873436831.3656693       -446148.08221983910        7341236.9377270490     
  -4707796247.5639544       -8166395.4242453575        15514002.203395898     
  -4540467065.3659849       -10257981.445436001        27380293.439918444     
  -3411846585.1869860       -13455387.545798302        673274785.50520718     
  -3257998785.9216890       -11491437.745956063        662274074.91301024     
  -3103887731.5354705       -8649970.8763706684        655732462.04797220     
  -2949513422.0283408       -4930986.9370834827        653649946.91008794     
  -2794875857.4002900       -334485.92806136608        656026529.49936116     
  -3695931882.4558868       -13235089.187952995        512542456.65231556     
  -3529889977.3911939       -9279211.2646830082        502153666.92732984     
  -3363836285.6010394       -5284044.2565515041        496226185.13854897     
  -3197770807.0854311       -1249588.1635706425        494760011.28597349     
  -3031693541.8443685        2824157.0142649412        497755145.36960155     
  -3978730394.9086914       -12628755.385275364        351315931.69047105     
  -3800488069.1616030       -6679054.8736896515        341245683.03799021     
  -3622485425.0845208       -1528293.2621018887        335638952.53076488     
  -3444722462.6774416        2823529.4494667053        334495740.16879052     
  -3267199181.9403706        6376413.2610154152        337816045.95207214     
  -4260242122.5453844       -11636386.137771130        189595210.61967236     
  -4069793061.2329202       -3690968.5729680061        179550123.24499327     
  -3879835149.9859147        2617282.1069719791        173970764.22462022     
  -3690368388.8043771        7288365.9020123482        172857133.55854777     
  -3501392777.6883025        10322282.812192917        176209231.24676582     
  -4540467065.3659849       -10257981.445436001        27380293.439918444     
  -4337804953.6051416       -314952.36251711845        17066987.548344150     
  -4135885460.3052220        7152681.8506751060        11221620.220110459     
  -3934708585.4662299        12144921.194097519        9844191.4552343432     
  -3734274329.0881600        14661765.667779446        12934701.253698187     
  -2794875857.4002900       -334485.92806136608        656026529.49936116     
  -2661479695.5642033       -2534963.0796335936        647510878.51835835     
  -2528626716.7543063       -6546050.3185086250        641857955.38240325     
  -2396316920.9706073       -12367747.644711614        639067760.09149754     
  -2264550308.2130995       -20000055.058212996        639140292.64563632     
  -3031693541.8443685        2824157.0142649412        497755145.36960155     
  -2890875200.4607763       -926870.42565608025        489450807.08466238     
  -2750231565.8865085       -5260253.8966515064        484350929.13467866     
  -2609762638.1215568       -10175993.398689508        482455511.51965100     
  -2469468417.1659245       -15674088.931809545        483764554.23958135     
  -3267199181.9403706        6376413.2610154152        337816045.95207214     
  -3117982282.4666848        1367749.0955075026        330152909.28288543     
  -2968571613.5854464       -2995017.0448025465        326035965.43855846     
  -2818967175.2966495       -6711885.1599239111        325465214.41909826     
  -2669168967.6003013       -9782855.2498785257        328440656.22450823     
  -3501392777.6883025        10322282.812192917        176209231.24676582     
  -3342800941.5819311        4348895.4838831425        169617185.11301842     
  -3183646859.8511267        249660.23701441288        166913064.29403996     
  -3023930532.4958878       -1975422.9284083843        168096868.78984115     
  -2863651959.5162191       -2326354.0123931170        173168598.60041276     
  -3734274329.0881600        14661765.667779446        12934701.253698187     
  -3565331177.8064985        8016568.7394556999        7843634.5750763593     
  -3395457304.6835346        4473777.9488294125        6982225.7011330323     
  -3224652709.7192650        4033393.2958810329        10350474.631874451     
  -3052917392.9136877        6695414.7806136608        17948381.367301095     
  -2264550308.2130995       -20000055.058212996        639140292.64563632     
  -2121826130.7866573       -24293024.802168131        626358967.93579209     
  -1978524439.6072905       -26660948.703041434        616523832.93602192     
  -1834645234.6749959       -27103826.760815740        609634887.64631212     
  -1690188515.9897780       -25621658.975524664        605692132.06668019     
  -2469468417.1659245       -15674088.931809545        483764554.23958135     
  -2319029985.2379985       -17968111.208527923        473100203.79295284     
  -2168310817.9525976       -19326348.960339189        464962409.99111241     
  -2017310915.3097112       -19748802.187193036        459351172.83405745     
  -1866030277.3093619       -19235470.889172196        456266492.32179195     
  -2669168967.6003013       -9782855.2498785257        328440656.22450823     
  -2512215232.7859821       -10437615.543878436        319547038.57973891     
  -2355277541.0096459       -11145852.631164908        312760344.51447374     
  -2198355892.2712703       -11907566.511649847        308080574.02870709     
  -2041450286.5708823       -12722757.185423970        305507727.12245387     
  -2863651959.5162191       -2326354.0123931170        173168598.60041276     
  -2701381873.4306111       -1701537.8082236052        165699472.29614368     
  -2539424608.7784300       -2119459.7155019045        159917636.50609642     
  -2377780165.5596566       -3580119.7341247797        155823091.23027107     
  -2216448543.7743273       -6083517.8642346859        153415836.46866363     
  -3052917392.9136877        6695414.7806136608        17948381.367301095     
  -2886529907.1718664        8240121.9984633923        11557504.942177033     
  -2720752021.2589569        7752829.7866283655        6434285.9659872483     
  -2555583735.1748834        5233538.1453288794        2578724.4387445515     
  -2391025048.9197068        682247.07437431812       -9179.6395689919682     
  -1690188515.9897780       -25621658.975524664        605692132.06668019     
  -1549951350.1870883       -26329149.763639867        592291309.07705998     
  -1410900792.2309632       -30992000.040303826        577666891.11148226     
  -1273036842.1213884       -39610209.805470943        561818878.16995585     
  -1136359499.8583684       -52183779.059149802        544747270.25247693     
  -1866030277.3093619       -19235470.889172196        456266492.32179195     
  -1728731524.7055612       -22627714.881374359        442671697.74573129     
  -1591522964.3853590       -26320599.818914115        428659738.73204225     
  -1454404596.3487532       -30314125.701780260        414230615.28071511     
  -1317376420.5957329       -34608292.529924333        399384327.39176333     
  -2041450286.5708823       -12722757.185423970        305507727.12245387     
  -1904785859.9136147       -18108528.205983043        292998112.45007777     
  -1767115209.9769926       -20140221.628681660        280877763.87838340     
  -1628438336.7610197       -18817837.453540027        269146681.40738094     
  -1488755240.2656603       -14141375.680464327        257804865.03706563     
  -2216448543.7743273       -6083517.8642346859        153415836.46866363     
  -2078114355.8112640       -12771589.737470508        143270553.19008988     
  -1937677529.0058911       -12450865.469688892        134320966.55052012     
  -1795138063.3581734       -5121345.0607424974        126567076.54996219     
  -1650495958.8681552        9216971.4891871214        120008883.18840545     
  -2391025048.9197068        682247.07437431812       -9179.6395689919682     
  -2248717012.3984914       -6616899.4758248329       -6510980.0342295803     
  -2103209921.4720011       -3252531.3417497873       -11010653.251551116     
  -1954503776.1402531        10775351.476511359       -13508199.291560661     
  -1802598576.4031930        35466748.979135633       -14003618.154226990     
  -1136359499.8583684       -52183779.059149802        544747270.25247693     
  -951495775.07116747       -40699188.389828563        562924092.27802420     
  -759114291.77866364       -4155402.7028195262        592028169.43072069     
  -559215049.98087382        57447578.001803905        632059501.71055365     
  -351798049.67778051        144109753.72410518        683018089.11753058     
  -1317376420.5957329       -34608292.529924333        399384327.39176333     
  -1117742213.5541930       -14752348.849670649        421224961.52380669     
  -914478275.02782202        17202699.780019760        441568399.26029390     
  -707584605.01661718        61256853.359164745        460414640.60122120     
  -497061203.52057493        117410111.88775072        477763685.54659754     
  -1488755240.2656603       -14141375.680464327        257804865.03706563     
  -1309848983.8917813        3436391.1341183782        278773279.75173277     
  -1131201023.0535378        20153172.829918504        285820046.54813820     
  -952811357.75092125        36008969.406950653        278945165.42629015     
  -774679987.98393404        51003780.865216911        258148636.38618362     
  -1650495958.8681552        9216971.4891871214        120008883.18840545     
  -1527816086.0839233        13867031.561544776        135569046.96181166     
  -1409282535.8558028        4696016.4468657374        124783111.29425848     
  -1294895308.1837895       -18296073.854829311        87651076.185754567     
  -1184654403.0678670       -55109239.343510747        24172941.636286493     
  -1802598576.4031930        35466748.979135633       -14003618.154226990     
  -1771643520.1306276        16539572.432595730       -8387736.8459584787     
  -1748722813.4346480       -29168769.369207740       -41542406.501350500     
  -1733836456.3152094       -101658276.42615980       -113467627.12038863     
  -1726984448.7723505       -200928948.73837698       -224163398.70309561     
  -351798049.67778051        144109753.72410518        683018089.11753058     
  -277786718.40141773        285240426.92202669        786347955.39275467     
  -148991916.05873066        608982670.34104562        905490341.32251108     
   34586357.350291014        1115336483.9811690        1040445246.9068017     
   272948101.82564062        1804301867.8423798        1191212672.1456311     
  -497061203.52057493        117410111.88775072        477763685.54659754     
  -388240991.98009300        223064407.26643237        597051545.73673034     
  -230295351.15293768        492470133.60070014        735489804.43378103     
  -23224281.039126515        925627290.89049721        893078461.63775337     
   232972218.36138785        1522535879.1358995        1069817517.3486410     
  -774679987.98393404        51003780.865216911        258148636.38618362     
  -621514099.45823812        124042737.44098049        386793441.74828947     
  -424880823.42552733        341972985.70680583        537926524.46969390     
  -184780159.88580468        704794525.66265380        711547884.55040431     
   98787891.160928190        1212507357.3085568        907657521.99041688     
  -1184654403.0678670       -55109239.343510747        24172941.636286493     
  -977606040.83584142       -11824582.554260612        155573643.42742383     
  -732748332.87649345        157491226.65940884        312800501.43025702     
  -450081279.18978047        452838188.29764462        495853515.64476430     
  -129604879.77570963        874216302.36036098        704732686.07097316     
  -1726984448.7723505       -200928948.73837698       -224163398.70309561     
  -1456516816.1129286       -184537552.71940017       -96607849.225842908     
  -1153897879.5058305       -60975143.541492701        60111735.315462664     
  -819127638.95102453        169758278.79541326        245995354.92084926     
  -452206094.44853508        507662714.29130888        461043009.59030151     
 </DataArray>
 <DataArray  type="Float64" Name="VM" NumberOfComponents="1" format="ascii">
   6041321092.7042341     
   5812244021.4943628     
   5596878346.0655603     
   5393484080.7277679     
   5200954103.0704365     
   5676523882.2339163     
   5472669692.1907682     
   5276535308.0793381     
   5087437363.9124517     
   4904991948.0264463     
   5327399116.0471621     
   5145100696.9759531     
   4966212744.1317167     
   4790667108.1896496     
   4618484350.7746964     
   4990339526.9037504     
   4827676549.4546843     
   4665937041.2639322     
   4505123472.0987101     
   4345289469.8718758     
   4662438586.9990282     
   4519190148.6497040     
   4376438314.0589991     
   4233610013.4818158     
   4090379558.0496430     
   5200954103.0704365     
   5036288148.0694017     
   4871726228.9208345     
   4707291106.7430964     
   4543012535.8511982     
   4904991948.0264463     
   4747088206.2932873     
   4589337345.4074526     
   4431792338.8578148     
   4274526359.1695542     
   4618484350.7746964     
   4469404086.5531654     
   4320840455.3152037     
   4172888236.0110407     
   4025684349.7760649     
   4345289469.8718758     
   4207119677.0213585     
   4070191058.9736018     
   3934652613.6020813     
   3800726151.4740834     
   4090379558.0496430     
   3965130036.9590354     
   3842250249.5565939     
   3721950190.6823068     
   3604549596.5221424     
   4543012535.8511982     
   4342351083.8774986     
   4141728659.4214840     
   3941126206.4192801     
   3740569086.1102099     
   4274526359.1695542     
   4085140389.2693825     
   3896371222.0648694     
   3708265453.7945666     
   3520932642.7754259     
   4025684349.7760649     
   3848235780.9559827     
   3672125693.6968074     
   3497482830.0161576     
   3324519640.9922166     
   3800726151.4740834     
   3635919035.2546563     
   3473322193.2028365     
   3313158490.4950686     
   3155754475.0728712     
   3604549596.5221424     
   3453078380.2240510     
   3304828679.0587878     
   3160119338.8926711     
   3019387463.6314869     
   3740569086.1102099     
   3569057271.6169744     
   3397812287.5161033     
   3226841817.6265655     
   3056204774.8132668     
   3520932642.7754259     
   3359580916.2758226     
   3198977281.5708160     
   3039195894.2045331     
   2880371733.4891853     
   3324519640.9922166     
   3173259399.1085906     
   3023272456.1290545     
   2874706777.1178751     
   2727780914.5553169     
   3155754475.0728712     
   3014681053.7437415     
   2875445806.7772336     
   2738273915.1314111     
   2603469259.2027802     
   3019387463.6314869     
   2888750609.7729144     
   2760540273.6956472     
   2635054730.2451811     
   2512674855.9597168     
   3056204774.8132668     
   2890284162.3904843     
   2724271504.2600803     
   2558161792.4342732     
   2391951471.1788950     
   2880371733.4891853     
   2717408210.4202247     
   2554652936.5141368     
   2392133701.3660293     
   2229894736.3634043     
   2727780914.5553169     
   2570167062.3099298     
   2413458235.1340337     
   2257790149.8918452     
   2103355194.1708183     
   2603469259.2027802     
   2453766446.5757194     
   2306109454.5699024     
   2160815871.3731914     
   2018318638.6495197     
   2512674855.9597168     
   2373391493.3772588     
   2237705521.9451942     
   2106151029.7322721     
   1979429070.3444033     
   2391951471.1788950     
   2246081343.2162514     
   2102316800.8967385     
   1960664310.4816720     
   1821286603.6801839     
   2229894736.3634043     
   2087135048.5161526     
   1945972728.1963665     
   1806410764.3086624     
   1668524262.1762567     
   2103355194.1708183     
   1963032981.7494855     
   1823650643.8181684     
   1685238972.9284947     
   1547856576.9308119     
   2018318638.6495197     
   1881369801.0605490     
   1744769844.2145486     
   1608647259.4712043     
   1473178731.1038382     
   1979429070.3444033     
   1848487136.4806416     
   1717653008.7509620     
   1587276414.2112985     
   1457862656.9860981     
   1821286603.6801839     
   1780386230.0789766     
   1736013569.2514689     
   1696791808.8761344     
   1681181427.2974653     
   1668524262.1762567     
   1552942076.9124527     
   1428267865.7656112     
   1294866070.8086867     
   1158850994.2668042     
   1547856576.9308119     
   1397871420.7065256     
   1244329690.1572196     
   1084970649.2587001     
   917772983.99660814     
   1473178731.1038382     
   1328884399.0029438     
   1199047035.8710015     
   1088157000.4327314     
   1002131128.3225174     
   1457862656.9860981     
   1348845470.5893354     
   1274796922.8236322     
   1243850603.3394847     
   1263050824.4489503     
   1681181427.2974653     
   1383697157.3153875     
   1129463109.9620016     
   1010161344.6351445     
   1152988631.3687642     
   1158850994.2668042     
   1008440213.0572731     
   985253415.90221691     
   1161510502.6087325     
   1544090195.8557668     
   917772983.99660814     
   963182096.10050261     
   1144978333.2766793     
   1476508711.8194182     
   1957456289.5824649     
   1002131128.3225174     
   1164791055.0636652     
   1425476089.9562855     
   1808774719.8619275     
   2334776426.2805095     
   1263050824.4489503     
   1446790358.0793493     
   1715743160.0653551     
   2110503782.8054659     
   2663529830.5821667     
   4662438586.9990282     
   4519190148.6497040     
   4376438314.0589991     
   4233610013.4818158     
   4090379558.0496430     
   4330377205.4908857     
   4201612038.4653869     
   4074498330.2950273     
   3949096645.5561028     
   3825601998.5895872     
   4037796244.4553933     
   3920547704.9277239     
   3806991749.4445868     
   3697468555.6368403     
   3592399722.2090249     
   3790899577.7971363     
   3681658524.7779946     
   3578974429.7517409     
   3483024674.5591226     
   3394094216.6294866     
   3596933337.1365290     
   3491396590.7003517     
   3396002290.5431504     
   3310258710.1738281     
   3233908548.4555640     
   4090379558.0496430     
   3965130036.9590354     
   3842250249.5565939     
   3721950190.6823068     
   3604549596.5221424     
   3825601998.5895872     
   3716497764.8275905     
   3610343117.7831511     
   3507424538.5222392     
   3408116293.0822992     
   3592399722.2090249     
   3498574370.7159438     
   3408207608.0852289     
   3321615972.0730805     
   3239178743.9934006     
   3394094216.6294866     
   3314747303.9077430     
   3239232132.9491787     
   3167844221.2015142     
   3100917334.8971844     
   3233908548.4555640     
   3168259991.5421839     
   3106612436.8717432     
   3049190025.7219548     
   2996236050.5317512     
   3604549596.5221424     
   3453078380.2240510     
   3304828679.0587878     
   3160119338.8926711     
   3019387463.6314869     
   3408116293.0822992     
   3271465900.2894702     
   3138775408.0166779     
   3010455837.5143538     
   2887040688.3325438     
   3239178743.9934006     
   3118000064.1804776     
   3001564545.6172347     
   2890357748.0789380     
   2784981801.3140650     
   3100917334.8971844     
   2995808689.1735210     
   2896217165.8192921     
   2802670660.6744633     
   2715796447.3588281     
   2996236050.5317512     
   2907614614.3918052     
   2825203847.2339754     
   2749530977.4510908     
   2681196666.9559140     
   3019387463.6314869     
   2888750609.7729144     
   2760540273.6956472     
   2635054730.2451811     
   2512674855.9597168     
   2887040688.3325438     
   2768462587.5363898     
   2653368687.7639885     
   2542190375.1543732     
   2435459237.9388056     
   2784981801.3140650     
   2680301072.6063738     
   2580298518.1676741     
   2485516393.9496613     
   2396598030.4061294     
   2715796447.3588281     
   2626505201.9720826     
   2543111954.0871840     
   2466217104.3583550     
   2396503726.6217623     
   2681196666.9559140     
   2608210015.7315745     
   2542243763.0718999     
   2483888139.4534574     
   2433785401.5733252     
   2512674855.9597168     
   2373391493.3772588     
   2237705521.9451942     
   2106151029.7322721     
   1979429070.3444033     
   2435459237.9388056     
   2311178653.1565061     
   2191933286.4528289     
   2078448542.8546243     
   1971622482.1275392     
   2396598030.4061294     
   2289101890.1172075     
   2188064449.5688400     
   2094303614.7618065     
   2008770971.5639675     
   2396503726.6217623     
   2306779396.9300585     
   2224707321.8001776     
   2151073549.3914480     
   2086734449.1965842     
   2433785401.5733252     
   2361861367.7035985     
   2298412974.7852635     
   2244097129.5231862     
   2199583155.5729346     
   1979429070.3444033     
   1848487136.4806416     
   1717653008.7509620     
   1587276414.2112985     
   1457862656.9860981     
   1971622482.1275392     
   1855382623.5211020     
   1743553308.6540656     
   1637054724.0936010     
   1537015441.1505241     
   2008770971.5639675     
   1912366702.7060692     
   1824748531.4760215     
   1747114996.9524519     
   1680756320.5601313     
   2086734449.1965842     
   2011769806.0521739     
   1949152278.7644074     
   1899961466.1181357     
   1865226592.1403785     
   2199583155.5729346     
   2144671651.8319709     
   2104673200.8502879     
   2080358871.5226605     
   2072407844.7857275     
   1457862656.9860981     
   1348845470.5893354     
   1274796922.8236322     
   1243850603.3394847     
   1263050824.4489503     
   1537015441.1505241     
   1476195789.4012010     
   1448059905.3313997     
   1456575578.6729970     
   1505034907.3467946     
   1680756320.5601313     
   1652338298.1024029     
   1651627990.9414310     
   1680992706.2437408     
   1743038662.2705243     
   1865226592.1403785     
   1854805185.2101088     
   1867333192.9999130     
   1905018070.7591901     
   1970891918.7619920     
   2072407844.7857275     
   2068980799.2702832     
   2084755757.0943537     
   2122364615.8798468     
   2185625315.9783840     
   1263050824.4489503     
   1446790358.0793493     
   1715743160.0653551     
   2110503782.8054659     
   2663529830.5821667     
   1505034907.3467946     
   1613370873.5843518     
   1788901140.2726078     
   2066385153.2865961     
   2476040688.0064464     
   1743038662.2705243     
   1787782871.7117105     
   1884672382.2963538     
   2060619354.2459247     
   2340856808.3382034     
   1970891918.7619920     
   1968984082.7432144     
   2003621583.4556770     
   2093474402.9446473     
   2257196115.2565408     
   2185625315.9783840     
   2156258555.4710698     
   2146489045.3113017     
   2166829060.2843056     
   2228334945.9108009     
   3596933337.1365290     
   3491396590.7003517     
   3396002290.5431504     
   3310258710.1738281     
   3233908548.4555640     
   3417962096.4120388     
   3326312670.3647380     
   3241817263.7198758     
   3164646896.9139538     
   3095046532.8164697     
   3255610413.8344269     
   3177327698.7776337     
   3105283781.9134202     
   3039761393.8846130     
   2981131058.6548009     
   3111829206.9909410     
   3047241107.3359046     
   2990159483.5147963     
   2940324990.1152835     
   2897800589.5166597     
   2990376620.3662887     
   2940173590.1670642     
   2901057547.1776395     
   2871456349.8202939     
   2850622591.2402349     
   3233908548.4555640     
   3168259991.5421839     
   3106612436.8717432     
   3049190025.7219548     
   2996236050.5317512     
   3095046532.8164697     
   3036249939.1174636     
   2982438764.3892279     
   2933882009.5637722     
   2890869821.5811572     
   2981131058.6548009     
   2929635354.8868656     
   2884291969.5694313     
   2845380067.0924730     
   2813199332.7195206     
   2897800589.5166597     
   2853348208.0307870     
   2816369118.7477136     
   2787113564.6104155     
   2765849664.7994394     
   2850622591.2402349     
   2812070460.9157844     
   2782437947.4021864     
   2761911894.4029222     
   2750693780.2942462     
   2996236050.5317512     
   2907614614.3918052     
   2825203847.2339754     
   2749530977.4510908     
   2681196666.9559140     
   2890869821.5811572     
   2815949359.1673241     
   2748152973.3480306     
   2687976788.7606692     
   2635970342.9638276     
   2813199332.7195206     
   2751614011.2421179     
   2697981748.3850927     
   2652729910.5500031     
   2616318298.4525619     
   2765849664.7994394     
   2716616861.6565928     
   2676052472.1560450     
   2644488229.4836240     
   2622271223.9865317     
   2750693780.2942462     
   2712171428.0618072     
   2682917989.8747830     
   2663159832.6636462     
   2653128174.9357677     
   2681196666.9559140     
   2608210015.7315745     
   2542243763.0718999     
   2483888139.4534574     
   2433785401.5733252     
   2635970342.9638276     
   2577681765.9582272     
   2527080529.4612594     
   2484667161.2967601     
   2450965433.5059843     
   2616318298.4525619     
   2571813143.0902700     
   2535479800.5092120     
   2507705623.5611916     
   2488880791.4798512     
   2622271223.9865317     
   2590093509.9111295     
   2566406705.5156403     
   2551481845.8702822     
   2545582390.6121764     
   2653128174.9357677     
   2631363105.2333374     
   2618288707.1581159     
   2614073185.8105006     
   2618874898.4844308     
   2433785401.5733252     
   2361861367.7035985     
   2298412974.7852635     
   2244097129.5231862     
   2199583155.5729346     
   2450965433.5059843     
   2393962668.3592739     
   2346305445.5002666     
   2308533205.6455908     
   2281167116.4666138     
   2488880791.4798512     
   2445869947.1473112     
   2412852525.8412490     
   2390229915.5153098     
   2378370292.8532596     
   2545582390.6121764     
   2515083189.8322177     
   2495067642.7496543     
   2485805895.3734126     
   2487534043.8451419     
   2618874898.4844308     
   2599014285.5768900     
   2590058780.3129659     
   2592170269.0681791     
   2605484465.3170133     
   2199583155.5729346     
   2144671651.8319709     
   2104673200.8502879     
   2080358871.5226605     
   2072407844.7857275     
   2281167116.4666138     
   2241104701.8781605     
   2214919471.7433848     
   2203061725.1488395     
   2205917823.7937584     
   2378370292.8532596     
   2350179991.4272814     
   2334804400.6491480     
   2332492321.2276564     
   2343462407.4230318     
   2487534043.8451419     
   2468534336.9268994     
   2461377184.9992719     
   2466196692.1169057     
   2483124866.0074129     
   2605484465.3170133     
   2593363073.9176540     
   2592262891.1895332     
   2602260731.2193804     
   2623450805.4463072     
   2072407844.7857275     
   2068980799.2702832     
   2084755757.0943537     
   2122364615.8798468     
   2185625315.9783840     
   2205917823.7937584     
   2191586341.7189412     
   2192231905.8725319     
   2209824966.6608086     
   2247289569.9436350     
   2343462407.4230318     
   2319055129.0758777     
   2306182696.7537594     
   2306251719.4911766     
   2321352978.1619821     
   2483124866.0074129     
   2450419470.9261198     
   2426292098.2852645     
   2411688612.2888598     
   2407986447.1518240     
   2623450805.4463072     
   2584903400.1093311     
   2552278447.0546703     
   2526157128.6106410     
   2507347363.0018744     
   2185625315.9783840     
   2156258555.4710698     
   2146489045.3113017     
   2166829060.2843056     
   2228334945.9108009     
   2247289569.9436350     
   2182595324.8770947     
   2134337134.2108757     
   2112173683.3962255     
   2127028031.2048671     
   2321352978.1619821     
   2224659796.7071919     
   2141291215.8453372     
   2079607718.0034108     
   2049773857.8489888     
   2407986447.1518240     
   2282745645.6298432     
   2167998037.0267448     
   2070481961.4222317     
   1998963264.1318376     
   2507347363.0018744     
   2357061836.1128244     
   2214927981.0789938     
   2085927246.8457260     
   1976937864.2840106     
   2990376620.3662887     
   2940173590.1670642     
   2901057547.1776395     
   2871456349.8202939     
   2850622591.2402349     
   2762800432.8545408     
   2742987935.4197760     
   2732697242.4609699     
   2731563587.5396309     
   2739469290.0421948     
   2614788640.2753787     
   2614727789.1568861     
   2622968511.8897853     
   2639557836.9634428     
   2664544775.2482729     
   2551675856.1176915     
   2559494510.0729609     
   2574857496.8041115     
   2597334857.5456176     
   2626710156.7390690     
   2572870293.7756538     
   2576639929.8684511     
   2587689416.1071348     
   2604238015.5923986     
   2625393430.8478646     
   2850622591.2402349     
   2812070460.9157844     
   2782437947.4021864     
   2761911894.4029222     
   2750693780.2942462     
   2739469290.0421948     
   2713554221.5169067     
   2696017452.5134163     
   2686966763.7912350     
   2686517760.0305061     
   2664544775.2482729     
   2649362539.6631804     
   2641943286.2308602     
   2642332580.1161461     
   2650583528.4045691     
   2626710156.7390690     
   2620246135.1995282     
   2620899048.7789955     
   2628668889.1407795     
   2643567440.2775521     
   2625393430.8478646     
   2625647768.9027333     
   2632391795.7043610     
   2645591818.9129014     
   2665232982.6971140     
   2750693780.2942462     
   2712171428.0618072     
   2682917989.8747830     
   2663159832.6636462     
   2653128174.9357677     
   2686517760.0305061     
   2657952346.7881303     
   2638742190.4343433     
   2629018115.9554777     
   2628910269.5176992     
   2650583528.4045691     
   2629484560.4855046     
   2617757633.5373316     
   2615459657.3629417     
   2622645922.1347742     
   2643567440.2775521     
   2627128996.5191007     
   2620045891.8824706     
   2622330021.3554091     
   2633992847.0898156     
   2665232982.6971140     
   2650491276.2654500     
   2645084947.7962880     
   2649012483.9268370     
   2662273337.1193523     
   2653128174.9357677     
   2631363105.2333374     
   2618288707.1581159     
   2614073185.8105006     
   2618874898.4844308     
   2628910269.5176992     
   2615561400.3500137     
   2610908546.0445938     
   2615047126.5913272     
   2628064967.6264839     
   2622645922.1347742     
   2615755550.3163671     
   2617572001.9556041     
   2628137656.3744140     
   2647490829.8841166     
   2633992847.0898156     
   2631428044.2051477     
   2637622688.2885084     
   2652587352.0933342     
   2676331499.5563149     
   2662273337.1193523     
   2661811108.2397718     
   2670230474.5444393     
   2687531357.4687314     
   2713713685.5210972     
   2618874898.4844308     
   2599014285.5768900     
   2590058780.3129659     
   2592170269.0681791     
   2605484465.3170133     
   2628064967.6264839     
   2616004823.3829522     
   2614408389.1525059     
   2623359866.6345019     
   2642928014.0437269     
   2647490829.8841166     
   2641395193.0803838     
   2645414108.7182012     
   2659582431.4253612     
   2683928061.0845737     
   2676331499.5563149     
   2674395466.1328282     
   2682342631.1602955     
   2700181355.4357896     
   2727918306.2605839     
   2713713685.5210972     
   2714200930.5682373     
   2724472602.5298815     
   2744528661.2341275     
   2774369110.7181845     
   2605484465.3170133     
   2593363073.9176540     
   2592262891.1895332     
   2602260731.2193804     
   2623450805.4463072     
   2642928014.0437269     
   2632404344.6826911     
   2632085464.8048244     
   2642009526.4974437     
   2662226150.2748127     
   2683928061.0845737     
   2674701335.2317457     
   2675040830.6172929     
   2684961356.1991014     
   2704483519.9584913     
   2727918306.2605839     
   2719836624.6951094     
   2720841362.8367772     
   2730935625.6637449     
   2750124210.5026245     
   2774369110.7181845     
   2767415669.2988958     
   2769210818.7449884     
   2779754544.3862429     
   2799046840.0740066     
   2623450805.4463072     
   2584903400.1093311     
   2552278447.0546703     
   2526157128.6106410     
   2507347363.0018744     
   2662226150.2748127     
   2616757067.6315203     
   2576976597.3795962     
   2543215338.4843946     
   2515935169.5418725     
   2704483519.9584913     
   2654185078.2508202     
   2609484742.5915461     
   2570529695.0516143     
   2537526057.7122383     
   2750124210.5026245     
   2697094826.8120546     
   2649715836.2918720     
   2608023731.1082339     
   2572069571.8145881     
   2799046840.0740066     
   2745385027.3045716     
   2697568231.5075631     
   2655596452.1140537     
   2619469689.0283713     
   2507347363.0018744     
   2357061836.1128244     
   2214927981.0789938     
   2085927246.8457260     
   1976937864.2840106     
   2515935169.5418725     
   2348110270.9289083     
   2183830068.7659826     
   2026194833.1612964     
   1879770132.0535574     
   2537526057.7122383     
   2357253395.9922943     
   2176713720.1675663     
   1997378420.3254149     
   1821525299.4642727     
   2572069571.8145881     
   2384595109.7583632     
   2194045612.8687778     
   2000799080.9254699     
   1805459074.8425183     
   2619469689.0283713     
   2430104538.5517325     
   2235968224.1980920     
   2037060746.0548944     
   1833382104.2593663     
   2572870293.7756538     
   2576639929.8684511     
   2587689416.1071348     
   2604238015.5923986     
   2625393430.8478646     
   2629853223.0483022     
   2614641278.2943888     
   2605783345.4573145     
   2602750153.8054032     
   2605294190.1366882     
   2711646106.9935961     
   2680073364.1094489     
   2655578854.2428484     
   2638169167.7591305     
   2627875050.4288349     
   2819913849.0263362     
   2774414097.1368594     
   2738105043.8051958     
   2710932013.1779761     
   2692901556.3619151     
   2956427150.4086976     
   2898691868.7788005     
   2853420779.9996085     
   2820019431.5500379     
   2798235840.0889587     
   2625393430.8478646     
   2625647768.9027333     
   2632391795.7043610     
   2645591818.9129014     
   2665232982.6971140     
   2605294190.1366882     
   2604423918.9969749     
   2610498427.7494817     
   2623514862.1992574     
   2643473175.8954229     
   2627875050.4288349     
   2622098589.8393307     
   2623575094.9730892     
   2632352292.4120026     
   2648477683.7409515     
   2692901556.3619151     
   2678566526.8986955     
   2671613911.8959670     
   2672158045.5862293     
   2680325183.4334064     
   2798235840.0889587     
   2772105009.8408251     
   2753278781.8756304     
   2741941791.7806530     
   2738319276.4004178     
   2665232982.6971140     
   2650491276.2654500     
   2645084947.7962880     
   2649012483.9268370     
   2662273337.1193523     
   2643473175.8954229     
   2626695181.2556982     
   2619145354.1631370     
   2620839732.9178915     
   2631794201.1416740     
   2648477683.7409515     
   2627235042.0433064     
   2615155035.4766045     
   2612295652.3522058     
   2618713240.3621364     
   2680325183.4334064     
   2652358364.7295151     
   2633504887.3078876     
   2623886283.6111140     
   2623622098.0652294     
   2738319276.4004178     
   2701650916.7476897     
   2674033521.3741941     
   2655668378.2517672     
   2646757345.3658032     
   2662273337.1193523     
   2661811108.2397718     
   2670230474.5444393     
   2687531357.4687314     
   2713713685.5210972     
   2631794201.1416740     
   2629561460.7728033     
   2636087663.9587965     
   2651383730.8977942     
   2675459444.8108287     
   2618713240.3621364     
   2612372934.8207393     
   2614730004.8130603     
   2625828810.2265081     
   2645709821.3142076     
   2623622098.0652294     
   2610930549.7689533     
   2606908625.1285281     
   2611656497.4785366     
   2625267389.5987411     
   2646757345.3658032     
   2625655340.5281343     
   2613192330.0605969     
   2609544898.7350426     
   2614881261.7645135     
   2713713685.5210972     
   2714200930.5682373     
   2724472602.5298815     
   2744528661.2341275     
   2774369110.7181845     
   2675459444.8108287     
   2673966671.1057401     
   2682275908.9206462     
   2700394299.4894762     
   2728327238.4064584     
   2645709821.3142076     
   2640488480.2718277     
   2645217075.9820857     
   2659927535.8266540     
   2684644802.5661106     
   2625267389.5987411     
   2614525200.2187643     
   2613995056.3922429     
   2623755057.4345603     
   2643868024.2256207     
   2614881261.7645135     
   2596819948.8213196     
   2589320630.0031319     
   2592533346.2837586     
   2606582521.5441008     
   2774369110.7181845     
   2767415669.2988958     
   2769210818.7449884     
   2779754544.3862429     
   2799046840.0740066     
   2728327238.4064584     
   2720084154.2571154     
   2720952653.7169266     
   2730936224.8869510     
   2750039663.1691051     
   2684644802.5661106     
   2675125790.0906277     
   2675224908.5777769     
   2684957551.9646525     
   2704344480.8325491     
   2643868024.2256207     
   2632945214.1365762     
   2632308380.3242517     
   2641996506.8970499     
   2662059859.8555241     
   2606582521.5441008     
   2593971528.6529331     
   2592495926.8678913     
   2602233922.1465383     
   2623281394.5359249     
   2799046840.0740066     
   2745385027.3045716     
   2697568231.5075631     
   2655596452.1140537     
   2619469689.0283713     
   2750039663.1691051     
   2697054293.6738524     
   2649709272.7404585     
   2608041302.8759007     
   2572101891.5367188     
   2704344480.8325491     
   2654126360.2653632     
   2609486064.8937669     
   2570571108.6517506     
   2537588207.0654011     
   2662059859.8555241     
   2616700968.1774797     
   2576999751.6221080     
   2543287126.0737939     
   2516025365.2546692     
   2623281394.5359249     
   2584869001.3310604     
   2552336788.6309276     
   2526266072.1804504     
   2507464611.6274920     
   2619469689.0283713     
   2430104538.5517325     
   2235968224.1980920     
   2037060746.0548944     
   1833382104.2593663     
   2572101891.5367188     
   2384614984.0058932     
   2194060262.6757069     
   2000816308.6086032     
   1805487438.0693352     
   2537588207.0654011     
   2357290203.9429946     
   2176739228.7144556     
   1997407468.9920788     
   1821573512.4940369     
   2516025365.2546692     
   2348161495.4284935     
   2183862656.6764550     
   2026229705.1866589     
   1879828209.8939884     
   2507464611.6274920     
   2357125356.4387660     
   2214963867.9738908     
   2085961622.3409150     
   1976995527.8770587     
   2956427150.4086976     
   2898691868.7788005     
   2853420779.9996085     
   2820019431.5500379     
   2798235840.0889587     
   3031716774.0207295     
   2976138309.2690935     
   2930673944.8923140     
   2895373134.2416358     
   2870403298.8989296     
   3169617391.3781114     
   3109383453.9821830     
   3056856854.6075263     
   3012416995.5327086     
   2976491499.6115689     
   3357847863.3566628     
   3288261118.0847864     
   3223957783.3327270     
   3165310143.0401988     
   3112802131.9131017     
   3584507322.8003068     
   3502756072.1601362     
   3423904469.5348263     
   3348005231.9029155     
   3275382240.2105036     
   2798235840.0889587     
   2772105009.8408251     
   2753278781.8756304     
   2741941791.7806530     
   2738319276.4004178     
   2870403298.8989296     
   2832346705.3039985     
   2800849230.1474471     
   2776164528.1441483     
   2758579374.8696809     
   2976491499.6115689     
   2926309221.1844716     
   2881987203.1883836     
   2843818314.8594589     
   2812126665.6323509     
   3112802131.9131017     
   3050800870.6445098     
   2994032986.8813720     
   2942799562.2205825     
   2897434289.1393032     
   3275382240.2105036     
   3202213898.7164741     
   3133751956.2360344     
   3070279011.8160892     
   3012113084.1970015     
   2738319276.4004178     
   2701650916.7476897     
   2674033521.3741941     
   2655668378.2517672     
   2646757345.3658032     
   2758579374.8696809     
   2710688473.7526174     
   2671449537.1535120     
   2641176198.6408415     
   2620192961.2048016     
   2812126665.6323509     
   2751075925.0377965     
   2698102752.5445132     
   2653627793.8017807     
   2618102361.2497473     
   2897434289.1393032     
   2821933622.8115726     
   2753757510.9402533     
   2693407813.6530261     
   2641443900.2846718     
   3012113084.1970015     
   2921499581.4215508     
   2837309480.1336493     
   2760084949.5959496     
   2690453873.8282976     
   2646757345.3658032     
   2625655340.5281343     
   2613192330.0605969     
   2609544898.7350426     
   2614881261.7645135     
   2620192961.2048016     
   2587681686.0838871     
   2563646929.3436646     
   2548360960.6877294     
   2542089572.3383789     
   2618102361.2497473     
   2572605615.2153201     
   2535316285.1460805     
   2506612487.5266857     
   2486875305.9707956     
   2641443900.2846718     
   2581804960.5632820     
   2529956694.8028989     
   2486377780.9917717     
   2451568259.3945785     
   2690453873.8282976     
   2616002869.6257911     
   2548765663.5676246     
   2489298045.3181543     
   2438202630.8671799     
   2614881261.7645135     
   2596819948.8213196     
   2589320630.0031319     
   2592533346.2837586     
   2606582521.5441008     
   2542089572.3383789     
   2512969808.1382484     
   2494170336.0611525     
   2485955349.7577853     
   2488555494.6206241     
   2486875305.9707956     
   2444588810.0394526     
   2412286821.0613213     
   2390378305.1203051     
   2379240290.3180022     
   2451568259.3945785     
   2394370033.5976715     
   2346630524.8664360     
   2308918630.7254043     
   2281789213.5735426     
   2438202630.8671799     
   2364887800.2098608     
   2300241611.1216602     
   2244978569.5347204     
   2199836626.1767216     
   2606582521.5441008     
   2593971528.6529331     
   2592495926.8678913     
   2602233922.1465383     
   2623281394.5359249     
   2488555494.6206241     
   2469164581.9939098     
   2461689918.1191001     
   2466266773.1368885     
   2483028978.9449234     
   2379240290.3180022     
   2350778764.7696266     
   2335167051.3116498     
   2332653858.4586005     
   2343458947.4878054     
   2281789213.5735426     
   2241606619.6640773     
   2215299179.4048109     
   2203313999.0452895     
   2206036166.9530630     
   2199836626.1767216     
   2144996892.2297184     
   2105033185.9646697     
   2080707361.4652915     
   2072691985.8740354     
   2623281394.5359249     
   2584869001.3310604     
   2552336788.6309276     
   2526266072.1804504     
   2507464611.6274920     
   2483028978.9449234     
   2450398027.1491652     
   2426325902.1010585     
   2411758280.7020187     
   2408071422.4197502     
   2343458947.4878054     
   2319056758.5329514     
   2306193318.3328147     
   2306274861.3068247     
   2321389748.5556889     
   2206036166.9530630     
   2191627430.7910972     
   2192223340.7622533     
   2209794323.0064783     
   2247260819.7186184     
   2072691985.8740354     
   2069086050.4999435     
   2084735207.3089004     
   2122272934.8214078     
   2185512830.4279990     
   2507464611.6274920     
   2357125356.4387660     
   2214963867.9738908     
   2085961622.3409150     
   1976995527.8770587     
   2408071422.4197502     
   2282797939.9358301     
   2168033362.9685335     
   2070517440.1095490     
   1999017166.6649871     
   2321389748.5556889     
   2224691165.5128665     
   2141322412.8998718     
   2079647205.1182985     
   2049834332.0877581     
   2247260819.7186184     
   2182595150.1776996     
   2134360174.5569742     
   2112219911.2109838     
   2127104978.6977181     
   2185512830.4279990     
   2156215557.4854794     
   2146499564.7727864     
   2166884662.7455096     
   2228438013.3084097     
   3584507322.8003068     
   3502756072.1601362     
   3423904469.5348263     
   3348005231.9029155     
   3275382240.2105036     
   3829044820.9204154     
   3724582410.0258279     
   3622959223.3343072     
   3524396726.4379435     
   3429251471.4805574     
   4095636259.1800771     
   3971008653.0196328     
   3849695585.8344412     
   3731941762.7829118     
   3618070874.7889633     
   4383412062.1404982     
   4240394123.4249701     
   4101591390.7950978     
   3967161659.6752343     
   3837351106.6217031     
   4691677058.5048189     
   4531275796.5182066     
   4376316450.2459450     
   4226784931.8067975     
   4082818076.5461235     
   3275382240.2105036     
   3202213898.7164741     
   3133751956.2360344     
   3070279011.8160892     
   3012113084.1970015     
   3429251471.4805574     
   3343566610.1910386     
   3262037852.2511010     
   3184970444.5409298     
   3112718950.0786161     
   3618070874.7889633     
   3519590713.5579867     
   3424613449.5628700     
   3333440133.6086779     
   3246433199.8357582     
   3837351106.6217031     
   3725981431.6041980     
   3617409605.1594086     
   3511908806.7463531     
   3409822037.8815141     
   4082818076.5461235     
   3958565492.4445410     
   3836395596.3314772     
   3716535650.8413458     
   3599287048.9371719     
   3012113084.1970015     
   2921499581.4215508     
   2837309480.1336493     
   2760084949.5959496     
   2690453873.8282976     
   3112718950.0786161     
   3006106893.0142374     
   2905079496.6767669     
   2810174294.7735286     
   2722035711.8982458     
   3246433199.8357582     
   3124357799.8408608     
   3006996355.2728925     
   2894840757.0973463     
   2788501622.1399498     
   3409822037.8815141     
   3273039700.8530326     
   3140136168.2689939     
   3011529542.2278018     
   2887757684.8584061     
   3599287048.9371719     
   3448633048.4540539     
   3301105953.8951106     
   3157037296.0244570     
   3016870687.6059155     
   2690453873.8282976     
   2616002869.6257911     
   2548765663.5676246     
   2489298045.3181543     
   2438202630.8671799     
   2722035711.8982458     
   2632387449.2087173     
   2548768092.9095950     
   2471767350.3870764     
   2402053942.2613406     
   2788501622.1399498     
   2684119542.9781303     
   2584453100.0987945     
   2490054292.2254410     
   2401576335.8262682     
   2887757684.8584061     
   2769798203.6803312     
   2655233817.0275598     
   2544518389.9867201     
   2438210521.5097556     
   3016870687.6059155     
   2886961180.3021770     
   2759236907.2620192     
   2634022306.2688041     
   2511732053.9487228     
   2438202630.8671799     
   2364887800.2098608     
   2300241611.1216602     
   2244978569.5347204     
   2199836626.1767216     
   2402053942.2613406     
   2310744554.1893802     
   2227148271.0223784     
   2152079644.6132436     
   2086432466.5758007     
   2401576335.8262682     
   2292681086.1310916     
   2190241235.1666770     
   2095072425.6702900     
   2008126102.5751662     
   2438210521.5097556     
   2313054663.9588361     
   2192940758.0995908     
   2078569716.6150579     
   1970807855.1987386     
   2511732053.9487228     
   2372375892.5732656     
   2236699652.4905567     
   2105206863.1465077     
   1978554303.4685175     
   2199836626.1767216     
   2144996892.2297184     
   2105033185.9646697     
   2080707361.4652915     
   2072691985.8740354     
   2086432466.5758007     
   2011660587.1319401     
   1949208111.3393035     
   1900148327.1895320     
   1865503961.3694160     
   2008126102.5751662     
   1911978623.7004204     
   1824590367.2373986     
   1747157267.3599629     
   1680965915.3973544     
   1970807855.1987386     
   1854844411.0791211     
   1743254813.9632642     
   1636959940.4016814     
   1537089891.5550349     
   1978554303.4685175     
   1847880000.2362909     
   1717257122.1089714     
   1587037450.5086989     
   1457732928.8952265     
   2072691985.8740354     
   2069086050.4999435     
   2084735207.3089004     
   2122272934.8214078     
   2185512830.4279990     
   1865503961.3694160     
   1854913871.6716452     
   1867309105.8446538     
   1904900587.7048261     
   1970721016.4917405     
   1680965915.3973544     
   1652406393.6612732     
   1651576946.5226464     
   1680848912.3393242     
   1742832579.0940826     
   1537089891.5550349     
   1476173068.9100802     
   1447954030.7585704     
   1456402673.3062885     
   1504816076.6189010     
   1457732928.8952265     
   1348675694.5660574     
   1274601667.1779890     
   1243641784.2991300     
   1262841300.1483941     
   2185512830.4279990     
   2156215557.4854794     
   2146499564.7727864     
   2166884662.7455096     
   2228438013.3084097     
   1970721016.4917405     
   1968898059.4165392     
   2003609586.5484762     
   2093527481.3977180     
   2257309185.1074648     
   1742832579.0940826     
   1787666039.8506589     
   1884639206.8411827     
   2060660110.2718899     
   2340957454.4145379     
   1504816076.6189010     
   1613235491.3145525     
   1788848177.3436217     
   2066404009.4660490     
   2476108925.2194505     
   1262841300.1483941     
   1446648846.4973366     
   1715671953.9038663     
   2110491695.7539339     
   2663548012.9861917     
   4691677058.5048189     
   4531275796.5182066     
   4376316450.2459450     
   4226784931.8067975     
   4082818076.5461235     
   4975996657.6701841     
   4812090632.3216505     
   4650280769.8106794     
   4490705952.9379320     
   4333563497.8882685     
   5282491507.8457718     
   5114997929.4738207     
   4946760612.3846111     
   4777816197.5015955     
   4608259042.0154371     
   5602126580.8974094     
   5432311858.0276403     
   5259381328.2715502     
   5083082568.7881794     
   4903304725.9537296     
   5927965842.6299438     
   5758036773.2869501     
   5583070481.7692680     
   5402400749.3265553     
   5215666684.1066875     
   4082818076.5461235     
   3958565492.4445410     
   3836395596.3314772     
   3716535650.8413458     
   3599287048.9371719     
   4333563497.8882685     
   4196172181.9118772     
   4060437833.0048084     
   3926519541.3728356     
   3794637132.6987772     
   4608259042.0154371     
   4458706481.7720585     
   4310532914.7226095     
   4163836375.3224044     
   4018765641.2772093     
   4903304725.9537296     
   4742349479.3254452     
   4582623950.5089817     
   4424174101.1566248     
   4267090760.3991466     
   5215666684.1066875     
   5043855010.5556498     
   4873230361.3868656     
   4703795119.4381533     
   4535594714.2963467     
   3599287048.9371719     
   3448633048.4540539     
   3301105953.8951106     
   3157037296.0244570     
   3016870687.6059155     
   3794637132.6987772     
   3630968145.9678063     
   3469347070.8616729     
   3310000937.4426365     
   3153254864.4742837     
   4018765641.2772093     
   3842878654.5803332     
   3668082235.9825449     
   3494497001.4416809     
   3322321960.3187289     
   4267090760.3991466     
   4079818923.2480664     
   3892824134.8361230     
   3706131067.0780649     
   3519822350.5154147     
   4535594714.2963467     
   4337748212.9544983     
   4139512066.5087185     
   3940831968.2093678     
   3741693828.5890236     
   3016870687.6059155     
   2886961180.3021770     
   2759236907.2620192     
   2634022306.2688041     
   2511732053.9487228     
   3153254864.4742837     
   3012169831.6442637     
   2872824722.7457757     
   2735451994.2024627     
   2600364917.5980530     
   3322321960.3187289     
   3170659684.1168966     
   3020336707.1916590     
   2871494944.8401947     
   2724346964.3555598     
   3519822350.5154147     
   3357854152.3282886     
   3196870678.2877302     
   3036931987.6875162     
   2878160554.8616719     
   3741693828.5890236     
   3569372068.4581594     
   3397717925.1758113     
   3226721099.8407531     
   3056428703.2338281     
   2511732053.9487228     
   2372375892.5732656     
   2236699652.4905567     
   2105206863.1465077     
   1978554303.4685175     
   2600364917.5980530     
   2451127443.7020788     
   2304042080.2594728     
   2159422230.5864801     
   2017692336.3449097     
   2724346964.3555598     
   2567380710.4697418     
   2411361036.4564180     
   2256429540.3362627     
   2102787002.7140563     
   2878160554.8616719     
   2715739192.7974157     
   2553433096.6401286     
   2391271858.7759442     
   2229306306.6155515     
   3056428703.2338281     
   2890728090.1110277     
   2724659500.7403259     
   2558208418.3726587     
   2391366245.5006208     
   1978554303.4685175     
   1847880000.2362909     
   1717257122.1089714     
   1587037450.5086989     
   1457732928.8952265     
   2017692336.3449097     
   1880899292.8648124     
   1744418469.2676404     
   1608379209.0952928     
   1472959518.0506401     
   2102787002.7140563     
   1962546280.7658722     
   1823235765.5034344     
   1684886241.8730116     
   1547555860.7320392     
   2229306306.6155515     
   2086566778.1280091     
   1945443351.6279075     
   1805937719.8114133     
   1668124945.2999122     
   2391366245.5006208     
   2245444194.2233772     
   2101672072.4236693     
   1960053315.2545450     
   1820752628.2056093     
   1457732928.8952265     
   1348675694.5660574     
   1274601667.1779890     
   1243641784.2991300     
   1262841300.1483941     
   1472959518.0506401     
   1328671279.6367099     
   1198851907.9828548     
   1087987916.0949118     
   1001992716.3509880     
   1547555860.7320392     
   1397626898.4719248     
   1244145687.4827006     
   1084844274.6831703     
   917695065.47506011     
   1668124945.2999122     
   1552654971.5984845     
   1428086064.2825828     
   1294776134.6084707     
   1158840227.6643436     
   1820752628.2056093     
   1780030226.8757193     
   1735814367.2384233     
   1696728954.1564293     
   1681247824.3607230     
   1262841300.1483941     
   1446648846.4973366     
   1715671953.9038663     
   2110491695.7539339     
   2663548012.9861917     
   1001992716.3509880     
   1164690168.7552960     
   1425416472.7823858     
   1808753629.7505970     
   2334782978.7295618     
   917695065.47506011     
   963113797.29015648     
   1144928748.0050921     
   1476486455.0867102     
   1957467400.9543896     
   1158840227.6643436     
   1008416126.4496684     
   985219519.02628386     
   1161491153.9243879     
   1544117464.2461967     
   1681247824.3607230     
   1383731377.4137685     
   1129459807.9572263     
   1010139992.3491009     
   1153022951.5239844     
 </DataArray>
 <DataArray  type="Float64" Name="strain" NumberOfComponents="3" format="ascii">
   9.8860829858860466E-002  -3.6440704489198450E-002  -7.6731079157654758E-003
   9.5764237469876279E-002  -3.2978008417780313E-002  -6.2040700799534942E-003
   9.2667645080892203E-002  -3.0223950714484527E-002  -4.6950954919966481E-003
   8.9571052691908071E-002  -2.8178531379310937E-002  -3.1461841518952427E-003
   8.6474460302923939E-002  -2.6841750412259446E-002  -1.5573360596496943E-003
   9.3669771809643310E-002  -3.1861033032825281E-002   4.3716590482447693E-003
   9.0639124293073747E-002  -2.9424886120289817E-002   4.8166501501443748E-003
   8.7608476776504185E-002  -2.7440609931132121E-002   5.3535942447287543E-003
   8.4577829259934623E-002  -2.5908204465352316E-002   5.9824913319982409E-003
   8.1547181743365171E-002  -2.4827669722950418E-002   6.7033414119522239E-003
   8.8008913451993243E-002  -2.7281361576452057E-002   1.5261493031000162E-002
   8.5096227048378631E-002  -2.5871763822799099E-002   1.4939205043731252E-002
   8.2183540644764214E-002  -2.4657269147779631E-002   1.4760886289687997E-002
   7.9270854241149658E-002  -2.3637877551393745E-002   1.4726536768869716E-002
   7.6358167837535129E-002  -2.2813589033641224E-002   1.4836156481276841E-002
   8.1878254785910126E-002  -2.2701690120078832E-002   2.4996394032500965E-002
   7.9135545735791180E-002  -2.2318641525308602E-002   2.4163594600808233E-002
   7.6392836685672039E-002  -2.1873928364427295E-002   2.3526780642881294E-002
   7.3650127635552981E-002  -2.1367550637435093E-002   2.3085952158719936E-002
   7.0907418585433882E-002  -2.0799508344331891E-002   2.2841109148324365E-002
   7.5277795811394266E-002  -1.8122018663705663E-002   3.3576362052747000E-002
   7.2757080355311032E-002  -1.8765519227817939E-002   3.2489818821374805E-002
   7.0236364899227854E-002  -1.9090587581074861E-002   3.1651277304308584E-002
   6.7715649443144593E-002  -1.9097223723476445E-002   3.1060737501548683E-002
   6.5194933987061360E-002  -1.8785427655022724E-002   3.0718199413094560E-002
   8.6474460302923939E-002  -2.6841750412259446E-002  -1.5573360596496943E-003
   8.3770477349442984E-002  -2.5862363131670396E-002  -1.2401813879019952E-003
   8.1066494395962030E-002  -2.4889124855884848E-002  -8.6443733279517598E-004
   7.8362511442481075E-002  -2.3922035584901177E-002  -4.3010389432870944E-004
   7.5658528489000121E-002  -2.2961095318720370E-002   6.2818927497709787E-005
   8.1547181743365171E-002  -2.4827669722950418E-002   6.7033414119522239E-003
   7.8924597944384473E-002  -2.3968100529304120E-002   6.7834658191013586E-003
   7.6302014145403774E-002  -2.3098591709791019E-002   6.9677991518908855E-003
   7.3679430346423047E-002  -2.2219143264411104E-002   7.2563414103217899E-003
   7.1056846547442376E-002  -2.1329755193164490E-002   7.6490925943938914E-003
   7.6358167837535129E-002  -2.2813589033641224E-002   1.4836156481276841E-002
   7.3862602735336125E-002  -2.2073837926937095E-002   1.4695339254496606E-002
   7.1367037633137093E-002  -2.1308058563697191E-002   1.4704350495638924E-002
   6.8871472530938033E-002  -2.0516250943921031E-002   1.4863190204703350E-002
   6.6375907428739001E-002  -1.9698415067608555E-002   1.5171858381690412E-002
   7.0907418585433882E-002  -2.0799508344331891E-002   2.2841109148324365E-002
   6.8584491722297913E-002  -2.0179575324570501E-002   2.2495438918284479E-002
   6.6261564859162000E-002  -1.9517525417603585E-002   2.2345216698448502E-002
   6.3938637996026004E-002  -1.8813358623430847E-002   2.2390442488816258E-002
   6.1615711132890064E-002  -1.8067074942052647E-002   2.2631116289387847E-002
   6.5194933987061360E-002  -1.8785427655022724E-002   3.0718199413094560E-002
   6.3090264905269894E-002  -1.8285312722203767E-002   3.0183764810464447E-002
   6.0985595823478414E-002  -1.7726992271509714E-002   2.9890397760319820E-002
   5.8880926741686997E-002  -1.7110466302940820E-002   2.9838098262660220E-002
   5.6776257659895524E-002  -1.6435734816496739E-002   3.0026866317485579E-002
   7.5658528489000121E-002  -2.2961095318720370E-002   6.2818927497709787E-005
   7.2302817708810696E-002  -2.2004524721388474E-002  -2.1683433185815115E-004
   6.8947106928621160E-002  -2.1050544456951675E-002  -3.0195949716449455E-004
   6.5591396148431624E-002  -2.0099154525409814E-002  -1.9255656842145918E-004
   6.2235685368242200E-002  -1.9150354926763313E-002   1.1137445437059412E-004
   7.1056846547442376E-002  -2.1329755193164490E-002   7.6490925943938914E-003
   6.7897366122913139E-002  -2.0437037370522659E-002   7.2889491915175686E-003
   6.4737885698383790E-002  -1.9547599670957538E-002   7.1267384059126582E-003
   6.1578405273854497E-002  -1.8661442094468350E-002   7.1624602375782304E-003
   5.8418924849325204E-002  -1.7778564641055983E-002   7.3961146865156868E-003
   6.6375907428739001E-002  -1.9698415067608555E-002   1.5171858381690412E-002
   6.3416061883091721E-002  -1.8869550019656955E-002   1.4730535045112569E-002
   6.0456216337444302E-002  -1.8044654884963277E-002   1.4490548849027410E-002
   5.7496370791796939E-002  -1.7223729663527327E-002   1.4451899793434884E-002
   5.4536525246149603E-002  -1.6406774355349096E-002   1.4614587878335583E-002
   6.1615711132890064E-002  -1.8067074942052647E-002   2.2631116289387847E-002
   5.8858904989346442E-002  -1.7302062668791307E-002   2.2107923228926657E-002
   5.6102098845802702E-002  -1.6541710098969188E-002   2.1789471832180048E-002
   5.3345292702259003E-002  -1.5786017232585860E-002   2.1675762099147657E-002
   5.0588486558715270E-002  -1.5034984069641988E-002   2.1766794029829978E-002
   5.6776257659895524E-002  -1.6435734816496739E-002   3.0026866317485579E-002
   5.4225895441677274E-002  -1.5734575317925603E-002   2.9421113742959859E-002
   5.1675533223458997E-002  -1.5038765312974628E-002   2.9023507355370348E-002
   4.9125171005240734E-002  -1.4348304801644611E-002   2.8834047154716907E-002
   4.6574808787022470E-002  -1.3663193783934990E-002   2.8852733141000120E-002
   6.2235685368242200E-002  -1.9150354926763313E-002   1.1137445437059412E-004
   5.9396619639197734E-002  -1.8212499769276635E-002  -2.7258792567042001E-005
   5.6557553910153324E-002  -1.7293943161215908E-002   9.6510545080086274E-006
   5.3718488181108914E-002  -1.6394685102579659E-002   2.2210399559580152E-004
   5.0879422452064449E-002  -1.5514725593369638E-002   6.1010003069550400E-004
   5.8418924849325204E-002  -1.7778564641055983E-002   7.3961146865156868E-003
   5.5749386426036662E-002  -1.6903494070668545E-002   7.1700104708631307E-003
   5.3079848002748148E-002  -1.6040757143256396E-002   7.1074177727098453E-003
   5.0410309579459536E-002  -1.5190353858817625E-002   7.2083365920564135E-003
   4.7740771156171091E-002  -1.4352284217353461E-002   7.4727669289023080E-003
   5.4536525246149603E-002  -1.6406774355349096E-002   1.4614587878335583E-002
   5.2024482552103901E-002  -1.5594488372061288E-002   1.4307977600418964E-002
   4.9512439858058199E-002  -1.4787571125297216E-002   1.4152847263488810E-002
   4.7000397164012470E-002  -1.3986022615055924E-002   1.4149196867545122E-002
   4.4488354469966768E-002  -1.3189842841337840E-002   1.4297026412587677E-002
   5.0588486558715270E-002  -1.5034984069641988E-002   2.1766794029829978E-002
   4.8221908017399367E-002  -1.4285482673453614E-002   2.1386642596100965E-002
   4.5855329476083520E-002  -1.3534385107337760E-002   2.1145939526844862E-002
   4.3488750934767638E-002  -1.2781691371293834E-002   2.1044684822062350E-002
   4.1122172393451770E-002  -1.2027401465322163E-002   2.1082878481753192E-002
   4.6574808787022470E-002  -1.3663193783934990E-002   2.8852733141000120E-002
   4.4341662821923256E-002  -1.2976476974846274E-002   2.8406005457909111E-002
   4.2108516856824152E-002  -1.2281199089378581E-002   2.8086694562778403E-002
   3.9875370891724937E-002  -1.1577360127531980E-002   2.7894800455607938E-002
   3.7642224926625834E-002  -1.0864960089306597E-002   2.7830323136397439E-002
   5.0879422452064449E-002  -1.5514725593369638E-002   6.1010003069550400E-004
   4.8125812047660865E-002  -1.4640040194785264E-002   4.0220096618337475E-004
   4.5372201643257282E-002  -1.3756604468026512E-002   2.2980010914808169E-004
   4.2618591238853698E-002  -1.2864418413094131E-002   9.2897459591401166E-005
   3.9864980834450114E-002  -1.1963482029987871E-002  -8.5069824884431711E-006
   4.7740771156171091E-002  -1.4352284217353461E-002   7.4727669289023080E-003
   4.5035937796963132E-002  -1.3517703137012727E-002   7.1714347362481501E-003
   4.2331104437755174E-002  -1.2677765535943047E-002   6.9321584265081282E-003
   3.9626271078547243E-002  -1.1832471414144709E-002   6.7549379996819647E-003
   3.6921437719339256E-002  -1.0981820771618800E-002   6.6397734557696042E-003
   4.4488354469966768E-002  -1.3189842841337840E-002   1.4297026412587677E-002
   4.1858855831390818E-002  -1.2395366079240411E-002   1.3898867284346722E-002
   3.9229357192814840E-002  -1.1598926603859583E-002   1.3589321714456121E-002
   3.6599858554238890E-002  -1.0800524415196175E-002   1.3368389702915706E-002
   3.3970359915662912E-002  -1.0000159513249840E-002   1.3236071249725256E-002
   4.1122172393451770E-002  -1.2027401465322163E-002   2.1082878481753192E-002
   3.8594566150943976E-002  -1.1273029021468095E-002   2.0584498610479389E-002
   3.6066959908436370E-002  -1.0520087671776451E-002   2.0201289972992614E-002
   3.3539353665928695E-002  -9.7685774162473080E-003   1.9933252569292188E-002
   3.1011747423421020E-002  -9.0184982548812687E-003   1.9780386399378083E-002
   3.7642224926625834E-002  -1.0864960089306597E-002   2.7830323136397439E-002
   3.5243068755622775E-002  -1.0150691963695446E-002   2.7228328714645811E-002
   3.2843912584619717E-002  -9.4412487396929590E-003   2.6768063202117276E-002
   3.0444756413616630E-002  -8.7366304172984063E-003   2.6449526598810752E-002
   2.8045600242613600E-002  -8.0368369965123643E-003   2.6272718904727932E-002
   3.9864980834450114E-002  -1.1963482029987871E-002  -8.5069824884431711E-006
   3.7455922096837901E-002  -1.1137406473039513E-002  -2.8666347986261442E-004
   3.5046863359225688E-002  -1.0469802896582892E-002  -4.7871183432812714E-004
   3.2637804621613448E-002  -9.9606713006159114E-003  -5.8465204588437070E-004
   3.0228745884001262E-002  -9.6100116851411954E-003  -6.0448411453251083E-004
   3.6921437719339256E-002  -1.0981820771618800E-002   6.6397734557696042E-003
   3.4581112541466674E-002  -1.0181014175503877E-002   6.2049493896401131E-003
   3.2240787363594009E-002  -9.4852521929403855E-003   5.8214843000807814E-003
   2.9900462185721441E-002  -8.8945348239276301E-003   5.4893781870915259E-003
   2.7560137007848762E-002  -8.4088620684661386E-003   5.2086310506729294E-003
   3.3970359915662912E-002  -1.0000159513249840E-002   1.3236071249725256E-002
   3.1664019131191518E-002  -9.2246218779679645E-003   1.2698006981779364E-002
   2.9357678346720137E-002  -8.5007014892976296E-003   1.2176552524065937E-002
   2.7051337562248749E-002  -7.8283983472384536E-003   1.1671707876584003E-002
   2.4744996777777334E-002  -7.2077124517908597E-003   1.1183473039334424E-002
   3.1011747423421020E-002  -9.0184982548812687E-003   1.9780386399378083E-002
   2.8704641866012473E-002  -8.2682295804321904E-003   1.9192509296555596E-002
   2.6397536308603971E-002  -7.5161507856549986E-003   1.8586492837627193E-002
   2.4090430751195442E-002  -6.7622618705495026E-003   1.7962337022592537E-002
   2.1783325193786923E-002  -6.0065628351161360E-003   1.7320041851451334E-002
   2.8045600242613600E-002  -8.0368369965123643E-003   2.6272718904727932E-002
   2.5702980745929638E-002  -7.3118372828964162E-003   2.5688456333968990E-002
   2.3360361249245593E-002  -6.5316000820126452E-003   2.5051305240765598E-002
   2.1017741752561547E-002  -5.6961253938608986E-003   2.4361265625117229E-002
   1.8675122255877585E-002  -4.8054132184410792E-003   2.3618337487024577E-002
   3.0228745884001262E-002  -9.6100116851411954E-003  -6.0448411453251083E-004
   2.9615899195041817E-002  -9.1361789543440430E-003  -3.6297166517806900E-004
   2.9003052506082372E-002  -8.2575280124151940E-003  -1.8006026392625163E-003
   2.8390205817122871E-002  -6.9740588593505681E-003  -4.9173770367847425E-003
   2.7777359128163481E-002  -5.2857714951546342E-003  -9.7132948577458578E-003
   2.7560137007848762E-002  -8.4088620684661386E-003   5.2086310506729294E-003
   2.5537329800147890E-002  -7.8712306938181209E-003   5.8796850823337188E-003
   2.3514522592447074E-002  -7.1246374672470081E-003   5.4099614999502110E-003
   2.1491715384746229E-002  -6.1690823887521062E-003   3.7994603035222119E-003
   1.9468908177045385E-002  -5.0045654583330546E-003   1.0481814930498601E-003
   2.4744996777777334E-002  -7.2077124517908597E-003   1.1183473039334424E-002
   2.1850594860729017E-002  -6.6062824332921988E-003   1.2088212294092016E-002
   1.8956192943680727E-002  -5.9917469220794328E-003   1.2390539744199180E-002
   1.6061791026632424E-002  -5.3641059181525202E-003   1.2090455389656002E-002
   1.3167389109584121E-002  -4.7233594215114749E-003   1.1187959230462341E-002
   2.1783325193786923E-002  -6.0065628351161360E-003   1.7320041851451334E-002
   1.8555694376785184E-002  -5.3413341727660546E-003   1.8262609970096322E-002
   1.5328063559783438E-002  -4.8588563769117743E-003   1.9141132093484989E-002
   1.2100432742781584E-002  -4.5591294475530522E-003   1.9955608221617245E-002
   8.8728019257798482E-003  -4.4421533846896732E-003   2.0706038354492695E-002
   1.8675122255877585E-002  -4.8054132184410792E-003   2.3618337487024577E-002
   1.5652628348316322E-002  -4.0763859122401325E-003   2.4402878110347248E-002
   1.2630134440755031E-002  -3.7259658317439770E-003   2.5661738547807345E-002
   9.6076405331937537E-003  -3.7541529769536605E-003   2.7394918799405227E-002
   6.5851466256324764E-003  -4.1609473478683157E-003   2.9602418865140256E-002
   2.7777359128163481E-002  -5.2857714951546342E-003  -9.7132948577458578E-003
   2.3351993460027809E-002  -4.2075047775891328E-003  -4.1856290395589912E-003
   1.8926627791892081E-002  -4.7540975644208006E-003   2.6052593147632974E-003
   1.4501262123756270E-002  -6.9255498556471118E-003   1.0659370205221008E-002
   1.0075896455620681E-002  -1.0721861651271425E-002   1.9976703631813031E-002
   1.9468908177045385E-002  -5.0045654583330546E-003   1.0481814930498601E-003
   1.6234515874156252E-002  -4.6911526059977282E-003   6.7425152677614841E-003
   1.3000123571267230E-002  -6.2889097617521150E-003   1.3555573236831098E-002
   9.7657312683782638E-003  -9.7978369255964093E-003   2.1487355400258257E-002
   6.5313389654890752E-003  -1.5217934097530250E-002   3.0537861758043405E-002
   1.3167389109584121E-002  -4.7233594215114749E-003   1.1187959230462341E-002
   1.0979471830164206E-002  -5.1748004344049914E-003   1.6762650458005179E-002
   8.7915545507442489E-003  -7.8237219590829299E-003   2.3311567538128852E-002
   6.6036372713242711E-003  -1.2670123995544028E-002   3.0834710470831611E-002
   4.4157199919044321E-003  -1.9714006543789075E-002   3.9332079256116037E-002
   8.8728019257798482E-003  -4.4421533846896732E-003   2.0706038354492695E-002
   7.5868613280515307E-003  -5.6584482628131427E-003   2.5874776531173121E-002
   6.3009207303231472E-003  -9.3585341564137725E-003   3.1873242218656075E-002
   5.0149801325946684E-003  -1.5542411065492263E-002   3.8701435416942841E-002
   3.7290395348663213E-003  -2.4210078990048345E-002   4.6359356126030926E-002
   6.5851466256324764E-003  -4.1609473478683157E-003   2.9602418865140256E-002
   6.0566843678180882E-003  -6.1420960912208500E-003   3.4078893487264006E-002
   5.5282221100036999E-003  -1.0893346353745004E-002   3.9240597278413558E-002
   4.9997598521892700E-003  -1.8414698135440652E-002   4.5087530238587969E-002
   4.4712975943749234E-003  -2.8706151436307170E-002   5.1619692367787628E-002
   7.5277795811394266E-002  -1.8122018663705663E-002   3.3576362052747000E-002
   7.2757080355311032E-002  -1.8765519227817939E-002   3.2489818821374805E-002
   7.0236364899227854E-002  -1.9090587581074861E-002   3.1651277304308584E-002
   6.7715649443144593E-002  -1.9097223723476445E-002   3.1060737501548683E-002
   6.5194933987061360E-002  -1.8785427655022724E-002   3.0718199413094560E-002
   6.8597888618928848E-002  -1.8422354876689584E-002   3.5645182842134082E-002
   6.6312870019942127E-002  -1.8445188498766613E-002   3.5094862879671757E-002
   6.4027851420955434E-002  -1.8311205824527846E-002   3.4767934917096455E-002
   6.1742832821968727E-002  -1.8020406853973329E-002   3.4664398954407913E-002
   5.9457814222981964E-002  -1.7572791587103065E-002   3.4784254991606672E-002
   6.2228885298997089E-002  -1.8722691089673449E-002   3.8415478530826538E-002
   6.0154953842687903E-002  -1.8124857769715216E-002   3.8239765922734217E-002
   5.8081022386378661E-002  -1.7531824067980768E-002   3.8262835600109908E-002
   5.6007090930069441E-002  -1.6943589984470209E-002   3.8484687562953576E-002
   5.3933159473760227E-002  -1.6360155519183434E-002   3.8905321811265270E-002
   5.6170785851598966E-002  -1.9023027302657355E-002   4.1887249118823966E-002
   5.4283331823548199E-002  -1.7804527040663813E-002   4.1924527950562354E-002
   5.2395877795497467E-002  -1.6752442311433694E-002   4.2135979353349472E-002
   5.0508423767446776E-002  -1.5866773114967092E-002   4.2521603327185548E-002
   4.8620969739395968E-002  -1.5147519451263844E-002   4.3081399872070589E-002
   5.0423590276734598E-002  -1.9323363515641234E-002   4.6060494606126545E-002
   4.8698003962523301E-002  -1.7484196311612438E-002   4.6149148963155640E-002
   4.6972417648311976E-002  -1.5973060554886634E-002   4.6387366176814798E-002
   4.5246831334100651E-002  -1.4789956245463951E-002   4.6775146247103702E-002
   4.3521245019889326E-002  -1.3934883383344143E-002   4.7312489174022587E-002
   6.5194933987061360E-002  -1.8785427655022724E-002   3.0718199413094560E-002
   6.3090264905269894E-002  -1.8285312722203767E-002   3.0183764810464447E-002
   6.0985595823478414E-002  -1.7726992271509714E-002   2.9890397760319820E-002
   5.8880926741686997E-002  -1.7110466302940820E-002   2.9838098262660220E-002
   5.6776257659895524E-002  -1.6435734816496739E-002   3.0026866317485579E-002
   5.9457814222981964E-002  -1.7572791587103065E-002   3.4784254991606672E-002
   5.7575627651031872E-002  -1.7029973710667529E-002   3.4489597581535275E-002
   5.5693441079081821E-002  -1.6453566911417167E-002   3.4398837638661445E-002
   5.3811254507131707E-002  -1.5843571189351681E-002   3.4511975162985285E-002
   5.1929067935181622E-002  -1.5199986544471467E-002   3.4829010154506512E-002
   5.3933159473760227E-002  -1.6360155519183434E-002   3.8905321811265270E-002
   5.2236285326363860E-002  -1.5774634699131304E-002   3.8825824998692429E-002
   5.0539411178967444E-002  -1.5180141551324279E-002   3.8913055568029604E-002
   4.8842537031571064E-002  -1.4576676075762652E-002   3.9167013519276719E-002
   4.7145662884174669E-002  -1.3964238272446139E-002   3.9587698852433628E-002
   4.8620969739395968E-002  -1.5147519451263844E-002   4.3081399872070589E-002
   4.7072237931265651E-002  -1.4519295687595128E-002   4.3192447061936229E-002
   4.5523506123135361E-002  -1.3906716191231617E-002   4.3433051548424223E-002
   4.3974774315005023E-002  -1.3309780962173650E-002   4.3803213331534509E-002
   4.2426042506874692E-002  -1.2728490000420950E-002   4.4302932411266781E-002
   4.3521245019889326E-002  -1.3934883383344143E-002   4.7312489174022587E-002
   4.2083485465737425E-002  -1.3263956676058813E-002   4.7589463771266605E-002
   4.0645725911585509E-002  -1.2633290831138844E-002   4.7958825579845099E-002
   3.9207966357433593E-002  -1.2042885848584456E-002   4.8420574599758487E-002
   3.7770206803281692E-002  -1.1492741728395539E-002   4.8974710831006185E-002
   5.6776257659895524E-002  -1.6435734816496739E-002   3.0026866317485579E-002
   5.4225895441677274E-002  -1.5734575317925603E-002   2.9421113742959859E-002
   5.1675533223458997E-002  -1.5038765312974628E-002   2.9023507355370348E-002
   4.9125171005240734E-002  -1.4348304801644611E-002   2.8834047154716907E-002
   4.6574808787022470E-002  -1.3663193783934990E-002   2.8852733141000120E-002
   5.1929067935181622E-002  -1.5199986544471467E-002   3.4829010154506512E-002
   4.9584021091529276E-002  -1.4539986229583579E-002   3.4281157903107318E-002
   4.7238974247876944E-002  -1.3880743497495102E-002   3.3935790213903444E-002
   4.4893927404224591E-002  -1.3222258348206554E-002   3.3792907086895196E-002
   4.2548880560572266E-002  -1.2564530781717209E-002   3.3852508522082714E-002
   4.7145662884174669E-002  -1.3964238272446139E-002   3.9587698852433628E-002
   4.5000269790347533E-002  -1.3345397141241638E-002   3.9102338834981862E-002
   4.2854876696520348E-002  -1.2722721682015645E-002   3.8813801754984681E-002
   4.0709483602693192E-002  -1.2096211894768279E-002   3.8722087612442509E-002
   3.8564090508866028E-002  -1.1465867779499483E-002   3.8827196407354936E-002
   4.2426042506874692E-002  -1.2728490000420950E-002   4.4302932411266781E-002
   4.0474641538131975E-002  -1.2150808052899711E-002   4.3884656538583505E-002
   3.8523240569389272E-002  -1.1564699866536153E-002   4.3657541978614212E-002
   3.6571839600646514E-002  -1.0970165441330114E-002   4.3621588731358858E-002
   3.4620438631903790E-002  -1.0367204777281785E-002   4.3776796796817716E-002
   3.7770206803281692E-002  -1.1492741728395539E-002   4.8974710831006185E-002
   3.6007136334882617E-002  -1.0956218964557674E-002   4.8628111013912401E-002
   3.4244065866483597E-002  -1.0406678051056606E-002   4.8467010884791661E-002
   3.2480995398084550E-002  -9.8441189878918506E-003   4.8491410443644384E-002
   3.0717924929685503E-002  -9.2685417750639765E-003   4.8701309690470485E-002
   4.6574808787022470E-002  -1.3663193783934990E-002   2.8852733141000120E-002
   4.4341662821923256E-002  -1.2976476974846274E-002   2.8406005457909111E-002
   4.2108516856824152E-002  -1.2281199089378581E-002   2.8086694562778403E-002
   3.9875370891724937E-002  -1.1577360127531980E-002   2.7894800455607938E-002
   3.7642224926625834E-002  -1.0864960089306597E-002   2.7830323136397439E-002
   4.2548880560572266E-002  -1.2564530781717209E-002   3.3852508522082714E-002
   4.0449354349587824E-002  -1.1901586834725586E-002   3.3462997689981622E-002
   3.8349828138603381E-002  -1.1227452543929692E-002   3.3213309578150108E-002
   3.6250301927618966E-002  -1.0542127909328940E-002   3.3103444186587769E-002
   3.4150775716634524E-002  -9.8456129309241192E-003   3.3133401515294647E-002
   3.8564090508866028E-002  -1.1465867779499483E-002   3.8827196407354936E-002
   3.6610589984305345E-002  -1.0826696694605065E-002   3.8497531693669887E-002
   3.4657089459744675E-002  -1.0173705998480581E-002   3.8320095632563222E-002
   3.2703588935183991E-002  -9.5068956911260674E-003   3.8294888224034471E-002
   3.0750088410623266E-002  -8.8262657725416971E-003   3.8421909468084298E-002
   3.4620438631903790E-002  -1.0367204777281785E-002   4.3776796796817716E-002
   3.2825369726075887E-002  -9.7518065544845711E-003   4.3509607468973796E-002
   3.1030300820247984E-002  -9.1199594530315814E-003   4.3407052726017338E-002
   2.9235231914420044E-002  -8.4716634729233888E-003   4.3469132567947988E-002
   2.7440163008592117E-002  -7.8069186141593583E-003   4.3695846994766037E-002
   3.0717924929685503E-002  -9.2685417750639765E-003   4.8701309690470485E-002
   2.9093693574899382E-002  -8.6769164143638000E-003   4.8499225015893266E-002
   2.7469462220113275E-002  -8.0662129075826094E-003   4.8474180858512461E-002
   2.5845230865327147E-002  -7.4364312547201619E-003   4.8626177218328154E-002
   2.4220999510541047E-002  -6.7875714557769085E-003   4.8955214095340094E-002
   3.7642224926625834E-002  -1.0864960089306597E-002   2.7830323136397439E-002
   3.5243068755622775E-002  -1.0150691963695446E-002   2.7228328714645811E-002
   3.2843912584619717E-002  -9.4412487396929590E-003   2.6768063202117276E-002
   3.0444756413616630E-002  -8.7366304172984063E-003   2.6449526598810752E-002
   2.8045600242613600E-002  -8.0368369965123643E-003   2.6272718904727932E-002
   3.4150775716634524E-002  -9.8456129309241192E-003   3.3133401515294647E-002
   3.1895566868443331E-002  -9.1467362765413895E-003   3.2618741464383594E-002
   2.9640358020252083E-002  -8.4543266140074680E-003   3.2250247149873595E-002
   2.7385149172060891E-002  -7.7683839433231039E-003   3.2027918571764291E-002
   2.5129940323869671E-002  -7.0889082644873813E-003   3.1951755730055931E-002
   3.0750088410623266E-002  -8.8262657725416971E-003   3.8421909468084298E-002
   2.8643263712422054E-002  -8.1427805893870553E-003   3.7992941697773119E-002
   2.6536439014220772E-002  -7.4674044883223240E-003   3.7714576491040624E-002
   2.4429614316019539E-002  -6.8001374693472498E-003   3.7586813847887431E-002
   2.2322789617818292E-002  -6.1409795324621208E-003   3.7609653768313100E-002
   2.7440163008592117E-002  -7.8069186141593583E-003   4.3695846994766037E-002
   2.5486159287558992E-002  -7.1388249022330263E-003   4.3350929414813569E-002
   2.3532155566525829E-002  -6.4804823626370620E-003   4.3161051225618530E-002
   2.1578151845492687E-002  -5.8318909953718381E-003   4.3126212427180566E-002
   1.9624148124459541E-002  -5.1930508004368880E-003   4.3246413019499594E-002
   2.4220999510541047E-002  -6.7875714557769085E-003   4.8955214095340094E-002
   2.2424253593854082E-002  -6.1348692150786088E-003   4.8692704615506011E-002
   2.0627507677167159E-002  -5.4935602369517722E-003   4.8589671353606867E-002
   1.8830761760480201E-002  -4.8636445213961141E-003   4.8646114309643329E-002
   1.7034015843793271E-002  -4.2451220684118773E-003   4.8862033483615175E-002
   2.8045600242613600E-002  -8.0368369965123643E-003   2.6272718904727932E-002
   2.5702980745929638E-002  -7.3118372828964162E-003   2.5688456333968990E-002
   2.3360361249245593E-002  -6.5316000820126452E-003   2.5051305240765598E-002
   2.1017741752561547E-002  -5.6961253938608986E-003   2.4361265625117229E-002
   1.8675122255877585E-002  -4.8054132184410792E-003   2.3618337487024577E-002
   2.5129940323869671E-002  -7.0889082644873813E-003   3.1951755730055931E-002
   2.2773070476592022E-002  -6.4062242429294702E-003   3.1548701126120959E-002
   2.0416200629314402E-002  -5.7106565440791512E-003   3.1170034343443620E-002
   1.8059330782036788E-002  -5.0022051679360774E-003   3.0815755382023358E-002
   1.5702460934759133E-002  -4.2808701145000683E-003   3.0485864241860616E-002
   2.2322789617818292E-002  -6.1409795324621208E-003   3.7609653768313100E-002
   2.0028945763649136E-002  -5.5006112029629683E-003   3.7345453321227073E-002
   1.7735101909479925E-002  -4.8897130061459626E-003   3.7182917039100566E-002
   1.5441258055310769E-002  -4.3082849420114713E-003   3.7122044921933176E-002
   1.3147414201141544E-002  -3.7563270105590019E-003   3.7162836969725915E-002
   1.9624148124459541E-002  -5.1930508004368880E-003   4.3246413019499594E-002
   1.7470606607100821E-002  -4.5949981629962999E-003   4.3078712919287263E-002
   1.5317065089742118E-002  -4.0687694682127323E-003   4.3089953327736540E-002
   1.3163523572383389E-002  -3.6143647160867022E-003   4.3280134244847043E-002
   1.1009982055024691E-002  -3.2317839066180742E-003   4.3649255670619190E-002
   1.7034015843793271E-002  -4.2451220684118773E-003   4.8862033483615175E-002
   1.5098053006947110E-002  -3.6893851230294095E-003   4.8748479920301291E-002
   1.3162090170100976E-002  -3.2478259302793355E-003   4.8891143209351284E-002
   1.1226127333254815E-002  -2.9204444901622800E-003   4.9290023350764822E-002
   9.2901644964086816E-003  -2.7072408026769246E-003   4.9945120344541794E-002
   1.8675122255877585E-002  -4.8054132184410792E-003   2.3618337487024577E-002
   1.5652628348316322E-002  -4.0763859122401325E-003   2.4402878110347248E-002
   1.2630134440755031E-002  -3.7259658317439770E-003   2.5661738547807345E-002
   9.6076405331937537E-003  -3.7541529769536605E-003   2.7394918799405227E-002
   6.5851466256324764E-003  -4.1609473478683157E-003   2.9602418865140256E-002
   1.5702460934759133E-002  -4.2808701145000683E-003   3.0485864241860616E-002
   1.3135726482410265E-002  -3.7709918767750983E-003   3.1262256826549151E-002
   1.0568992030061369E-002  -3.6969109477640316E-003   3.2475848507525384E-002
   8.0022575777124391E-003  -4.0586273274679785E-003   3.4126639284788290E-002
   5.4355231253636060E-003  -4.8561410158860507E-003   3.6214629158339062E-002
   1.3147414201141544E-002  -3.7563270105590019E-003   3.7162836969725915E-002
   1.0999318486154833E-002  -3.4655978413096200E-003   3.7873891432770868E-002
   8.8512227711681213E-003  -3.6678560637839891E-003   3.8985024274253169E-002
   6.7031270561813856E-003  -4.3631016779819669E-003   4.0496235494172562E-002
   4.5550313411946430E-003  -5.5513346839037858E-003   4.2407525092529041E-002
   1.1009982055024691E-002  -3.2317839066180742E-003   4.3649255670619190E-002
   9.2434043595499733E-003  -3.1602038058443083E-003   4.4237781929012010E-002
   7.4768266640752295E-003  -3.6388011798040507E-003   4.5189265847991725E-002
   5.7102489686004622E-003  -4.6675760284963421E-003   4.6503707427558126E-002
   3.9436712731257748E-003  -6.2465283519218540E-003   4.8181106667711610E-002
   9.2901644964086816E-003  -2.7072408026769246E-003   4.9945120344541794E-002
   7.8679841025957598E-003  -2.8548097703790520E-003   5.0353928315272967E-002
   6.4458037087827824E-003  -3.6097462958239457E-003   5.1088573228740164E-002
   5.0236233149698190E-003  -4.9720503790103149E-003   5.2149055084944052E-002
   3.6014429211568832E-003  -6.9417220199394780E-003   5.3535373883884851E-002
   6.5851466256324764E-003  -4.1609473478683157E-003   2.9602418865140256E-002
   6.0566843678180882E-003  -6.1420960912208500E-003   3.4078893487264006E-002
   5.5282221100036999E-003  -1.0893346353745004E-002   3.9240597278413558E-002
   4.9997598521892700E-003  -1.8414698135440652E-002   4.5087530238587969E-002
   4.4712975943749234E-003  -2.8706151436307170E-002   5.1619692367787628E-002
   5.4355231253636060E-003  -4.8561410158860507E-003   3.6214629158339062E-002
   5.4885081529208735E-003  -6.9898066215248189E-003   3.8353149590460323E-002
   5.5414931804782241E-003  -1.1359978752889965E-002   4.0969335424300257E-002
   5.5944782080355540E-003  -1.7966657409982323E-002   4.4063186659858117E-002
   5.6474632355928978E-003  -2.6809842592800504E-002   4.7634703297134040E-002
   4.5550313411946430E-003  -5.5513346839037858E-003   4.2407525092529041E-002
   4.9818998868166875E-003  -7.8375171518285658E-003   4.2741686328092832E-002
   5.4087684324387320E-003  -1.1826611152035066E-002   4.3345949198067751E-002
   5.8356369780606689E-003  -1.7518616684523668E-002   4.4220313702453898E-002
   6.2625055236827654E-003  -2.4913533749293837E-002   4.5364779841250980E-002
   3.9436712731257748E-003  -6.2465283519218540E-003   4.8181106667711610E-002
   4.5368595695054470E-003  -8.6852276821323127E-003   4.7244503700161811E-002
   5.1300478658852042E-003  -1.2293243551179986E-002   4.6370438599716367E-002
   5.7232361622649450E-003  -1.7070575959065065E-002   4.5558911366375882E-002
   6.3164244586446858E-003  -2.3017224905787170E-002   4.4809922000138530E-002
   3.6014429211568832E-003  -6.9417220199394780E-003   5.3535373883884851E-002
   4.1533872009872908E-003  -9.5329382124361706E-003   5.1861601706666982E-002
   4.7053314808176427E-003  -1.2759875950325406E-002   5.0042803629246846E-002
   5.2572757606481058E-003  -1.6622535233606697E-002   4.8078979651623277E-002
   5.8092200404784577E-003  -2.1120916062280504E-002   4.5970129773797108E-002
   5.0423590276734598E-002  -1.9323363515641234E-002   4.6060494606126545E-002
   4.8698003962523301E-002  -1.7484196311612438E-002   4.6149148963155640E-002
   4.6972417648311976E-002  -1.5973060554886634E-002   4.6387366176814798E-002
   4.5246831334100651E-002  -1.4789956245463951E-002   4.6775146247103702E-002
   4.3521245019889326E-002  -1.3934883383344143E-002   4.7312489174022587E-002
   4.4659433441298024E-002  -1.5404557988236867E-002   5.2160720803362093E-002
   4.3103254561420390E-002  -1.4380239682620616E-002   5.1697509094664890E-002
   4.1547075681542714E-002  -1.3481658429205109E-002   5.1423549398005114E-002
   3.9990896801665093E-002  -1.2708814227990483E-002   5.1338841713382835E-002
   3.8434717921787431E-002  -1.2061707078976580E-002   5.1443386040797984E-002
   3.8550450212183257E-002  -1.1485752460832527E-002   5.7344950904633693E-002
   3.7203367922046822E-002  -1.1276283053628808E-002   5.6532167525312357E-002
   3.5856285631910415E-002  -1.0990256303523661E-002   5.5948325313436138E-002
   3.4509203341774007E-002  -1.0627672210517069E-002   5.5593424269004973E-002
   3.3162121051637558E-002  -1.0188530774608962E-002   5.5467464392018689E-002
   3.2096640589390317E-002  -7.5669469334281730E-003   6.1613184909941665E-002
   3.0998344044402680E-002  -8.1723264246370206E-003   6.0653124255098681E-002
   2.9900047499415019E-002  -8.4988541778422307E-003   5.9961693923108114E-002
   2.8801750954427351E-002  -8.5465301930436541E-003   5.9538893913970097E-002
   2.7703454409439693E-002  -8.3153544702413984E-003   5.9384724227684732E-002
   2.5298004572919253E-002  -3.6481414060238193E-003   6.4965422819285801E-002
   2.4488182928487895E-002  -5.0683697956451779E-003   6.4060379284023306E-002
   2.3678361284056537E-002  -6.0074520521607305E-003   6.3463655227020771E-002
   2.2868539639625186E-002  -6.4653881755702379E-003   6.3175250648278350E-002
   2.2058717995193849E-002  -6.4421781658737243E-003   6.3195165547796139E-002
   4.3521245019889326E-002  -1.3934883383344143E-002   4.7312489174022587E-002
   4.2083485465737425E-002  -1.3263956676058813E-002   4.7589463771266605E-002
   4.0645725911585509E-002  -1.2633290831138844E-002   4.7958825579845099E-002
   3.9207966357433593E-002  -1.2042885848584456E-002   4.8420574599758487E-002
   3.7770206803281692E-002  -1.1492741728395539E-002   4.8974710831006185E-002
   3.8434717921787431E-002  -1.2061707078976580E-002   5.1443386040797984E-002
   3.7107482453902024E-002  -1.1492742888512236E-002   5.1517022877294039E-002
   3.5780246986016631E-002  -1.0954327562946037E-002   5.1719320674988398E-002
   3.4453011518131189E-002  -1.0446461102278128E-002   5.2050279433881387E-002
   3.3125776050245803E-002  -9.9691435065084044E-003   5.2509899153972472E-002
   3.3162121051637558E-002  -1.0188530774608962E-002   5.5467464392018689E-002
   3.1981683419882445E-002  -9.7215291009655619E-003   5.5347475465234067E-002
   3.0801245788127346E-002  -9.2753642947531745E-003   5.5392421249511603E-002
   2.9620808156372226E-002  -8.8500363559717438E-003   5.5602301744851437E-002
   2.8440370524617134E-002  -8.4455452846212142E-003   5.5977116951253486E-002
   2.7703454409439693E-002  -8.3153544702413984E-003   5.9384724227684732E-002
   2.6706088363678694E-002  -7.9503153134189916E-003   5.9080821535086724E-002
   2.5708722317917692E-002  -7.5964010265603676E-003   5.8978127303414743E-002
   2.4711356272156683E-002  -7.2536116096653877E-003   5.9076641532668707E-002
   2.3713990226395688E-002  -6.9219470627340240E-003   5.9376364222848754E-002
   2.2058717995193849E-002  -6.4421781658737243E-003   6.3195165547796139E-002
   2.1280697285290751E-002  -6.1791015258723103E-003   6.2717061086852044E-002
   2.0502676575387652E-002  -5.9174377583674498E-003   6.2476438836697734E-002
   1.9724655865484567E-002  -5.6571868633589345E-003   6.2473298797333265E-002
   1.8946635155581454E-002  -5.3983488408468339E-003   6.2707640968758527E-002
   3.7770206803281692E-002  -1.1492741728395539E-002   4.8974710831006185E-002
   3.6007136334882617E-002  -1.0956218964557674E-002   4.8628111013912401E-002
   3.4244065866483597E-002  -1.0406678051056606E-002   4.8467010884791661E-002
   3.2480995398084550E-002  -9.8441189878918506E-003   4.8491410443644384E-002
   3.0717924929685503E-002  -9.2685417750639765E-003   4.8701309690470485E-002
   3.3125776050245803E-002  -9.9691435065084044E-003   5.2509899153972472E-002
   3.1554142234890656E-002  -9.5009726763690405E-003   5.2140898271006764E-002
   2.9982508419535508E-002  -9.0205465125924728E-003   5.1969271006155671E-002
   2.8410874604180382E-002  -8.5278650151784478E-003   5.1995017359419041E-002
   2.6839240788825228E-002  -8.0229281841271982E-003   5.2218137330796943E-002
   2.8440370524617134E-002  -8.4455452846212142E-003   5.5977116951253486E-002
   2.7072047292447096E-002  -8.0457263881804075E-003   5.5584952186389994E-002
   2.5703724060277107E-002  -7.6344149741284506E-003   5.5402034969782160E-002
   2.4335400828107114E-002  -7.2116110424649896E-003   5.5428365301430124E-002
   2.2967077595937101E-002  -6.7773145931901979E-003   5.5663943181333858E-002
   2.3713990226395688E-002  -6.9219470627340240E-003   5.9376364222848754E-002
   2.2560851507552004E-002  -6.5904800999918023E-003   5.8960272760061369E-002
   2.1407712788708365E-002  -6.2482834356643452E-003   5.8765302775671012E-002
   2.0254574069864695E-002  -5.8953570697515036E-003   5.8791454269677690E-002
   1.9101435351021046E-002  -5.5317010022534197E-003   5.9038727242081222E-002
   1.8946635155581454E-002  -5.3983488408468339E-003   6.2707640968758527E-002
   1.8020554880205389E-002  -5.1352338118030860E-003   6.2266859992021362E-002
   1.7094474604829296E-002  -4.8621518972002814E-003   6.2059074423822413E-002
   1.6168394329453210E-002  -4.5791030970380973E-003   6.2084284264161418E-002
   1.5242314054077111E-002  -4.2860874113163083E-003   6.2342489513039001E-002
   3.0717924929685503E-002  -9.2685417750639765E-003   4.8701309690470485E-002
   2.9093693574899382E-002  -8.6769164143638000E-003   4.8499225015893266E-002
   2.7469462220113275E-002  -8.0662129075826094E-003   4.8474180858512461E-002
   2.5845230865327147E-002  -7.4364312547201619E-003   4.8626177218328154E-002
   2.4220999510541047E-002  -6.7875714557769085E-003   4.8955214095340094E-002
   2.6839240788825228E-002  -8.0229281841271982E-003   5.2218137330796943E-002
   2.5395690320152944E-002  -7.5042384289147612E-003   5.2043378303492732E-002
   2.3952139851480640E-002  -6.9702981590169799E-003   5.2052940531219422E-002
   2.2508589382808360E-002  -6.4211073744344996E-003   5.2246824013977830E-002
   2.1065038914136053E-002  -5.8566660751666610E-003   5.2625028751767333E-002
   2.2967077595937101E-002  -6.7773145931901979E-003   5.5663943181333858E-002
   2.1711488751213592E-002  -6.3315604434653616E-003   5.5512682169906125E-002
   2.0455899906490115E-002  -5.8743834104513365E-003   5.5553023151344638E-002
   1.9200311061766638E-002  -5.4057834941484452E-003   5.5784966125649628E-002
   1.7944722217043123E-002  -4.9257606945563581E-003   5.6208511092820795E-002
   1.9101435351021046E-002  -5.5317010022534197E-003   5.9038727242081222E-002
   1.8041088868081367E-002  -5.1588824580159759E-003   5.8907136615134033E-002
   1.6980742385141679E-002  -4.7784686618857000E-003   5.8974428718888333E-002
   1.5920395902201994E-002  -4.3904596138623093E-003   5.9240603553343735E-002
   1.4860049419262339E-002  -3.9948553139462495E-003   5.9705661118500515E-002
   1.5242314054077111E-002  -4.2860874113163083E-003   6.2342489513039001E-002
   1.4384490670756242E-002  -3.9862044725669232E-003   6.2226741639176464E-002
   1.3526667287435373E-002  -3.6825539133200635E-003   6.2317157233850118E-002
   1.2668843904114491E-002  -3.3751357335766174E-003   6.2613736297060074E-002
   1.1811020520793608E-002  -3.0639499333358078E-003   6.3116478828806333E-002
   2.4220999510541047E-002  -6.7875714557769085E-003   4.8955214095340094E-002
   2.2424253593854082E-002  -6.1348692150786088E-003   4.8692704615506011E-002
   2.0627507677167159E-002  -5.4935602369517722E-003   4.8589671353606867E-002
   1.8830761760480201E-002  -4.8636445213961141E-003   4.8646114309643329E-002
   1.7034015843793271E-002  -4.2451220684118773E-003   4.8862033483615175E-002
   2.1065038914136053E-002  -5.8566660751666610E-003   5.2625028751767333E-002
   1.9438888126987589E-002  -5.2902500727863844E-003   5.2397934897332687E-002
   1.7812737339839138E-002  -4.7351351788665341E-003   5.2352555084039770E-002
   1.6186586552690681E-002  -4.1913213934065968E-003   5.2488889311888373E-002
   1.4560435765542223E-002  -3.6588087164066696E-003   5.2806937580879065E-002
   1.7944722217043123E-002  -4.9257606945563581E-003   5.6208511092820795E-002
   1.6511404382639580E-002  -4.4456309304942987E-003   5.6016925017896901E-002
   1.5078086548236048E-002  -3.9767101207814209E-003   5.6029290807321233E-002
   1.3644768713832514E-002  -3.5189982654171385E-003   5.6245608461093687E-002
   1.2211450879428945E-002  -3.0724953644016839E-003   5.6665877979214352E-002
   1.4860049419262339E-002  -3.9948553139462495E-003   5.9705661118500515E-002
   1.3641802360810130E-002  -3.6010117882022546E-003   5.9549674977198777E-002
   1.2423555302357909E-002  -3.2182850626961343E-003   5.9619878523451533E-002
   1.1205308243905710E-002  -2.8466751374274842E-003   5.9916271757258673E-002
   9.9870611854535017E-003  -2.4861820123966427E-003   6.0438854678620688E-002
   1.1811020520793608E-002  -3.0639499333358078E-003   6.3116478828806333E-002
   1.0830082061499158E-002  -2.7563926459099886E-003   6.2996184775237829E-002
   9.8491436022047213E-003  -2.4598600046110419E-003   6.3124318232430421E-002
   8.8682051429102848E-003  -2.1743520094382116E-003   6.3500879200383886E-002
   7.8872666836158345E-003  -1.8998686603914905E-003   6.4125867679098003E-002
   1.7034015843793271E-002  -4.2451220684118773E-003   4.8862033483615175E-002
   1.5098053006947110E-002  -3.6893851230294095E-003   4.8748479920301291E-002
   1.3162090170100976E-002  -3.2478259302793355E-003   4.8891143209351284E-002
   1.1226127333254815E-002  -2.9204444901622800E-003   4.9290023350764822E-002
   9.2901644964086816E-003  -2.7072408026769246E-003   4.9945120344541794E-002
   1.4560435765542223E-002  -3.6588087164066696E-003   5.2806937580879065E-002
   1.2879396793822981E-002  -3.1886284091093287E-003   5.2702915530678018E-002
   1.1198357822103738E-002  -2.8318117327560954E-003   5.2852524358367625E-002
   9.5173188503845235E-003  -2.5883586873471504E-003   5.3255764063947192E-002
   7.8362798786652810E-003  -2.4582692728825073E-003   5.3912634647417079E-002
   1.2211450879428945E-002  -3.0724953644016839E-003   5.6665877979214352E-002
   1.0782749798363293E-002  -2.6878716951888593E-003   5.6572201563814234E-002
   9.3540487172976139E-003  -2.4157975352323835E-003   5.6729570051831130E-002
   7.9253476362319275E-003  -2.2562728845320137E-003   5.7137983443264914E-002
   6.4966465551662550E-003  -2.2092977430880900E-003   5.7797441738115463E-002
   9.9870611854535017E-003  -2.4861820123966427E-003   6.0438854678620688E-002
   8.8081120205680472E-003  -2.1871149812688062E-003   6.0356338019709521E-002
   7.6291628556825891E-003  -1.9997833377089075E-003   6.0522280289742096E-002
   6.4502136907971606E-003  -1.9241870817172137E-003   6.0936681488718100E-002
   5.2712645259117043E-003  -1.9603262132936172E-003   6.1599541616637693E-002
   7.8872666836158345E-003  -1.8998686603914905E-003   6.4125867679098003E-002
   6.9554834604372562E-003  -1.6863582673481980E-003   6.4055324898364074E-002
   6.0237002372586779E-003  -1.5837691401854037E-003   6.4230655072100407E-002
   5.0919170140801134E-003  -1.5921012789021291E-003   6.4651858200306694E-002
   4.1601337909015212E-003  -1.7113546834991444E-003   6.5318934282983410E-002
   9.2901644964086816E-003  -2.7072408026769246E-003   4.9945120344541794E-002
   7.8679841025957598E-003  -2.8548097703790520E-003   5.0353928315272967E-002
   6.4458037087827824E-003  -3.6097462958239457E-003   5.1088573228740164E-002
   5.0236233149698190E-003  -4.9720503790103149E-003   5.2149055084944052E-002
   3.6014429211568832E-003  -6.9417220199394780E-003   5.3535373883884851E-002
   7.8362798786652810E-003  -2.4582692728825073E-003   5.3912634647417079E-002
   6.7141662324197715E-003  -2.6417347916183331E-003   5.3849366820623523E-002
   5.5920525861742759E-003  -3.3389465458103507E-003   5.4060395546228185E-002
   4.4699389399287665E-003  -4.5499045354586432E-003   5.4545720824231550E-002
   3.3478252936832709E-003  -6.2746087605636269E-003   5.5305342654632383E-002
   6.4966465551662550E-003  -2.2092977430880900E-003   5.7797441738115463E-002
   5.6230592661497270E-003  -2.4286598128573089E-003   5.7355719436084057E-002
   4.7494719771332336E-003  -3.0681467957970054E-003   5.7136753296112203E-002
   3.8758846881167298E-003  -4.1277586919068673E-003   5.7140543318200315E-002
   3.0022973991002122E-003  -5.6074955011872207E-003   5.7367089502347757E-002
   5.2712645259117043E-003  -1.9603262132936172E-003   6.1599541616637693E-002
   4.5946632037856955E-003  -2.2155848340961043E-003   6.0872986161653833E-002
   3.9180618816596988E-003  -2.7973470457835353E-003   6.0317646478391308E-002
   3.2414605595336753E-003  -3.7056128483548105E-003   5.9933522566850195E-002
   2.5648592374076934E-003  -4.9403822418109811E-003   5.9720614427029792E-002
   4.1601337909015212E-003  -1.7113546834991444E-003   6.5318934282983410E-002
   3.6289780453275799E-003  -2.0025098553355103E-003   6.4401166997333337E-002
   3.0978222997536248E-003  -2.5265472957699819E-003   6.3603075093066008E-002
   2.5666665541796696E-003  -3.2834670048032880E-003   6.2924658570181563E-002
   2.0355108086057006E-003  -4.2732689824347414E-003   6.2365917428679918E-002
   3.6014429211568832E-003  -6.9417220199394780E-003   5.3535373883884851E-002
   4.1533872009872908E-003  -9.5329382124361706E-003   5.1861601706666982E-002
   4.7053314808176427E-003  -1.2759875950325406E-002   5.0042803629246846E-002
   5.2572757606481058E-003  -1.6622535233606697E-002   4.8078979651623277E-002
   5.8092200404784577E-003  -2.1120916062280504E-002   4.5970129773797108E-002
   3.3478252936832709E-003  -6.2746087605636269E-003   5.5305342654632383E-002
   3.7721346558719504E-003  -8.5436683193153007E-003   5.2951708204251435E-002
   4.1964440180606438E-003  -1.1387692309905495E-002   5.0487829818789687E-002
   4.6207533802493164E-003  -1.4806680732333724E-002   4.7913707498247221E-002
   5.0450627424379890E-003  -1.8800633586599336E-002   4.5229341242624344E-002
   3.0022973991002122E-003  -5.6074955011872207E-003   5.7367089502347757E-002
   3.3337538087694213E-003  -7.5543984261944863E-003   5.4394349892357252E-002
   3.6652102184386165E-003  -1.0015508669485668E-002   5.1346148312408607E-002
   3.9966666281078117E-003  -1.2990826231060078E-002   4.8222484762501461E-002
   4.3281230377770208E-003  -1.6480351110918168E-002   4.5023359242635785E-002
   2.5648592374076934E-003  -4.9403822418109811E-003   5.9720614427029792E-002
   2.8382446596796652E-003  -6.5651285330736442E-003   5.6189526770984891E-002
   3.1116300819516093E-003  -8.6433250290655766E-003   5.2617759110103739E-002
   3.3850155042235396E-003  -1.1174971729786768E-002   4.9005311444386829E-002
   3.6584009264955530E-003  -1.4160068635236889E-002   4.5352183773833182E-002
   2.0355108086057006E-003  -4.2732689824347414E-003   6.2365917428679918E-002
   2.2856072086026719E-003  -5.5758586399529131E-003   5.8337238840134420E-002
   2.5357036085996154E-003  -7.2711413886460963E-003   5.4302662211875186E-002
   2.7858000085965728E-003  -9.3591172285137220E-003   5.0262187543902159E-002
   3.0358964085935303E-003  -1.1839786159555832E-002   4.6215814836215063E-002
   2.5298004572919253E-002  -3.6481414060238193E-003   6.4965422819285801E-002
   2.4488182928487895E-002  -5.0683697956451779E-003   6.4060379284023306E-002
   2.3678361284056537E-002  -6.0074520521607305E-003   6.3463655227020771E-002
   2.2868539639625186E-002  -6.4653881755702379E-003   6.3175250648278350E-002
   2.2058717995193849E-002  -6.4421781658737243E-003   6.3195165547796139E-002
   1.8471398955516388E-002  -3.3577113575563033E-003   6.3550095209033652E-002
   1.7945927632070938E-002  -4.0701434282865434E-003   6.3272395387144409E-002
   1.7420456308625459E-002  -4.5388702744570270E-003   6.3255076728966769E-002
   1.6894984985179995E-002  -4.7638918960678615E-003   6.3498139234500928E-002
   1.6369513661734544E-002  -4.7452082931190298E-003   6.4001582903746801E-002
   1.1933680529928152E-002  -3.0672813090888429E-003   6.2961284371945828E-002
   1.1644621212920203E-002  -3.0719170609277424E-003   6.3073487354883537E-002
   1.1355561895912237E-002  -3.0702884967533581E-003   6.3398133186984562E-002
   1.1066502578904272E-002  -3.0623956165655424E-003   6.3935221868248807E-002
   1.0777443261896315E-002  -3.0482384203643631E-003   6.4684753398676464E-002
   5.6848492961545111E-003  -2.7768512606213686E-003   6.3198990308022479E-002
   5.5842636710356879E-003  -2.0736906935689692E-003   6.3463655187240883E-002
   5.4836780459168568E-003  -1.6017067190496719E-003   6.3892824601074052E-002
   5.3830924207980274E-003  -1.3608993370632224E-003   6.4486498549522292E-002
   5.2825067956792076E-003  -1.3512685476096825E-003   6.5244677032585449E-002
  -2.7509474580451193E-004  -2.4864212121538665E-003   6.4263213017263565E-002
  -2.3514499358258389E-004  -1.0754643262102792E-003   6.4442898884216337E-002
  -1.9519524136066974E-004  -1.3312494134598563E-004   6.4739150971235504E-002
  -1.5524548913874517E-004   3.4059694243915306E-004   6.5151969278321231E-002
  -1.1529573691682060E-004   3.4570132514499807E-004   6.5681353805473630E-002
   2.2058717995193849E-002  -6.4421781658737243E-003   6.3195165547796139E-002
   2.1280697285290751E-002  -6.1791015258723103E-003   6.2717061086852044E-002
   2.0502676575387652E-002  -5.9174377583674498E-003   6.2476438836697734E-002
   1.9724655865484567E-002  -5.6571868633589345E-003   6.2473298797333265E-002
   1.8946635155581454E-002  -5.3983488408468339E-003   6.2707640968758527E-002
   1.6369513661734544E-002  -4.7452082931190298E-003   6.4001582903746801E-002
   1.5819434946419797E-002  -4.5965450709373329E-003   6.3618492730926943E-002
   1.5269356231105057E-002  -4.4316278348497801E-003   6.3453804336494113E-002
   1.4719277515790323E-002  -4.2504565848563818E-003   6.3507517720448131E-002
   1.4169198800475576E-002  -4.0530313209570790E-003   6.3779632882789150E-002
   1.0777443261896315E-002  -3.0482384203643631E-003   6.4684753398676464E-002
   1.0436226108767020E-002  -3.0139886160023277E-003   6.4414344400383391E-002
   1.0095008955637717E-002  -2.9458179113321659E-003   6.4343256748074340E-002
   9.7537918025084186E-003  -2.8437263063538845E-003   6.4471490441749227E-002
   9.4125746493791199E-003  -2.7077138010673518E-003   6.4799045481408094E-002
   5.2825067956792076E-003  -1.3512685476096825E-003   6.5244677032585449E-002
   5.1310707723324182E-003  -1.4314321610672531E-003   6.5104616095221376E-002
   4.9796347489856410E-003  -1.4600079878145794E-003   6.5144796071438305E-002
   4.8281987256388595E-003  -1.4369960278512207E-003   6.5365216961236275E-002
   4.6767627022920814E-003  -1.3623962811776108E-003   6.5765878764615315E-002
  -1.1529573691682060E-004   3.4570132514499807E-004   6.5681353805473630E-002
  -9.6031062884003454E-005   1.5112429386782145E-004   6.5689307815440717E-002
  -7.6766388851182837E-005   2.5801935703145817E-005   6.5858422306585979E-002
  -5.7501714818363955E-005  -3.0265749348827586E-005   6.6188697278909359E-002
  -3.8237040785545073E-005  -1.7078761287869781E-005   6.6680132732410913E-002
   1.8946635155581454E-002  -5.3983488408468339E-003   6.2707640968758527E-002
   1.8020554880205389E-002  -5.1352338118030860E-003   6.2266859992021362E-002
   1.7094474604829296E-002  -4.8621518972002814E-003   6.2059074423822413E-002
   1.6168394329453210E-002  -4.5791030970380973E-003   6.2084284264161418E-002
   1.5242314054077111E-002  -4.2860874113163083E-003   6.2342489513039001E-002
   1.4169198800475576E-002  -4.0530313209570790E-003   6.3779632882789150E-002
   1.3476180751512065E-002  -3.8457088060574462E-003   6.3366484614762880E-002
   1.2783162702548551E-002  -3.6348458030630720E-003   6.3186465391023378E-002
   1.2090144653585025E-002  -3.4204423119741680E-003   6.3239575211571059E-002
   1.1397126604621513E-002  -3.2024983327901824E-003   6.3525814076405618E-002
   9.4125746493791199E-003  -2.7077138010673518E-003   6.4799045481408094E-002
   8.9527524625769503E-003  -2.5561838003117232E-003   6.4407103524627959E-002
   8.4929302757747634E-003  -2.4075397089259806E-003   6.4248424247883629E-002
   8.0331080889725886E-003  -2.2617815269101293E-003   6.4323007651174990E-002
   7.5732859021704138E-003  -2.1189092542641119E-003   6.4630853734502086E-002
   4.6767627022920814E-003  -1.3623962811776108E-003   6.5765878764615315E-002
   4.4502700134000182E-003  -1.2666587945659585E-003   6.5388716721616891E-002
   4.2237773245079610E-003  -1.1802336147887192E-003   6.5244950994402903E-002
   3.9972846356158970E-003  -1.1031207418460897E-003   6.5334581582973505E-002
   3.7707919467238407E-003  -1.0353201757380137E-003   6.5657608487328406E-002
  -3.8237040785545073E-005  -1.7078761287869781E-005   6.6680132732410913E-002
  -3.1266596018708626E-005   2.2866211179695117E-005   6.6311324205729438E-002
  -2.4296151251879117E-005   4.7072479348320151E-005   6.6176045630581326E-002
  -1.7325706485049608E-005   5.5540043217783275E-005   6.6274297006966354E-002
  -1.0355261718213160E-005   4.8268902788195511E-005   6.6606078334884855E-002
   1.5242314054077111E-002  -4.2860874113163083E-003   6.2342489513039001E-002
   1.4384490670756242E-002  -3.9862044725669232E-003   6.2226741639176464E-002
   1.3526667287435373E-002  -3.6825539133200635E-003   6.2317157233850118E-002
   1.2668843904114491E-002  -3.3751357335766174E-003   6.2613736297060074E-002
   1.1811020520793608E-002  -3.0639499333358078E-003   6.3116478828806333E-002
   1.1397126604621513E-002  -3.2024983327901824E-003   6.3525814076405618E-002
   1.0747470826795447E-002  -2.9811673030136765E-003   6.3436917703299900E-002
   1.0097815048969380E-002  -2.7566026601465454E-003   6.3558193072647429E-002
   9.4481592711432964E-003  -2.5288044041887892E-003   6.3889640184448315E-002
   8.7985034933172473E-003  -2.2977725351402967E-003   6.4431259038702504E-002
   7.5732859021704138E-003  -2.1189092542641119E-003   6.4630853734502086E-002
   7.1358060037561809E-003  -1.9761301334608739E-003   6.4568274854746976E-002
   6.6983261053419445E-003  -1.8306514069731383E-003   6.4719875991361975E-002
   6.2608462069277115E-003  -1.6824730748011274E-003   6.5085657144347553E-002
   5.8233663085134751E-003  -1.5315951369446745E-003   6.5665618313703406E-002
   3.7707919467238407E-003  -1.0353201757380137E-003   6.5657608487328406E-002
   3.5494962016384586E-003  -9.7109296390784916E-004   6.5620813093517638E-002
   3.3282004565530748E-003  -9.0470015379962021E-004   6.5802205989994006E-002
   3.1069047114676840E-003  -8.3614174541343789E-004   6.6201787176757843E-002
   2.8856089663823088E-003  -7.6541773874905239E-004   6.6819556653809092E-002
  -1.0355261718213160E-005   4.8268902788195511E-005   6.6606078334884855E-002
  -1.1458579557730580E-005   3.3944205645008996E-005   6.6594532419611885E-002
  -1.2561897397244531E-005   2.1251099373786886E-005   6.6805183068543439E-002
  -1.3665215236758482E-005   1.0189583974196115E-005   6.7238030281679406E-002
  -1.4768533076275903E-005   7.5965944656974926E-007   6.7893074059019454E-002
   1.1811020520793608E-002  -3.0639499333358078E-003   6.3116478828806333E-002
   1.0830082061499158E-002  -2.7563926459099886E-003   6.2996184775237829E-002
   9.8491436022047213E-003  -2.4598600046110419E-003   6.3124318232430421E-002
   8.8682051429102848E-003  -2.1743520094382116E-003   6.3500879200383886E-002
   7.8872666836158345E-003  -1.8998686603914905E-003   6.4125867679098003E-002
   8.7985034933172473E-003  -2.2977725351402967E-003   6.4431259038702504E-002
   8.0655379510777836E-003  -2.0688309862552101E-003   6.4338670784328644E-002
   7.3325724088382782E-003  -1.8473036907868112E-003   6.4493600853303967E-002
   6.5996068665987867E-003  -1.6331906487362727E-003   6.4896049245628029E-002
   5.8666413243593230E-003  -1.4264918601024634E-003   6.5546015961301274E-002
   5.8233663085134751E-003  -1.5315951369446745E-003   6.5665618313703406E-002
   5.3374644959169396E-003  -1.3812693266000986E-003   6.5604346251233708E-002
   4.8515626833203970E-003  -1.2347473769632605E-003   6.5789683324700768E-002
   4.3656608707238510E-003  -1.0920292880343373E-003   6.6221629534104931E-002
   3.8797590581273050E-003  -9.5311505981321432E-004   6.6900184879445879E-002
   2.8856089663823088E-003  -7.6541773874905239E-004   6.6819556653809092E-002
   2.6458616960166829E-003  -6.9370766694498709E-004   6.6793211175952633E-002
   2.4061144256510500E-003  -6.2219106313925882E-004   6.7012565646621253E-002
   2.1663671552854275E-003  -5.5086792733251115E-004   6.7477620065814467E-002
   1.9266198849198050E-003  -4.7973825952396520E-004   6.8188374433532900E-002
  -1.4768533076275903E-005   7.5965944656974926E-007   6.7893074059019454E-002
  -9.2704486230055227E-006  -6.1460072899865992E-006   6.7905265558485750E-002
  -3.7723641697351429E-006  -9.6347493155624075E-006   6.8162247819064770E-002
   1.7257202835352370E-006  -9.7065666305393150E-006   6.8664020840756734E-002
   7.2238047368056169E-006  -6.3614592348271159E-006   6.9410584623561755E-002
   7.8872666836158345E-003  -1.8998686603914905E-003   6.4125867679098003E-002
   6.9554834604372562E-003  -1.6863582673481980E-003   6.4055324898364074E-002
   6.0237002372586779E-003  -1.5837691401854037E-003   6.4230655072100407E-002
   5.0919170140801134E-003  -1.5921012789021291E-003   6.4651858200306694E-002
   4.1601337909015212E-003  -1.7113546834991444E-003   6.5318934282983410E-002
   5.8666413243593230E-003  -1.4264918601024634E-003   6.5546015961301274E-002
   5.1773564504107028E-003  -1.2652864529689167E-003   6.5408594780619556E-002
   4.4880715764620688E-003  -1.1876535554188605E-003   6.5510297343927715E-002
   3.7987867025134243E-003  -1.1935931674526071E-003   6.5851123651225668E-002
   3.1095018285648146E-003  -1.2831052890698302E-003   6.6431073702512944E-002
   3.8797590581273050E-003  -9.5311505981321432E-004   6.6900184879445879E-002
   3.4262233229281243E-003  -8.4421463858969092E-004   6.6723234055113517E-002
   2.9726875877289366E-003  -7.9153797065299736E-004   6.6778657764290331E-002
   2.5191518525297489E-003  -7.9508505600319954E-004   6.7066456006976249E-002
   2.0656161173305682E-003  -8.5485589464057155E-004   6.7586628783171315E-002
   1.9266198849198050E-003  -4.7973825952396520E-004   6.8188374433532900E-002
   1.7020840779895545E-003  -4.2314282421038185E-004   6.7999242721845987E-002
   1.4775482710592831E-003  -3.9542238588684969E-004   6.8035736333187713E-002
   1.2530124641290255E-003  -3.9657694455406782E-004   6.8297855267558355E-002
   1.0284766571987611E-003  -4.2660650021100754E-004   6.8785599524957108E-002
   7.2238047368056169E-006  -6.3614592348271159E-006   6.9410584623561755E-002
   4.9387155949612294E-006  -2.0710098311282898E-006   6.9236620780816938E-002
   2.6536264531133724E-006   6.9319887940899605E-007   6.9281533050620348E-002
   3.6853731127245437E-007   1.9311668955634964E-006   6.9545321432971902E-002
  -1.9165518305788720E-006   1.6428942180013451E-006   7.0027985927871517E-002
   4.1601337909015212E-003  -1.7113546834991444E-003   6.5318934282983410E-002
   3.6289780453275799E-003  -2.0025098553355103E-003   6.4401166997333337E-002
   3.0978222997536248E-003  -2.5265472957699819E-003   6.3603075093066008E-002
   2.5666665541796696E-003  -3.2834670048032880E-003   6.2924658570181563E-002
   2.0355108086057006E-003  -4.2732689824347414E-003   6.2365917428679918E-002
   3.1095018285648146E-003  -1.2831052890698302E-003   6.6431073702512944E-002
   2.7013412406504123E-003  -1.5016889484656959E-003   6.5319646026956057E-002
   2.2931806527359960E-003  -1.8948431738350924E-003   6.4334533285335144E-002
   1.8850200648215867E-003  -2.4625679651788662E-003   6.3475735477650799E-002
   1.4768594769071774E-003  -3.2048633224963652E-003   6.2743252603902677E-002
   2.0656161173305682E-003  -8.5485589464057155E-004   6.7586628783171315E-002
   1.7870902396291723E-003  -1.0008680415959093E-003   6.6339852420331857E-002
   1.5085643619277833E-003  -1.2631390519006330E-003   6.5226030543982003E-002
   1.2300384842263874E-003  -1.6416689255546631E-003   6.4245163154121820E-002
   9.5151260652499847E-004  -2.1364576625578779E-003   6.3397250250751769E-002
   1.0284766571987611E-003  -4.2660650021100754E-004   6.8785599524957108E-002
   8.8622504226387212E-004  -5.0004713472610873E-004   6.7461786177460140E-002
   7.4397342732897796E-004  -6.3143492996584755E-004   6.6277566869005808E-002
   6.0172181239407947E-004  -8.2076988593023960E-004   6.5232941599595001E-002
   4.5947019745918097E-004  -1.0680520026193352E-003   6.4327910369227317E-002
  -1.9165518305788720E-006   1.6428942180013451E-006   7.0027985927871517E-002
  -1.2543514455037874E-006   7.7377214369178660E-007   6.8685447298340918E-002
  -5.9215106042870280E-007   2.6919196863262052E-007   6.7489142260406976E-002
   7.0049324642912358E-008   1.2915369410754218E-007   6.6439070814069828E-002
   7.3224970972146641E-007   3.5365731909653420E-007   6.5535232959329170E-002
   2.0355108086057006E-003  -4.2732689824347414E-003   6.2365917428679918E-002
   2.2856072086026719E-003  -5.5758586399529131E-003   5.8337238840134420E-002
   2.5357036085996154E-003  -7.2711413886460963E-003   5.4302662211875186E-002
   2.7858000085965728E-003  -9.3591172285137220E-003   5.0262187543902159E-002
   3.0358964085935303E-003  -1.1839786159555832E-002   4.6215814836215063E-002
   1.4768594769071774E-003  -3.2048633224963652E-003   6.2743252603902677E-002
   1.7068741633549517E-003  -4.1817071598478361E-003   5.8390085060203767E-002
   1.9368888498026912E-003  -5.4530773912927488E-003   5.4002652129121198E-002
   2.1669035362504654E-003  -7.0189740168315196E-003   4.9580953810653389E-002
   2.3969182226982189E-003  -8.8793970364642316E-003   4.5124990104801421E-002
   9.5151260652499847E-004  -2.1364576625578779E-003   6.3397250250751769E-002
   1.1330782317529771E-003  -2.7875556797423706E-003   5.8817760448981071E-002
   1.3146438569809488E-003  -3.6350133939396512E-003   5.4175637912155045E-002
   1.4962094822089239E-003  -4.6788308051496572E-003   4.9470882640273800E-002
   1.6777751074368852E-003  -5.9190079133728535E-003   4.4703494633338003E-002
   4.5947019745918097E-004  -1.0680520026193352E-003   6.4327910369227317E-002
   5.6421941379677844E-004  -1.3934041996366553E-003   5.9620265006464945E-002
   6.6896863013436898E-004  -1.8169493965865396E-003   5.4821619560977537E-002
   7.7371784647194651E-004  -2.3386875934677358E-003   4.9931974032764184E-002
   8.7846706280955700E-004  -2.9586187902812533E-003   4.4951328421824838E-002
   7.3224970972146641E-007   3.5365731909653420E-007   6.5535232959329170E-002
   2.9770948633406347E-007   7.4728046839389606E-007   6.0797598732656666E-002
  -1.3683073706027837E-007   1.1146007668771940E-006   5.5940597075587795E-002
  -5.7137096046329383E-007   1.4556182142619334E-006   5.0964227988122696E-002
  -1.0059111838350843E-006   1.7703328101248417E-006   4.5868491470261397E-002
  -2.7509474580451193E-004  -2.4864212121538665E-003   6.4263213017263565E-002
  -2.3514499358258389E-004  -1.0754643262102792E-003   6.4442898884216337E-002
  -1.9519524136066974E-004  -1.3312494134598563E-004   6.4739150971235504E-002
  -1.5524548913874517E-004   3.4059694243915306E-004   6.5151969278321231E-002
  -1.1529573691682060E-004   3.4570132514499807E-004   6.5681353805473630E-002
  -6.1839856333145843E-003   3.7181608807701494E-004   6.5170301889908355E-002
  -6.0098601555957573E-003   1.1338370601352565E-003   6.4812667143537839E-002
  -5.8357346778769286E-003   1.6281770615990121E-003   6.4606817628094421E-002
  -5.6616092001581008E-003   1.8548360924681706E-003   6.4552753343578434E-002
  -5.4874837224392729E-003   1.8138141527427598E-003   6.4650474289989518E-002
  -1.2279657403741368E-002   3.2300533883078963E-003   6.5327986583425590E-002
  -1.1936137189664953E-002   3.3431384464808755E-003   6.4633967754216398E-002
  -1.1592616975588539E-002   3.3894790645439543E-003   6.4126953166795175E-002
  -1.1249096761512110E-002   3.3690752424971881E-003   6.3806942821161824E-002
  -1.0905576547435703E-002   3.2819269803404105E-003   6.3673936717316387E-002
  -1.8562110057084844E-002   6.0882906885388055E-003   6.4736267097815089E-002
  -1.8013976095790155E-002   5.5524398328264390E-003   6.3906800716252002E-002
  -1.7465842134495455E-002   5.1507810674888688E-003   6.3299557587337518E-002
  -1.6917708173200784E-002   4.8833143925261502E-003   6.2914537711071694E-002
  -1.6369574211906088E-002   4.7500398079380612E-003   6.2751741087454377E-002
  -2.5031343593345023E-002   8.9465279887696592E-003   6.3395143433077117E-002
  -2.4243376873971378E-002   7.7617412191720581E-003   6.2631166029644747E-002
  -2.3455410154597740E-002   6.9120830704338526E-003   6.2124630889721616E-002
  -2.2667443435224088E-002   6.3975535425552545E-003   6.1875538013307793E-002
  -2.1879476715850450E-002   6.2181526355357675E-003   6.1883887400403292E-002
  -1.1529573691682060E-004   3.4570132514499807E-004   6.5681353805473630E-002
  -9.6031062884003454E-005   1.5112429386782145E-004   6.5689307815440717E-002
  -7.6766388851182837E-005   2.5801935703145817E-005   6.5858422306585979E-002
  -5.7501714818363955E-005  -3.0265749348827586E-005   6.6188697278909359E-002
  -3.8237040785545073E-005  -1.7078761287869781E-005   6.6680132732410913E-002
  -5.4874837224392729E-003   1.8138141527427598E-003   6.4650474289989518E-002
  -5.3016866895247020E-003   1.6547214929061721E-003   6.4668292439928735E-002
  -5.1158896566101293E-003   1.5271683634417652E-003   6.4858014826453370E-002
  -4.9300926236955514E-003   1.4311547643496344E-003   6.5219641449563326E-002
  -4.7442955907809788E-003   1.3666806956297295E-003   6.5753172309258701E-002
  -1.0905576547435703E-002   3.2819269803404105E-003   6.3673936717316387E-002
  -1.0542503400232146E-002   3.1583186919445783E-003   6.3663903864487253E-002
  -1.0179430253028584E-002   3.0285347911804400E-003   6.3836519003650755E-002
  -9.8163571058250305E-003   2.8925752780480408E-003   6.4191782134806891E-002
  -9.4532839586214633E-003   2.7504401525473288E-003   6.4729693257955551E-002
  -1.6369574211906088E-002   4.7500398079380612E-003   6.2751741087454377E-002
  -1.5818481195006305E-002   4.6619158909830122E-003   6.2676142089116302E-002
  -1.5267388178106538E-002   4.5299012189190038E-003   6.2793934838178120E-002
  -1.4716295161206773E-002   4.3539957917463640E-003   6.3105119334639803E-002
  -1.4165202144306995E-002   4.1341996094649558E-003   6.3609695578501227E-002
  -2.1879476715850450E-002   6.2181526355357675E-003   6.1883887400403292E-002
  -2.1129620073847239E-002   6.1655130900213906E-003   6.1705007113815852E-002
  -2.0379763431844014E-002   6.0312676466578730E-003   6.1730262330035507E-002
  -1.9629906789840799E-002   5.8154163054448052E-003   6.1959653049062174E-002
  -1.8880050147837578E-002   5.5179590663825828E-003   6.2393179270895882E-002
  -3.8237040785545073E-005  -1.7078761287869781E-005   6.6680132732410913E-002
  -3.1266596018708626E-005   2.2866211179695117E-005   6.6311324205729438E-002
  -2.4296151251879117E-005   4.7072479348320151E-005   6.6176045630581326E-002
  -1.7325706485049608E-005   5.5540043217783275E-005   6.6274297006966354E-002
  -1.0355261718213160E-005   4.8268902788195511E-005   6.6606078334884855E-002
  -4.7442955907809788E-003   1.3666806956297295E-003   6.5753172309258701E-002
  -4.5051916801793369E-003   1.3141622313245782E-003   6.5368353966112791E-002
  -4.2660877695776984E-003   1.2540154454764862E-003   6.5214272603103279E-002
  -4.0269838589760514E-003   1.1862403380857450E-003   6.5290928220230082E-002
  -3.7878799483744112E-003   1.1108369091520354E-003   6.5598320817493228E-002
  -9.4532839586214633E-003   2.7504401525473288E-003   6.4729693257955551E-002
  -8.9848395535819560E-003   2.6054582514692115E-003   6.4336975481101372E-002
  -8.5163951485424418E-003   2.4609584116045968E-003   6.4172201712986709E-002
  -8.0479507435029241E-003   2.3169406329534847E-003   6.4235371953611481E-002
  -7.5795063384634064E-003   2.1734049155158197E-003   6.4526486202975603E-002
  -1.4165202144306995E-002   4.1341996094649558E-003   6.3609695578501227E-002
  -1.3470210216226549E-002   3.8967542716139142E-003   6.3217188750695194E-002
  -1.2775218288146106E-002   3.6679013777327629E-003   6.3049832960231728E-002
  -1.2080226360065666E-002   3.4476409278212800E-003   6.3107628207110800E-002
  -1.1385234431985230E-002   3.2359729218796318E-003   6.3390574491332105E-002
  -1.8880050147837578E-002   5.5179590663825828E-003   6.2393179270895882E-002
  -1.7961303668113146E-002   5.1880502917587001E-003   6.2008993774894383E-002
  -1.7042557188388704E-002   4.8748443438608319E-003   6.1847166344838361E-002
  -1.6123810708664268E-002   4.5783412226891203E-003   6.1907696980727830E-002
  -1.5205064228939837E-002   4.2985409282433329E-003   6.2190585682562860E-002
  -1.0355261718213160E-005   4.8268902788195511E-005   6.6606078334884855E-002
  -1.1458579557730580E-005   3.3944205645008996E-005   6.6594532419611885E-002
  -1.2561897397244531E-005   2.1251099373786886E-005   6.6805183068543439E-002
  -1.3665215236758482E-005   1.0189583974196115E-005   6.7238030281679406E-002
  -1.4768533076275903E-005   7.5965944656974926E-007   6.7893074059019454E-002
  -3.7878799483744112E-003   1.1108369091520354E-003   6.5598320817493228E-002
  -3.5688058151455981E-003   1.0304374192670052E-003   6.5570287980907360E-002
  -3.3497316819167886E-003   9.4767412902224679E-004   6.5760413482253893E-002
  -3.1306575486879694E-003   8.6254703841738556E-004   6.6168697321532646E-002
  -2.9115834154591659E-003   7.7505614745287943E-004   6.6795139498743605E-002
  -7.5795063384634064E-003   2.1734049155158197E-003   6.4526486202975603E-002
  -7.1442929804383789E-003   2.0269306328890846E-003   6.4477971053845035E-002
  -6.7090796224133446E-003   1.8740971586708177E-003   6.4643576016374882E-002
  -6.2738662643883137E-003   1.7149044928607415E-003   6.5023301090564742E-002
  -5.8386529063632828E-003   1.5493526354590226E-003   6.5617146276414878E-002
  -1.1385234431985230E-002   3.2359729218796318E-003   6.3390574491332105E-002
  -1.0737920075436074E-002   3.0234238465111779E-003   6.3317581638425269E-002
  -1.0090605718886921E-002   2.8005201883192221E-003   6.3454670670906543E-002
  -9.4432913623377756E-003   2.5672619473039587E-003   6.3801841588775846E-002
  -8.7959770057886213E-003   2.3236491234652490E-003   6.4359094392033078E-002
  -1.5205064228939837E-002   4.2985409282433329E-003   6.2190585682562860E-002
  -1.4349687100138668E-002   4.0199170601330492E-003   6.2089119734647868E-002
  -1.3494309971337506E-002   3.7269432179679041E-003   6.2193697445848795E-002
  -1.2638932842536341E-002   3.4196194017473008E-003   6.2504318816165749E-002
  -1.1783555713735183E-002   3.0979456114714754E-003   6.3020983845598511E-002
  -1.4768533076275903E-005   7.5965944656974926E-007   6.7893074059019454E-002
  -9.2704486230055227E-006  -6.1460072899865992E-006   6.7905265558485750E-002
  -3.7723641697351429E-006  -9.6347493155624075E-006   6.8162247819064770E-002
   1.7257202835352370E-006  -9.7065666305393150E-006   6.8664020840756734E-002
   7.2238047368056169E-006  -6.3614592348271159E-006   6.9410584623561755E-002
  -2.9115834154591659E-003   7.7505614745287943E-004   6.6795139498743605E-002
  -2.6620055147559309E-003   6.8948885899594581E-004   6.6781179409868940E-002
  -2.4124276140526854E-003   6.1013257591469028E-004   6.7010588192381121E-002
  -2.1628497133494452E-003   5.3698729820869651E-004   6.7483365846280369E-002
  -1.9132718126462049E-003   4.7005302587876940E-004   6.8199512371567017E-002
  -5.8386529063632828E-003   1.5493526354590226E-003   6.5617146276414878E-002
  -5.3464170791359036E-003   1.3851237252817672E-003   6.5579828679864061E-002
  -4.8541812519085244E-003   1.2298999011448181E-003   6.5784458064974335E-002
  -4.3619454246811452E-003   1.0836811630484285E-003   6.6231034431745744E-002
  -3.8697095974537660E-003   9.4646751099231041E-004   6.6919557780178524E-002
  -8.7959770057886213E-003   2.3236491234652490E-003   6.4359094392033078E-002
  -8.0625051417629340E-003   2.0807585915676441E-003   6.4301213368470944E-002
  -7.3290332777372425E-003   1.8496672263751748E-003   6.4483857436844261E-002
  -6.5955614137115596E-003   1.6303750278880234E-003   6.4907026597152931E-002
  -5.8620895496858637E-003   1.4228819961059347E-003   6.5570720849396788E-002
  -1.1783555713735183E-002   3.0979456114714754E-003   6.3020983845598511E-002
  -1.0810269702637015E-002   2.7763934578534100E-003   6.2945333475690091E-002
  -9.8369836915388302E-003   2.4694345516051153E-003   6.3108786307990994E-002
  -8.8636976804406676E-003   2.1770688927274309E-003   6.3511342342501720E-002
  -7.8904116693424842E-003   1.8992964812195590E-003   6.4153001579221769E-002
   7.2238047368056169E-006  -6.3614592348271159E-006   6.9410584623561755E-002
   4.9387155949612294E-006  -2.0710098311282898E-006   6.9236620780816938E-002
   2.6536264531133724E-006   6.9319887940899605E-007   6.9281533050620348E-002
   3.6853731127245437E-007   1.9311668955634964E-006   6.9545321432971902E-002
  -1.9165518305788720E-006   1.6428942180013451E-006   7.0027985927871517E-002
  -1.9132718126462049E-003   4.7005302587876940E-004   6.8199512371567017E-002
  -1.6929467666896882E-003   4.1960256791556683E-004   6.8005955575279720E-002
  -1.4726217207331645E-003   3.9590873330980214E-004   6.8038742936641222E-002
  -1.2522966747766382E-003   3.9897152206185005E-004   6.8297874455651289E-002
  -1.0319716288201101E-003   4.2879093417180769E-004   6.8783350132309851E-002
  -3.8697095974537660E-003   9.4646751099231041E-004   6.6919557780178524E-002
  -3.4193063712984438E-003   8.4127614566123499E-004   6.6734690894400844E-002
  -2.9689031451431069E-003   7.9112426773986222E-004   6.6783636211372038E-002
  -2.5184999189877839E-003   7.9601187722791455E-004   6.7066393731092161E-002
  -2.0680966928324617E-003   8.5593897412561404E-004   6.7582963453561490E-002
  -5.8620895496858637E-003   1.4228819961059347E-003   6.5570720849396788E-002
  -5.1741400982313101E-003   1.2629497234074166E-003   6.5422826738180159E-002
  -4.4861906467767564E-003   1.1863398021700888E-003   6.5516212874812949E-002
  -3.7982411953221989E-003   1.1930522323940901E-003   6.5850879259295114E-002
  -3.1102917438676487E-003   1.2830870140793094E-003   6.6426825891626573E-002
  -7.8904116693424842E-003   1.8992964812195590E-003   6.4153001579221769E-002
  -6.9574479474882878E-003   1.6846233011535983E-003   6.4070363106617845E-002
  -6.0244842256340705E-003   1.5815553366002877E-003   6.4236472926963883E-002
  -5.0915205037798620E-003   1.5900925875603142E-003   6.4651331040259635E-002
  -4.1585567819256569E-003   1.7102350540331157E-003   6.5314937446505517E-002
  -1.9165518305788720E-006   1.6428942180013451E-006   7.0027985927871517E-002
  -1.2543514455037874E-006   7.7377214369178660E-007   6.8685447298340918E-002
  -5.9215106042870280E-007   2.6919196863262052E-007   6.7489142260406976E-002
   7.0049324642912358E-008   1.2915369410754218E-007   6.6439070814069828E-002
   7.3224970972146641E-007   3.5365731909653420E-007   6.5535232959329170E-002
  -1.0319716288201101E-003   4.2879093417180769E-004   6.8783350132309851E-002
  -8.8852790724585490E-004   5.0120998626634883E-004   6.7460693044604558E-002
  -7.4508418567159791E-004   6.3207169497281335E-004   6.6277365407680866E-002
  -6.0164046409733746E-004   8.2137606029031307E-004   6.5233367221538857E-002
  -4.5819674252307180E-004   1.0691230822195141E-003   6.4328698486178615E-002
  -2.0680966928324617E-003   8.5593897412561404E-004   6.7582963453561490E-002
  -1.7887755908840824E-003   1.0016462003895610E-003   6.6338266022393261E-002
  -1.5094544889357091E-003   1.2638741979765361E-003   6.5225993901191340E-002
  -1.2301333869873263E-003   1.6426229668867372E-003   6.4246147089956268E-002
  -9.5081228503895651E-004   2.1378925071198762E-003   6.3398725588687671E-002
  -3.1102917438676487E-003   1.2830870140793094E-003   6.6426825891626573E-002
  -2.7019974023602010E-003   1.5020824145126621E-003   6.5318166231706942E-002
  -2.2937030608527397E-003   1.8956767009802658E-003   6.4335027740938591E-002
  -1.8854087193452892E-003   2.4638698734831630E-003   6.3477410419321950E-002
  -1.4771143778378312E-003   3.2066619320201550E-003   6.2745314266856644E-002
  -4.1585567819256569E-003   1.7102350540331157E-003   6.5314937446505517E-002
  -3.6281933416741838E-003   2.0025186286354857E-003   6.4400393672545686E-002
  -3.0978299014227280E-003   2.5274792039841620E-003   6.3604466926922509E-002
  -2.5674664611712670E-003   3.2851167800792974E-003   6.2927157209635709E-002
  -2.0371030209197991E-003   4.2754313569207669E-003   6.2368464520685563E-002
   7.3224970972146641E-007   3.5365731909653420E-007   6.5535232959329170E-002
   2.9770948633406347E-007   7.4728046839389606E-007   6.0797598732656666E-002
  -1.3683073706027837E-007   1.1146007668771940E-006   5.5940597075587795E-002
  -5.7137096046329383E-007   1.4556182142619334E-006   5.0964227988122696E-002
  -1.0059111838350843E-006   1.7703328101248417E-006   4.5868491470261397E-002
  -4.5819674252307180E-004   1.0691230822195141E-003   6.4328698486178615E-002
  -5.6374317933661697E-004   1.3951563109705356E-003   5.9620684970119575E-002
  -6.6928961615015173E-004   1.8193192967539407E-003   5.4821815091277093E-002
  -7.7483605296368909E-004   2.3416120395700624E-003   4.9932088849649947E-002
  -8.8038248977724554E-004   2.9620345394183456E-003   4.4951506245239470E-002
  -9.5081228503895651E-004   2.1378925071198762E-003   6.3398725588687671E-002
  -1.1329595508303720E-003   2.7895653414725663E-003   5.8818488843126210E-002
  -1.3151068166217875E-003   3.6375239927413511E-003   5.4175906802392995E-002
  -1.4972540824132121E-003   4.6817684609258663E-003   4.9470979466487951E-002
  -1.6794013482045907E-003   5.9222987460267884E-003   4.4703706835411694E-002
  -1.4771143778378312E-003   3.2066619320201550E-003   6.2745314266856644E-002
  -1.7073514049948759E-003   4.1839743719748745E-003   5.8391010351676126E-002
  -1.9375884321519345E-003   5.4557286887286990E-003   5.4002872208935890E-002
  -2.1678254593089554E-003   7.0219248822820015E-003   4.9580899838636346E-002
  -2.3980624864660240E-003   8.8825629526351202E-003   4.5125093240777597E-002
  -2.0371030209197991E-003   4.2754313569207669E-003   6.2368464520685563E-002
  -2.2869187418301934E-003   5.5783834024769607E-003   5.8338249495769379E-002
  -2.5367344627405912E-003   7.2739333847158527E-003   5.4302711310905860E-002
  -2.7865501836510046E-003   9.3620813036376996E-003   5.0261849966095368E-002
  -3.0363659045613833E-003   1.1842827159243452E-002   4.6215665461337263E-002
  -2.5031343593345023E-002   8.9465279887696592E-003   6.3395143433077117E-002
  -2.4243376873971378E-002   7.7617412191720581E-003   6.2631166029644747E-002
  -2.3455410154597740E-002   6.9120830704338526E-003   6.2124630889721616E-002
  -2.2667443435224088E-002   6.3975535425552545E-003   6.1875538013307793E-002
  -2.1879476715850450E-002   6.2181526355357675E-003   6.1883887400403292E-002
  -3.1539950390542540E-002   1.0100942530901602E-002   5.9082093309555717E-002
  -3.0501549228744484E-002   9.2943238226240732E-003   5.8679714640021752E-002
  -2.9463148066946450E-002   8.6737208813701255E-003   5.8520762591827563E-002
  -2.8424746905148419E-002   8.2391337071397279E-003   5.8605237164972693E-002
  -2.7386345743350388E-002   7.9905622999327519E-003   5.8933138359457349E-002
  -3.7940522826697957E-002   1.1255357073033517E-002   5.5221767674272101E-002
  -3.6665702864645378E-002   1.0826906426076144E-002   5.5031874884801144E-002
  -3.5390882902592742E-002   1.0435358692306364E-002   5.5071393074499632E-002
  -3.4116062940540107E-002   1.0080713871724338E-002   5.5340322243367962E-002
  -3.2841242978487506E-002   9.7629719643297086E-003   5.5838662391405974E-002
  -4.4233060901811422E-002   1.2409771615165446E-002   5.1814166527226840E-002
  -4.2735837781673947E-002   1.2359489029528214E-002   5.1687646763982437E-002
  -4.1238614661536603E-002   1.2196996503242675E-002   5.1776522337738135E-002
  -3.9741391541399183E-002   1.1922294036308935E-002   5.2080793248493580E-002
  -3.8244168421261777E-002   1.1535381628726762E-002   5.2600459496248912E-002
  -5.0417564615882787E-002   1.3564186157297375E-002   4.8859289868419531E-002
  -4.8711953979830414E-002   1.3892071632980285E-002   4.8647030277566172E-002
  -4.7006343343778012E-002   1.3958634314178903E-002   4.8636150381542786E-002
  -4.5300732707725624E-002   1.3763874200893526E-002   4.8826650180349540E-002
  -4.3595122071673223E-002   1.3307791293123705E-002   4.9218529673986378E-002
  -2.1879476715850450E-002   6.2181526355357675E-003   6.1883887400403292E-002
  -2.1129620073847239E-002   6.1655130900213906E-003   6.1705007113815852E-002
  -2.0379763431844014E-002   6.0312676466578730E-003   6.1730262330035507E-002
  -1.9629906789840799E-002   5.8154163054448052E-003   6.1959653049062174E-002
  -1.8880050147837578E-002   5.5179590663825828E-003   6.2393179270895882E-002
  -2.7386345743350388E-002   7.9905622999327519E-003   5.8933138359457349E-002
  -2.6439847541834781E-002   7.8077075331069307E-003   5.8730641729882863E-002
  -2.5493349340319160E-002   7.5702702800201291E-003   5.8717292716526065E-002
  -2.4546851138803560E-002   7.2782505406720540E-003   5.8893091319387095E-002
  -2.3600352937287922E-002   6.9316483150629327E-003   5.9258037538465730E-002
  -3.2841242978487506E-002   9.7629719643297086E-003   5.5838662391405974E-002
  -3.1713091104048810E-002   9.4499019761924707E-003   5.5639572830432520E-002
  -3.0584939229610128E-002   9.1092729133823852E-003   5.5614642999087582E-002
  -2.9456787355171460E-002   8.7410847758992473E-003   5.5763872897371052E-002
  -2.8328635480732771E-002   8.3453375637432547E-003   5.6087262525282802E-002
  -3.8244168421261777E-002   1.1535381628726762E-002   5.2600459496248912E-002
  -3.6949350760489358E-002   1.1092096419278122E-002   5.2431800415464878E-002
  -3.5654533099716931E-002   1.0648275546744586E-002   5.2422313177719809E-002
  -3.4359715438944519E-002   1.0203919011126496E-002   5.2571997783013927E-002
  -3.3064897778172099E-002   9.7590268124235907E-003   5.2880854231346960E-002
  -4.3595122071673223E-002   1.3307791293123705E-002   4.9218529673986378E-002
  -4.2148626511156417E-002   1.2734290862363523E-002   4.9107324484979842E-002
  -4.0702130950639577E-002   1.2187278180107022E-002   4.9140303252422940E-002
  -3.9255635390122764E-002   1.1666753246353637E-002   4.9317465976315811E-002
  -3.7809139829605931E-002   1.1172716061103927E-002   4.9638812656658537E-002
  -1.8880050147837578E-002   5.5179590663825828E-003   6.2393179270895882E-002
  -1.7961303668113146E-002   5.1880502917587001E-003   6.2008993774894383E-002
  -1.7042557188388704E-002   4.8748443438608319E-003   6.1847166344838361E-002
  -1.6123810708664268E-002   4.5783412226891203E-003   6.1907696980727830E-002
  -1.5205064228939837E-002   4.2985409282433329E-003   6.2190585682562860E-002
  -2.3600352937287922E-002   6.9316483150629327E-003   5.9258037538465730E-002
  -2.2461905884524087E-002   6.5606225084286485E-003   5.8874433871032139E-002
  -2.1323458831760234E-002   6.1953320260055567E-003   5.8707873283731851E-002
  -2.0185011778996381E-002   5.8357768677933589E-003   5.8758355776564984E-002
  -1.9046564726232521E-002   5.4819570337922285E-003   5.9025881349531184E-002
  -2.8328635480732771E-002   8.3453375637432547E-003   5.6087262525282802E-002
  -2.6975802840741719E-002   7.9331947250987772E-003   5.5693273183902117E-002
  -2.5622970200750664E-002   7.5158197081501635E-003   5.5511011936842498E-002
  -2.4270137560759627E-002   7.0932125128975957E-003   5.5540478784103925E-002
  -2.2917304920768558E-002   6.6653731393409577E-003   5.5781673725686542E-002
  -3.3064897778172099E-002   9.7590268124235907E-003   5.2880854231346960E-002
  -3.1502994536766082E-002   9.3057669417687880E-003   5.2465511713504186E-002
  -2.9941091295360038E-002   8.8363073902948848E-003   5.2256582304170150E-002
  -2.8379188053954025E-002   8.3506481580018325E-003   5.2254066003345090E-002
  -2.6817284812547984E-002   7.8487892448897145E-003   5.2457962811028727E-002
  -3.7809139829605931E-002   1.1172716061103927E-002   4.9638812656658537E-002
  -3.6043480972597131E-002   1.0678339158438910E-002   4.9191149459838490E-002
  -3.4277822115588344E-002   1.0156795072439495E-002   4.8944584385714945E-002
  -3.2512163258579543E-002   9.6080838031060156E-003   4.8899117434288375E-002
  -3.0746504401570757E-002   9.0322053504384714E-003   4.9054748605558141E-002
  -1.5205064228939837E-002   4.2985409282433329E-003   6.2190585682562860E-002
  -1.4349687100138668E-002   4.0199170601330492E-003   6.2089119734647868E-002
  -1.3494309971337506E-002   3.7269432179679041E-003   6.2193697445848795E-002
  -1.2638932842536341E-002   3.4196194017473008E-003   6.2504318816165749E-002
  -1.1783555713735183E-002   3.0979456114714754E-003   6.3020983845598511E-002
  -1.9046564726232521E-002   5.4819570337922285E-003   5.9025881349531184E-002
  -1.7988439888743789E-002   5.1257141183599919E-003   5.8879414023380205E-002
  -1.6930315051255061E-002   4.7588897158548499E-003   5.8932398455488616E-002
  -1.5872190213766332E-002   4.3814838262765492E-003   5.9184834645856194E-002
  -1.4814065376277601E-002   3.9934964496254333E-003   5.9636722594482938E-002
  -2.2917304920768558E-002   6.6653731393409577E-003   5.5781673725686542E-002
  -2.1663024275449048E-002   6.2315111765868791E-003   5.5593973508282005E-002
  -2.0408743630129525E-002   5.7908362137420177E-003   5.5599133148279842E-002
  -1.9154462984810008E-002   5.3433482508061861E-003   5.5797152645680054E-002
  -1.7900182339490492E-002   4.8890472877795021E-003   5.6188032000482752E-002
  -2.6817284812547984E-002   7.8487892448897145E-003   5.2457962811028727E-002
  -2.5373440260254430E-002   7.3373082348137386E-003   5.2232798189352669E-002
  -2.3929595707960910E-002   6.8227827116290746E-003   5.2193901524222298E-002
  -2.2485751155667390E-002   6.3052126753357952E-003   5.2341272815637468E-002
  -2.1041906603373840E-002   5.7845981259335155E-003   5.2674912063598277E-002
  -3.0746504401570757E-002   9.0322053504384714E-003   4.9054748605558141E-002
  -2.9119687843159950E-002   8.4431052930405981E-003   4.8795888066592685E-002
  -2.7492871284749212E-002   7.8547292095160204E-003   4.8716703583316034E-002
  -2.5866054726338461E-002   7.2670770998652101E-003   4.8817195155728355E-002
  -2.4239238167927668E-002   6.6801489640875289E-003   4.9097362783829368E-002
  -1.1783555713735183E-002   3.0979456114714754E-003   6.3020983845598511E-002
  -1.0810269702637015E-002   2.7763934578534100E-003   6.2945333475690091E-002
  -9.8369836915388302E-003   2.4694345516051153E-003   6.3108786307990994E-002
  -8.8636976804406676E-003   2.1770688927274309E-003   6.3511342342501720E-002
  -7.8904116693424842E-003   1.8992964812195590E-003   6.4153001579221769E-002
  -1.4814065376277601E-002   3.9934964496254333E-003   5.9636722594482938E-002
  -1.3609896179430318E-002   3.6045571417106514E-003   5.9508880343401405E-002
  -1.2405726982583010E-002   3.2242954583417971E-003   5.9603701261608716E-002
  -1.1201557785735733E-002   2.8527113995186759E-003   5.9921185349104511E-002
  -9.9973885888884513E-003   2.4898049652414267E-003   6.0461332605889040E-002
  -1.7900182339490492E-002   4.8890472877795021E-003   5.6188032000482752E-002
  -1.6481569989814981E-002   4.4327208255681705E-003   5.6002082245404067E-002
  -1.5062957640139502E-002   3.9791563650784650E-003   5.6022355626693124E-002
  -1.3644345290464025E-002   3.5283539063100285E-003   5.6248852144349916E-002
  -1.2225732940788511E-002   3.0803134492632389E-003   5.6681571798374575E-002
  -2.1041906603373840E-002   5.7845981259335155E-003   5.2674912063598277E-002
  -1.9425291133791045E-002   5.2608845094253842E-003   5.2424939181698035E-002
  -1.7808675664208268E-002   4.7340172718149179E-003   5.2364749403244620E-002
  -1.6192060194625484E-002   4.2039964131014382E-003   5.2494342728238094E-002
  -1.4575444725042691E-002   3.6708219332851344E-003   5.2813719156678283E-002
  -2.4239238167927668E-002   6.6801489640875289E-003   4.9097362783829368E-002
  -2.2441059611358505E-002   6.0890481932829865E-003   4.8777451152283213E-002
  -2.0642881054789314E-002   5.4888781785517871E-003   4.8630882591262914E-002
  -1.8844702498220144E-002   4.8796389198927301E-003   4.8657657100768720E-002
  -1.7046523941650960E-002   4.2613304173068078E-003   4.8857774680800437E-002
  -7.8904116693424842E-003   1.8992964812195590E-003   6.4153001579221769E-002
  -6.9574479474882878E-003   1.6846233011535983E-003   6.4070363106617845E-002
  -6.0244842256340705E-003   1.5815553366002877E-003   6.4236472926963883E-002
  -5.0915205037798620E-003   1.5900925875603142E-003   6.4651331040259635E-002
  -4.1585567819256569E-003   1.7102350540331157E-003   6.5314937446505517E-002
  -9.9973885888884513E-003   2.4898049652414267E-003   6.0461332605889040E-002
  -8.8150073563026433E-003   2.1877493730014241E-003   6.0370310556233375E-002
  -7.6326261237168787E-003   1.9987178402894046E-003   6.0529375235090832E-002
  -6.4502448911310873E-003   1.9227103671058746E-003   6.0938526642461660E-002
  -5.2678636585453062E-003   1.9597269534502582E-003   6.1597764778345943E-002
  -1.2225732940788511E-002   3.0803134492632389E-003   5.6681571798374575E-002
  -1.0792595761907751E-002   2.6908754448491390E-003   5.6583585015682253E-002
  -9.3594585830269889E-003   2.4158803439782023E-003   5.6737023397066641E-002
  -7.9263214041461975E-003   2.2553281466511053E-003   5.7141886942527746E-002
  -6.4931842252654356E-003   2.2092188528674561E-003   5.7798175652065575E-002
  -1.4575444725042691E-002   3.6708219332851344E-003   5.2813719156678283E-002
  -1.2890213164303527E-002   3.1940015166967428E-003   5.2710186484964831E-002
  -1.1204981603564363E-002   2.8330428476669375E-003   5.2859417412891491E-002
  -9.5197500428252004E-003   2.5879459261964454E-003   5.3261411940458234E-002
  -7.8345184820860381E-003   2.4587107522846263E-003   5.3916170067664873E-002
  -1.7046523941650960E-002   4.2613304173068078E-003   4.8857774680800437E-002
  -1.5107859563489992E-002   3.6971275885446242E-003   4.8750114964080771E-002
  -1.3169195185329038E-002   3.2502053513562001E-003   4.8896557282564923E-002
  -1.1230530807168078E-002   2.9205637057419173E-003   4.9297101636252394E-002
  -9.2918664290071173E-003   2.7082026517019075E-003   4.9951748025143461E-002
  -4.1585567819256569E-003   1.7102350540331157E-003   6.5314937446505517E-002
  -3.6281933416741838E-003   2.0025186286354857E-003   6.4400393672545686E-002
  -3.0978299014227280E-003   2.5274792039841620E-003   6.3604466926922509E-002
  -2.5674664611712670E-003   3.2851167800792974E-003   6.2927157209635709E-002
  -2.0371030209197991E-003   4.2754313569207669E-003   6.2368464520685563E-002
  -5.2678636585453062E-003   1.9597269534502582E-003   6.1597764778345943E-002
  -4.5928036668797280E-003   2.2163184910131140E-003   6.0872688259190733E-002
  -3.9177436752141741E-003   2.7990358714844454E-003   6.0318387814527225E-002
  -3.2426836835486028E-003   3.7078790948645302E-003   5.9934863444355654E-002
  -2.5676236918830420E-003   4.9428481611526465E-003   5.9722115148675647E-002
  -6.4931842252654356E-003   2.2092188528674561E-003   5.7798175652065575E-002
  -5.6212686360305100E-003   2.4301183533908255E-003   5.7356015229877183E-002
  -4.7493530467955869E-003   3.0705925389846456E-003   5.7136789928335735E-002
  -3.8774374575606366E-003   4.1306414096493257E-003   5.7140499747441190E-002
  -3.0055218683257123E-003   5.6102649653844705E-003   5.7367144687193866E-002
  -7.8345184820860381E-003   2.4587107522846263E-003   5.3916170067664873E-002
  -6.7135882491265071E-003   2.6439182157682733E-003   5.3850374584605398E-002
  -5.5926580161669934E-003   3.3421492064848873E-003   5.4059673268347881E-002
  -4.4717277832074303E-003   4.5534037244346730E-003   5.4544066118892801E-002
  -3.3507975502479500E-003   6.2776817696163223E-003   5.5303553136239990E-002
  -9.2918664290071173E-003   2.7082026517019075E-003   4.9951748025143461E-002
  -7.8697625061677212E-003   2.8577180781461653E-003   5.0355766323374906E-002
  -6.4476585833283667E-003   3.6137058739852401E-003   5.1087037834563753E-002
  -5.0255546604890053E-003   4.9761660392193263E-003   5.2145562558710057E-002
  -3.6034507376496161E-003   6.9450985738482851E-003   5.3531340495813873E-002
  -2.0371030209197991E-003   4.2754313569207669E-003   6.2368464520685563E-002
  -2.2869187418301934E-003   5.5783834024769607E-003   5.8338249495769379E-002
  -2.5367344627405912E-003   7.2739333847158527E-003   5.4302711310905860E-002
  -2.7865501836510046E-003   9.3620813036376996E-003   5.0261849966095368E-002
  -3.0363659045613833E-003   1.1842827159243452E-002   4.6215665461337263E-002
  -2.5676236918830420E-003   4.9428481611526465E-003   5.9722115148675647E-002
  -2.8402874123505395E-003   6.5676415144862998E-003   5.6190058112602581E-002
  -3.1129511328180023E-003   8.6459575990018023E-003   5.2617628237362546E-002
  -3.3856148532855814E-003   1.1177796414699494E-002   4.9004825522955264E-002
  -3.6582785737530182E-003   1.4163157961579298E-002   4.5351649969381125E-002
  -3.0055218683257123E-003   5.6102649653844705E-003   5.7367144687193866E-002
  -3.3360832675701016E-003   7.5568996264957500E-003   5.4394170434462930E-002
  -3.6666446668145196E-003   1.0017981813287738E-002   5.1345773663345376E-002
  -3.9972060660588820E-003   1.2993511525761007E-002   4.8221954373841004E-002
  -4.3277674653032713E-003   1.6483488763915366E-002   4.5022712565949807E-002
  -3.3507975502479500E-003   6.2776817696163223E-003   5.5303553136239990E-002
  -3.7743063074889716E-003   8.5461577385053666E-003   5.2950586461350084E-002
  -4.1978150647299798E-003   1.1390006027573681E-002   5.0487147588853837E-002
  -4.6213238219710503E-003   1.4809226636822661E-002   4.7913236518751109E-002
  -5.0448325792119813E-003   1.8803819566251323E-002   4.5228853251042173E-002
  -3.6034507376496161E-003   6.9450985738482851E-003   5.3531340495813873E-002
  -4.1549565321070542E-003   9.5354158505143172E-003   5.1859306193264509E-002
  -4.7064623265645200E-003   1.2762030241859540E-002   5.0041750013888830E-002
  -5.2579681210219997E-003   1.6624941747884016E-002   4.8078671957686864E-002
  -5.8094739154794239E-003   2.1124150368587280E-002   4.5970072024658748E-002
  -5.0417564615882787E-002   1.3564186157297375E-002   4.8859289868419531E-002
  -4.8711953979830414E-002   1.3892071632980285E-002   4.8647030277566172E-002
  -4.7006343343778012E-002   1.3958634314178903E-002   4.8636150381542786E-002
  -4.5300732707725624E-002   1.3763874200893526E-002   4.8826650180349540E-002
  -4.3595122071673223E-002   1.3307791293123705E-002   4.9218529673986378E-002
  -5.6572889069873400E-002   1.6154336277317660E-002   4.4829273134782799E-002
  -5.4664844114695896E-002   1.6047190452946225E-002   4.4367330557024826E-002
  -5.2756799159518211E-002   1.5799243882420905E-002   4.4108876922687223E-002
  -5.0848754204340568E-002   1.5410496565741678E-002   4.4053912231770076E-002
  -4.8940709249163016E-002   1.4880948502908609E-002   4.4202436484273272E-002
  -6.2777889364744918E-002   1.8744486397338056E-002   4.0303964076926574E-002
  -6.0665300841851733E-002   1.8202309272912220E-002   3.9712860560594337E-002
  -5.8552712318958498E-002   1.7639853450662837E-002   3.9327355236272912E-002
  -5.6440123796065292E-002   1.7057118930589917E-002   3.9147448103962111E-002
  -5.4327535273172134E-002   1.6454105712693484E-002   3.9173139163662066E-002
  -6.9032565500496912E-002   2.1334636517358424E-002   3.5283362694850710E-002
  -6.6713324161297910E-002   2.0357428092878216E-002   3.4683620288274687E-002
  -6.4394082822098797E-002   1.9480463018904721E-002   3.4291585322299631E-002
  -6.2074841482899774E-002   1.8703741295438170E-002   3.4107257796925486E-002
  -5.9755600143700696E-002   1.8027262922478374E-002   3.4130637712152523E-002
  -7.5336917477129728E-002   2.3924786637378737E-002   2.9767468988555534E-002
  -7.2808914073034525E-002   2.2512546912844211E-002   2.9279609740065660E-002
  -7.0280910668939184E-002   2.1321072587146717E-002   2.9001567180767407E-002
  -6.7752907264843953E-002   2.0350363660286350E-002   2.8933341310660443E-002
  -6.5224903860748668E-002   1.9600420132263208E-002   2.9074932129744879E-002
  -4.3595122071673223E-002   1.3307791293123705E-002   4.9218529673986378E-002
  -4.2148626511156417E-002   1.2734290862363523E-002   4.9107324484979842E-002
  -4.0702130950639577E-002   1.2187278180107022E-002   4.9140303252422940E-002
  -3.9255635390122764E-002   1.1666753246353637E-002   4.9317465976315811E-002
  -3.7809139829605931E-002   1.1172716061103927E-002   4.9638812656658537E-002
  -4.8940709249163016E-002   1.4880948502908609E-002   4.4202436484273272E-002
  -4.7344793083757344E-002   1.4287695467202891E-002   4.4075168371642340E-002
  -4.5748876918351764E-002   1.3707833231905900E-002   4.4102557512339297E-002
  -4.4152960752946203E-002   1.3141361797017293E-002   4.4284603906363983E-002
  -4.2557044587540574E-002   1.2588281162537518E-002   4.4621307553716572E-002
  -5.4327535273172134E-002   1.6454105712693484E-002   3.9173139163662066E-002
  -5.2571725205999703E-002   1.5841100072042189E-002   3.9016711179311908E-002
  -5.0815915138827272E-002   1.5228388283704604E-002   3.9025413745167721E-002
  -4.9060105071654786E-002   1.4615970347680947E-002   3.9199246861229387E-002
  -4.7304295004482369E-002   1.4003846263971109E-002   3.9538210527496870E-002
  -5.9755600143700696E-002   1.8027262922478374E-002   3.4130637712152523E-002
  -5.7829422877883355E-002   1.7394504676881382E-002   3.3931952907988477E-002
  -5.5903245612065999E-002   1.6748943335503589E-002   3.3908871950908456E-002
  -5.3977068346248699E-002   1.6090578898344657E-002   3.4061394840912244E-002
  -5.2050891080431302E-002   1.5419411365404673E-002   3.4389521578000001E-002
  -6.5224903860748668E-002   1.9600420132263208E-002   2.9074932129744879E-002
  -6.3117886099408355E-002   1.8947909281720798E-002   2.8820893557672062E-002
  -6.1010868338068069E-002   1.8269498387302241E-002   2.8752932129561259E-002
  -5.8903850576727756E-002   1.7565187449008215E-002   2.8871047845412529E-002
  -5.6796832815387444E-002   1.6834976466838292E-002   2.9175240705225647E-002
  -3.7809139829605931E-002   1.1172716061103927E-002   4.9638812656658537E-002
  -3.6043480972597131E-002   1.0678339158438910E-002   4.9191149459838490E-002
  -3.4277822115588344E-002   1.0156795072439495E-002   4.8944584385714945E-002
  -3.2512163258579543E-002   9.6080838031060156E-003   4.8899117434288375E-002
  -3.0746504401570757E-002   9.0322053504384714E-003   4.9054748605558141E-002
  -4.2557044587540574E-002   1.2588281162537518E-002   4.4621307553716572E-002
  -4.0591271427150105E-002   1.2033371860623088E-002   4.4151207219268240E-002
  -3.8625498266759650E-002   1.1461414423430571E-002   4.3880237368886771E-002
  -3.6659725106369161E-002   1.0872408850960372E-002   4.3808398002571872E-002
  -3.4693951945978713E-002   1.0266355143212391E-002   4.3935689120323751E-002
  -4.7304295004482369E-002   1.4003846263971109E-002   3.9538210527496870E-002
  -4.5140375179340234E-002   1.3388404562807349E-002   3.9055792103476789E-002
  -4.2976455354197987E-002   1.2766033774421981E-002   3.8770536524893498E-002
  -4.0812535529055761E-002   1.2136733898814839E-002   3.8682443791746873E-002
  -3.8648615703913605E-002   1.1500504935986144E-002   3.8791513904037012E-002
  -5.2050891080431302E-002   1.5419411365404673E-002   3.4389521578000001E-002
  -4.9690792229167398E-002   1.4743437264991485E-002   3.3904904112464315E-002
  -4.7330693377903466E-002   1.4070653125413168E-002   3.3615481853735252E-002
  -4.4970594526639547E-002   1.3401058946669250E-002   3.3521254801812991E-002
  -4.2610495675375629E-002   1.2734654728759870E-002   3.3622222956697492E-002
  -5.6796832815387444E-002   1.6834976466838292E-002   2.9175240705225647E-002
  -5.4242522576631702E-002   1.6098469967175844E-002   2.8698543246230446E-002
  -5.1688212337875988E-002   1.5375272476404508E-002   2.8415073355412129E-002
  -4.9133902099120261E-002   1.4665383994523645E-002   2.8324831032770476E-002
  -4.6579591860364533E-002   1.3968804521533762E-002   2.8427816278305651E-002
  -3.0746504401570757E-002   9.0322053504384714E-003   4.9054748605558141E-002
  -2.9119687843159950E-002   8.4431052930405981E-003   4.8795888066592685E-002
  -2.7492871284749212E-002   7.8547292095160204E-003   4.8716703583316034E-002
  -2.5866054726338461E-002   7.2670770998652101E-003   4.8817195155728355E-002
  -2.4239238167927668E-002   6.6801489640875289E-003   4.9097362783829368E-002
  -3.4693951945978713E-002   1.0266355143212391E-002   4.3935689120323751E-002
  -3.2894412396346162E-002   9.6486162430706457E-003   4.3659860165546238E-002
  -3.1094872846713660E-002   9.0245550934195673E-003   4.3549801137523353E-002
  -2.9295333297081120E-002   8.3941716942591768E-003   4.3605512036255234E-002
  -2.7495793747448566E-002   7.7574660455893563E-003   4.3826992861741521E-002
  -3.8648615703913605E-002   1.1500504935986144E-002   3.8791513904037012E-002
  -3.6690259291993557E-002   1.0854127193100582E-002   3.8491670310064618E-002
  -3.4731902880073474E-002   1.0194380977322892E-002   3.8343690513912787E-002
  -3.2773546468153378E-002   9.5212662886531990E-003   3.8347574515581281E-002
  -3.0815190056233351E-002   8.8347831270914057E-003   3.8503322315070448E-002
  -4.2610495675375629E-002   1.2734654728759870E-002   3.3622222956697492E-002
  -4.0507228530102093E-002   1.2059638143130519E-002   3.3291318500147653E-002
  -3.8403961384828676E-002   1.1364206861226384E-002   3.3098371712484087E-002
  -3.6300694239555203E-002   1.0648360883047193E-002   3.3043382593706837E-002
  -3.4197427094281724E-002   9.9121002085933441E-003   3.3126351143815812E-002
  -4.6579591860364533E-002   1.3968804521533762E-002   2.8427816278305651E-002
  -4.4345320110671882E-002   1.3265149093160455E-002   2.8058804735795528E-002
  -4.2111048360979231E-002   1.2534032745129722E-002   2.7813844733237475E-002
  -3.9876776611286566E-002   1.1775455477441178E-002   2.7692936270631560E-002
  -3.7642504861593928E-002   1.0989417290095282E-002   2.7696079347977576E-002
  -2.4239238167927668E-002   6.6801489640875289E-003   4.9097362783829368E-002
  -2.2441059611358505E-002   6.0890481932829865E-003   4.8777451152283213E-002
  -2.0642881054789314E-002   5.4888781785517871E-003   4.8630882591262914E-002
  -1.8844702498220144E-002   4.8796389198927301E-003   4.8657657100768720E-002
  -1.7046523941650960E-002   4.2613304173068078E-003   4.8857774680800437E-002
  -2.7495793747448566E-002   7.7574660455893563E-003   4.3826992861741521E-002
  -2.5529981476572990E-002   7.1178478717698890E-003   4.3434245122353499E-002
  -2.3564169205697434E-002   6.4787268971600864E-003   4.3203421741052267E-002
  -2.1598356934821882E-002   5.8401031217598307E-003   4.3134522717837812E-002
  -1.9632544663946302E-002   5.2019765455694200E-003   4.3227548052710452E-002
  -3.0815190056233351E-002   8.8347831270914057E-003   3.8503322315070448E-002
  -2.8693162783490406E-002   8.1466475502567637E-003   3.8047304910977131E-002
  -2.6571135510747444E-002   7.4685756157686217E-003   3.7741793152531580E-002
  -2.4449108238004495E-002   6.8005673236270457E-003   3.7586787039733734E-002
  -2.2327080965261550E-002   6.1426226738318657E-003   3.7582286572583973E-002
  -3.4197427094281724E-002   9.9121002085933441E-003   3.3126351143815812E-002
  -3.1930603532110469E-002   9.1754472287435968E-003   3.2616630518154062E-002
  -2.9663779969939259E-002   8.4584243343773721E-003   3.2245996825701145E-002
  -2.7396956407768052E-002   7.7610315254941480E-003   3.2014450066456951E-002
  -2.5130132845596787E-002   7.0832688020942280E-003   3.1921990240421631E-002
  -3.7642504861593928E-002   1.0989417290095282E-002   2.7696079347977576E-002
  -3.5242303722433449E-002   1.0204246907230485E-002   2.7142221943884326E-002
  -3.2842102583272970E-002   9.4482730529857617E-003   2.6716032760560948E-002
  -3.0441901444112518E-002   8.7214957273613822E-003   2.6417511798006860E-002
  -2.8041700304952011E-002   8.0239149303568125E-003   2.6246659056222810E-002
  -1.7046523941650960E-002   4.2613304173068078E-003   4.8857774680800437E-002
  -1.5107859563489992E-002   3.6971275885446242E-003   4.8750114964080771E-002
  -1.3169195185329038E-002   3.2502053513562001E-003   4.8896557282564923E-002
  -1.1230530807168078E-002   2.9205637057419173E-003   4.9297101636252394E-002
  -9.2918664290071173E-003   2.7082026517019075E-003   4.9951748025143461E-002
  -1.9632544663946302E-002   5.2019765455694200E-003   4.3227548052710452E-002
  -1.7478168811102007E-002   4.6005800884607040E-003   4.3068104011714459E-002
  -1.5323792958257726E-002   4.0721466703046993E-003   4.3085980884881664E-002
  -1.3169417105413469E-002   3.6166762911023081E-003   4.3281178672211831E-002
  -1.1015041252569149E-002   3.2341689508529337E-003   4.3653697373705391E-002
  -2.2327080965261550E-002   6.1426226738318657E-003   3.7582286572583973E-002
  -2.0033774758774311E-002   5.5040325883763674E-003   3.7326740654690826E-002
  -1.7740468552287048E-002   4.8940879892529904E-003   3.7171734529920245E-002
  -1.5447162345799839E-002   4.3127888764622584E-003   3.7117268198272609E-002
  -1.3153856139312602E-002   3.7601352500039043E-003   3.7163341659747606E-002
  -2.5130132845596787E-002   7.0832688020942280E-003   3.1921990240421631E-002
  -2.2774677406506957E-002   6.4074850882921280E-003   3.1526024893010193E-002
  -2.0419221967417123E-002   5.7160293082014965E-003   3.1153818217681307E-002
  -1.8063766528327321E-002   5.0089014618220958E-003   3.0805370214434732E-002
  -1.5708311089237460E-002   4.2861015491549026E-003   3.0480680883270522E-002
  -2.8041700304952011E-002   8.0239149303568125E-003   2.6246659056222810E-002
  -2.5700876754299939E-002   7.3109375882081107E-003   2.5665956726672601E-002
  -2.3360053203647868E-002   6.5379706271497529E-003   2.5032231948164230E-002
  -2.1019229652995783E-002   5.7050140471824259E-003   2.4345484720698085E-002
  -1.8678406102343725E-002   4.8120678483060120E-003   2.3605715044274000E-002
  -9.2918664290071173E-003   2.7082026517019075E-003   4.9951748025143461E-002
  -7.8697625061677212E-003   2.8577180781461653E-003   5.0355766323374906E-002
  -6.4476585833283667E-003   3.6137058739852401E-003   5.1087037834563753E-002
  -5.0255546604890053E-003   4.9761660392193263E-003   5.2145562558710057E-002
  -3.6034507376496161E-003   6.9450985738482851E-003   5.3531340495813873E-002
  -1.1015041252569149E-002   3.2341689508529337E-003   4.3653697373705391E-002
  -9.2474014697866425E-003   3.1630783258242978E-003   4.4238529636182689E-002
  -7.4797616870040939E-003   3.6418580922838173E-003   4.5187180405588501E-002
  -5.7121219042215940E-003   4.6705082502317766E-003   4.6499649681923133E-002
  -3.9444821214390385E-003   6.2490287996674887E-003   4.8175937465186891E-002
  -1.3153856139312602E-002   3.7601352500039043E-003   3.7163341659747606E-002
  -1.1004115202615551E-002   3.4684385735024303E-003   3.7872385908563899E-002
  -8.8543742659185597E-003   3.6700103105825055E-003   3.8981813958280126E-002
  -6.7046333292215526E-003   4.3648504612436717E-003   4.0491625808896647E-002
  -4.5548923925245732E-003   5.5529590254861927E-003   4.2401821460413242E-002
  -1.5708311089237460E-002   4.2861015491549026E-003   3.0480680883270522E-002
  -1.3139903704654600E-002   3.7737988211807294E-003   3.1257335140519059E-002
  -1.0571496320071747E-002   3.6981625288808606E-003   3.2470938492638851E-002
  -8.0030889354888758E-003   4.0591926722557334E-003   3.4121490939630142E-002
  -5.4346815509060328E-003   4.8568892513053685E-003   3.6208992481493292E-002
  -1.8678406102343725E-002   4.8120678483060120E-003   2.3605715044274000E-002
  -1.5654766975903650E-002   4.0791590688586954E-003   2.4393377332047717E-002
  -1.2631127849463630E-002   3.7263147471796598E-003   2.5654554008664565E-002
  -9.6074887230235828E-003   3.7535348832677673E-003   2.7389245074123991E-002
  -6.5838495965835353E-003   4.1608194771239893E-003   2.9597450528426328E-002
  -3.6034507376496161E-003   6.9450985738482851E-003   5.3531340495813873E-002
  -4.1549565321070542E-003   9.5354158505143172E-003   5.1859306193264509E-002
  -4.7064623265645200E-003   1.2762030241859540E-002   5.0041750013888830E-002
  -5.2579681210219997E-003   1.6624941747884016E-002   4.8078671957686864E-002
  -5.8094739154794239E-003   2.1124150368587280E-002   4.5970072024658748E-002
  -3.9444821214390385E-003   6.2490287996674887E-003   4.8175937465186891E-002
  -4.5376684099907999E-003   8.6872970647293157E-003   4.7241326735295297E-002
  -5.1308546985425127E-003   1.2295190369555842E-002   4.6368876894041122E-002
  -5.7240409870942359E-003   1.7072708714146623E-002   4.5558587941425033E-002
  -6.3172272756459869E-003   2.3019852098501659E-002   4.4810459877446807E-002
  -4.5548923925245732E-003   5.5529590254861927E-003   4.2401821460413242E-002
  -4.9820764097064929E-003   7.8391782789445363E-003   4.2737962228264620E-002
  -5.4092604268884056E-003   1.1828350497252019E-002   4.3343946650217777E-002
  -5.8364444440703808E-003   1.7520475680409337E-002   4.4219774726273094E-002
  -6.2636284612523491E-003   2.4915553828416037E-002   4.5365446456429703E-002
  -5.4346815509060328E-003   4.8568892513053685E-003   3.6208992481493292E-002
  -5.4881805312541592E-003   6.9910594931596459E-003   3.8349212672172700E-002
  -5.5416795116022873E-003   1.1361510624948369E-002   4.0966959282417892E-002
  -5.5951784919504016E-003   1.7968242646671996E-002   4.4062232312229395E-002
  -5.6486774722985418E-003   2.6811255558330416E-002   4.7635031761605884E-002
  -6.5838495965835353E-003   4.1608194771239893E-003   2.9597450528426328E-002
  -6.0559807746337624E-003   6.1429407073742004E-003   3.4075078067019371E-002
  -5.5281119526840727E-003   1.0894670752644414E-002   3.9237914790642148E-002
  -5.0002431307343276E-003   1.8416009612934693E-002   4.5085960699294741E-002
  -4.4723743087845547E-003   2.8706957288244794E-002   5.1619215792977347E-002
  -7.5336917477129728E-002   2.3924786637378737E-002   2.9767468988555534E-002
  -7.2808914073034525E-002   2.2512546912844211E-002   2.9279609740065660E-002
  -7.0280910668939184E-002   2.1321072587146717E-002   2.9001567180767407E-002
  -6.7752907264843953E-002   2.0350363660286350E-002   2.8933341310660443E-002
  -6.5224903860748668E-002   1.9600420132263208E-002   2.9074932129744879E-002
  -8.1579025414541539E-002   2.4836340356722719E-002   2.1735651825534053E-002
  -7.8857283237636591E-002   2.3882687341848036E-002   2.1542176843352578E-002
  -7.6135541060731726E-002   2.2980865454870616E-002   2.1526362717598946E-002
  -7.3413798883826750E-002   2.2130874695790354E-002   2.1688209448273293E-002
  -7.0692056706921858E-002   2.1332715064607377E-002   2.2027717035375510E-002
  -8.7646969432630506E-002   2.5747894076066757E-002   1.4246888507642441E-002
  -8.4763644315679385E-002   2.5252827770852082E-002   1.4178863520829352E-002
  -8.1880319198728277E-002   2.4640658322594433E-002   1.4256343557680531E-002
  -7.8996994081777114E-002   2.3911385731294331E-002   1.4479328618196195E-002
  -7.6113668964826006E-002   2.3065009996951574E-002   1.4847818702376434E-002
  -9.3540749531396822E-002   2.6659447795410796E-002   7.3011790348807143E-003
  -9.0527997307162905E-002   2.6622968199855851E-002   7.1896697724958755E-003
  -8.7515245082929072E-002   2.6300451190318347E-002   7.1915097010120804E-003
  -8.4502492858695169E-002   2.5691896766798266E-002   7.3066988204292908E-003
  -8.1489740634461294E-002   2.4797304929295647E-002   7.5352371307475137E-003
  -9.9260365710840404E-002   2.7571001514754778E-002   8.9852340724871915E-004
  -9.6150342212087181E-002   2.7993108628859842E-002   5.7459559835243423E-004
  -9.3040318713333958E-002   2.7960244058042150E-002   3.3186114759375940E-004
  -8.9930295214580735E-002   2.7472407802302243E-002   1.7032005497227831E-004
  -8.6820271715827513E-002   2.6529599861639941E-002   8.9972320488851398E-005
  -6.5224903860748668E-002   1.9600420132263208E-002   2.9074932129744879E-002
  -6.3117886099408355E-002   1.8947909281720798E-002   2.8820893557672062E-002
  -6.1010868338068069E-002   1.8269498387302241E-002   2.8752932129561259E-002
  -5.8903850576727756E-002   1.7565187449008215E-002   2.8871047845412529E-002
  -5.6796832815387444E-002   1.6834976466838292E-002   2.9175240705225647E-002
  -7.0692056706921858E-002   2.1332715064607377E-002   2.2027717035375510E-002
  -6.8402214845605977E-002   2.0561429484673654E-002   2.1803974472948018E-002
  -6.6112372984290096E-002   1.9792060879341253E-002   2.1759802966509728E-002
  -6.3822531122974216E-002   1.9024609248610071E-002   2.1895202516060426E-002
  -6.1532689261658349E-002   1.8259074592480218E-002   2.2210173121600341E-002
  -7.6113668964826006E-002   2.3065009996951574E-002   1.4847818702376434E-002
  -7.3647509091507468E-002   2.2174949687626705E-002   1.4682189168071388E-002
  -7.1181349218188902E-002   2.1314623371380098E-002   1.4689624601782539E-002
  -6.8715189344870364E-002   2.0484031048211927E-002   1.4870125003509982E-002
  -6.6249029471551812E-002   1.9683172718122199E-002   1.5223690373253745E-002
  -8.1489740634461294E-002   2.4797304929295647E-002   7.5352371307475137E-003
  -7.8853768837112870E-002   2.3788469890579603E-002   7.4555376430420935E-003
  -7.6217797039764418E-002   2.2837185863418888E-002   7.5423970353798026E-003
  -7.3581825242416007E-002   2.1943452847813839E-002   7.7958153077611475E-003
  -7.0945853445067555E-002   2.1107270843764070E-002   8.2157924601858022E-003
  -8.6820271715827513E-002   2.6529599861639941E-002   8.9972320488851398E-005
  -8.4020994082422085E-002   2.5401990093532556E-002   1.2401989786009482E-004
  -8.1221716449016712E-002   2.4359748355458011E-002   3.1812026730150544E-004
  -7.8422438815611339E-002   2.3402874647415681E-002   6.7227342881382227E-004
  -7.5623161182205911E-002   2.2531368969405996E-002   1.1864793823964659E-003
  -5.6796832815387444E-002   1.6834976466838292E-002   2.9175240705225647E-002
  -5.4242522576631702E-002   1.6098469967175844E-002   2.8698543246230446E-002
  -5.1688212337875988E-002   1.5375272476404508E-002   2.8415073355412129E-002
  -4.9133902099120261E-002   1.4665383994523645E-002   2.8324831032770476E-002
  -4.6579591860364533E-002   1.3968804521533762E-002   2.8427816278305651E-002
  -6.1532689261658349E-002   1.8259074592480218E-002   2.2210173121600341E-002
  -5.8785103566863145E-002   1.7494796365877918E-002   2.1759992233517628E-002
  -5.6037517872067906E-002   1.6731114023729343E-002   2.1503134689337122E-002
  -5.3289932177272667E-002   1.5968027566034312E-002   2.1439600489058852E-002
  -5.0542346482477463E-002   1.5205536992792923E-002   2.1569389632682734E-002
  -6.6249029471551812E-002   1.9683172718122199E-002   1.5223690373253745E-002
  -6.3308072544991600E-002   1.8891122764579854E-002   1.4787312931646243E-002
  -6.0367115618431506E-002   1.8086955571054240E-002   1.4544354609666479E-002
  -5.7426158691871357E-002   1.7270671137544984E-002   1.4494815407314256E-002
  -5.4485201765311256E-002   1.6442269464052112E-002   1.4638695324589793E-002
  -7.0945853445067555E-002   2.1107270843764070E-002   8.2157924601858022E-003
  -6.7811429511017166E-002   2.0287449163281804E-002   7.7805053406163754E-003
  -6.4677005576966776E-002   1.9442797118379106E-002   7.5387331164002095E-003
  -6.1542581642916351E-002   1.8573314709055429E-002   7.4904757875370693E-003
  -5.8408157708866010E-002   1.7679001935311398E-002   7.6357333540265186E-003
  -7.5623161182205911E-002   2.2531368969405996E-002   1.1864793823964659E-003
  -7.2295174464939771E-002   2.1683775561983754E-002   7.3956946042824656E-004
  -6.8967187747673742E-002   2.0798638665704028E-002   4.8627020953811995E-004
  -6.5639201030407657E-002   1.9875958280566111E-002   4.2658162972682157E-004
  -6.2311214313141572E-002   1.8915734406570461E-002   5.6050372099358814E-004
  -4.6579591860364533E-002   1.3968804521533762E-002   2.8427816278305651E-002
  -4.4345320110671882E-002   1.3265149093160455E-002   2.8058804735795528E-002
  -4.2111048360979231E-002   1.2534032745129722E-002   2.7813844733237475E-002
  -3.9876776611286566E-002   1.1775455477441178E-002   2.7692936270631560E-002
  -3.7642504861593928E-002   1.0989417290095282E-002   2.7696079347977576E-002
  -5.0542346482477463E-002   1.5205536992792923E-002   2.1569389632682734E-002
  -4.8176618988884659E-002   1.4438928161876280E-002   2.1209534973668703E-002
  -4.5810891495291883E-002   1.3663486931155017E-002   2.0988540262502742E-002
  -4.3445164001699163E-002   1.2879213300629626E-002   2.0906405499184877E-002
  -4.1079436508106359E-002   1.2086107270299462E-002   2.0963130683715192E-002
  -5.4485201765311256E-002   1.6442269464052112E-002   1.4638695324589793E-002
  -5.1973210119922286E-002   1.5612707230591882E-002   1.4306626068925035E-002
  -4.9461218474533435E-002   1.4792941117180526E-002   1.4128225169004201E-002
  -4.6949226829144541E-002   1.3982971123817850E-002   1.4103492624827591E-002
  -4.4437235183755627E-002   1.3182797250503531E-002   1.4232428436395356E-002
  -5.8408157708866010E-002   1.7679001935311398E-002   7.6357333540265186E-003
  -5.5735093503784930E-002   1.6786486299307707E-002   7.3500780215641319E-003
  -5.3062029298703850E-002   1.5922395303205873E-002   7.2328994527417322E-003
  -5.0388965093622749E-002   1.5086728947005964E-002   7.2841976475597836E-003
  -4.7715900888541683E-002   1.4279487230707877E-002   7.5039726060178863E-003
  -6.2311214313141572E-002   1.8915734406570461E-002   5.6050372099358814E-004
  -5.9462269140472257E-002   1.7960265368023420E-002   3.3989083158664224E-004
  -5.6613323967803053E-002   1.7051849489231496E-002   3.0256311371576472E-004
  -5.3764378795133821E-002   1.6190486770194343E-002   4.4852056738122620E-004
  -5.0915433622464534E-002   1.5376177210912001E-002   7.7776319258304749E-004
  -3.7642504861593928E-002   1.0989417290095282E-002   2.7696079347977576E-002
  -3.5242303722433449E-002   1.0204246907230485E-002   2.7142221943884326E-002
  -3.2842102583272970E-002   9.4482730529857617E-003   2.6716032760560948E-002
  -3.0441901444112518E-002   8.7214957273613822E-003   2.6417511798006860E-002
  -2.8041700304952011E-002   8.0239149303568125E-003   2.6246659056222810E-002
  -4.1079436508106359E-002   1.2086107270299462E-002   2.0963130683715192E-002
  -3.8560659197924008E-002   1.1295681406047864E-002   2.0501008831027956E-002
  -3.6041881887741600E-002   1.0519448273757337E-002   2.0148371099614870E-002
  -3.3523104577559221E-002   9.7574078734286723E-003   1.9905217489475824E-002
  -3.1004327267376841E-002   9.0095602050606072E-003   1.9771548000610983E-002
  -4.4437235183755627E-002   1.3182797250503531E-002   1.4232428436395356E-002
  -4.1818065802046979E-002   1.2387115904865270E-002   1.3847038338455353E-002
  -3.9198896420338275E-002   1.1590623494528815E-002   1.3552948262293862E-002
  -3.6579727038629592E-002   1.0793320019495522E-002   1.3350158207910641E-002
  -3.3960557656920923E-002   9.9952054797640133E-003   1.3238668175306334E-002
  -4.7715900888541683E-002   1.4279487230707877E-002   7.5039726060178863E-003
  -4.5014523534802404E-002   1.3478550403682663E-002   7.1803104661662259E-003
  -4.2313146181062994E-002   1.2661798715300453E-002   6.9297642485975121E-003
  -3.9611768827323653E-002   1.1829232165562869E-002   6.7523339533117465E-003
  -3.6910391473584284E-002   1.0980850754467725E-002   6.6480195803087574E-003
  -5.0915433622464534E-002   1.5376177210912001E-002   7.7776319258304749E-004
  -4.8150032396190090E-002   1.4569984902500388E-002   5.0082521416100478E-004
  -4.5384631169915757E-002   1.3732973936071924E-002   2.7881905852611411E-004
  -4.2619229943641368E-002   1.2865144311629897E-002   1.1174472567893057E-004
  -3.9853828717366979E-002   1.1966496029171436E-002  -3.9778438132298533E-007
  -2.8041700304952011E-002   8.0239149303568125E-003   2.6246659056222810E-002
  -2.5700876754299939E-002   7.3109375882081107E-003   2.5665956726672601E-002
  -2.3360053203647868E-002   6.5379706271497529E-003   2.5032231948164230E-002
  -2.1019229652995783E-002   5.7050140471824259E-003   2.4345484720698085E-002
  -1.8678406102343725E-002   4.8120678483060120E-003   2.3605715044274000E-002
  -3.1004327267376841E-002   9.0095602050606072E-003   1.9771548000610983E-002
  -2.8699053504019148E-002   8.2665290421715665E-003   1.9182440235648357E-002
  -2.6393779740661413E-002   7.5189381582782266E-003   1.8575255345055164E-002
  -2.4088505977303651E-002   6.7667875533807612E-003   1.7949993328830988E-002
  -2.1783232213945930E-002   6.0100772274799263E-003   1.7306654186976411E-002
  -3.3960557656920923E-002   9.9952054797640133E-003   1.3238668175306334E-002
  -3.1655888357530332E-002   9.2221204961350223E-003   1.2696584872836703E-002
  -2.9351219058139803E-002   8.4999056894069364E-003   1.2171369768063281E-002
  -2.7046549758749299E-002   7.8285610595794329E-003   1.1663022860986506E-002
  -2.4741880459358684E-002   7.2080866066538962E-003   1.1171544151606178E-002
  -3.6910391473584284E-002   1.0980850754467725E-002   6.6480195803087574E-003
  -3.4571381314833713E-002   1.0177711950098478E-002   6.2083906382372281E-003
  -3.2232371156083073E-002   9.4808732205346399E-003   5.8205752171892056E-003
  -2.9893360997332509E-002   8.8903345657784915E-003   5.4845733171650281E-003
  -2.7554350838581855E-002   8.4060959858272277E-003   5.2003849381642361E-003
  -3.9853828717366979E-002   1.1966496029171436E-002  -3.9778438132298533E-007
  -3.7445532375929069E-002   1.1133303404062045E-002  -2.8214246814994848E-004
  -3.5037236034491270E-002   1.0461840751664175E-002  -4.7712830756721503E-004
  -3.2628939693053444E-002   9.9521080719764538E-003  -5.8535530263429530E-004
  -3.0220643351615561E-002   9.6041053650015584E-003  -6.0682345334983623E-004
  -1.8678406102343725E-002   4.8120678483060120E-003   2.3605715044274000E-002
  -1.5654766975903650E-002   4.0791590688586954E-003   2.4393377332047717E-002
  -1.2631127849463630E-002   3.7263147471796598E-003   2.5654554008664565E-002
  -9.6074887230235828E-003   3.7535348832677673E-003   2.7389245074123991E-002
  -6.5838495965835353E-003   4.1608194771239893E-003   2.9597450528426328E-002
  -2.1783232213945930E-002   6.0100772274799263E-003   1.7306654186976411E-002
  -1.8555275148321532E-002   5.3428385869431216E-003   1.8253081666031623E-002
  -1.5327318082697133E-002   4.8591030381394396E-003   1.9134630634612737E-002
  -1.2099361017072777E-002   4.5588705810691646E-003   1.9951301092719587E-002
  -8.8714039514483367E-003   4.4421412157320539E-003   2.0703093040352560E-002
  -2.4741880459358684E-002   7.2080866066538962E-003   1.1171544151606178E-002
  -2.1847998353866950E-002   6.6065181050275479E-003   1.2080175455908421E-002
  -1.8954116248375223E-002   5.9918913290996634E-003   1.2385535350419322E-002
  -1.6060234142883441E-002   5.3642062788704509E-003   1.2087623835139241E-002
  -1.3166352037391651E-002   4.7234629543399520E-003   1.1186440910067957E-002
  -2.7554350838581855E-002   8.4060959858272277E-003   5.2003849381642361E-003
  -2.5532936592539780E-002   7.8701976231120296E-003   5.8746587016785048E-003
  -2.3511522346497709E-002   7.1246796200601092E-003   5.4072681560845340E-003
  -2.1490108100455679E-002   6.1695419766717927E-003   3.7982133013826982E-003
  -1.9468693854413563E-002   5.0047846929474893E-003   1.0474941375724148E-003
  -3.0220643351615561E-002   9.6041053650015584E-003  -6.0682345334983623E-004
  -2.9610089864340106E-002   9.1338771411964004E-003  -3.6346859665820075E-004
  -2.8999536377064761E-002   8.2574679110197780E-003  -1.8001709483918549E-003
  -2.8388982889789360E-002   6.9748776744733842E-003  -4.9169305085501741E-003
  -2.7778429402513960E-002   5.2861064315554707E-003  -9.7137472771341438E-003
  -6.5838495965835353E-003   4.1608194771239893E-003   2.9597450528426328E-002
  -6.0559807746337624E-003   6.1429407073742004E-003   3.4075078067019371E-002
  -5.5281119526840727E-003   1.0894670752644414E-002   3.9237914790642148E-002
  -5.0002431307343276E-003   1.8416009612934693E-002   4.5085960699294741E-002
  -4.4723743087845547E-003   2.8706957288244794E-002   5.1619215792977347E-002
  -8.8714039514483367E-003   4.4421412157320539E-003   2.0703093040352560E-002
  -7.5860052360003788E-003   5.6589450810076714E-003   2.5872233648591647E-002
  -6.3006065205524625E-003   9.3593123157763580E-003   3.1871224858797176E-002
  -5.0152078051045948E-003   1.5543242920037253E-002   3.8700066670969313E-002
  -3.7298090896563663E-003   2.4210736893791385E-002   4.6358759085107781E-002
  -1.3166352037391651E-002   4.7234629543399520E-003   1.1186440910067957E-002
  -1.0978782011508870E-002   5.1749494546408648E-003   1.6761049142425877E-002
  -8.7912119856261503E-003   7.8239538789077329E-003   2.3310149393686738E-002
  -6.6036419597433477E-003   1.2670476227139921E-002   3.0833741663850854E-002
  -4.4160719338606491E-003   1.9714516499337975E-002   3.9331825952918065E-002
  -1.9468693854413563E-002   5.0047846929474893E-003   1.0474941375724148E-003
  -1.6234311101159388E-002   4.6909538282748631E-003   6.7415245485216990E-003
  -1.2999928347905268E-002   6.2885954420392812E-003   1.3554688395311137E-002
  -9.7655455946512315E-003   9.7977095342429796E-003   2.1486985677939788E-002
  -6.5311628413969661E-003   1.5218296104884566E-002   3.0538416396408835E-002
  -2.7778429402513960E-002   5.2861064315554707E-003  -9.7137472771341438E-003
  -2.3352592504951808E-002   4.2069582019079732E-003  -4.1863401331198591E-003
  -1.8926755607389711E-002   4.7532370051709405E-003   2.6048418636700488E-003
  -1.4500918709827476E-002   6.9249428413453440E-003   1.0659798713236801E-002
  -1.0075081812265463E-002   1.0722075710431156E-002   1.9978530415579732E-002
 </DataArray>
 </PointData>
 </Piece>
 </UnstructuredGrid>
 </VTKFile>
