 <VTKFile type="UnstructuredGrid"  version="0.1"   >
 <UnstructuredGrid>
 <Piece  NumberOfPoints="          1600 "  NumberOfCells="         1024 ">
 <Points>
 <DataArray  type="Float64" NumberOfComponents="3"  format="ascii" >
   0.0000000000000000        0.0000000000000000        0.0000000000000000     
   3.1250000000000000E-002   0.0000000000000000        0.0000000000000000     
   6.2500000000000000E-002   0.0000000000000000        0.0000000000000000     
   9.3750000000000000E-002   0.0000000000000000        0.0000000000000000     
  0.12500000000000000        0.0000000000000000        0.0000000000000000     
   0.0000000000000000        3.1250000000000000E-002   0.0000000000000000     
   3.1250000000000000E-002   3.1250000000000000E-002   0.0000000000000000     
   6.2500000000000000E-002   3.1250000000000000E-002   0.0000000000000000     
   9.3750000000000000E-002   3.1250000000000000E-002   0.0000000000000000     
  0.12500000000000000        3.1250000000000000E-002   0.0000000000000000     
   0.0000000000000000        6.2500000000000000E-002   0.0000000000000000     
   3.1250000000000000E-002   6.2500000000000000E-002   0.0000000000000000     
   6.2500000000000000E-002   6.2500000000000000E-002   0.0000000000000000     
   9.3750000000000000E-002   6.2500000000000000E-002   0.0000000000000000     
  0.12500000000000000        6.2500000000000000E-002   0.0000000000000000     
   0.0000000000000000        9.3750000000000000E-002   0.0000000000000000     
   3.1250000000000000E-002   9.3750000000000000E-002   0.0000000000000000     
   6.2500000000000000E-002   9.3750000000000000E-002   0.0000000000000000     
   9.3750000000000000E-002   9.3750000000000000E-002   0.0000000000000000     
  0.12500000000000000        9.3750000000000000E-002   0.0000000000000000     
   0.0000000000000000       0.12500000000000000        0.0000000000000000     
   3.1250000000000000E-002  0.12500000000000000        0.0000000000000000     
   6.2500000000000000E-002  0.12500000000000000        0.0000000000000000     
   9.3750000000000000E-002  0.12500000000000000        0.0000000000000000     
  0.12500000000000000       0.12500000000000000        0.0000000000000000     
  0.12500000000000000        0.0000000000000000        0.0000000000000000     
  0.15625000000000000        0.0000000000000000        0.0000000000000000     
  0.18750000000000000        0.0000000000000000        0.0000000000000000     
  0.21875000000000000        0.0000000000000000        0.0000000000000000     
  0.25000000000000000        0.0000000000000000        0.0000000000000000     
  0.12500000000000000        3.1250000000000000E-002   0.0000000000000000     
  0.15625000000000000        3.1250000000000000E-002   0.0000000000000000     
  0.18750000000000000        3.1250000000000000E-002   0.0000000000000000     
  0.21875000000000000        3.1250000000000000E-002   0.0000000000000000     
  0.25000000000000000        3.1250000000000000E-002   0.0000000000000000     
  0.12500000000000000        6.2500000000000000E-002   0.0000000000000000     
  0.15625000000000000        6.2500000000000000E-002   0.0000000000000000     
  0.18750000000000000        6.2500000000000000E-002   0.0000000000000000     
  0.21875000000000000        6.2500000000000000E-002   0.0000000000000000     
  0.25000000000000000        6.2500000000000000E-002   0.0000000000000000     
  0.12500000000000000        9.3750000000000000E-002   0.0000000000000000     
  0.15625000000000000        9.3750000000000000E-002   0.0000000000000000     
  0.18750000000000000        9.3750000000000000E-002   0.0000000000000000     
  0.21875000000000000        9.3750000000000000E-002   0.0000000000000000     
  0.25000000000000000        9.3750000000000000E-002   0.0000000000000000     
  0.12500000000000000       0.12500000000000000        0.0000000000000000     
  0.15625000000000000       0.12500000000000000        0.0000000000000000     
  0.18750000000000000       0.12500000000000000        0.0000000000000000     
  0.21875000000000000       0.12500000000000000        0.0000000000000000     
  0.25000000000000000       0.12500000000000000        0.0000000000000000     
  0.25000000000000000        0.0000000000000000        0.0000000000000000     
  0.28125000000000000        0.0000000000000000        0.0000000000000000     
  0.31250000000000000        0.0000000000000000        0.0000000000000000     
  0.34375000000000000        0.0000000000000000        0.0000000000000000     
  0.37500000000000000        0.0000000000000000        0.0000000000000000     
  0.25000000000000000        3.1250000000000000E-002   0.0000000000000000     
  0.28125000000000000        3.1250000000000000E-002   0.0000000000000000     
  0.31250000000000000        3.1250000000000000E-002   0.0000000000000000     
  0.34375000000000000        3.1250000000000000E-002   0.0000000000000000     
  0.37500000000000000        3.1250000000000000E-002   0.0000000000000000     
  0.25000000000000000        6.2500000000000000E-002   0.0000000000000000     
  0.28125000000000000        6.2500000000000000E-002   0.0000000000000000     
  0.31250000000000000        6.2500000000000000E-002   0.0000000000000000     
  0.34375000000000000        6.2500000000000000E-002   0.0000000000000000     
  0.37500000000000000        6.2500000000000000E-002   0.0000000000000000     
  0.25000000000000000        9.3750000000000000E-002   0.0000000000000000     
  0.28125000000000000        9.3750000000000000E-002   0.0000000000000000     
  0.31250000000000000        9.3750000000000000E-002   0.0000000000000000     
  0.34375000000000000        9.3750000000000000E-002   0.0000000000000000     
  0.37500000000000000        9.3750000000000000E-002   0.0000000000000000     
  0.25000000000000000       0.12500000000000000        0.0000000000000000     
  0.28125000000000000       0.12500000000000000        0.0000000000000000     
  0.31250000000000000       0.12500000000000000        0.0000000000000000     
  0.34375000000000000       0.12500000000000000        0.0000000000000000     
  0.37500000000000000       0.12500000000000000        0.0000000000000000     
  0.37500000000000000        0.0000000000000000        0.0000000000000000     
  0.40625000000000000        0.0000000000000000        0.0000000000000000     
  0.43750000000000000        0.0000000000000000        0.0000000000000000     
  0.46875000000000000        0.0000000000000000        0.0000000000000000     
  0.50000000000000000        0.0000000000000000        0.0000000000000000     
  0.37500000000000000        3.1250000000000000E-002   0.0000000000000000     
  0.40625000000000000        3.1250000000000000E-002   0.0000000000000000     
  0.43750000000000000        3.1250000000000000E-002   0.0000000000000000     
  0.46875000000000000        3.1250000000000000E-002   0.0000000000000000     
  0.50000000000000000        3.1250000000000000E-002   0.0000000000000000     
  0.37500000000000000        6.2500000000000000E-002   0.0000000000000000     
  0.40625000000000000        6.2500000000000000E-002   0.0000000000000000     
  0.43750000000000000        6.2500000000000000E-002   0.0000000000000000     
  0.46875000000000000        6.2500000000000000E-002   0.0000000000000000     
  0.50000000000000000        6.2500000000000000E-002   0.0000000000000000     
  0.37500000000000000        9.3750000000000000E-002   0.0000000000000000     
  0.40625000000000000        9.3750000000000000E-002   0.0000000000000000     
  0.43750000000000000        9.3750000000000000E-002   0.0000000000000000     
  0.46875000000000000        9.3750000000000000E-002   0.0000000000000000     
  0.50000000000000000        9.3750000000000000E-002   0.0000000000000000     
  0.37500000000000000       0.12500000000000000        0.0000000000000000     
  0.40625000000000000       0.12500000000000000        0.0000000000000000     
  0.43750000000000000       0.12500000000000000        0.0000000000000000     
  0.46875000000000000       0.12500000000000000        0.0000000000000000     
  0.50000000000000000       0.12500000000000000        0.0000000000000000     
  0.50000000000000000        0.0000000000000000        0.0000000000000000     
  0.53125000000000000        0.0000000000000000        0.0000000000000000     
  0.56250000000000000        0.0000000000000000        0.0000000000000000     
  0.59375000000000000        0.0000000000000000        0.0000000000000000     
  0.62500000000000000        0.0000000000000000        0.0000000000000000     
  0.50000000000000000        3.1250000000000000E-002   0.0000000000000000     
  0.53125000000000000        3.1250000000000000E-002   0.0000000000000000     
  0.56250000000000000        3.1250000000000000E-002   0.0000000000000000     
  0.59375000000000000        3.1250000000000000E-002   0.0000000000000000     
  0.62500000000000000        3.1250000000000000E-002   0.0000000000000000     
  0.50000000000000000        6.2500000000000000E-002   0.0000000000000000     
  0.53125000000000000        6.2500000000000000E-002   0.0000000000000000     
  0.56250000000000000        6.2500000000000000E-002   0.0000000000000000     
  0.59375000000000000        6.2500000000000000E-002   0.0000000000000000     
  0.62500000000000000        6.2500000000000000E-002   0.0000000000000000     
  0.50000000000000000        9.3750000000000000E-002   0.0000000000000000     
  0.53125000000000000        9.3750000000000000E-002   0.0000000000000000     
  0.56250000000000000        9.3750000000000000E-002   0.0000000000000000     
  0.59375000000000000        9.3750000000000000E-002   0.0000000000000000     
  0.62500000000000000        9.3750000000000000E-002   0.0000000000000000     
  0.50000000000000000       0.12500000000000000        0.0000000000000000     
  0.53125000000000000       0.12500000000000000        0.0000000000000000     
  0.56250000000000000       0.12500000000000000        0.0000000000000000     
  0.59375000000000000       0.12500000000000000        0.0000000000000000     
  0.62500000000000000       0.12500000000000000        0.0000000000000000     
  0.62500000000000000        0.0000000000000000        0.0000000000000000     
  0.65625000000000000        0.0000000000000000        0.0000000000000000     
  0.68750000000000000        0.0000000000000000        0.0000000000000000     
  0.71875000000000000        0.0000000000000000        0.0000000000000000     
  0.75000000000000000        0.0000000000000000        0.0000000000000000     
  0.62500000000000000        3.1250000000000000E-002   0.0000000000000000     
  0.65625000000000000        3.1250000000000000E-002   0.0000000000000000     
  0.68750000000000000        3.1250000000000000E-002   0.0000000000000000     
  0.71875000000000000        3.1250000000000000E-002   0.0000000000000000     
  0.75000000000000000        3.1250000000000000E-002   0.0000000000000000     
  0.62500000000000000        6.2500000000000000E-002   0.0000000000000000     
  0.65625000000000000        6.2500000000000000E-002   0.0000000000000000     
  0.68750000000000000        6.2500000000000000E-002   0.0000000000000000     
  0.71875000000000000        6.2500000000000000E-002   0.0000000000000000     
  0.75000000000000000        6.2500000000000000E-002   0.0000000000000000     
  0.62500000000000000        9.3750000000000000E-002   0.0000000000000000     
  0.65625000000000000        9.3750000000000000E-002   0.0000000000000000     
  0.68750000000000000        9.3750000000000000E-002   0.0000000000000000     
  0.71875000000000000        9.3750000000000000E-002   0.0000000000000000     
  0.75000000000000000        9.3750000000000000E-002   0.0000000000000000     
  0.62500000000000000       0.12500000000000000        0.0000000000000000     
  0.65625000000000000       0.12500000000000000        0.0000000000000000     
  0.68750000000000000       0.12500000000000000        0.0000000000000000     
  0.71875000000000000       0.12500000000000000        0.0000000000000000     
  0.75000000000000000       0.12500000000000000        0.0000000000000000     
  0.75000000000000000        0.0000000000000000        0.0000000000000000     
  0.78125000000000000        0.0000000000000000        0.0000000000000000     
  0.81250000000000000        0.0000000000000000        0.0000000000000000     
  0.84375000000000000        0.0000000000000000        0.0000000000000000     
  0.87500000000000000        0.0000000000000000        0.0000000000000000     
  0.75000000000000000        3.1250000000000000E-002   0.0000000000000000     
  0.78125000000000000        3.1250000000000000E-002   0.0000000000000000     
  0.81250000000000000        3.1250000000000000E-002   0.0000000000000000     
  0.84375000000000000        3.1250000000000000E-002   0.0000000000000000     
  0.87500000000000000        3.1250000000000000E-002   0.0000000000000000     
  0.75000000000000000        6.2500000000000000E-002   0.0000000000000000     
  0.78125000000000000        6.2500000000000000E-002   0.0000000000000000     
  0.81250000000000000        6.2500000000000000E-002   0.0000000000000000     
  0.84375000000000000        6.2500000000000000E-002   0.0000000000000000     
  0.87500000000000000        6.2500000000000000E-002   0.0000000000000000     
  0.75000000000000000        9.3750000000000000E-002   0.0000000000000000     
  0.78125000000000000        9.3750000000000000E-002   0.0000000000000000     
  0.81250000000000000        9.3750000000000000E-002   0.0000000000000000     
  0.84375000000000000        9.3750000000000000E-002   0.0000000000000000     
  0.87500000000000000        9.3750000000000000E-002   0.0000000000000000     
  0.75000000000000000       0.12500000000000000        0.0000000000000000     
  0.78125000000000000       0.12500000000000000        0.0000000000000000     
  0.81250000000000000       0.12500000000000000        0.0000000000000000     
  0.84375000000000000       0.12500000000000000        0.0000000000000000     
  0.87500000000000000       0.12500000000000000        0.0000000000000000     
  0.87500000000000000        0.0000000000000000        0.0000000000000000     
  0.90625000000000000        0.0000000000000000        0.0000000000000000     
  0.93750000000000000        0.0000000000000000        0.0000000000000000     
  0.96875000000000000        0.0000000000000000        0.0000000000000000     
   1.0000000000000000        0.0000000000000000        0.0000000000000000     
  0.87500000000000000        3.1250000000000000E-002   0.0000000000000000     
  0.90625000000000000        3.1250000000000000E-002   0.0000000000000000     
  0.93750000000000000        3.1250000000000000E-002   0.0000000000000000     
  0.96875000000000000        3.1250000000000000E-002   0.0000000000000000     
   1.0000000000000000        3.1250000000000000E-002   0.0000000000000000     
  0.87500000000000000        6.2500000000000000E-002   0.0000000000000000     
  0.90625000000000000        6.2500000000000000E-002   0.0000000000000000     
  0.93750000000000000        6.2500000000000000E-002   0.0000000000000000     
  0.96875000000000000        6.2500000000000000E-002   0.0000000000000000     
   1.0000000000000000        6.2500000000000000E-002   0.0000000000000000     
  0.87500000000000000        9.3750000000000000E-002   0.0000000000000000     
  0.90625000000000000        9.3750000000000000E-002   0.0000000000000000     
  0.93750000000000000        9.3750000000000000E-002   0.0000000000000000     
  0.96875000000000000        9.3750000000000000E-002   0.0000000000000000     
   1.0000000000000000        9.3750000000000000E-002   0.0000000000000000     
  0.87500000000000000       0.12500000000000000        0.0000000000000000     
  0.90625000000000000       0.12500000000000000        0.0000000000000000     
  0.93750000000000000       0.12500000000000000        0.0000000000000000     
  0.96875000000000000       0.12500000000000000        0.0000000000000000     
   1.0000000000000000       0.12500000000000000        0.0000000000000000     
   0.0000000000000000       0.12500000000000000        0.0000000000000000     
   3.1250000000000000E-002  0.12500000000000000        0.0000000000000000     
   6.2500000000000000E-002  0.12500000000000000        0.0000000000000000     
   9.3750000000000000E-002  0.12500000000000000        0.0000000000000000     
  0.12500000000000000       0.12500000000000000        0.0000000000000000     
   0.0000000000000000       0.15625000000000000        0.0000000000000000     
   3.1250000000000000E-002  0.15625000000000000        0.0000000000000000     
   6.2500000000000000E-002  0.15625000000000000        0.0000000000000000     
   9.3750000000000000E-002  0.15625000000000000        0.0000000000000000     
  0.12500000000000000       0.15625000000000000        0.0000000000000000     
   0.0000000000000000       0.18750000000000000        0.0000000000000000     
   3.1250000000000000E-002  0.18750000000000000        0.0000000000000000     
   6.2500000000000000E-002  0.18750000000000000        0.0000000000000000     
   9.3750000000000000E-002  0.18750000000000000        0.0000000000000000     
  0.12500000000000000       0.18750000000000000        0.0000000000000000     
   0.0000000000000000       0.21875000000000000        0.0000000000000000     
   3.1250000000000000E-002  0.21875000000000000        0.0000000000000000     
   6.2500000000000000E-002  0.21875000000000000        0.0000000000000000     
   9.3750000000000000E-002  0.21875000000000000        0.0000000000000000     
  0.12500000000000000       0.21875000000000000        0.0000000000000000     
   0.0000000000000000       0.25000000000000000        0.0000000000000000     
   3.1250000000000000E-002  0.25000000000000000        0.0000000000000000     
   6.2500000000000000E-002  0.25000000000000000        0.0000000000000000     
   9.3750000000000000E-002  0.25000000000000000        0.0000000000000000     
  0.12500000000000000       0.25000000000000000        0.0000000000000000     
  0.12500000000000000       0.12500000000000000        0.0000000000000000     
  0.15625000000000000       0.12500000000000000        0.0000000000000000     
  0.18750000000000000       0.12500000000000000        0.0000000000000000     
  0.21875000000000000       0.12500000000000000        0.0000000000000000     
  0.25000000000000000       0.12500000000000000        0.0000000000000000     
  0.12500000000000000       0.15625000000000000        0.0000000000000000     
  0.15625000000000000       0.15625000000000000        0.0000000000000000     
  0.18750000000000000       0.15625000000000000        0.0000000000000000     
  0.21875000000000000       0.15625000000000000        0.0000000000000000     
  0.25000000000000000       0.15625000000000000        0.0000000000000000     
  0.12500000000000000       0.18750000000000000        0.0000000000000000     
  0.15625000000000000       0.18750000000000000        0.0000000000000000     
  0.18750000000000000       0.18750000000000000        0.0000000000000000     
  0.21875000000000000       0.18750000000000000        0.0000000000000000     
  0.25000000000000000       0.18750000000000000        0.0000000000000000     
  0.12500000000000000       0.21875000000000000        0.0000000000000000     
  0.15625000000000000       0.21875000000000000        0.0000000000000000     
  0.18750000000000000       0.21875000000000000        0.0000000000000000     
  0.21875000000000000       0.21875000000000000        0.0000000000000000     
  0.25000000000000000       0.21875000000000000        0.0000000000000000     
  0.12500000000000000       0.25000000000000000        0.0000000000000000     
  0.15625000000000000       0.25000000000000000        0.0000000000000000     
  0.18750000000000000       0.25000000000000000        0.0000000000000000     
  0.21875000000000000       0.25000000000000000        0.0000000000000000     
  0.25000000000000000       0.25000000000000000        0.0000000000000000     
  0.25000000000000000       0.12500000000000000        0.0000000000000000     
  0.28125000000000000       0.12500000000000000        0.0000000000000000     
  0.31250000000000000       0.12500000000000000        0.0000000000000000     
  0.34375000000000000       0.12500000000000000        0.0000000000000000     
  0.37500000000000000       0.12500000000000000        0.0000000000000000     
  0.25000000000000000       0.15625000000000000        0.0000000000000000     
  0.28125000000000000       0.15625000000000000        0.0000000000000000     
  0.31250000000000000       0.15625000000000000        0.0000000000000000     
  0.34375000000000000       0.15625000000000000        0.0000000000000000     
  0.37500000000000000       0.15625000000000000        0.0000000000000000     
  0.25000000000000000       0.18750000000000000        0.0000000000000000     
  0.28125000000000000       0.18750000000000000        0.0000000000000000     
  0.31250000000000000       0.18750000000000000        0.0000000000000000     
  0.34375000000000000       0.18750000000000000        0.0000000000000000     
  0.37500000000000000       0.18750000000000000        0.0000000000000000     
  0.25000000000000000       0.21875000000000000        0.0000000000000000     
  0.28125000000000000       0.21875000000000000        0.0000000000000000     
  0.31250000000000000       0.21875000000000000        0.0000000000000000     
  0.34375000000000000       0.21875000000000000        0.0000000000000000     
  0.37500000000000000       0.21875000000000000        0.0000000000000000     
  0.25000000000000000       0.25000000000000000        0.0000000000000000     
  0.28125000000000000       0.25000000000000000        0.0000000000000000     
  0.31250000000000000       0.25000000000000000        0.0000000000000000     
  0.34375000000000000       0.25000000000000000        0.0000000000000000     
  0.37500000000000000       0.25000000000000000        0.0000000000000000     
  0.37500000000000000       0.12500000000000000        0.0000000000000000     
  0.40625000000000000       0.12500000000000000        0.0000000000000000     
  0.43750000000000000       0.12500000000000000        0.0000000000000000     
  0.46875000000000000       0.12500000000000000        0.0000000000000000     
  0.50000000000000000       0.12500000000000000        0.0000000000000000     
  0.37500000000000000       0.15625000000000000        0.0000000000000000     
  0.40625000000000000       0.15625000000000000        0.0000000000000000     
  0.43750000000000000       0.15625000000000000        0.0000000000000000     
  0.46875000000000000       0.15625000000000000        0.0000000000000000     
  0.50000000000000000       0.15625000000000000        0.0000000000000000     
  0.37500000000000000       0.18750000000000000        0.0000000000000000     
  0.40625000000000000       0.18750000000000000        0.0000000000000000     
  0.43750000000000000       0.18750000000000000        0.0000000000000000     
  0.46875000000000000       0.18750000000000000        0.0000000000000000     
  0.50000000000000000       0.18750000000000000        0.0000000000000000     
  0.37500000000000000       0.21875000000000000        0.0000000000000000     
  0.40625000000000000       0.21875000000000000        0.0000000000000000     
  0.43750000000000000       0.21875000000000000        0.0000000000000000     
  0.46875000000000000       0.21875000000000000        0.0000000000000000     
  0.50000000000000000       0.21875000000000000        0.0000000000000000     
  0.37500000000000000       0.25000000000000000        0.0000000000000000     
  0.40625000000000000       0.25000000000000000        0.0000000000000000     
  0.43750000000000000       0.25000000000000000        0.0000000000000000     
  0.46875000000000000       0.25000000000000000        0.0000000000000000     
  0.50000000000000000       0.25000000000000000        0.0000000000000000     
  0.50000000000000000       0.12500000000000000        0.0000000000000000     
  0.53125000000000000       0.12500000000000000        0.0000000000000000     
  0.56250000000000000       0.12500000000000000        0.0000000000000000     
  0.59375000000000000       0.12500000000000000        0.0000000000000000     
  0.62500000000000000       0.12500000000000000        0.0000000000000000     
  0.50000000000000000       0.15625000000000000        0.0000000000000000     
  0.53125000000000000       0.15625000000000000        0.0000000000000000     
  0.56250000000000000       0.15625000000000000        0.0000000000000000     
  0.59375000000000000       0.15625000000000000        0.0000000000000000     
  0.62500000000000000       0.15625000000000000        0.0000000000000000     
  0.50000000000000000       0.18750000000000000        0.0000000000000000     
  0.53125000000000000       0.18750000000000000        0.0000000000000000     
  0.56250000000000000       0.18750000000000000        0.0000000000000000     
  0.59375000000000000       0.18750000000000000        0.0000000000000000     
  0.62500000000000000       0.18750000000000000        0.0000000000000000     
  0.50000000000000000       0.21875000000000000        0.0000000000000000     
  0.53125000000000000       0.21875000000000000        0.0000000000000000     
  0.56250000000000000       0.21875000000000000        0.0000000000000000     
  0.59375000000000000       0.21875000000000000        0.0000000000000000     
  0.62500000000000000       0.21875000000000000        0.0000000000000000     
  0.50000000000000000       0.25000000000000000        0.0000000000000000     
  0.53125000000000000       0.25000000000000000        0.0000000000000000     
  0.56250000000000000       0.25000000000000000        0.0000000000000000     
  0.59375000000000000       0.25000000000000000        0.0000000000000000     
  0.62500000000000000       0.25000000000000000        0.0000000000000000     
  0.62500000000000000       0.12500000000000000        0.0000000000000000     
  0.65625000000000000       0.12500000000000000        0.0000000000000000     
  0.68750000000000000       0.12500000000000000        0.0000000000000000     
  0.71875000000000000       0.12500000000000000        0.0000000000000000     
  0.75000000000000000       0.12500000000000000        0.0000000000000000     
  0.62500000000000000       0.15625000000000000        0.0000000000000000     
  0.65625000000000000       0.15625000000000000        0.0000000000000000     
  0.68750000000000000       0.15625000000000000        0.0000000000000000     
  0.71875000000000000       0.15625000000000000        0.0000000000000000     
  0.75000000000000000       0.15625000000000000        0.0000000000000000     
  0.62500000000000000       0.18750000000000000        0.0000000000000000     
  0.65625000000000000       0.18750000000000000        0.0000000000000000     
  0.68750000000000000       0.18750000000000000        0.0000000000000000     
  0.71875000000000000       0.18750000000000000        0.0000000000000000     
  0.75000000000000000       0.18750000000000000        0.0000000000000000     
  0.62500000000000000       0.21875000000000000        0.0000000000000000     
  0.65625000000000000       0.21875000000000000        0.0000000000000000     
  0.68750000000000000       0.21875000000000000        0.0000000000000000     
  0.71875000000000000       0.21875000000000000        0.0000000000000000     
  0.75000000000000000       0.21875000000000000        0.0000000000000000     
  0.62500000000000000       0.25000000000000000        0.0000000000000000     
  0.65625000000000000       0.25000000000000000        0.0000000000000000     
  0.68750000000000000       0.25000000000000000        0.0000000000000000     
  0.71875000000000000       0.25000000000000000        0.0000000000000000     
  0.75000000000000000       0.25000000000000000        0.0000000000000000     
  0.75000000000000000       0.12500000000000000        0.0000000000000000     
  0.78125000000000000       0.12500000000000000        0.0000000000000000     
  0.81250000000000000       0.12500000000000000        0.0000000000000000     
  0.84375000000000000       0.12500000000000000        0.0000000000000000     
  0.87500000000000000       0.12500000000000000        0.0000000000000000     
  0.75000000000000000       0.15625000000000000        0.0000000000000000     
  0.78125000000000000       0.15625000000000000        0.0000000000000000     
  0.81250000000000000       0.15625000000000000        0.0000000000000000     
  0.84375000000000000       0.15625000000000000        0.0000000000000000     
  0.87500000000000000       0.15625000000000000        0.0000000000000000     
  0.75000000000000000       0.18750000000000000        0.0000000000000000     
  0.78125000000000000       0.18750000000000000        0.0000000000000000     
  0.81250000000000000       0.18750000000000000        0.0000000000000000     
  0.84375000000000000       0.18750000000000000        0.0000000000000000     
  0.87500000000000000       0.18750000000000000        0.0000000000000000     
  0.75000000000000000       0.21875000000000000        0.0000000000000000     
  0.78125000000000000       0.21875000000000000        0.0000000000000000     
  0.81250000000000000       0.21875000000000000        0.0000000000000000     
  0.84375000000000000       0.21875000000000000        0.0000000000000000     
  0.87500000000000000       0.21875000000000000        0.0000000000000000     
  0.75000000000000000       0.25000000000000000        0.0000000000000000     
  0.78125000000000000       0.25000000000000000        0.0000000000000000     
  0.81250000000000000       0.25000000000000000        0.0000000000000000     
  0.84375000000000000       0.25000000000000000        0.0000000000000000     
  0.87500000000000000       0.25000000000000000        0.0000000000000000     
  0.87500000000000000       0.12500000000000000        0.0000000000000000     
  0.90625000000000000       0.12500000000000000        0.0000000000000000     
  0.93750000000000000       0.12500000000000000        0.0000000000000000     
  0.96875000000000000       0.12500000000000000        0.0000000000000000     
   1.0000000000000000       0.12500000000000000        0.0000000000000000     
  0.87500000000000000       0.15625000000000000        0.0000000000000000     
  0.90625000000000000       0.15625000000000000        0.0000000000000000     
  0.93750000000000000       0.15625000000000000        0.0000000000000000     
  0.96875000000000000       0.15625000000000000        0.0000000000000000     
   1.0000000000000000       0.15625000000000000        0.0000000000000000     
  0.87500000000000000       0.18750000000000000        0.0000000000000000     
  0.90625000000000000       0.18750000000000000        0.0000000000000000     
  0.93750000000000000       0.18750000000000000        0.0000000000000000     
  0.96875000000000000       0.18750000000000000        0.0000000000000000     
   1.0000000000000000       0.18750000000000000        0.0000000000000000     
  0.87500000000000000       0.21875000000000000        0.0000000000000000     
  0.90625000000000000       0.21875000000000000        0.0000000000000000     
  0.93750000000000000       0.21875000000000000        0.0000000000000000     
  0.96875000000000000       0.21875000000000000        0.0000000000000000     
   1.0000000000000000       0.21875000000000000        0.0000000000000000     
  0.87500000000000000       0.25000000000000000        0.0000000000000000     
  0.90625000000000000       0.25000000000000000        0.0000000000000000     
  0.93750000000000000       0.25000000000000000        0.0000000000000000     
  0.96875000000000000       0.25000000000000000        0.0000000000000000     
   1.0000000000000000       0.25000000000000000        0.0000000000000000     
   0.0000000000000000       0.25000000000000000        0.0000000000000000     
   3.1250000000000000E-002  0.25000000000000000        0.0000000000000000     
   6.2500000000000000E-002  0.25000000000000000        0.0000000000000000     
   9.3750000000000000E-002  0.25000000000000000        0.0000000000000000     
  0.12500000000000000       0.25000000000000000        0.0000000000000000     
   0.0000000000000000       0.28125000000000000        0.0000000000000000     
   3.1250000000000000E-002  0.28125000000000000        0.0000000000000000     
   6.2500000000000000E-002  0.28125000000000000        0.0000000000000000     
   9.3750000000000000E-002  0.28125000000000000        0.0000000000000000     
  0.12500000000000000       0.28125000000000000        0.0000000000000000     
   0.0000000000000000       0.31250000000000000        0.0000000000000000     
   3.1250000000000000E-002  0.31250000000000000        0.0000000000000000     
   6.2500000000000000E-002  0.31250000000000000        0.0000000000000000     
   9.3750000000000000E-002  0.31250000000000000        0.0000000000000000     
  0.12500000000000000       0.31250000000000000        0.0000000000000000     
   0.0000000000000000       0.34375000000000000        0.0000000000000000     
   3.1250000000000000E-002  0.34375000000000000        0.0000000000000000     
   6.2500000000000000E-002  0.34375000000000000        0.0000000000000000     
   9.3750000000000000E-002  0.34375000000000000        0.0000000000000000     
  0.12500000000000000       0.34375000000000000        0.0000000000000000     
   0.0000000000000000       0.37500000000000000        0.0000000000000000     
   3.1250000000000000E-002  0.37500000000000000        0.0000000000000000     
   6.2500000000000000E-002  0.37500000000000000        0.0000000000000000     
   9.3750000000000000E-002  0.37500000000000000        0.0000000000000000     
  0.12500000000000000       0.37500000000000000        0.0000000000000000     
  0.12500000000000000       0.25000000000000000        0.0000000000000000     
  0.15625000000000000       0.25000000000000000        0.0000000000000000     
  0.18750000000000000       0.25000000000000000        0.0000000000000000     
  0.21875000000000000       0.25000000000000000        0.0000000000000000     
  0.25000000000000000       0.25000000000000000        0.0000000000000000     
  0.12500000000000000       0.28125000000000000        0.0000000000000000     
  0.15625000000000000       0.28125000000000000        0.0000000000000000     
  0.18750000000000000       0.28125000000000000        0.0000000000000000     
  0.21875000000000000       0.28125000000000000        0.0000000000000000     
  0.25000000000000000       0.28125000000000000        0.0000000000000000     
  0.12500000000000000       0.31250000000000000        0.0000000000000000     
  0.15625000000000000       0.31250000000000000        0.0000000000000000     
  0.18750000000000000       0.31250000000000000        0.0000000000000000     
  0.21875000000000000       0.31250000000000000        0.0000000000000000     
  0.25000000000000000       0.31250000000000000        0.0000000000000000     
  0.12500000000000000       0.34375000000000000        0.0000000000000000     
  0.15625000000000000       0.34375000000000000        0.0000000000000000     
  0.18750000000000000       0.34375000000000000        0.0000000000000000     
  0.21875000000000000       0.34375000000000000        0.0000000000000000     
  0.25000000000000000       0.34375000000000000        0.0000000000000000     
  0.12500000000000000       0.37500000000000000        0.0000000000000000     
  0.15625000000000000       0.37500000000000000        0.0000000000000000     
  0.18750000000000000       0.37500000000000000        0.0000000000000000     
  0.21875000000000000       0.37500000000000000        0.0000000000000000     
  0.25000000000000000       0.37500000000000000        0.0000000000000000     
  0.25000000000000000       0.25000000000000000        0.0000000000000000     
  0.28125000000000000       0.25000000000000000        0.0000000000000000     
  0.31250000000000000       0.25000000000000000        0.0000000000000000     
  0.34375000000000000       0.25000000000000000        0.0000000000000000     
  0.37500000000000000       0.25000000000000000        0.0000000000000000     
  0.25000000000000000       0.28125000000000000        0.0000000000000000     
  0.28125000000000000       0.28125000000000000        0.0000000000000000     
  0.31250000000000000       0.28125000000000000        0.0000000000000000     
  0.34375000000000000       0.28125000000000000        0.0000000000000000     
  0.37500000000000000       0.28125000000000000        0.0000000000000000     
  0.25000000000000000       0.31250000000000000        0.0000000000000000     
  0.28125000000000000       0.31250000000000000        0.0000000000000000     
  0.31250000000000000       0.31250000000000000        0.0000000000000000     
  0.34375000000000000       0.31250000000000000        0.0000000000000000     
  0.37500000000000000       0.31250000000000000        0.0000000000000000     
  0.25000000000000000       0.34375000000000000        0.0000000000000000     
  0.28125000000000000       0.34375000000000000        0.0000000000000000     
  0.31250000000000000       0.34375000000000000        0.0000000000000000     
  0.34375000000000000       0.34375000000000000        0.0000000000000000     
  0.37500000000000000       0.34375000000000000        0.0000000000000000     
  0.25000000000000000       0.37500000000000000        0.0000000000000000     
  0.28125000000000000       0.37500000000000000        0.0000000000000000     
  0.31250000000000000       0.37500000000000000        0.0000000000000000     
  0.34375000000000000       0.37500000000000000        0.0000000000000000     
  0.37500000000000000       0.37500000000000000        0.0000000000000000     
  0.37500000000000000       0.25000000000000000        0.0000000000000000     
  0.40625000000000000       0.25000000000000000        0.0000000000000000     
  0.43750000000000000       0.25000000000000000        0.0000000000000000     
  0.46875000000000000       0.25000000000000000        0.0000000000000000     
  0.50000000000000000       0.25000000000000000        0.0000000000000000     
  0.37500000000000000       0.28125000000000000        0.0000000000000000     
  0.40625000000000000       0.28125000000000000        0.0000000000000000     
  0.43750000000000000       0.28125000000000000        0.0000000000000000     
  0.46875000000000000       0.28125000000000000        0.0000000000000000     
  0.50000000000000000       0.28125000000000000        0.0000000000000000     
  0.37500000000000000       0.31250000000000000        0.0000000000000000     
  0.40625000000000000       0.31250000000000000        0.0000000000000000     
  0.43750000000000000       0.31250000000000000        0.0000000000000000     
  0.46875000000000000       0.31250000000000000        0.0000000000000000     
  0.50000000000000000       0.31250000000000000        0.0000000000000000     
  0.37500000000000000       0.34375000000000000        0.0000000000000000     
  0.40625000000000000       0.34375000000000000        0.0000000000000000     
  0.43750000000000000       0.34375000000000000        0.0000000000000000     
  0.46875000000000000       0.34375000000000000        0.0000000000000000     
  0.50000000000000000       0.34375000000000000        0.0000000000000000     
  0.37500000000000000       0.37500000000000000        0.0000000000000000     
  0.40625000000000000       0.37500000000000000        0.0000000000000000     
  0.43750000000000000       0.37500000000000000        0.0000000000000000     
  0.46875000000000000       0.37500000000000000        0.0000000000000000     
  0.50000000000000000       0.37500000000000000        0.0000000000000000     
  0.50000000000000000       0.25000000000000000        0.0000000000000000     
  0.53125000000000000       0.25000000000000000        0.0000000000000000     
  0.56250000000000000       0.25000000000000000        0.0000000000000000     
  0.59375000000000000       0.25000000000000000        0.0000000000000000     
  0.62500000000000000       0.25000000000000000        0.0000000000000000     
  0.50000000000000000       0.28125000000000000        0.0000000000000000     
  0.53125000000000000       0.28125000000000000        0.0000000000000000     
  0.56250000000000000       0.28125000000000000        0.0000000000000000     
  0.59375000000000000       0.28125000000000000        0.0000000000000000     
  0.62500000000000000       0.28125000000000000        0.0000000000000000     
  0.50000000000000000       0.31250000000000000        0.0000000000000000     
  0.53125000000000000       0.31250000000000000        0.0000000000000000     
  0.56250000000000000       0.31250000000000000        0.0000000000000000     
  0.59375000000000000       0.31250000000000000        0.0000000000000000     
  0.62500000000000000       0.31250000000000000        0.0000000000000000     
  0.50000000000000000       0.34375000000000000        0.0000000000000000     
  0.53125000000000000       0.34375000000000000        0.0000000000000000     
  0.56250000000000000       0.34375000000000000        0.0000000000000000     
  0.59375000000000000       0.34375000000000000        0.0000000000000000     
  0.62500000000000000       0.34375000000000000        0.0000000000000000     
  0.50000000000000000       0.37500000000000000        0.0000000000000000     
  0.53125000000000000       0.37500000000000000        0.0000000000000000     
  0.56250000000000000       0.37500000000000000        0.0000000000000000     
  0.59375000000000000       0.37500000000000000        0.0000000000000000     
  0.62500000000000000       0.37500000000000000        0.0000000000000000     
  0.62500000000000000       0.25000000000000000        0.0000000000000000     
  0.65625000000000000       0.25000000000000000        0.0000000000000000     
  0.68750000000000000       0.25000000000000000        0.0000000000000000     
  0.71875000000000000       0.25000000000000000        0.0000000000000000     
  0.75000000000000000       0.25000000000000000        0.0000000000000000     
  0.62500000000000000       0.28125000000000000        0.0000000000000000     
  0.65625000000000000       0.28125000000000000        0.0000000000000000     
  0.68750000000000000       0.28125000000000000        0.0000000000000000     
  0.71875000000000000       0.28125000000000000        0.0000000000000000     
  0.75000000000000000       0.28125000000000000        0.0000000000000000     
  0.62500000000000000       0.31250000000000000        0.0000000000000000     
  0.65625000000000000       0.31250000000000000        0.0000000000000000     
  0.68750000000000000       0.31250000000000000        0.0000000000000000     
  0.71875000000000000       0.31250000000000000        0.0000000000000000     
  0.75000000000000000       0.31250000000000000        0.0000000000000000     
  0.62500000000000000       0.34375000000000000        0.0000000000000000     
  0.65625000000000000       0.34375000000000000        0.0000000000000000     
  0.68750000000000000       0.34375000000000000        0.0000000000000000     
  0.71875000000000000       0.34375000000000000        0.0000000000000000     
  0.75000000000000000       0.34375000000000000        0.0000000000000000     
  0.62500000000000000       0.37500000000000000        0.0000000000000000     
  0.65625000000000000       0.37500000000000000        0.0000000000000000     
  0.68750000000000000       0.37500000000000000        0.0000000000000000     
  0.71875000000000000       0.37500000000000000        0.0000000000000000     
  0.75000000000000000       0.37500000000000000        0.0000000000000000     
  0.75000000000000000       0.25000000000000000        0.0000000000000000     
  0.78125000000000000       0.25000000000000000        0.0000000000000000     
  0.81250000000000000       0.25000000000000000        0.0000000000000000     
  0.84375000000000000       0.25000000000000000        0.0000000000000000     
  0.87500000000000000       0.25000000000000000        0.0000000000000000     
  0.75000000000000000       0.28125000000000000        0.0000000000000000     
  0.78125000000000000       0.28125000000000000        0.0000000000000000     
  0.81250000000000000       0.28125000000000000        0.0000000000000000     
  0.84375000000000000       0.28125000000000000        0.0000000000000000     
  0.87500000000000000       0.28125000000000000        0.0000000000000000     
  0.75000000000000000       0.31250000000000000        0.0000000000000000     
  0.78125000000000000       0.31250000000000000        0.0000000000000000     
  0.81250000000000000       0.31250000000000000        0.0000000000000000     
  0.84375000000000000       0.31250000000000000        0.0000000000000000     
  0.87500000000000000       0.31250000000000000        0.0000000000000000     
  0.75000000000000000       0.34375000000000000        0.0000000000000000     
  0.78125000000000000       0.34375000000000000        0.0000000000000000     
  0.81250000000000000       0.34375000000000000        0.0000000000000000     
  0.84375000000000000       0.34375000000000000        0.0000000000000000     
  0.87500000000000000       0.34375000000000000        0.0000000000000000     
  0.75000000000000000       0.37500000000000000        0.0000000000000000     
  0.78125000000000000       0.37500000000000000        0.0000000000000000     
  0.81250000000000000       0.37500000000000000        0.0000000000000000     
  0.84375000000000000       0.37500000000000000        0.0000000000000000     
  0.87500000000000000       0.37500000000000000        0.0000000000000000     
  0.87500000000000000       0.25000000000000000        0.0000000000000000     
  0.90625000000000000       0.25000000000000000        0.0000000000000000     
  0.93750000000000000       0.25000000000000000        0.0000000000000000     
  0.96875000000000000       0.25000000000000000        0.0000000000000000     
   1.0000000000000000       0.25000000000000000        0.0000000000000000     
  0.87500000000000000       0.28125000000000000        0.0000000000000000     
  0.90625000000000000       0.28125000000000000        0.0000000000000000     
  0.93750000000000000       0.28125000000000000        0.0000000000000000     
  0.96875000000000000       0.28125000000000000        0.0000000000000000     
   1.0000000000000000       0.28125000000000000        0.0000000000000000     
  0.87500000000000000       0.31250000000000000        0.0000000000000000     
  0.90625000000000000       0.31250000000000000        0.0000000000000000     
  0.93750000000000000       0.31250000000000000        0.0000000000000000     
  0.96875000000000000       0.31250000000000000        0.0000000000000000     
   1.0000000000000000       0.31250000000000000        0.0000000000000000     
  0.87500000000000000       0.34375000000000000        0.0000000000000000     
  0.90625000000000000       0.34375000000000000        0.0000000000000000     
  0.93750000000000000       0.34375000000000000        0.0000000000000000     
  0.96875000000000000       0.34375000000000000        0.0000000000000000     
   1.0000000000000000       0.34375000000000000        0.0000000000000000     
  0.87500000000000000       0.37500000000000000        0.0000000000000000     
  0.90625000000000000       0.37500000000000000        0.0000000000000000     
  0.93750000000000000       0.37500000000000000        0.0000000000000000     
  0.96875000000000000       0.37500000000000000        0.0000000000000000     
   1.0000000000000000       0.37500000000000000        0.0000000000000000     
   0.0000000000000000       0.37500000000000000        0.0000000000000000     
   3.1250000000000000E-002  0.37500000000000000        0.0000000000000000     
   6.2500000000000000E-002  0.37500000000000000        0.0000000000000000     
   9.3750000000000000E-002  0.37500000000000000        0.0000000000000000     
  0.12500000000000000       0.37500000000000000        0.0000000000000000     
   0.0000000000000000       0.40625000000000000        0.0000000000000000     
   3.1250000000000000E-002  0.40625000000000000        0.0000000000000000     
   6.2500000000000000E-002  0.40625000000000000        0.0000000000000000     
   9.3750000000000000E-002  0.40625000000000000        0.0000000000000000     
  0.12500000000000000       0.40625000000000000        0.0000000000000000     
   0.0000000000000000       0.43750000000000000        0.0000000000000000     
   3.1250000000000000E-002  0.43750000000000000        0.0000000000000000     
   6.2500000000000000E-002  0.43750000000000000        0.0000000000000000     
   9.3750000000000000E-002  0.43750000000000000        0.0000000000000000     
  0.12500000000000000       0.43750000000000000        0.0000000000000000     
   0.0000000000000000       0.46875000000000000        0.0000000000000000     
   3.1250000000000000E-002  0.46875000000000000        0.0000000000000000     
   6.2500000000000000E-002  0.46875000000000000        0.0000000000000000     
   9.3750000000000000E-002  0.46875000000000000        0.0000000000000000     
  0.12500000000000000       0.46875000000000000        0.0000000000000000     
   0.0000000000000000       0.50000000000000000        0.0000000000000000     
   3.1250000000000000E-002  0.50000000000000000        0.0000000000000000     
   6.2500000000000000E-002  0.50000000000000000        0.0000000000000000     
   9.3750000000000000E-002  0.50000000000000000        0.0000000000000000     
  0.12500000000000000       0.50000000000000000        0.0000000000000000     
  0.12500000000000000       0.37500000000000000        0.0000000000000000     
  0.15625000000000000       0.37500000000000000        0.0000000000000000     
  0.18750000000000000       0.37500000000000000        0.0000000000000000     
  0.21875000000000000       0.37500000000000000        0.0000000000000000     
  0.25000000000000000       0.37500000000000000        0.0000000000000000     
  0.12500000000000000       0.40625000000000000        0.0000000000000000     
  0.15625000000000000       0.40625000000000000        0.0000000000000000     
  0.18750000000000000       0.40625000000000000        0.0000000000000000     
  0.21875000000000000       0.40625000000000000        0.0000000000000000     
  0.25000000000000000       0.40625000000000000        0.0000000000000000     
  0.12500000000000000       0.43750000000000000        0.0000000000000000     
  0.15625000000000000       0.43750000000000000        0.0000000000000000     
  0.18750000000000000       0.43750000000000000        0.0000000000000000     
  0.21875000000000000       0.43750000000000000        0.0000000000000000     
  0.25000000000000000       0.43750000000000000        0.0000000000000000     
  0.12500000000000000       0.46875000000000000        0.0000000000000000     
  0.15625000000000000       0.46875000000000000        0.0000000000000000     
  0.18750000000000000       0.46875000000000000        0.0000000000000000     
  0.21875000000000000       0.46875000000000000        0.0000000000000000     
  0.25000000000000000       0.46875000000000000        0.0000000000000000     
  0.12500000000000000       0.50000000000000000        0.0000000000000000     
  0.15625000000000000       0.50000000000000000        0.0000000000000000     
  0.18750000000000000       0.50000000000000000        0.0000000000000000     
  0.21875000000000000       0.50000000000000000        0.0000000000000000     
  0.25000000000000000       0.50000000000000000        0.0000000000000000     
  0.25000000000000000       0.37500000000000000        0.0000000000000000     
  0.28125000000000000       0.37500000000000000        0.0000000000000000     
  0.31250000000000000       0.37500000000000000        0.0000000000000000     
  0.34375000000000000       0.37500000000000000        0.0000000000000000     
  0.37500000000000000       0.37500000000000000        0.0000000000000000     
  0.25000000000000000       0.40625000000000000        0.0000000000000000     
  0.28125000000000000       0.40625000000000000        0.0000000000000000     
  0.31250000000000000       0.40625000000000000        0.0000000000000000     
  0.34375000000000000       0.40625000000000000        0.0000000000000000     
  0.37500000000000000       0.40625000000000000        0.0000000000000000     
  0.25000000000000000       0.43750000000000000        0.0000000000000000     
  0.28125000000000000       0.43750000000000000        0.0000000000000000     
  0.31250000000000000       0.43750000000000000        0.0000000000000000     
  0.34375000000000000       0.43750000000000000        0.0000000000000000     
  0.37500000000000000       0.43750000000000000        0.0000000000000000     
  0.25000000000000000       0.46875000000000000        0.0000000000000000     
  0.28125000000000000       0.46875000000000000        0.0000000000000000     
  0.31250000000000000       0.46875000000000000        0.0000000000000000     
  0.34375000000000000       0.46875000000000000        0.0000000000000000     
  0.37500000000000000       0.46875000000000000        0.0000000000000000     
  0.25000000000000000       0.50000000000000000        0.0000000000000000     
  0.28125000000000000       0.50000000000000000        0.0000000000000000     
  0.31250000000000000       0.50000000000000000        0.0000000000000000     
  0.34375000000000000       0.50000000000000000        0.0000000000000000     
  0.37500000000000000       0.50000000000000000        0.0000000000000000     
  0.37500000000000000       0.37500000000000000        0.0000000000000000     
  0.40625000000000000       0.37500000000000000        0.0000000000000000     
  0.43750000000000000       0.37500000000000000        0.0000000000000000     
  0.46875000000000000       0.37500000000000000        0.0000000000000000     
  0.50000000000000000       0.37500000000000000        0.0000000000000000     
  0.37500000000000000       0.40625000000000000        0.0000000000000000     
  0.40625000000000000       0.40625000000000000        0.0000000000000000     
  0.43750000000000000       0.40625000000000000        0.0000000000000000     
  0.46875000000000000       0.40625000000000000        0.0000000000000000     
  0.50000000000000000       0.40625000000000000        0.0000000000000000     
  0.37500000000000000       0.43750000000000000        0.0000000000000000     
  0.40625000000000000       0.43750000000000000        0.0000000000000000     
  0.43750000000000000       0.43750000000000000        0.0000000000000000     
  0.46875000000000000       0.43750000000000000        0.0000000000000000     
  0.50000000000000000       0.43750000000000000        0.0000000000000000     
  0.37500000000000000       0.46875000000000000        0.0000000000000000     
  0.40625000000000000       0.46875000000000000        0.0000000000000000     
  0.43750000000000000       0.46875000000000000        0.0000000000000000     
  0.46875000000000000       0.46875000000000000        0.0000000000000000     
  0.50000000000000000       0.46875000000000000        0.0000000000000000     
  0.37500000000000000       0.50000000000000000        0.0000000000000000     
  0.40625000000000000       0.50000000000000000        0.0000000000000000     
  0.43750000000000000       0.50000000000000000        0.0000000000000000     
  0.46875000000000000       0.50000000000000000        0.0000000000000000     
  0.50000000000000000       0.50000000000000000        0.0000000000000000     
  0.50000000000000000       0.37500000000000000        0.0000000000000000     
  0.53125000000000000       0.37500000000000000        0.0000000000000000     
  0.56250000000000000       0.37500000000000000        0.0000000000000000     
  0.59375000000000000       0.37500000000000000        0.0000000000000000     
  0.62500000000000000       0.37500000000000000        0.0000000000000000     
  0.50000000000000000       0.40625000000000000        0.0000000000000000     
  0.53125000000000000       0.40625000000000000        0.0000000000000000     
  0.56250000000000000       0.40625000000000000        0.0000000000000000     
  0.59375000000000000       0.40625000000000000        0.0000000000000000     
  0.62500000000000000       0.40625000000000000        0.0000000000000000     
  0.50000000000000000       0.43750000000000000        0.0000000000000000     
  0.53125000000000000       0.43750000000000000        0.0000000000000000     
  0.56250000000000000       0.43750000000000000        0.0000000000000000     
  0.59375000000000000       0.43750000000000000        0.0000000000000000     
  0.62500000000000000       0.43750000000000000        0.0000000000000000     
  0.50000000000000000       0.46875000000000000        0.0000000000000000     
  0.53125000000000000       0.46875000000000000        0.0000000000000000     
  0.56250000000000000       0.46875000000000000        0.0000000000000000     
  0.59375000000000000       0.46875000000000000        0.0000000000000000     
  0.62500000000000000       0.46875000000000000        0.0000000000000000     
  0.50000000000000000       0.50000000000000000        0.0000000000000000     
  0.53125000000000000       0.50000000000000000        0.0000000000000000     
  0.56250000000000000       0.50000000000000000        0.0000000000000000     
  0.59375000000000000       0.50000000000000000        0.0000000000000000     
  0.62500000000000000       0.50000000000000000        0.0000000000000000     
  0.62500000000000000       0.37500000000000000        0.0000000000000000     
  0.65625000000000000       0.37500000000000000        0.0000000000000000     
  0.68750000000000000       0.37500000000000000        0.0000000000000000     
  0.71875000000000000       0.37500000000000000        0.0000000000000000     
  0.75000000000000000       0.37500000000000000        0.0000000000000000     
  0.62500000000000000       0.40625000000000000        0.0000000000000000     
  0.65625000000000000       0.40625000000000000        0.0000000000000000     
  0.68750000000000000       0.40625000000000000        0.0000000000000000     
  0.71875000000000000       0.40625000000000000        0.0000000000000000     
  0.75000000000000000       0.40625000000000000        0.0000000000000000     
  0.62500000000000000       0.43750000000000000        0.0000000000000000     
  0.65625000000000000       0.43750000000000000        0.0000000000000000     
  0.68750000000000000       0.43750000000000000        0.0000000000000000     
  0.71875000000000000       0.43750000000000000        0.0000000000000000     
  0.75000000000000000       0.43750000000000000        0.0000000000000000     
  0.62500000000000000       0.46875000000000000        0.0000000000000000     
  0.65625000000000000       0.46875000000000000        0.0000000000000000     
  0.68750000000000000       0.46875000000000000        0.0000000000000000     
  0.71875000000000000       0.46875000000000000        0.0000000000000000     
  0.75000000000000000       0.46875000000000000        0.0000000000000000     
  0.62500000000000000       0.50000000000000000        0.0000000000000000     
  0.65625000000000000       0.50000000000000000        0.0000000000000000     
  0.68750000000000000       0.50000000000000000        0.0000000000000000     
  0.71875000000000000       0.50000000000000000        0.0000000000000000     
  0.75000000000000000       0.50000000000000000        0.0000000000000000     
  0.75000000000000000       0.37500000000000000        0.0000000000000000     
  0.78125000000000000       0.37500000000000000        0.0000000000000000     
  0.81250000000000000       0.37500000000000000        0.0000000000000000     
  0.84375000000000000       0.37500000000000000        0.0000000000000000     
  0.87500000000000000       0.37500000000000000        0.0000000000000000     
  0.75000000000000000       0.40625000000000000        0.0000000000000000     
  0.78125000000000000       0.40625000000000000        0.0000000000000000     
  0.81250000000000000       0.40625000000000000        0.0000000000000000     
  0.84375000000000000       0.40625000000000000        0.0000000000000000     
  0.87500000000000000       0.40625000000000000        0.0000000000000000     
  0.75000000000000000       0.43750000000000000        0.0000000000000000     
  0.78125000000000000       0.43750000000000000        0.0000000000000000     
  0.81250000000000000       0.43750000000000000        0.0000000000000000     
  0.84375000000000000       0.43750000000000000        0.0000000000000000     
  0.87500000000000000       0.43750000000000000        0.0000000000000000     
  0.75000000000000000       0.46875000000000000        0.0000000000000000     
  0.78125000000000000       0.46875000000000000        0.0000000000000000     
  0.81250000000000000       0.46875000000000000        0.0000000000000000     
  0.84375000000000000       0.46875000000000000        0.0000000000000000     
  0.87500000000000000       0.46875000000000000        0.0000000000000000     
  0.75000000000000000       0.50000000000000000        0.0000000000000000     
  0.78125000000000000       0.50000000000000000        0.0000000000000000     
  0.81250000000000000       0.50000000000000000        0.0000000000000000     
  0.84375000000000000       0.50000000000000000        0.0000000000000000     
  0.87500000000000000       0.50000000000000000        0.0000000000000000     
  0.87500000000000000       0.37500000000000000        0.0000000000000000     
  0.90625000000000000       0.37500000000000000        0.0000000000000000     
  0.93750000000000000       0.37500000000000000        0.0000000000000000     
  0.96875000000000000       0.37500000000000000        0.0000000000000000     
   1.0000000000000000       0.37500000000000000        0.0000000000000000     
  0.87500000000000000       0.40625000000000000        0.0000000000000000     
  0.90625000000000000       0.40625000000000000        0.0000000000000000     
  0.93750000000000000       0.40625000000000000        0.0000000000000000     
  0.96875000000000000       0.40625000000000000        0.0000000000000000     
   1.0000000000000000       0.40625000000000000        0.0000000000000000     
  0.87500000000000000       0.43750000000000000        0.0000000000000000     
  0.90625000000000000       0.43750000000000000        0.0000000000000000     
  0.93750000000000000       0.43750000000000000        0.0000000000000000     
  0.96875000000000000       0.43750000000000000        0.0000000000000000     
   1.0000000000000000       0.43750000000000000        0.0000000000000000     
  0.87500000000000000       0.46875000000000000        0.0000000000000000     
  0.90625000000000000       0.46875000000000000        0.0000000000000000     
  0.93750000000000000       0.46875000000000000        0.0000000000000000     
  0.96875000000000000       0.46875000000000000        0.0000000000000000     
   1.0000000000000000       0.46875000000000000        0.0000000000000000     
  0.87500000000000000       0.50000000000000000        0.0000000000000000     
  0.90625000000000000       0.50000000000000000        0.0000000000000000     
  0.93750000000000000       0.50000000000000000        0.0000000000000000     
  0.96875000000000000       0.50000000000000000        0.0000000000000000     
   1.0000000000000000       0.50000000000000000        0.0000000000000000     
   0.0000000000000000       0.50000000000000000        0.0000000000000000     
   3.1250000000000000E-002  0.50000000000000000        0.0000000000000000     
   6.2500000000000000E-002  0.50000000000000000        0.0000000000000000     
   9.3750000000000000E-002  0.50000000000000000        0.0000000000000000     
  0.12500000000000000       0.50000000000000000        0.0000000000000000     
   0.0000000000000000       0.53125000000000000        0.0000000000000000     
   3.1250000000000000E-002  0.53125000000000000        0.0000000000000000     
   6.2500000000000000E-002  0.53125000000000000        0.0000000000000000     
   9.3750000000000000E-002  0.53125000000000000        0.0000000000000000     
  0.12500000000000000       0.53125000000000000        0.0000000000000000     
   0.0000000000000000       0.56250000000000000        0.0000000000000000     
   3.1250000000000000E-002  0.56250000000000000        0.0000000000000000     
   6.2500000000000000E-002  0.56250000000000000        0.0000000000000000     
   9.3750000000000000E-002  0.56250000000000000        0.0000000000000000     
  0.12500000000000000       0.56250000000000000        0.0000000000000000     
   0.0000000000000000       0.59375000000000000        0.0000000000000000     
   3.1250000000000000E-002  0.59375000000000000        0.0000000000000000     
   6.2500000000000000E-002  0.59375000000000000        0.0000000000000000     
   9.3750000000000000E-002  0.59375000000000000        0.0000000000000000     
  0.12500000000000000       0.59375000000000000        0.0000000000000000     
   0.0000000000000000       0.62500000000000000        0.0000000000000000     
   3.1250000000000000E-002  0.62500000000000000        0.0000000000000000     
   6.2500000000000000E-002  0.62500000000000000        0.0000000000000000     
   9.3750000000000000E-002  0.62500000000000000        0.0000000000000000     
  0.12500000000000000       0.62500000000000000        0.0000000000000000     
  0.12500000000000000       0.50000000000000000        0.0000000000000000     
  0.15625000000000000       0.50000000000000000        0.0000000000000000     
  0.18750000000000000       0.50000000000000000        0.0000000000000000     
  0.21875000000000000       0.50000000000000000        0.0000000000000000     
  0.25000000000000000       0.50000000000000000        0.0000000000000000     
  0.12500000000000000       0.53125000000000000        0.0000000000000000     
  0.15625000000000000       0.53125000000000000        0.0000000000000000     
  0.18750000000000000       0.53125000000000000        0.0000000000000000     
  0.21875000000000000       0.53125000000000000        0.0000000000000000     
  0.25000000000000000       0.53125000000000000        0.0000000000000000     
  0.12500000000000000       0.56250000000000000        0.0000000000000000     
  0.15625000000000000       0.56250000000000000        0.0000000000000000     
  0.18750000000000000       0.56250000000000000        0.0000000000000000     
  0.21875000000000000       0.56250000000000000        0.0000000000000000     
  0.25000000000000000       0.56250000000000000        0.0000000000000000     
  0.12500000000000000       0.59375000000000000        0.0000000000000000     
  0.15625000000000000       0.59375000000000000        0.0000000000000000     
  0.18750000000000000       0.59375000000000000        0.0000000000000000     
  0.21875000000000000       0.59375000000000000        0.0000000000000000     
  0.25000000000000000       0.59375000000000000        0.0000000000000000     
  0.12500000000000000       0.62500000000000000        0.0000000000000000     
  0.15625000000000000       0.62500000000000000        0.0000000000000000     
  0.18750000000000000       0.62500000000000000        0.0000000000000000     
  0.21875000000000000       0.62500000000000000        0.0000000000000000     
  0.25000000000000000       0.62500000000000000        0.0000000000000000     
  0.25000000000000000       0.50000000000000000        0.0000000000000000     
  0.28125000000000000       0.50000000000000000        0.0000000000000000     
  0.31250000000000000       0.50000000000000000        0.0000000000000000     
  0.34375000000000000       0.50000000000000000        0.0000000000000000     
  0.37500000000000000       0.50000000000000000        0.0000000000000000     
  0.25000000000000000       0.53125000000000000        0.0000000000000000     
  0.28125000000000000       0.53125000000000000        0.0000000000000000     
  0.31250000000000000       0.53125000000000000        0.0000000000000000     
  0.34375000000000000       0.53125000000000000        0.0000000000000000     
  0.37500000000000000       0.53125000000000000        0.0000000000000000     
  0.25000000000000000       0.56250000000000000        0.0000000000000000     
  0.28125000000000000       0.56250000000000000        0.0000000000000000     
  0.31250000000000000       0.56250000000000000        0.0000000000000000     
  0.34375000000000000       0.56250000000000000        0.0000000000000000     
  0.37500000000000000       0.56250000000000000        0.0000000000000000     
  0.25000000000000000       0.59375000000000000        0.0000000000000000     
  0.28125000000000000       0.59375000000000000        0.0000000000000000     
  0.31250000000000000       0.59375000000000000        0.0000000000000000     
  0.34375000000000000       0.59375000000000000        0.0000000000000000     
  0.37500000000000000       0.59375000000000000        0.0000000000000000     
  0.25000000000000000       0.62500000000000000        0.0000000000000000     
  0.28125000000000000       0.62500000000000000        0.0000000000000000     
  0.31250000000000000       0.62500000000000000        0.0000000000000000     
  0.34375000000000000       0.62500000000000000        0.0000000000000000     
  0.37500000000000000       0.62500000000000000        0.0000000000000000     
  0.37500000000000000       0.50000000000000000        0.0000000000000000     
  0.40625000000000000       0.50000000000000000        0.0000000000000000     
  0.43750000000000000       0.50000000000000000        0.0000000000000000     
  0.46875000000000000       0.50000000000000000        0.0000000000000000     
  0.50000000000000000       0.50000000000000000        0.0000000000000000     
  0.37500000000000000       0.53125000000000000        0.0000000000000000     
  0.40625000000000000       0.53125000000000000        0.0000000000000000     
  0.43750000000000000       0.53125000000000000        0.0000000000000000     
  0.46875000000000000       0.53125000000000000        0.0000000000000000     
  0.50000000000000000       0.53125000000000000        0.0000000000000000     
  0.37500000000000000       0.56250000000000000        0.0000000000000000     
  0.40625000000000000       0.56250000000000000        0.0000000000000000     
  0.43750000000000000       0.56250000000000000        0.0000000000000000     
  0.46875000000000000       0.56250000000000000        0.0000000000000000     
  0.50000000000000000       0.56250000000000000        0.0000000000000000     
  0.37500000000000000       0.59375000000000000        0.0000000000000000     
  0.40625000000000000       0.59375000000000000        0.0000000000000000     
  0.43750000000000000       0.59375000000000000        0.0000000000000000     
  0.46875000000000000       0.59375000000000000        0.0000000000000000     
  0.50000000000000000       0.59375000000000000        0.0000000000000000     
  0.37500000000000000       0.62500000000000000        0.0000000000000000     
  0.40625000000000000       0.62500000000000000        0.0000000000000000     
  0.43750000000000000       0.62500000000000000        0.0000000000000000     
  0.46875000000000000       0.62500000000000000        0.0000000000000000     
  0.50000000000000000       0.62500000000000000        0.0000000000000000     
  0.50000000000000000       0.50000000000000000        0.0000000000000000     
  0.53125000000000000       0.50000000000000000        0.0000000000000000     
  0.56250000000000000       0.50000000000000000        0.0000000000000000     
  0.59375000000000000       0.50000000000000000        0.0000000000000000     
  0.62500000000000000       0.50000000000000000        0.0000000000000000     
  0.50000000000000000       0.53125000000000000        0.0000000000000000     
  0.53125000000000000       0.53125000000000000        0.0000000000000000     
  0.56250000000000000       0.53125000000000000        0.0000000000000000     
  0.59375000000000000       0.53125000000000000        0.0000000000000000     
  0.62500000000000000       0.53125000000000000        0.0000000000000000     
  0.50000000000000000       0.56250000000000000        0.0000000000000000     
  0.53125000000000000       0.56250000000000000        0.0000000000000000     
  0.56250000000000000       0.56250000000000000        0.0000000000000000     
  0.59375000000000000       0.56250000000000000        0.0000000000000000     
  0.62500000000000000       0.56250000000000000        0.0000000000000000     
  0.50000000000000000       0.59375000000000000        0.0000000000000000     
  0.53125000000000000       0.59375000000000000        0.0000000000000000     
  0.56250000000000000       0.59375000000000000        0.0000000000000000     
  0.59375000000000000       0.59375000000000000        0.0000000000000000     
  0.62500000000000000       0.59375000000000000        0.0000000000000000     
  0.50000000000000000       0.62500000000000000        0.0000000000000000     
  0.53125000000000000       0.62500000000000000        0.0000000000000000     
  0.56250000000000000       0.62500000000000000        0.0000000000000000     
  0.59375000000000000       0.62500000000000000        0.0000000000000000     
  0.62500000000000000       0.62500000000000000        0.0000000000000000     
  0.62500000000000000       0.50000000000000000        0.0000000000000000     
  0.65625000000000000       0.50000000000000000        0.0000000000000000     
  0.68750000000000000       0.50000000000000000        0.0000000000000000     
  0.71875000000000000       0.50000000000000000        0.0000000000000000     
  0.75000000000000000       0.50000000000000000        0.0000000000000000     
  0.62500000000000000       0.53125000000000000        0.0000000000000000     
  0.65625000000000000       0.53125000000000000        0.0000000000000000     
  0.68750000000000000       0.53125000000000000        0.0000000000000000     
  0.71875000000000000       0.53125000000000000        0.0000000000000000     
  0.75000000000000000       0.53125000000000000        0.0000000000000000     
  0.62500000000000000       0.56250000000000000        0.0000000000000000     
  0.65625000000000000       0.56250000000000000        0.0000000000000000     
  0.68750000000000000       0.56250000000000000        0.0000000000000000     
  0.71875000000000000       0.56250000000000000        0.0000000000000000     
  0.75000000000000000       0.56250000000000000        0.0000000000000000     
  0.62500000000000000       0.59375000000000000        0.0000000000000000     
  0.65625000000000000       0.59375000000000000        0.0000000000000000     
  0.68750000000000000       0.59375000000000000        0.0000000000000000     
  0.71875000000000000       0.59375000000000000        0.0000000000000000     
  0.75000000000000000       0.59375000000000000        0.0000000000000000     
  0.62500000000000000       0.62500000000000000        0.0000000000000000     
  0.65625000000000000       0.62500000000000000        0.0000000000000000     
  0.68750000000000000       0.62500000000000000        0.0000000000000000     
  0.71875000000000000       0.62500000000000000        0.0000000000000000     
  0.75000000000000000       0.62500000000000000        0.0000000000000000     
  0.75000000000000000       0.50000000000000000        0.0000000000000000     
  0.78125000000000000       0.50000000000000000        0.0000000000000000     
  0.81250000000000000       0.50000000000000000        0.0000000000000000     
  0.84375000000000000       0.50000000000000000        0.0000000000000000     
  0.87500000000000000       0.50000000000000000        0.0000000000000000     
  0.75000000000000000       0.53125000000000000        0.0000000000000000     
  0.78125000000000000       0.53125000000000000        0.0000000000000000     
  0.81250000000000000       0.53125000000000000        0.0000000000000000     
  0.84375000000000000       0.53125000000000000        0.0000000000000000     
  0.87500000000000000       0.53125000000000000        0.0000000000000000     
  0.75000000000000000       0.56250000000000000        0.0000000000000000     
  0.78125000000000000       0.56250000000000000        0.0000000000000000     
  0.81250000000000000       0.56250000000000000        0.0000000000000000     
  0.84375000000000000       0.56250000000000000        0.0000000000000000     
  0.87500000000000000       0.56250000000000000        0.0000000000000000     
  0.75000000000000000       0.59375000000000000        0.0000000000000000     
  0.78125000000000000       0.59375000000000000        0.0000000000000000     
  0.81250000000000000       0.59375000000000000        0.0000000000000000     
  0.84375000000000000       0.59375000000000000        0.0000000000000000     
  0.87500000000000000       0.59375000000000000        0.0000000000000000     
  0.75000000000000000       0.62500000000000000        0.0000000000000000     
  0.78125000000000000       0.62500000000000000        0.0000000000000000     
  0.81250000000000000       0.62500000000000000        0.0000000000000000     
  0.84375000000000000       0.62500000000000000        0.0000000000000000     
  0.87500000000000000       0.62500000000000000        0.0000000000000000     
  0.87500000000000000       0.50000000000000000        0.0000000000000000     
  0.90625000000000000       0.50000000000000000        0.0000000000000000     
  0.93750000000000000       0.50000000000000000        0.0000000000000000     
  0.96875000000000000       0.50000000000000000        0.0000000000000000     
   1.0000000000000000       0.50000000000000000        0.0000000000000000     
  0.87500000000000000       0.53125000000000000        0.0000000000000000     
  0.90625000000000000       0.53125000000000000        0.0000000000000000     
  0.93750000000000000       0.53125000000000000        0.0000000000000000     
  0.96875000000000000       0.53125000000000000        0.0000000000000000     
   1.0000000000000000       0.53125000000000000        0.0000000000000000     
  0.87500000000000000       0.56250000000000000        0.0000000000000000     
  0.90625000000000000       0.56250000000000000        0.0000000000000000     
  0.93750000000000000       0.56250000000000000        0.0000000000000000     
  0.96875000000000000       0.56250000000000000        0.0000000000000000     
   1.0000000000000000       0.56250000000000000        0.0000000000000000     
  0.87500000000000000       0.59375000000000000        0.0000000000000000     
  0.90625000000000000       0.59375000000000000        0.0000000000000000     
  0.93750000000000000       0.59375000000000000        0.0000000000000000     
  0.96875000000000000       0.59375000000000000        0.0000000000000000     
   1.0000000000000000       0.59375000000000000        0.0000000000000000     
  0.87500000000000000       0.62500000000000000        0.0000000000000000     
  0.90625000000000000       0.62500000000000000        0.0000000000000000     
  0.93750000000000000       0.62500000000000000        0.0000000000000000     
  0.96875000000000000       0.62500000000000000        0.0000000000000000     
   1.0000000000000000       0.62500000000000000        0.0000000000000000     
   0.0000000000000000       0.62500000000000000        0.0000000000000000     
   3.1250000000000000E-002  0.62500000000000000        0.0000000000000000     
   6.2500000000000000E-002  0.62500000000000000        0.0000000000000000     
   9.3750000000000000E-002  0.62500000000000000        0.0000000000000000     
  0.12500000000000000       0.62500000000000000        0.0000000000000000     
   0.0000000000000000       0.65625000000000000        0.0000000000000000     
   3.1250000000000000E-002  0.65625000000000000        0.0000000000000000     
   6.2500000000000000E-002  0.65625000000000000        0.0000000000000000     
   9.3750000000000000E-002  0.65625000000000000        0.0000000000000000     
  0.12500000000000000       0.65625000000000000        0.0000000000000000     
   0.0000000000000000       0.68750000000000000        0.0000000000000000     
   3.1250000000000000E-002  0.68750000000000000        0.0000000000000000     
   6.2500000000000000E-002  0.68750000000000000        0.0000000000000000     
   9.3750000000000000E-002  0.68750000000000000        0.0000000000000000     
  0.12500000000000000       0.68750000000000000        0.0000000000000000     
   0.0000000000000000       0.71875000000000000        0.0000000000000000     
   3.1250000000000000E-002  0.71875000000000000        0.0000000000000000     
   6.2500000000000000E-002  0.71875000000000000        0.0000000000000000     
   9.3750000000000000E-002  0.71875000000000000        0.0000000000000000     
  0.12500000000000000       0.71875000000000000        0.0000000000000000     
   0.0000000000000000       0.75000000000000000        0.0000000000000000     
   3.1250000000000000E-002  0.75000000000000000        0.0000000000000000     
   6.2500000000000000E-002  0.75000000000000000        0.0000000000000000     
   9.3750000000000000E-002  0.75000000000000000        0.0000000000000000     
  0.12500000000000000       0.75000000000000000        0.0000000000000000     
  0.12500000000000000       0.62500000000000000        0.0000000000000000     
  0.15625000000000000       0.62500000000000000        0.0000000000000000     
  0.18750000000000000       0.62500000000000000        0.0000000000000000     
  0.21875000000000000       0.62500000000000000        0.0000000000000000     
  0.25000000000000000       0.62500000000000000        0.0000000000000000     
  0.12500000000000000       0.65625000000000000        0.0000000000000000     
  0.15625000000000000       0.65625000000000000        0.0000000000000000     
  0.18750000000000000       0.65625000000000000        0.0000000000000000     
  0.21875000000000000       0.65625000000000000        0.0000000000000000     
  0.25000000000000000       0.65625000000000000        0.0000000000000000     
  0.12500000000000000       0.68750000000000000        0.0000000000000000     
  0.15625000000000000       0.68750000000000000        0.0000000000000000     
  0.18750000000000000       0.68750000000000000        0.0000000000000000     
  0.21875000000000000       0.68750000000000000        0.0000000000000000     
  0.25000000000000000       0.68750000000000000        0.0000000000000000     
  0.12500000000000000       0.71875000000000000        0.0000000000000000     
  0.15625000000000000       0.71875000000000000        0.0000000000000000     
  0.18750000000000000       0.71875000000000000        0.0000000000000000     
  0.21875000000000000       0.71875000000000000        0.0000000000000000     
  0.25000000000000000       0.71875000000000000        0.0000000000000000     
  0.12500000000000000       0.75000000000000000        0.0000000000000000     
  0.15625000000000000       0.75000000000000000        0.0000000000000000     
  0.18750000000000000       0.75000000000000000        0.0000000000000000     
  0.21875000000000000       0.75000000000000000        0.0000000000000000     
  0.25000000000000000       0.75000000000000000        0.0000000000000000     
  0.25000000000000000       0.62500000000000000        0.0000000000000000     
  0.28125000000000000       0.62500000000000000        0.0000000000000000     
  0.31250000000000000       0.62500000000000000        0.0000000000000000     
  0.34375000000000000       0.62500000000000000        0.0000000000000000     
  0.37500000000000000       0.62500000000000000        0.0000000000000000     
  0.25000000000000000       0.65625000000000000        0.0000000000000000     
  0.28125000000000000       0.65625000000000000        0.0000000000000000     
  0.31250000000000000       0.65625000000000000        0.0000000000000000     
  0.34375000000000000       0.65625000000000000        0.0000000000000000     
  0.37500000000000000       0.65625000000000000        0.0000000000000000     
  0.25000000000000000       0.68750000000000000        0.0000000000000000     
  0.28125000000000000       0.68750000000000000        0.0000000000000000     
  0.31250000000000000       0.68750000000000000        0.0000000000000000     
  0.34375000000000000       0.68750000000000000        0.0000000000000000     
  0.37500000000000000       0.68750000000000000        0.0000000000000000     
  0.25000000000000000       0.71875000000000000        0.0000000000000000     
  0.28125000000000000       0.71875000000000000        0.0000000000000000     
  0.31250000000000000       0.71875000000000000        0.0000000000000000     
  0.34375000000000000       0.71875000000000000        0.0000000000000000     
  0.37500000000000000       0.71875000000000000        0.0000000000000000     
  0.25000000000000000       0.75000000000000000        0.0000000000000000     
  0.28125000000000000       0.75000000000000000        0.0000000000000000     
  0.31250000000000000       0.75000000000000000        0.0000000000000000     
  0.34375000000000000       0.75000000000000000        0.0000000000000000     
  0.37500000000000000       0.75000000000000000        0.0000000000000000     
  0.37500000000000000       0.62500000000000000        0.0000000000000000     
  0.40625000000000000       0.62500000000000000        0.0000000000000000     
  0.43750000000000000       0.62500000000000000        0.0000000000000000     
  0.46875000000000000       0.62500000000000000        0.0000000000000000     
  0.50000000000000000       0.62500000000000000        0.0000000000000000     
  0.37500000000000000       0.65625000000000000        0.0000000000000000     
  0.40625000000000000       0.65625000000000000        0.0000000000000000     
  0.43750000000000000       0.65625000000000000        0.0000000000000000     
  0.46875000000000000       0.65625000000000000        0.0000000000000000     
  0.50000000000000000       0.65625000000000000        0.0000000000000000     
  0.37500000000000000       0.68750000000000000        0.0000000000000000     
  0.40625000000000000       0.68750000000000000        0.0000000000000000     
  0.43750000000000000       0.68750000000000000        0.0000000000000000     
  0.46875000000000000       0.68750000000000000        0.0000000000000000     
  0.50000000000000000       0.68750000000000000        0.0000000000000000     
  0.37500000000000000       0.71875000000000000        0.0000000000000000     
  0.40625000000000000       0.71875000000000000        0.0000000000000000     
  0.43750000000000000       0.71875000000000000        0.0000000000000000     
  0.46875000000000000       0.71875000000000000        0.0000000000000000     
  0.50000000000000000       0.71875000000000000        0.0000000000000000     
  0.37500000000000000       0.75000000000000000        0.0000000000000000     
  0.40625000000000000       0.75000000000000000        0.0000000000000000     
  0.43750000000000000       0.75000000000000000        0.0000000000000000     
  0.46875000000000000       0.75000000000000000        0.0000000000000000     
  0.50000000000000000       0.75000000000000000        0.0000000000000000     
  0.50000000000000000       0.62500000000000000        0.0000000000000000     
  0.53125000000000000       0.62500000000000000        0.0000000000000000     
  0.56250000000000000       0.62500000000000000        0.0000000000000000     
  0.59375000000000000       0.62500000000000000        0.0000000000000000     
  0.62500000000000000       0.62500000000000000        0.0000000000000000     
  0.50000000000000000       0.65625000000000000        0.0000000000000000     
  0.53125000000000000       0.65625000000000000        0.0000000000000000     
  0.56250000000000000       0.65625000000000000        0.0000000000000000     
  0.59375000000000000       0.65625000000000000        0.0000000000000000     
  0.62500000000000000       0.65625000000000000        0.0000000000000000     
  0.50000000000000000       0.68750000000000000        0.0000000000000000     
  0.53125000000000000       0.68750000000000000        0.0000000000000000     
  0.56250000000000000       0.68750000000000000        0.0000000000000000     
  0.59375000000000000       0.68750000000000000        0.0000000000000000     
  0.62500000000000000       0.68750000000000000        0.0000000000000000     
  0.50000000000000000       0.71875000000000000        0.0000000000000000     
  0.53125000000000000       0.71875000000000000        0.0000000000000000     
  0.56250000000000000       0.71875000000000000        0.0000000000000000     
  0.59375000000000000       0.71875000000000000        0.0000000000000000     
  0.62500000000000000       0.71875000000000000        0.0000000000000000     
  0.50000000000000000       0.75000000000000000        0.0000000000000000     
  0.53125000000000000       0.75000000000000000        0.0000000000000000     
  0.56250000000000000       0.75000000000000000        0.0000000000000000     
  0.59375000000000000       0.75000000000000000        0.0000000000000000     
  0.62500000000000000       0.75000000000000000        0.0000000000000000     
  0.62500000000000000       0.62500000000000000        0.0000000000000000     
  0.65625000000000000       0.62500000000000000        0.0000000000000000     
  0.68750000000000000       0.62500000000000000        0.0000000000000000     
  0.71875000000000000       0.62500000000000000        0.0000000000000000     
  0.75000000000000000       0.62500000000000000        0.0000000000000000     
  0.62500000000000000       0.65625000000000000        0.0000000000000000     
  0.65625000000000000       0.65625000000000000        0.0000000000000000     
  0.68750000000000000       0.65625000000000000        0.0000000000000000     
  0.71875000000000000       0.65625000000000000        0.0000000000000000     
  0.75000000000000000       0.65625000000000000        0.0000000000000000     
  0.62500000000000000       0.68750000000000000        0.0000000000000000     
  0.65625000000000000       0.68750000000000000        0.0000000000000000     
  0.68750000000000000       0.68750000000000000        0.0000000000000000     
  0.71875000000000000       0.68750000000000000        0.0000000000000000     
  0.75000000000000000       0.68750000000000000        0.0000000000000000     
  0.62500000000000000       0.71875000000000000        0.0000000000000000     
  0.65625000000000000       0.71875000000000000        0.0000000000000000     
  0.68750000000000000       0.71875000000000000        0.0000000000000000     
  0.71875000000000000       0.71875000000000000        0.0000000000000000     
  0.75000000000000000       0.71875000000000000        0.0000000000000000     
  0.62500000000000000       0.75000000000000000        0.0000000000000000     
  0.65625000000000000       0.75000000000000000        0.0000000000000000     
  0.68750000000000000       0.75000000000000000        0.0000000000000000     
  0.71875000000000000       0.75000000000000000        0.0000000000000000     
  0.75000000000000000       0.75000000000000000        0.0000000000000000     
  0.75000000000000000       0.62500000000000000        0.0000000000000000     
  0.78125000000000000       0.62500000000000000        0.0000000000000000     
  0.81250000000000000       0.62500000000000000        0.0000000000000000     
  0.84375000000000000       0.62500000000000000        0.0000000000000000     
  0.87500000000000000       0.62500000000000000        0.0000000000000000     
  0.75000000000000000       0.65625000000000000        0.0000000000000000     
  0.78125000000000000       0.65625000000000000        0.0000000000000000     
  0.81250000000000000       0.65625000000000000        0.0000000000000000     
  0.84375000000000000       0.65625000000000000        0.0000000000000000     
  0.87500000000000000       0.65625000000000000        0.0000000000000000     
  0.75000000000000000       0.68750000000000000        0.0000000000000000     
  0.78125000000000000       0.68750000000000000        0.0000000000000000     
  0.81250000000000000       0.68750000000000000        0.0000000000000000     
  0.84375000000000000       0.68750000000000000        0.0000000000000000     
  0.87500000000000000       0.68750000000000000        0.0000000000000000     
  0.75000000000000000       0.71875000000000000        0.0000000000000000     
  0.78125000000000000       0.71875000000000000        0.0000000000000000     
  0.81250000000000000       0.71875000000000000        0.0000000000000000     
  0.84375000000000000       0.71875000000000000        0.0000000000000000     
  0.87500000000000000       0.71875000000000000        0.0000000000000000     
  0.75000000000000000       0.75000000000000000        0.0000000000000000     
  0.78125000000000000       0.75000000000000000        0.0000000000000000     
  0.81250000000000000       0.75000000000000000        0.0000000000000000     
  0.84375000000000000       0.75000000000000000        0.0000000000000000     
  0.87500000000000000       0.75000000000000000        0.0000000000000000     
  0.87500000000000000       0.62500000000000000        0.0000000000000000     
  0.90625000000000000       0.62500000000000000        0.0000000000000000     
  0.93750000000000000       0.62500000000000000        0.0000000000000000     
  0.96875000000000000       0.62500000000000000        0.0000000000000000     
   1.0000000000000000       0.62500000000000000        0.0000000000000000     
  0.87500000000000000       0.65625000000000000        0.0000000000000000     
  0.90625000000000000       0.65625000000000000        0.0000000000000000     
  0.93750000000000000       0.65625000000000000        0.0000000000000000     
  0.96875000000000000       0.65625000000000000        0.0000000000000000     
   1.0000000000000000       0.65625000000000000        0.0000000000000000     
  0.87500000000000000       0.68750000000000000        0.0000000000000000     
  0.90625000000000000       0.68750000000000000        0.0000000000000000     
  0.93750000000000000       0.68750000000000000        0.0000000000000000     
  0.96875000000000000       0.68750000000000000        0.0000000000000000     
   1.0000000000000000       0.68750000000000000        0.0000000000000000     
  0.87500000000000000       0.71875000000000000        0.0000000000000000     
  0.90625000000000000       0.71875000000000000        0.0000000000000000     
  0.93750000000000000       0.71875000000000000        0.0000000000000000     
  0.96875000000000000       0.71875000000000000        0.0000000000000000     
   1.0000000000000000       0.71875000000000000        0.0000000000000000     
  0.87500000000000000       0.75000000000000000        0.0000000000000000     
  0.90625000000000000       0.75000000000000000        0.0000000000000000     
  0.93750000000000000       0.75000000000000000        0.0000000000000000     
  0.96875000000000000       0.75000000000000000        0.0000000000000000     
   1.0000000000000000       0.75000000000000000        0.0000000000000000     
   0.0000000000000000       0.75000000000000000        0.0000000000000000     
   3.1250000000000000E-002  0.75000000000000000        0.0000000000000000     
   6.2500000000000000E-002  0.75000000000000000        0.0000000000000000     
   9.3750000000000000E-002  0.75000000000000000        0.0000000000000000     
  0.12500000000000000       0.75000000000000000        0.0000000000000000     
   0.0000000000000000       0.78125000000000000        0.0000000000000000     
   3.1250000000000000E-002  0.78125000000000000        0.0000000000000000     
   6.2500000000000000E-002  0.78125000000000000        0.0000000000000000     
   9.3750000000000000E-002  0.78125000000000000        0.0000000000000000     
  0.12500000000000000       0.78125000000000000        0.0000000000000000     
   0.0000000000000000       0.81250000000000000        0.0000000000000000     
   3.1250000000000000E-002  0.81250000000000000        0.0000000000000000     
   6.2500000000000000E-002  0.81250000000000000        0.0000000000000000     
   9.3750000000000000E-002  0.81250000000000000        0.0000000000000000     
  0.12500000000000000       0.81250000000000000        0.0000000000000000     
   0.0000000000000000       0.84375000000000000        0.0000000000000000     
   3.1250000000000000E-002  0.84375000000000000        0.0000000000000000     
   6.2500000000000000E-002  0.84375000000000000        0.0000000000000000     
   9.3750000000000000E-002  0.84375000000000000        0.0000000000000000     
  0.12500000000000000       0.84375000000000000        0.0000000000000000     
   0.0000000000000000       0.87500000000000000        0.0000000000000000     
   3.1250000000000000E-002  0.87500000000000000        0.0000000000000000     
   6.2500000000000000E-002  0.87500000000000000        0.0000000000000000     
   9.3750000000000000E-002  0.87500000000000000        0.0000000000000000     
  0.12500000000000000       0.87500000000000000        0.0000000000000000     
  0.12500000000000000       0.75000000000000000        0.0000000000000000     
  0.15625000000000000       0.75000000000000000        0.0000000000000000     
  0.18750000000000000       0.75000000000000000        0.0000000000000000     
  0.21875000000000000       0.75000000000000000        0.0000000000000000     
  0.25000000000000000       0.75000000000000000        0.0000000000000000     
  0.12500000000000000       0.78125000000000000        0.0000000000000000     
  0.15625000000000000       0.78125000000000000        0.0000000000000000     
  0.18750000000000000       0.78125000000000000        0.0000000000000000     
  0.21875000000000000       0.78125000000000000        0.0000000000000000     
  0.25000000000000000       0.78125000000000000        0.0000000000000000     
  0.12500000000000000       0.81250000000000000        0.0000000000000000     
  0.15625000000000000       0.81250000000000000        0.0000000000000000     
  0.18750000000000000       0.81250000000000000        0.0000000000000000     
  0.21875000000000000       0.81250000000000000        0.0000000000000000     
  0.25000000000000000       0.81250000000000000        0.0000000000000000     
  0.12500000000000000       0.84375000000000000        0.0000000000000000     
  0.15625000000000000       0.84375000000000000        0.0000000000000000     
  0.18750000000000000       0.84375000000000000        0.0000000000000000     
  0.21875000000000000       0.84375000000000000        0.0000000000000000     
  0.25000000000000000       0.84375000000000000        0.0000000000000000     
  0.12500000000000000       0.87500000000000000        0.0000000000000000     
  0.15625000000000000       0.87500000000000000        0.0000000000000000     
  0.18750000000000000       0.87500000000000000        0.0000000000000000     
  0.21875000000000000       0.87500000000000000        0.0000000000000000     
  0.25000000000000000       0.87500000000000000        0.0000000000000000     
  0.25000000000000000       0.75000000000000000        0.0000000000000000     
  0.28125000000000000       0.75000000000000000        0.0000000000000000     
  0.31250000000000000       0.75000000000000000        0.0000000000000000     
  0.34375000000000000       0.75000000000000000        0.0000000000000000     
  0.37500000000000000       0.75000000000000000        0.0000000000000000     
  0.25000000000000000       0.78125000000000000        0.0000000000000000     
  0.28125000000000000       0.78125000000000000        0.0000000000000000     
  0.31250000000000000       0.78125000000000000        0.0000000000000000     
  0.34375000000000000       0.78125000000000000        0.0000000000000000     
  0.37500000000000000       0.78125000000000000        0.0000000000000000     
  0.25000000000000000       0.81250000000000000        0.0000000000000000     
  0.28125000000000000       0.81250000000000000        0.0000000000000000     
  0.31250000000000000       0.81250000000000000        0.0000000000000000     
  0.34375000000000000       0.81250000000000000        0.0000000000000000     
  0.37500000000000000       0.81250000000000000        0.0000000000000000     
  0.25000000000000000       0.84375000000000000        0.0000000000000000     
  0.28125000000000000       0.84375000000000000        0.0000000000000000     
  0.31250000000000000       0.84375000000000000        0.0000000000000000     
  0.34375000000000000       0.84375000000000000        0.0000000000000000     
  0.37500000000000000       0.84375000000000000        0.0000000000000000     
  0.25000000000000000       0.87500000000000000        0.0000000000000000     
  0.28125000000000000       0.87500000000000000        0.0000000000000000     
  0.31250000000000000       0.87500000000000000        0.0000000000000000     
  0.34375000000000000       0.87500000000000000        0.0000000000000000     
  0.37500000000000000       0.87500000000000000        0.0000000000000000     
  0.37500000000000000       0.75000000000000000        0.0000000000000000     
  0.40625000000000000       0.75000000000000000        0.0000000000000000     
  0.43750000000000000       0.75000000000000000        0.0000000000000000     
  0.46875000000000000       0.75000000000000000        0.0000000000000000     
  0.50000000000000000       0.75000000000000000        0.0000000000000000     
  0.37500000000000000       0.78125000000000000        0.0000000000000000     
  0.40625000000000000       0.78125000000000000        0.0000000000000000     
  0.43750000000000000       0.78125000000000000        0.0000000000000000     
  0.46875000000000000       0.78125000000000000        0.0000000000000000     
  0.50000000000000000       0.78125000000000000        0.0000000000000000     
  0.37500000000000000       0.81250000000000000        0.0000000000000000     
  0.40625000000000000       0.81250000000000000        0.0000000000000000     
  0.43750000000000000       0.81250000000000000        0.0000000000000000     
  0.46875000000000000       0.81250000000000000        0.0000000000000000     
  0.50000000000000000       0.81250000000000000        0.0000000000000000     
  0.37500000000000000       0.84375000000000000        0.0000000000000000     
  0.40625000000000000       0.84375000000000000        0.0000000000000000     
  0.43750000000000000       0.84375000000000000        0.0000000000000000     
  0.46875000000000000       0.84375000000000000        0.0000000000000000     
  0.50000000000000000       0.84375000000000000        0.0000000000000000     
  0.37500000000000000       0.87500000000000000        0.0000000000000000     
  0.40625000000000000       0.87500000000000000        0.0000000000000000     
  0.43750000000000000       0.87500000000000000        0.0000000000000000     
  0.46875000000000000       0.87500000000000000        0.0000000000000000     
  0.50000000000000000       0.87500000000000000        0.0000000000000000     
  0.50000000000000000       0.75000000000000000        0.0000000000000000     
  0.53125000000000000       0.75000000000000000        0.0000000000000000     
  0.56250000000000000       0.75000000000000000        0.0000000000000000     
  0.59375000000000000       0.75000000000000000        0.0000000000000000     
  0.62500000000000000       0.75000000000000000        0.0000000000000000     
  0.50000000000000000       0.78125000000000000        0.0000000000000000     
  0.53125000000000000       0.78125000000000000        0.0000000000000000     
  0.56250000000000000       0.78125000000000000        0.0000000000000000     
  0.59375000000000000       0.78125000000000000        0.0000000000000000     
  0.62500000000000000       0.78125000000000000        0.0000000000000000     
  0.50000000000000000       0.81250000000000000        0.0000000000000000     
  0.53125000000000000       0.81250000000000000        0.0000000000000000     
  0.56250000000000000       0.81250000000000000        0.0000000000000000     
  0.59375000000000000       0.81250000000000000        0.0000000000000000     
  0.62500000000000000       0.81250000000000000        0.0000000000000000     
  0.50000000000000000       0.84375000000000000        0.0000000000000000     
  0.53125000000000000       0.84375000000000000        0.0000000000000000     
  0.56250000000000000       0.84375000000000000        0.0000000000000000     
  0.59375000000000000       0.84375000000000000        0.0000000000000000     
  0.62500000000000000       0.84375000000000000        0.0000000000000000     
  0.50000000000000000       0.87500000000000000        0.0000000000000000     
  0.53125000000000000       0.87500000000000000        0.0000000000000000     
  0.56250000000000000       0.87500000000000000        0.0000000000000000     
  0.59375000000000000       0.87500000000000000        0.0000000000000000     
  0.62500000000000000       0.87500000000000000        0.0000000000000000     
  0.62500000000000000       0.75000000000000000        0.0000000000000000     
  0.65625000000000000       0.75000000000000000        0.0000000000000000     
  0.68750000000000000       0.75000000000000000        0.0000000000000000     
  0.71875000000000000       0.75000000000000000        0.0000000000000000     
  0.75000000000000000       0.75000000000000000        0.0000000000000000     
  0.62500000000000000       0.78125000000000000        0.0000000000000000     
  0.65625000000000000       0.78125000000000000        0.0000000000000000     
  0.68750000000000000       0.78125000000000000        0.0000000000000000     
  0.71875000000000000       0.78125000000000000        0.0000000000000000     
  0.75000000000000000       0.78125000000000000        0.0000000000000000     
  0.62500000000000000       0.81250000000000000        0.0000000000000000     
  0.65625000000000000       0.81250000000000000        0.0000000000000000     
  0.68750000000000000       0.81250000000000000        0.0000000000000000     
  0.71875000000000000       0.81250000000000000        0.0000000000000000     
  0.75000000000000000       0.81250000000000000        0.0000000000000000     
  0.62500000000000000       0.84375000000000000        0.0000000000000000     
  0.65625000000000000       0.84375000000000000        0.0000000000000000     
  0.68750000000000000       0.84375000000000000        0.0000000000000000     
  0.71875000000000000       0.84375000000000000        0.0000000000000000     
  0.75000000000000000       0.84375000000000000        0.0000000000000000     
  0.62500000000000000       0.87500000000000000        0.0000000000000000     
  0.65625000000000000       0.87500000000000000        0.0000000000000000     
  0.68750000000000000       0.87500000000000000        0.0000000000000000     
  0.71875000000000000       0.87500000000000000        0.0000000000000000     
  0.75000000000000000       0.87500000000000000        0.0000000000000000     
  0.75000000000000000       0.75000000000000000        0.0000000000000000     
  0.78125000000000000       0.75000000000000000        0.0000000000000000     
  0.81250000000000000       0.75000000000000000        0.0000000000000000     
  0.84375000000000000       0.75000000000000000        0.0000000000000000     
  0.87500000000000000       0.75000000000000000        0.0000000000000000     
  0.75000000000000000       0.78125000000000000        0.0000000000000000     
  0.78125000000000000       0.78125000000000000        0.0000000000000000     
  0.81250000000000000       0.78125000000000000        0.0000000000000000     
  0.84375000000000000       0.78125000000000000        0.0000000000000000     
  0.87500000000000000       0.78125000000000000        0.0000000000000000     
  0.75000000000000000       0.81250000000000000        0.0000000000000000     
  0.78125000000000000       0.81250000000000000        0.0000000000000000     
  0.81250000000000000       0.81250000000000000        0.0000000000000000     
  0.84375000000000000       0.81250000000000000        0.0000000000000000     
  0.87500000000000000       0.81250000000000000        0.0000000000000000     
  0.75000000000000000       0.84375000000000000        0.0000000000000000     
  0.78125000000000000       0.84375000000000000        0.0000000000000000     
  0.81250000000000000       0.84375000000000000        0.0000000000000000     
  0.84375000000000000       0.84375000000000000        0.0000000000000000     
  0.87500000000000000       0.84375000000000000        0.0000000000000000     
  0.75000000000000000       0.87500000000000000        0.0000000000000000     
  0.78125000000000000       0.87500000000000000        0.0000000000000000     
  0.81250000000000000       0.87500000000000000        0.0000000000000000     
  0.84375000000000000       0.87500000000000000        0.0000000000000000     
  0.87500000000000000       0.87500000000000000        0.0000000000000000     
  0.87500000000000000       0.75000000000000000        0.0000000000000000     
  0.90625000000000000       0.75000000000000000        0.0000000000000000     
  0.93750000000000000       0.75000000000000000        0.0000000000000000     
  0.96875000000000000       0.75000000000000000        0.0000000000000000     
   1.0000000000000000       0.75000000000000000        0.0000000000000000     
  0.87500000000000000       0.78125000000000000        0.0000000000000000     
  0.90625000000000000       0.78125000000000000        0.0000000000000000     
  0.93750000000000000       0.78125000000000000        0.0000000000000000     
  0.96875000000000000       0.78125000000000000        0.0000000000000000     
   1.0000000000000000       0.78125000000000000        0.0000000000000000     
  0.87500000000000000       0.81250000000000000        0.0000000000000000     
  0.90625000000000000       0.81250000000000000        0.0000000000000000     
  0.93750000000000000       0.81250000000000000        0.0000000000000000     
  0.96875000000000000       0.81250000000000000        0.0000000000000000     
   1.0000000000000000       0.81250000000000000        0.0000000000000000     
  0.87500000000000000       0.84375000000000000        0.0000000000000000     
  0.90625000000000000       0.84375000000000000        0.0000000000000000     
  0.93750000000000000       0.84375000000000000        0.0000000000000000     
  0.96875000000000000       0.84375000000000000        0.0000000000000000     
   1.0000000000000000       0.84375000000000000        0.0000000000000000     
  0.87500000000000000       0.87500000000000000        0.0000000000000000     
  0.90625000000000000       0.87500000000000000        0.0000000000000000     
  0.93750000000000000       0.87500000000000000        0.0000000000000000     
  0.96875000000000000       0.87500000000000000        0.0000000000000000     
   1.0000000000000000       0.87500000000000000        0.0000000000000000     
   0.0000000000000000       0.87500000000000000        0.0000000000000000     
   3.1250000000000000E-002  0.87500000000000000        0.0000000000000000     
   6.2500000000000000E-002  0.87500000000000000        0.0000000000000000     
   9.3750000000000000E-002  0.87500000000000000        0.0000000000000000     
  0.12500000000000000       0.87500000000000000        0.0000000000000000     
   0.0000000000000000       0.90625000000000000        0.0000000000000000     
   3.1250000000000000E-002  0.90625000000000000        0.0000000000000000     
   6.2500000000000000E-002  0.90625000000000000        0.0000000000000000     
   9.3750000000000000E-002  0.90625000000000000        0.0000000000000000     
  0.12500000000000000       0.90625000000000000        0.0000000000000000     
   0.0000000000000000       0.93750000000000000        0.0000000000000000     
   3.1250000000000000E-002  0.93750000000000000        0.0000000000000000     
   6.2500000000000000E-002  0.93750000000000000        0.0000000000000000     
   9.3750000000000000E-002  0.93750000000000000        0.0000000000000000     
  0.12500000000000000       0.93750000000000000        0.0000000000000000     
   0.0000000000000000       0.96875000000000000        0.0000000000000000     
   3.1250000000000000E-002  0.96875000000000000        0.0000000000000000     
   6.2500000000000000E-002  0.96875000000000000        0.0000000000000000     
   9.3750000000000000E-002  0.96875000000000000        0.0000000000000000     
  0.12500000000000000       0.96875000000000000        0.0000000000000000     
   0.0000000000000000        1.0000000000000000        0.0000000000000000     
   3.1250000000000000E-002   1.0000000000000000        0.0000000000000000     
   6.2500000000000000E-002   1.0000000000000000        0.0000000000000000     
   9.3750000000000000E-002   1.0000000000000000        0.0000000000000000     
  0.12500000000000000        1.0000000000000000        0.0000000000000000     
  0.12500000000000000       0.87500000000000000        0.0000000000000000     
  0.15625000000000000       0.87500000000000000        0.0000000000000000     
  0.18750000000000000       0.87500000000000000        0.0000000000000000     
  0.21875000000000000       0.87500000000000000        0.0000000000000000     
  0.25000000000000000       0.87500000000000000        0.0000000000000000     
  0.12500000000000000       0.90625000000000000        0.0000000000000000     
  0.15625000000000000       0.90625000000000000        0.0000000000000000     
  0.18750000000000000       0.90625000000000000        0.0000000000000000     
  0.21875000000000000       0.90625000000000000        0.0000000000000000     
  0.25000000000000000       0.90625000000000000        0.0000000000000000     
  0.12500000000000000       0.93750000000000000        0.0000000000000000     
  0.15625000000000000       0.93750000000000000        0.0000000000000000     
  0.18750000000000000       0.93750000000000000        0.0000000000000000     
  0.21875000000000000       0.93750000000000000        0.0000000000000000     
  0.25000000000000000       0.93750000000000000        0.0000000000000000     
  0.12500000000000000       0.96875000000000000        0.0000000000000000     
  0.15625000000000000       0.96875000000000000        0.0000000000000000     
  0.18750000000000000       0.96875000000000000        0.0000000000000000     
  0.21875000000000000       0.96875000000000000        0.0000000000000000     
  0.25000000000000000       0.96875000000000000        0.0000000000000000     
  0.12500000000000000        1.0000000000000000        0.0000000000000000     
  0.15625000000000000        1.0000000000000000        0.0000000000000000     
  0.18750000000000000        1.0000000000000000        0.0000000000000000     
  0.21875000000000000        1.0000000000000000        0.0000000000000000     
  0.25000000000000000        1.0000000000000000        0.0000000000000000     
  0.25000000000000000       0.87500000000000000        0.0000000000000000     
  0.28125000000000000       0.87500000000000000        0.0000000000000000     
  0.31250000000000000       0.87500000000000000        0.0000000000000000     
  0.34375000000000000       0.87500000000000000        0.0000000000000000     
  0.37500000000000000       0.87500000000000000        0.0000000000000000     
  0.25000000000000000       0.90625000000000000        0.0000000000000000     
  0.28125000000000000       0.90625000000000000        0.0000000000000000     
  0.31250000000000000       0.90625000000000000        0.0000000000000000     
  0.34375000000000000       0.90625000000000000        0.0000000000000000     
  0.37500000000000000       0.90625000000000000        0.0000000000000000     
  0.25000000000000000       0.93750000000000000        0.0000000000000000     
  0.28125000000000000       0.93750000000000000        0.0000000000000000     
  0.31250000000000000       0.93750000000000000        0.0000000000000000     
  0.34375000000000000       0.93750000000000000        0.0000000000000000     
  0.37500000000000000       0.93750000000000000        0.0000000000000000     
  0.25000000000000000       0.96875000000000000        0.0000000000000000     
  0.28125000000000000       0.96875000000000000        0.0000000000000000     
  0.31250000000000000       0.96875000000000000        0.0000000000000000     
  0.34375000000000000       0.96875000000000000        0.0000000000000000     
  0.37500000000000000       0.96875000000000000        0.0000000000000000     
  0.25000000000000000        1.0000000000000000        0.0000000000000000     
  0.28125000000000000        1.0000000000000000        0.0000000000000000     
  0.31250000000000000        1.0000000000000000        0.0000000000000000     
  0.34375000000000000        1.0000000000000000        0.0000000000000000     
  0.37500000000000000        1.0000000000000000        0.0000000000000000     
  0.37500000000000000       0.87500000000000000        0.0000000000000000     
  0.40625000000000000       0.87500000000000000        0.0000000000000000     
  0.43750000000000000       0.87500000000000000        0.0000000000000000     
  0.46875000000000000       0.87500000000000000        0.0000000000000000     
  0.50000000000000000       0.87500000000000000        0.0000000000000000     
  0.37500000000000000       0.90625000000000000        0.0000000000000000     
  0.40625000000000000       0.90625000000000000        0.0000000000000000     
  0.43750000000000000       0.90625000000000000        0.0000000000000000     
  0.46875000000000000       0.90625000000000000        0.0000000000000000     
  0.50000000000000000       0.90625000000000000        0.0000000000000000     
  0.37500000000000000       0.93750000000000000        0.0000000000000000     
  0.40625000000000000       0.93750000000000000        0.0000000000000000     
  0.43750000000000000       0.93750000000000000        0.0000000000000000     
  0.46875000000000000       0.93750000000000000        0.0000000000000000     
  0.50000000000000000       0.93750000000000000        0.0000000000000000     
  0.37500000000000000       0.96875000000000000        0.0000000000000000     
  0.40625000000000000       0.96875000000000000        0.0000000000000000     
  0.43750000000000000       0.96875000000000000        0.0000000000000000     
  0.46875000000000000       0.96875000000000000        0.0000000000000000     
  0.50000000000000000       0.96875000000000000        0.0000000000000000     
  0.37500000000000000        1.0000000000000000        0.0000000000000000     
  0.40625000000000000        1.0000000000000000        0.0000000000000000     
  0.43750000000000000        1.0000000000000000        0.0000000000000000     
  0.46875000000000000        1.0000000000000000        0.0000000000000000     
  0.50000000000000000        1.0000000000000000        0.0000000000000000     
  0.50000000000000000       0.87500000000000000        0.0000000000000000     
  0.53125000000000000       0.87500000000000000        0.0000000000000000     
  0.56250000000000000       0.87500000000000000        0.0000000000000000     
  0.59375000000000000       0.87500000000000000        0.0000000000000000     
  0.62500000000000000       0.87500000000000000        0.0000000000000000     
  0.50000000000000000       0.90625000000000000        0.0000000000000000     
  0.53125000000000000       0.90625000000000000        0.0000000000000000     
  0.56250000000000000       0.90625000000000000        0.0000000000000000     
  0.59375000000000000       0.90625000000000000        0.0000000000000000     
  0.62500000000000000       0.90625000000000000        0.0000000000000000     
  0.50000000000000000       0.93750000000000000        0.0000000000000000     
  0.53125000000000000       0.93750000000000000        0.0000000000000000     
  0.56250000000000000       0.93750000000000000        0.0000000000000000     
  0.59375000000000000       0.93750000000000000        0.0000000000000000     
  0.62500000000000000       0.93750000000000000        0.0000000000000000     
  0.50000000000000000       0.96875000000000000        0.0000000000000000     
  0.53125000000000000       0.96875000000000000        0.0000000000000000     
  0.56250000000000000       0.96875000000000000        0.0000000000000000     
  0.59375000000000000       0.96875000000000000        0.0000000000000000     
  0.62500000000000000       0.96875000000000000        0.0000000000000000     
  0.50000000000000000        1.0000000000000000        0.0000000000000000     
  0.53125000000000000        1.0000000000000000        0.0000000000000000     
  0.56250000000000000        1.0000000000000000        0.0000000000000000     
  0.59375000000000000        1.0000000000000000        0.0000000000000000     
  0.62500000000000000        1.0000000000000000        0.0000000000000000     
  0.62500000000000000       0.87500000000000000        0.0000000000000000     
  0.65625000000000000       0.87500000000000000        0.0000000000000000     
  0.68750000000000000       0.87500000000000000        0.0000000000000000     
  0.71875000000000000       0.87500000000000000        0.0000000000000000     
  0.75000000000000000       0.87500000000000000        0.0000000000000000     
  0.62500000000000000       0.90625000000000000        0.0000000000000000     
  0.65625000000000000       0.90625000000000000        0.0000000000000000     
  0.68750000000000000       0.90625000000000000        0.0000000000000000     
  0.71875000000000000       0.90625000000000000        0.0000000000000000     
  0.75000000000000000       0.90625000000000000        0.0000000000000000     
  0.62500000000000000       0.93750000000000000        0.0000000000000000     
  0.65625000000000000       0.93750000000000000        0.0000000000000000     
  0.68750000000000000       0.93750000000000000        0.0000000000000000     
  0.71875000000000000       0.93750000000000000        0.0000000000000000     
  0.75000000000000000       0.93750000000000000        0.0000000000000000     
  0.62500000000000000       0.96875000000000000        0.0000000000000000     
  0.65625000000000000       0.96875000000000000        0.0000000000000000     
  0.68750000000000000       0.96875000000000000        0.0000000000000000     
  0.71875000000000000       0.96875000000000000        0.0000000000000000     
  0.75000000000000000       0.96875000000000000        0.0000000000000000     
  0.62500000000000000        1.0000000000000000        0.0000000000000000     
  0.65625000000000000        1.0000000000000000        0.0000000000000000     
  0.68750000000000000        1.0000000000000000        0.0000000000000000     
  0.71875000000000000        1.0000000000000000        0.0000000000000000     
  0.75000000000000000        1.0000000000000000        0.0000000000000000     
  0.75000000000000000       0.87500000000000000        0.0000000000000000     
  0.78125000000000000       0.87500000000000000        0.0000000000000000     
  0.81250000000000000       0.87500000000000000        0.0000000000000000     
  0.84375000000000000       0.87500000000000000        0.0000000000000000     
  0.87500000000000000       0.87500000000000000        0.0000000000000000     
  0.75000000000000000       0.90625000000000000        0.0000000000000000     
  0.78125000000000000       0.90625000000000000        0.0000000000000000     
  0.81250000000000000       0.90625000000000000        0.0000000000000000     
  0.84375000000000000       0.90625000000000000        0.0000000000000000     
  0.87500000000000000       0.90625000000000000        0.0000000000000000     
  0.75000000000000000       0.93750000000000000        0.0000000000000000     
  0.78125000000000000       0.93750000000000000        0.0000000000000000     
  0.81250000000000000       0.93750000000000000        0.0000000000000000     
  0.84375000000000000       0.93750000000000000        0.0000000000000000     
  0.87500000000000000       0.93750000000000000        0.0000000000000000     
  0.75000000000000000       0.96875000000000000        0.0000000000000000     
  0.78125000000000000       0.96875000000000000        0.0000000000000000     
  0.81250000000000000       0.96875000000000000        0.0000000000000000     
  0.84375000000000000       0.96875000000000000        0.0000000000000000     
  0.87500000000000000       0.96875000000000000        0.0000000000000000     
  0.75000000000000000        1.0000000000000000        0.0000000000000000     
  0.78125000000000000        1.0000000000000000        0.0000000000000000     
  0.81250000000000000        1.0000000000000000        0.0000000000000000     
  0.84375000000000000        1.0000000000000000        0.0000000000000000     
  0.87500000000000000        1.0000000000000000        0.0000000000000000     
  0.87500000000000000       0.87500000000000000        0.0000000000000000     
  0.90625000000000000       0.87500000000000000        0.0000000000000000     
  0.93750000000000000       0.87500000000000000        0.0000000000000000     
  0.96875000000000000       0.87500000000000000        0.0000000000000000     
   1.0000000000000000       0.87500000000000000        0.0000000000000000     
  0.87500000000000000       0.90625000000000000        0.0000000000000000     
  0.90625000000000000       0.90625000000000000        0.0000000000000000     
  0.93750000000000000       0.90625000000000000        0.0000000000000000     
  0.96875000000000000       0.90625000000000000        0.0000000000000000     
   1.0000000000000000       0.90625000000000000        0.0000000000000000     
  0.87500000000000000       0.93750000000000000        0.0000000000000000     
  0.90625000000000000       0.93750000000000000        0.0000000000000000     
  0.93750000000000000       0.93750000000000000        0.0000000000000000     
  0.96875000000000000       0.93750000000000000        0.0000000000000000     
   1.0000000000000000       0.93750000000000000        0.0000000000000000     
  0.87500000000000000       0.96875000000000000        0.0000000000000000     
  0.90625000000000000       0.96875000000000000        0.0000000000000000     
  0.93750000000000000       0.96875000000000000        0.0000000000000000     
  0.96875000000000000       0.96875000000000000        0.0000000000000000     
   1.0000000000000000       0.96875000000000000        0.0000000000000000     
  0.87500000000000000        1.0000000000000000        0.0000000000000000     
  0.90625000000000000        1.0000000000000000        0.0000000000000000     
  0.93750000000000000        1.0000000000000000        0.0000000000000000     
  0.96875000000000000        1.0000000000000000        0.0000000000000000     
   1.0000000000000000        1.0000000000000000        0.0000000000000000     
 </DataArray>
 </Points>
 <Cells>
 <DataArray  type="Int32"  Name="connectivity"  format="ascii">
           0           1           6           5
           1           2           7           6
           2           3           8           7
           3           4           9           8
           5           6          11          10
           6           7          12          11
           7           8          13          12
           8           9          14          13
          10          11          16          15
          11          12          17          16
          12          13          18          17
          13          14          19          18
          15          16          21          20
          16          17          22          21
          17          18          23          22
          18          19          24          23
          25          26          31          30
          26          27          32          31
          27          28          33          32
          28          29          34          33
          30          31          36          35
          31          32          37          36
          32          33          38          37
          33          34          39          38
          35          36          41          40
          36          37          42          41
          37          38          43          42
          38          39          44          43
          40          41          46          45
          41          42          47          46
          42          43          48          47
          43          44          49          48
          50          51          56          55
          51          52          57          56
          52          53          58          57
          53          54          59          58
          55          56          61          60
          56          57          62          61
          57          58          63          62
          58          59          64          63
          60          61          66          65
          61          62          67          66
          62          63          68          67
          63          64          69          68
          65          66          71          70
          66          67          72          71
          67          68          73          72
          68          69          74          73
          75          76          81          80
          76          77          82          81
          77          78          83          82
          78          79          84          83
          80          81          86          85
          81          82          87          86
          82          83          88          87
          83          84          89          88
          85          86          91          90
          86          87          92          91
          87          88          93          92
          88          89          94          93
          90          91          96          95
          91          92          97          96
          92          93          98          97
          93          94          99          98
         100         101         106         105
         101         102         107         106
         102         103         108         107
         103         104         109         108
         105         106         111         110
         106         107         112         111
         107         108         113         112
         108         109         114         113
         110         111         116         115
         111         112         117         116
         112         113         118         117
         113         114         119         118
         115         116         121         120
         116         117         122         121
         117         118         123         122
         118         119         124         123
         125         126         131         130
         126         127         132         131
         127         128         133         132
         128         129         134         133
         130         131         136         135
         131         132         137         136
         132         133         138         137
         133         134         139         138
         135         136         141         140
         136         137         142         141
         137         138         143         142
         138         139         144         143
         140         141         146         145
         141         142         147         146
         142         143         148         147
         143         144         149         148
         150         151         156         155
         151         152         157         156
         152         153         158         157
         153         154         159         158
         155         156         161         160
         156         157         162         161
         157         158         163         162
         158         159         164         163
         160         161         166         165
         161         162         167         166
         162         163         168         167
         163         164         169         168
         165         166         171         170
         166         167         172         171
         167         168         173         172
         168         169         174         173
         175         176         181         180
         176         177         182         181
         177         178         183         182
         178         179         184         183
         180         181         186         185
         181         182         187         186
         182         183         188         187
         183         184         189         188
         185         186         191         190
         186         187         192         191
         187         188         193         192
         188         189         194         193
         190         191         196         195
         191         192         197         196
         192         193         198         197
         193         194         199         198
         200         201         206         205
         201         202         207         206
         202         203         208         207
         203         204         209         208
         205         206         211         210
         206         207         212         211
         207         208         213         212
         208         209         214         213
         210         211         216         215
         211         212         217         216
         212         213         218         217
         213         214         219         218
         215         216         221         220
         216         217         222         221
         217         218         223         222
         218         219         224         223
         225         226         231         230
         226         227         232         231
         227         228         233         232
         228         229         234         233
         230         231         236         235
         231         232         237         236
         232         233         238         237
         233         234         239         238
         235         236         241         240
         236         237         242         241
         237         238         243         242
         238         239         244         243
         240         241         246         245
         241         242         247         246
         242         243         248         247
         243         244         249         248
         250         251         256         255
         251         252         257         256
         252         253         258         257
         253         254         259         258
         255         256         261         260
         256         257         262         261
         257         258         263         262
         258         259         264         263
         260         261         266         265
         261         262         267         266
         262         263         268         267
         263         264         269         268
         265         266         271         270
         266         267         272         271
         267         268         273         272
         268         269         274         273
         275         276         281         280
         276         277         282         281
         277         278         283         282
         278         279         284         283
         280         281         286         285
         281         282         287         286
         282         283         288         287
         283         284         289         288
         285         286         291         290
         286         287         292         291
         287         288         293         292
         288         289         294         293
         290         291         296         295
         291         292         297         296
         292         293         298         297
         293         294         299         298
         300         301         306         305
         301         302         307         306
         302         303         308         307
         303         304         309         308
         305         306         311         310
         306         307         312         311
         307         308         313         312
         308         309         314         313
         310         311         316         315
         311         312         317         316
         312         313         318         317
         313         314         319         318
         315         316         321         320
         316         317         322         321
         317         318         323         322
         318         319         324         323
         325         326         331         330
         326         327         332         331
         327         328         333         332
         328         329         334         333
         330         331         336         335
         331         332         337         336
         332         333         338         337
         333         334         339         338
         335         336         341         340
         336         337         342         341
         337         338         343         342
         338         339         344         343
         340         341         346         345
         341         342         347         346
         342         343         348         347
         343         344         349         348
         350         351         356         355
         351         352         357         356
         352         353         358         357
         353         354         359         358
         355         356         361         360
         356         357         362         361
         357         358         363         362
         358         359         364         363
         360         361         366         365
         361         362         367         366
         362         363         368         367
         363         364         369         368
         365         366         371         370
         366         367         372         371
         367         368         373         372
         368         369         374         373
         375         376         381         380
         376         377         382         381
         377         378         383         382
         378         379         384         383
         380         381         386         385
         381         382         387         386
         382         383         388         387
         383         384         389         388
         385         386         391         390
         386         387         392         391
         387         388         393         392
         388         389         394         393
         390         391         396         395
         391         392         397         396
         392         393         398         397
         393         394         399         398
         400         401         406         405
         401         402         407         406
         402         403         408         407
         403         404         409         408
         405         406         411         410
         406         407         412         411
         407         408         413         412
         408         409         414         413
         410         411         416         415
         411         412         417         416
         412         413         418         417
         413         414         419         418
         415         416         421         420
         416         417         422         421
         417         418         423         422
         418         419         424         423
         425         426         431         430
         426         427         432         431
         427         428         433         432
         428         429         434         433
         430         431         436         435
         431         432         437         436
         432         433         438         437
         433         434         439         438
         435         436         441         440
         436         437         442         441
         437         438         443         442
         438         439         444         443
         440         441         446         445
         441         442         447         446
         442         443         448         447
         443         444         449         448
         450         451         456         455
         451         452         457         456
         452         453         458         457
         453         454         459         458
         455         456         461         460
         456         457         462         461
         457         458         463         462
         458         459         464         463
         460         461         466         465
         461         462         467         466
         462         463         468         467
         463         464         469         468
         465         466         471         470
         466         467         472         471
         467         468         473         472
         468         469         474         473
         475         476         481         480
         476         477         482         481
         477         478         483         482
         478         479         484         483
         480         481         486         485
         481         482         487         486
         482         483         488         487
         483         484         489         488
         485         486         491         490
         486         487         492         491
         487         488         493         492
         488         489         494         493
         490         491         496         495
         491         492         497         496
         492         493         498         497
         493         494         499         498
         500         501         506         505
         501         502         507         506
         502         503         508         507
         503         504         509         508
         505         506         511         510
         506         507         512         511
         507         508         513         512
         508         509         514         513
         510         511         516         515
         511         512         517         516
         512         513         518         517
         513         514         519         518
         515         516         521         520
         516         517         522         521
         517         518         523         522
         518         519         524         523
         525         526         531         530
         526         527         532         531
         527         528         533         532
         528         529         534         533
         530         531         536         535
         531         532         537         536
         532         533         538         537
         533         534         539         538
         535         536         541         540
         536         537         542         541
         537         538         543         542
         538         539         544         543
         540         541         546         545
         541         542         547         546
         542         543         548         547
         543         544         549         548
         550         551         556         555
         551         552         557         556
         552         553         558         557
         553         554         559         558
         555         556         561         560
         556         557         562         561
         557         558         563         562
         558         559         564         563
         560         561         566         565
         561         562         567         566
         562         563         568         567
         563         564         569         568
         565         566         571         570
         566         567         572         571
         567         568         573         572
         568         569         574         573
         575         576         581         580
         576         577         582         581
         577         578         583         582
         578         579         584         583
         580         581         586         585
         581         582         587         586
         582         583         588         587
         583         584         589         588
         585         586         591         590
         586         587         592         591
         587         588         593         592
         588         589         594         593
         590         591         596         595
         591         592         597         596
         592         593         598         597
         593         594         599         598
         600         601         606         605
         601         602         607         606
         602         603         608         607
         603         604         609         608
         605         606         611         610
         606         607         612         611
         607         608         613         612
         608         609         614         613
         610         611         616         615
         611         612         617         616
         612         613         618         617
         613         614         619         618
         615         616         621         620
         616         617         622         621
         617         618         623         622
         618         619         624         623
         625         626         631         630
         626         627         632         631
         627         628         633         632
         628         629         634         633
         630         631         636         635
         631         632         637         636
         632         633         638         637
         633         634         639         638
         635         636         641         640
         636         637         642         641
         637         638         643         642
         638         639         644         643
         640         641         646         645
         641         642         647         646
         642         643         648         647
         643         644         649         648
         650         651         656         655
         651         652         657         656
         652         653         658         657
         653         654         659         658
         655         656         661         660
         656         657         662         661
         657         658         663         662
         658         659         664         663
         660         661         666         665
         661         662         667         666
         662         663         668         667
         663         664         669         668
         665         666         671         670
         666         667         672         671
         667         668         673         672
         668         669         674         673
         675         676         681         680
         676         677         682         681
         677         678         683         682
         678         679         684         683
         680         681         686         685
         681         682         687         686
         682         683         688         687
         683         684         689         688
         685         686         691         690
         686         687         692         691
         687         688         693         692
         688         689         694         693
         690         691         696         695
         691         692         697         696
         692         693         698         697
         693         694         699         698
         700         701         706         705
         701         702         707         706
         702         703         708         707
         703         704         709         708
         705         706         711         710
         706         707         712         711
         707         708         713         712
         708         709         714         713
         710         711         716         715
         711         712         717         716
         712         713         718         717
         713         714         719         718
         715         716         721         720
         716         717         722         721
         717         718         723         722
         718         719         724         723
         725         726         731         730
         726         727         732         731
         727         728         733         732
         728         729         734         733
         730         731         736         735
         731         732         737         736
         732         733         738         737
         733         734         739         738
         735         736         741         740
         736         737         742         741
         737         738         743         742
         738         739         744         743
         740         741         746         745
         741         742         747         746
         742         743         748         747
         743         744         749         748
         750         751         756         755
         751         752         757         756
         752         753         758         757
         753         754         759         758
         755         756         761         760
         756         757         762         761
         757         758         763         762
         758         759         764         763
         760         761         766         765
         761         762         767         766
         762         763         768         767
         763         764         769         768
         765         766         771         770
         766         767         772         771
         767         768         773         772
         768         769         774         773
         775         776         781         780
         776         777         782         781
         777         778         783         782
         778         779         784         783
         780         781         786         785
         781         782         787         786
         782         783         788         787
         783         784         789         788
         785         786         791         790
         786         787         792         791
         787         788         793         792
         788         789         794         793
         790         791         796         795
         791         792         797         796
         792         793         798         797
         793         794         799         798
         800         801         806         805
         801         802         807         806
         802         803         808         807
         803         804         809         808
         805         806         811         810
         806         807         812         811
         807         808         813         812
         808         809         814         813
         810         811         816         815
         811         812         817         816
         812         813         818         817
         813         814         819         818
         815         816         821         820
         816         817         822         821
         817         818         823         822
         818         819         824         823
         825         826         831         830
         826         827         832         831
         827         828         833         832
         828         829         834         833
         830         831         836         835
         831         832         837         836
         832         833         838         837
         833         834         839         838
         835         836         841         840
         836         837         842         841
         837         838         843         842
         838         839         844         843
         840         841         846         845
         841         842         847         846
         842         843         848         847
         843         844         849         848
         850         851         856         855
         851         852         857         856
         852         853         858         857
         853         854         859         858
         855         856         861         860
         856         857         862         861
         857         858         863         862
         858         859         864         863
         860         861         866         865
         861         862         867         866
         862         863         868         867
         863         864         869         868
         865         866         871         870
         866         867         872         871
         867         868         873         872
         868         869         874         873
         875         876         881         880
         876         877         882         881
         877         878         883         882
         878         879         884         883
         880         881         886         885
         881         882         887         886
         882         883         888         887
         883         884         889         888
         885         886         891         890
         886         887         892         891
         887         888         893         892
         888         889         894         893
         890         891         896         895
         891         892         897         896
         892         893         898         897
         893         894         899         898
         900         901         906         905
         901         902         907         906
         902         903         908         907
         903         904         909         908
         905         906         911         910
         906         907         912         911
         907         908         913         912
         908         909         914         913
         910         911         916         915
         911         912         917         916
         912         913         918         917
         913         914         919         918
         915         916         921         920
         916         917         922         921
         917         918         923         922
         918         919         924         923
         925         926         931         930
         926         927         932         931
         927         928         933         932
         928         929         934         933
         930         931         936         935
         931         932         937         936
         932         933         938         937
         933         934         939         938
         935         936         941         940
         936         937         942         941
         937         938         943         942
         938         939         944         943
         940         941         946         945
         941         942         947         946
         942         943         948         947
         943         944         949         948
         950         951         956         955
         951         952         957         956
         952         953         958         957
         953         954         959         958
         955         956         961         960
         956         957         962         961
         957         958         963         962
         958         959         964         963
         960         961         966         965
         961         962         967         966
         962         963         968         967
         963         964         969         968
         965         966         971         970
         966         967         972         971
         967         968         973         972
         968         969         974         973
         975         976         981         980
         976         977         982         981
         977         978         983         982
         978         979         984         983
         980         981         986         985
         981         982         987         986
         982         983         988         987
         983         984         989         988
         985         986         991         990
         986         987         992         991
         987         988         993         992
         988         989         994         993
         990         991         996         995
         991         992         997         996
         992         993         998         997
         993         994         999         998
        1000        1001        1006        1005
        1001        1002        1007        1006
        1002        1003        1008        1007
        1003        1004        1009        1008
        1005        1006        1011        1010
        1006        1007        1012        1011
        1007        1008        1013        1012
        1008        1009        1014        1013
        1010        1011        1016        1015
        1011        1012        1017        1016
        1012        1013        1018        1017
        1013        1014        1019        1018
        1015        1016        1021        1020
        1016        1017        1022        1021
        1017        1018        1023        1022
        1018        1019        1024        1023
        1025        1026        1031        1030
        1026        1027        1032        1031
        1027        1028        1033        1032
        1028        1029        1034        1033
        1030        1031        1036        1035
        1031        1032        1037        1036
        1032        1033        1038        1037
        1033        1034        1039        1038
        1035        1036        1041        1040
        1036        1037        1042        1041
        1037        1038        1043        1042
        1038        1039        1044        1043
        1040        1041        1046        1045
        1041        1042        1047        1046
        1042        1043        1048        1047
        1043        1044        1049        1048
        1050        1051        1056        1055
        1051        1052        1057        1056
        1052        1053        1058        1057
        1053        1054        1059        1058
        1055        1056        1061        1060
        1056        1057        1062        1061
        1057        1058        1063        1062
        1058        1059        1064        1063
        1060        1061        1066        1065
        1061        1062        1067        1066
        1062        1063        1068        1067
        1063        1064        1069        1068
        1065        1066        1071        1070
        1066        1067        1072        1071
        1067        1068        1073        1072
        1068        1069        1074        1073
        1075        1076        1081        1080
        1076        1077        1082        1081
        1077        1078        1083        1082
        1078        1079        1084        1083
        1080        1081        1086        1085
        1081        1082        1087        1086
        1082        1083        1088        1087
        1083        1084        1089        1088
        1085        1086        1091        1090
        1086        1087        1092        1091
        1087        1088        1093        1092
        1088        1089        1094        1093
        1090        1091        1096        1095
        1091        1092        1097        1096
        1092        1093        1098        1097
        1093        1094        1099        1098
        1100        1101        1106        1105
        1101        1102        1107        1106
        1102        1103        1108        1107
        1103        1104        1109        1108
        1105        1106        1111        1110
        1106        1107        1112        1111
        1107        1108        1113        1112
        1108        1109        1114        1113
        1110        1111        1116        1115
        1111        1112        1117        1116
        1112        1113        1118        1117
        1113        1114        1119        1118
        1115        1116        1121        1120
        1116        1117        1122        1121
        1117        1118        1123        1122
        1118        1119        1124        1123
        1125        1126        1131        1130
        1126        1127        1132        1131
        1127        1128        1133        1132
        1128        1129        1134        1133
        1130        1131        1136        1135
        1131        1132        1137        1136
        1132        1133        1138        1137
        1133        1134        1139        1138
        1135        1136        1141        1140
        1136        1137        1142        1141
        1137        1138        1143        1142
        1138        1139        1144        1143
        1140        1141        1146        1145
        1141        1142        1147        1146
        1142        1143        1148        1147
        1143        1144        1149        1148
        1150        1151        1156        1155
        1151        1152        1157        1156
        1152        1153        1158        1157
        1153        1154        1159        1158
        1155        1156        1161        1160
        1156        1157        1162        1161
        1157        1158        1163        1162
        1158        1159        1164        1163
        1160        1161        1166        1165
        1161        1162        1167        1166
        1162        1163        1168        1167
        1163        1164        1169        1168
        1165        1166        1171        1170
        1166        1167        1172        1171
        1167        1168        1173        1172
        1168        1169        1174        1173
        1175        1176        1181        1180
        1176        1177        1182        1181
        1177        1178        1183        1182
        1178        1179        1184        1183
        1180        1181        1186        1185
        1181        1182        1187        1186
        1182        1183        1188        1187
        1183        1184        1189        1188
        1185        1186        1191        1190
        1186        1187        1192        1191
        1187        1188        1193        1192
        1188        1189        1194        1193
        1190        1191        1196        1195
        1191        1192        1197        1196
        1192        1193        1198        1197
        1193        1194        1199        1198
        1200        1201        1206        1205
        1201        1202        1207        1206
        1202        1203        1208        1207
        1203        1204        1209        1208
        1205        1206        1211        1210
        1206        1207        1212        1211
        1207        1208        1213        1212
        1208        1209        1214        1213
        1210        1211        1216        1215
        1211        1212        1217        1216
        1212        1213        1218        1217
        1213        1214        1219        1218
        1215        1216        1221        1220
        1216        1217        1222        1221
        1217        1218        1223        1222
        1218        1219        1224        1223
        1225        1226        1231        1230
        1226        1227        1232        1231
        1227        1228        1233        1232
        1228        1229        1234        1233
        1230        1231        1236        1235
        1231        1232        1237        1236
        1232        1233        1238        1237
        1233        1234        1239        1238
        1235        1236        1241        1240
        1236        1237        1242        1241
        1237        1238        1243        1242
        1238        1239        1244        1243
        1240        1241        1246        1245
        1241        1242        1247        1246
        1242        1243        1248        1247
        1243        1244        1249        1248
        1250        1251        1256        1255
        1251        1252        1257        1256
        1252        1253        1258        1257
        1253        1254        1259        1258
        1255        1256        1261        1260
        1256        1257        1262        1261
        1257        1258        1263        1262
        1258        1259        1264        1263
        1260        1261        1266        1265
        1261        1262        1267        1266
        1262        1263        1268        1267
        1263        1264        1269        1268
        1265        1266        1271        1270
        1266        1267        1272        1271
        1267        1268        1273        1272
        1268        1269        1274        1273
        1275        1276        1281        1280
        1276        1277        1282        1281
        1277        1278        1283        1282
        1278        1279        1284        1283
        1280        1281        1286        1285
        1281        1282        1287        1286
        1282        1283        1288        1287
        1283        1284        1289        1288
        1285        1286        1291        1290
        1286        1287        1292        1291
        1287        1288        1293        1292
        1288        1289        1294        1293
        1290        1291        1296        1295
        1291        1292        1297        1296
        1292        1293        1298        1297
        1293        1294        1299        1298
        1300        1301        1306        1305
        1301        1302        1307        1306
        1302        1303        1308        1307
        1303        1304        1309        1308
        1305        1306        1311        1310
        1306        1307        1312        1311
        1307        1308        1313        1312
        1308        1309        1314        1313
        1310        1311        1316        1315
        1311        1312        1317        1316
        1312        1313        1318        1317
        1313        1314        1319        1318
        1315        1316        1321        1320
        1316        1317        1322        1321
        1317        1318        1323        1322
        1318        1319        1324        1323
        1325        1326        1331        1330
        1326        1327        1332        1331
        1327        1328        1333        1332
        1328        1329        1334        1333
        1330        1331        1336        1335
        1331        1332        1337        1336
        1332        1333        1338        1337
        1333        1334        1339        1338
        1335        1336        1341        1340
        1336        1337        1342        1341
        1337        1338        1343        1342
        1338        1339        1344        1343
        1340        1341        1346        1345
        1341        1342        1347        1346
        1342        1343        1348        1347
        1343        1344        1349        1348
        1350        1351        1356        1355
        1351        1352        1357        1356
        1352        1353        1358        1357
        1353        1354        1359        1358
        1355        1356        1361        1360
        1356        1357        1362        1361
        1357        1358        1363        1362
        1358        1359        1364        1363
        1360        1361        1366        1365
        1361        1362        1367        1366
        1362        1363        1368        1367
        1363        1364        1369        1368
        1365        1366        1371        1370
        1366        1367        1372        1371
        1367        1368        1373        1372
        1368        1369        1374        1373
        1375        1376        1381        1380
        1376        1377        1382        1381
        1377        1378        1383        1382
        1378        1379        1384        1383
        1380        1381        1386        1385
        1381        1382        1387        1386
        1382        1383        1388        1387
        1383        1384        1389        1388
        1385        1386        1391        1390
        1386        1387        1392        1391
        1387        1388        1393        1392
        1388        1389        1394        1393
        1390        1391        1396        1395
        1391        1392        1397        1396
        1392        1393        1398        1397
        1393        1394        1399        1398
        1400        1401        1406        1405
        1401        1402        1407        1406
        1402        1403        1408        1407
        1403        1404        1409        1408
        1405        1406        1411        1410
        1406        1407        1412        1411
        1407        1408        1413        1412
        1408        1409        1414        1413
        1410        1411        1416        1415
        1411        1412        1417        1416
        1412        1413        1418        1417
        1413        1414        1419        1418
        1415        1416        1421        1420
        1416        1417        1422        1421
        1417        1418        1423        1422
        1418        1419        1424        1423
        1425        1426        1431        1430
        1426        1427        1432        1431
        1427        1428        1433        1432
        1428        1429        1434        1433
        1430        1431        1436        1435
        1431        1432        1437        1436
        1432        1433        1438        1437
        1433        1434        1439        1438
        1435        1436        1441        1440
        1436        1437        1442        1441
        1437        1438        1443        1442
        1438        1439        1444        1443
        1440        1441        1446        1445
        1441        1442        1447        1446
        1442        1443        1448        1447
        1443        1444        1449        1448
        1450        1451        1456        1455
        1451        1452        1457        1456
        1452        1453        1458        1457
        1453        1454        1459        1458
        1455        1456        1461        1460
        1456        1457        1462        1461
        1457        1458        1463        1462
        1458        1459        1464        1463
        1460        1461        1466        1465
        1461        1462        1467        1466
        1462        1463        1468        1467
        1463        1464        1469        1468
        1465        1466        1471        1470
        1466        1467        1472        1471
        1467        1468        1473        1472
        1468        1469        1474        1473
        1475        1476        1481        1480
        1476        1477        1482        1481
        1477        1478        1483        1482
        1478        1479        1484        1483
        1480        1481        1486        1485
        1481        1482        1487        1486
        1482        1483        1488        1487
        1483        1484        1489        1488
        1485        1486        1491        1490
        1486        1487        1492        1491
        1487        1488        1493        1492
        1488        1489        1494        1493
        1490        1491        1496        1495
        1491        1492        1497        1496
        1492        1493        1498        1497
        1493        1494        1499        1498
        1500        1501        1506        1505
        1501        1502        1507        1506
        1502        1503        1508        1507
        1503        1504        1509        1508
        1505        1506        1511        1510
        1506        1507        1512        1511
        1507        1508        1513        1512
        1508        1509        1514        1513
        1510        1511        1516        1515
        1511        1512        1517        1516
        1512        1513        1518        1517
        1513        1514        1519        1518
        1515        1516        1521        1520
        1516        1517        1522        1521
        1517        1518        1523        1522
        1518        1519        1524        1523
        1525        1526        1531        1530
        1526        1527        1532        1531
        1527        1528        1533        1532
        1528        1529        1534        1533
        1530        1531        1536        1535
        1531        1532        1537        1536
        1532        1533        1538        1537
        1533        1534        1539        1538
        1535        1536        1541        1540
        1536        1537        1542        1541
        1537        1538        1543        1542
        1538        1539        1544        1543
        1540        1541        1546        1545
        1541        1542        1547        1546
        1542        1543        1548        1547
        1543        1544        1549        1548
        1550        1551        1556        1555
        1551        1552        1557        1556
        1552        1553        1558        1557
        1553        1554        1559        1558
        1555        1556        1561        1560
        1556        1557        1562        1561
        1557        1558        1563        1562
        1558        1559        1564        1563
        1560        1561        1566        1565
        1561        1562        1567        1566
        1562        1563        1568        1567
        1563        1564        1569        1568
        1565        1566        1571        1570
        1566        1567        1572        1571
        1567        1568        1573        1572
        1568        1569        1574        1573
        1575        1576        1581        1580
        1576        1577        1582        1581
        1577        1578        1583        1582
        1578        1579        1584        1583
        1580        1581        1586        1585
        1581        1582        1587        1586
        1582        1583        1588        1587
        1583        1584        1589        1588
        1585        1586        1591        1590
        1586        1587        1592        1591
        1587        1588        1593        1592
        1588        1589        1594        1593
        1590        1591        1596        1595
        1591        1592        1597        1596
        1592        1593        1598        1597
        1593        1594        1599        1598
 </DataArray>
 <DataArray  type="Int32"  Name="offsets"  format="ascii"> 
           4
           8
          12
          16
          20
          24
          28
          32
          36
          40
          44
          48
          52
          56
          60
          64
          68
          72
          76
          80
          84
          88
          92
          96
         100
         104
         108
         112
         116
         120
         124
         128
         132
         136
         140
         144
         148
         152
         156
         160
         164
         168
         172
         176
         180
         184
         188
         192
         196
         200
         204
         208
         212
         216
         220
         224
         228
         232
         236
         240
         244
         248
         252
         256
         260
         264
         268
         272
         276
         280
         284
         288
         292
         296
         300
         304
         308
         312
         316
         320
         324
         328
         332
         336
         340
         344
         348
         352
         356
         360
         364
         368
         372
         376
         380
         384
         388
         392
         396
         400
         404
         408
         412
         416
         420
         424
         428
         432
         436
         440
         444
         448
         452
         456
         460
         464
         468
         472
         476
         480
         484
         488
         492
         496
         500
         504
         508
         512
         516
         520
         524
         528
         532
         536
         540
         544
         548
         552
         556
         560
         564
         568
         572
         576
         580
         584
         588
         592
         596
         600
         604
         608
         612
         616
         620
         624
         628
         632
         636
         640
         644
         648
         652
         656
         660
         664
         668
         672
         676
         680
         684
         688
         692
         696
         700
         704
         708
         712
         716
         720
         724
         728
         732
         736
         740
         744
         748
         752
         756
         760
         764
         768
         772
         776
         780
         784
         788
         792
         796
         800
         804
         808
         812
         816
         820
         824
         828
         832
         836
         840
         844
         848
         852
         856
         860
         864
         868
         872
         876
         880
         884
         888
         892
         896
         900
         904
         908
         912
         916
         920
         924
         928
         932
         936
         940
         944
         948
         952
         956
         960
         964
         968
         972
         976
         980
         984
         988
         992
         996
        1000
        1004
        1008
        1012
        1016
        1020
        1024
        1028
        1032
        1036
        1040
        1044
        1048
        1052
        1056
        1060
        1064
        1068
        1072
        1076
        1080
        1084
        1088
        1092
        1096
        1100
        1104
        1108
        1112
        1116
        1120
        1124
        1128
        1132
        1136
        1140
        1144
        1148
        1152
        1156
        1160
        1164
        1168
        1172
        1176
        1180
        1184
        1188
        1192
        1196
        1200
        1204
        1208
        1212
        1216
        1220
        1224
        1228
        1232
        1236
        1240
        1244
        1248
        1252
        1256
        1260
        1264
        1268
        1272
        1276
        1280
        1284
        1288
        1292
        1296
        1300
        1304
        1308
        1312
        1316
        1320
        1324
        1328
        1332
        1336
        1340
        1344
        1348
        1352
        1356
        1360
        1364
        1368
        1372
        1376
        1380
        1384
        1388
        1392
        1396
        1400
        1404
        1408
        1412
        1416
        1420
        1424
        1428
        1432
        1436
        1440
        1444
        1448
        1452
        1456
        1460
        1464
        1468
        1472
        1476
        1480
        1484
        1488
        1492
        1496
        1500
        1504
        1508
        1512
        1516
        1520
        1524
        1528
        1532
        1536
        1540
        1544
        1548
        1552
        1556
        1560
        1564
        1568
        1572
        1576
        1580
        1584
        1588
        1592
        1596
        1600
        1604
        1608
        1612
        1616
        1620
        1624
        1628
        1632
        1636
        1640
        1644
        1648
        1652
        1656
        1660
        1664
        1668
        1672
        1676
        1680
        1684
        1688
        1692
        1696
        1700
        1704
        1708
        1712
        1716
        1720
        1724
        1728
        1732
        1736
        1740
        1744
        1748
        1752
        1756
        1760
        1764
        1768
        1772
        1776
        1780
        1784
        1788
        1792
        1796
        1800
        1804
        1808
        1812
        1816
        1820
        1824
        1828
        1832
        1836
        1840
        1844
        1848
        1852
        1856
        1860
        1864
        1868
        1872
        1876
        1880
        1884
        1888
        1892
        1896
        1900
        1904
        1908
        1912
        1916
        1920
        1924
        1928
        1932
        1936
        1940
        1944
        1948
        1952
        1956
        1960
        1964
        1968
        1972
        1976
        1980
        1984
        1988
        1992
        1996
        2000
        2004
        2008
        2012
        2016
        2020
        2024
        2028
        2032
        2036
        2040
        2044
        2048
        2052
        2056
        2060
        2064
        2068
        2072
        2076
        2080
        2084
        2088
        2092
        2096
        2100
        2104
        2108
        2112
        2116
        2120
        2124
        2128
        2132
        2136
        2140
        2144
        2148
        2152
        2156
        2160
        2164
        2168
        2172
        2176
        2180
        2184
        2188
        2192
        2196
        2200
        2204
        2208
        2212
        2216
        2220
        2224
        2228
        2232
        2236
        2240
        2244
        2248
        2252
        2256
        2260
        2264
        2268
        2272
        2276
        2280
        2284
        2288
        2292
        2296
        2300
        2304
        2308
        2312
        2316
        2320
        2324
        2328
        2332
        2336
        2340
        2344
        2348
        2352
        2356
        2360
        2364
        2368
        2372
        2376
        2380
        2384
        2388
        2392
        2396
        2400
        2404
        2408
        2412
        2416
        2420
        2424
        2428
        2432
        2436
        2440
        2444
        2448
        2452
        2456
        2460
        2464
        2468
        2472
        2476
        2480
        2484
        2488
        2492
        2496
        2500
        2504
        2508
        2512
        2516
        2520
        2524
        2528
        2532
        2536
        2540
        2544
        2548
        2552
        2556
        2560
        2564
        2568
        2572
        2576
        2580
        2584
        2588
        2592
        2596
        2600
        2604
        2608
        2612
        2616
        2620
        2624
        2628
        2632
        2636
        2640
        2644
        2648
        2652
        2656
        2660
        2664
        2668
        2672
        2676
        2680
        2684
        2688
        2692
        2696
        2700
        2704
        2708
        2712
        2716
        2720
        2724
        2728
        2732
        2736
        2740
        2744
        2748
        2752
        2756
        2760
        2764
        2768
        2772
        2776
        2780
        2784
        2788
        2792
        2796
        2800
        2804
        2808
        2812
        2816
        2820
        2824
        2828
        2832
        2836
        2840
        2844
        2848
        2852
        2856
        2860
        2864
        2868
        2872
        2876
        2880
        2884
        2888
        2892
        2896
        2900
        2904
        2908
        2912
        2916
        2920
        2924
        2928
        2932
        2936
        2940
        2944
        2948
        2952
        2956
        2960
        2964
        2968
        2972
        2976
        2980
        2984
        2988
        2992
        2996
        3000
        3004
        3008
        3012
        3016
        3020
        3024
        3028
        3032
        3036
        3040
        3044
        3048
        3052
        3056
        3060
        3064
        3068
        3072
        3076
        3080
        3084
        3088
        3092
        3096
        3100
        3104
        3108
        3112
        3116
        3120
        3124
        3128
        3132
        3136
        3140
        3144
        3148
        3152
        3156
        3160
        3164
        3168
        3172
        3176
        3180
        3184
        3188
        3192
        3196
        3200
        3204
        3208
        3212
        3216
        3220
        3224
        3228
        3232
        3236
        3240
        3244
        3248
        3252
        3256
        3260
        3264
        3268
        3272
        3276
        3280
        3284
        3288
        3292
        3296
        3300
        3304
        3308
        3312
        3316
        3320
        3324
        3328
        3332
        3336
        3340
        3344
        3348
        3352
        3356
        3360
        3364
        3368
        3372
        3376
        3380
        3384
        3388
        3392
        3396
        3400
        3404
        3408
        3412
        3416
        3420
        3424
        3428
        3432
        3436
        3440
        3444
        3448
        3452
        3456
        3460
        3464
        3468
        3472
        3476
        3480
        3484
        3488
        3492
        3496
        3500
        3504
        3508
        3512
        3516
        3520
        3524
        3528
        3532
        3536
        3540
        3544
        3548
        3552
        3556
        3560
        3564
        3568
        3572
        3576
        3580
        3584
        3588
        3592
        3596
        3600
        3604
        3608
        3612
        3616
        3620
        3624
        3628
        3632
        3636
        3640
        3644
        3648
        3652
        3656
        3660
        3664
        3668
        3672
        3676
        3680
        3684
        3688
        3692
        3696
        3700
        3704
        3708
        3712
        3716
        3720
        3724
        3728
        3732
        3736
        3740
        3744
        3748
        3752
        3756
        3760
        3764
        3768
        3772
        3776
        3780
        3784
        3788
        3792
        3796
        3800
        3804
        3808
        3812
        3816
        3820
        3824
        3828
        3832
        3836
        3840
        3844
        3848
        3852
        3856
        3860
        3864
        3868
        3872
        3876
        3880
        3884
        3888
        3892
        3896
        3900
        3904
        3908
        3912
        3916
        3920
        3924
        3928
        3932
        3936
        3940
        3944
        3948
        3952
        3956
        3960
        3964
        3968
        3972
        3976
        3980
        3984
        3988
        3992
        3996
        4000
        4004
        4008
        4012
        4016
        4020
        4024
        4028
        4032
        4036
        4040
        4044
        4048
        4052
        4056
        4060
        4064
        4068
        4072
        4076
        4080
        4084
        4088
        4092
        4096
 </DataArray>
 <DataArray  type="UInt8"  Name="types"  format="ascii">
 9
 9
 9
 9
 9
 9
 9
 9
 9
 9
 9
 9
 9
 9
 9
 9
 9
 9
 9
 9
 9
 9
 9
 9
 9
 9
 9
 9
 9
 9
 9
 9
 9
 9
 9
 9
 9
 9
 9
 9
 9
 9
 9
 9
 9
 9
 9
 9
 9
 9
 9
 9
 9
 9
 9
 9
 9
 9
 9
 9
 9
 9
 9
 9
 9
 9
 9
 9
 9
 9
 9
 9
 9
 9
 9
 9
 9
 9
 9
 9
 9
 9
 9
 9
 9
 9
 9
 9
 9
 9
 9
 9
 9
 9
 9
 9
 9
 9
 9
 9
 9
 9
 9
 9
 9
 9
 9
 9
 9
 9
 9
 9
 9
 9
 9
 9
 9
 9
 9
 9
 9
 9
 9
 9
 9
 9
 9
 9
 9
 9
 9
 9
 9
 9
 9
 9
 9
 9
 9
 9
 9
 9
 9
 9
 9
 9
 9
 9
 9
 9
 9
 9
 9
 9
 9
 9
 9
 9
 9
 9
 9
 9
 9
 9
 9
 9
 9
 9
 9
 9
 9
 9
 9
 9
 9
 9
 9
 9
 9
 9
 9
 9
 9
 9
 9
 9
 9
 9
 9
 9
 9
 9
 9
 9
 9
 9
 9
 9
 9
 9
 9
 9
 9
 9
 9
 9
 9
 9
 9
 9
 9
 9
 9
 9
 9
 9
 9
 9
 9
 9
 9
 9
 9
 9
 9
 9
 9
 9
 9
 9
 9
 9
 9
 9
 9
 9
 9
 9
 9
 9
 9
 9
 9
 9
 9
 9
 9
 9
 9
 9
 9
 9
 9
 9
 9
 9
 9
 9
 9
 9
 9
 9
 9
 9
 9
 9
 9
 9
 9
 9
 9
 9
 9
 9
 9
 9
 9
 9
 9
 9
 9
 9
 9
 9
 9
 9
 9
 9
 9
 9
 9
 9
 9
 9
 9
 9
 9
 9
 9
 9
 9
 9
 9
 9
 9
 9
 9
 9
 9
 9
 9
 9
 9
 9
 9
 9
 9
 9
 9
 9
 9
 9
 9
 9
 9
 9
 9
 9
 9
 9
 9
 9
 9
 9
 9
 9
 9
 9
 9
 9
 9
 9
 9
 9
 9
 9
 9
 9
 9
 9
 9
 9
 9
 9
 9
 9
 9
 9
 9
 9
 9
 9
 9
 9
 9
 9
 9
 9
 9
 9
 9
 9
 9
 9
 9
 9
 9
 9
 9
 9
 9
 9
 9
 9
 9
 9
 9
 9
 9
 9
 9
 9
 9
 9
 9
 9
 9
 9
 9
 9
 9
 9
 9
 9
 9
 9
 9
 9
 9
 9
 9
 9
 9
 9
 9
 9
 9
 9
 9
 9
 9
 9
 9
 9
 9
 9
 9
 9
 9
 9
 9
 9
 9
 9
 9
 9
 9
 9
 9
 9
 9
 9
 9
 9
 9
 9
 9
 9
 9
 9
 9
 9
 9
 9
 9
 9
 9
 9
 9
 9
 9
 9
 9
 9
 9
 9
 9
 9
 9
 9
 9
 9
 9
 9
 9
 9
 9
 9
 9
 9
 9
 9
 9
 9
 9
 9
 9
 9
 9
 9
 9
 9
 9
 9
 9
 9
 9
 9
 9
 9
 9
 9
 9
 9
 9
 9
 9
 9
 9
 9
 9
 9
 9
 9
 9
 9
 9
 9
 9
 9
 9
 9
 9
 9
 9
 9
 9
 9
 9
 9
 9
 9
 9
 9
 9
 9
 9
 9
 9
 9
 9
 9
 9
 9
 9
 9
 9
 9
 9
 9
 9
 9
 9
 9
 9
 9
 9
 9
 9
 9
 9
 9
 9
 9
 9
 9
 9
 9
 9
 9
 9
 9
 9
 9
 9
 9
 9
 9
 9
 9
 9
 9
 9
 9
 9
 9
 9
 9
 9
 9
 9
 9
 9
 9
 9
 9
 9
 9
 9
 9
 9
 9
 9
 9
 9
 9
 9
 9
 9
 9
 9
 9
 9
 9
 9
 9
 9
 9
 9
 9
 9
 9
 9
 9
 9
 9
 9
 9
 9
 9
 9
 9
 9
 9
 9
 9
 9
 9
 9
 9
 9
 9
 9
 9
 9
 9
 9
 9
 9
 9
 9
 9
 9
 9
 9
 9
 9
 9
 9
 9
 9
 9
 9
 9
 9
 9
 9
 9
 9
 9
 9
 9
 9
 9
 9
 9
 9
 9
 9
 9
 9
 9
 9
 9
 9
 9
 9
 9
 9
 9
 9
 9
 9
 9
 9
 9
 9
 9
 9
 9
 9
 9
 9
 9
 9
 9
 9
 9
 9
 9
 9
 9
 9
 9
 9
 9
 9
 9
 9
 9
 9
 9
 9
 9
 9
 9
 9
 9
 9
 9
 9
 9
 9
 9
 9
 9
 9
 9
 9
 9
 9
 9
 9
 9
 9
 9
 9
 9
 9
 9
 9
 9
 9
 9
 9
 9
 9
 9
 9
 9
 9
 9
 9
 9
 9
 9
 9
 9
 9
 9
 9
 9
 9
 9
 9
 9
 9
 9
 9
 9
 9
 9
 9
 9
 9
 9
 9
 9
 9
 9
 9
 9
 9
 9
 9
 9
 9
 9
 9
 9
 9
 9
 9
 9
 9
 9
 9
 9
 9
 9
 9
 9
 9
 9
 9
 9
 9
 9
 9
 9
 9
 9
 9
 9
 9
 9
 9
 9
 9
 9
 9
 9
 9
 9
 9
 9
 9
 9
 9
 9
 9
 9
 9
 9
 9
 9
 9
 9
 9
 9
 9
 9
 9
 9
 9
 9
 9
 9
 9
 9
 9
 9
 9
 9
 9
 9
 9
 9
 9
 9
 9
 9
 9
 9
 9
 9
 9
 9
 9
 9
 9
 9
 9
 9
 9
 9
 9
 9
 9
 9
 9
 9
 9
 9
 9
 9
 9
 9
 9
 9
 9
 9
 9
 9
 9
 9
 9
 9
 9
 9
 9
 9
 9
 9
 9
 9
 9
 9
 9
 9
 9
 9
 9
 9
 9
 9
 9
 9
 9
 9
 9
 9
 9
 9
 9
 9
 9
 9
 9
 9
 9
 9
 9
 9
 9
 9
 9
 9
 9
 9
 9
 9
 9
 9
 9
 9
 9
 9
 9
 9
 9
 9
 9
 9
 9
 9
 9
 9
 9
 9
 9
 9
 9
 9
 9
 9
 9
 9
 9
 9
 9
 9
 9
 9
 9
 9
 9
 9
 9
 9
 9
 9
 9
 9
 9
 9
 9
 9
 9
 9
 9
 9
 9
 9
 9
 9
 9
 9
 9
 9
 9
 9
 9
 9
 9
 9
 9
 9
 9
 9
 9
 9
 9
 9
 </DataArray>
 </Cells> 
 <PointData>
 <DataArray  type="Float64" Name="disp" NumberOfComponents="3" format="ascii">
   0.0000000000000000        0.0000000000000000        0.0000000000000000     
   6.0961129330249671E-003   3.7904710296835023E-003   0.0000000000000000     
   1.1666190606331527E-002   7.3240803197490555E-003   0.0000000000000000     
   1.6710233019919675E-002   1.0600827870196660E-002   0.0000000000000000     
   2.1228240173789416E-002   1.3620713681026315E-002   0.0000000000000000     
   0.0000000000000000        0.0000000000000000        0.0000000000000000     
   4.8911488885331790E-003   3.0223002051691069E-003   0.0000000000000000     
   9.5735984396210869E-003   6.0609075689936794E-003   0.0000000000000000     
   1.4047348653263722E-002   9.1158220914737166E-003   0.0000000000000000     
   1.8312399529461086E-002   1.2187043772609221E-002   0.0000000000000000     
   0.0000000000000000        0.0000000000000000        0.0000000000000000     
   3.9534738919942023E-003   2.4253451574187388E-003   0.0000000000000000     
   7.9104567693887018E-003   5.0633496110927857E-003   0.0000000000000000     
   1.1870948632183499E-002   7.9140133610221420E-003   0.0000000000000000     
   1.5834949480378595E-002   1.0977336407206807E-002   0.0000000000000000     
   0.0000000000000000        0.0000000000000000        0.0000000000000000     
   3.2830879434080358E-003   1.9996058864323978E-003   0.0000000000000000     
   6.6767655956343711E-003   4.3314064460463764E-003   0.0000000000000000     
   1.0181032956679006E-002   6.9954016788419358E-003   0.0000000000000000     
   1.3795890026541942E-002   9.9915915848190779E-003   0.0000000000000000     
   0.0000000000000000        0.0000000000000000        0.0000000000000000     
   2.8799910427746780E-003   1.7450823922100837E-003   0.0000000000000000     
   5.8725249183580923E-003   3.8650780738544491E-003   0.0000000000000000     
   8.9776016267502437E-003   6.3599870449330973E-003   0.0000000000000000     
   1.2195221167951130E-002   9.2298093054460264E-003   0.0000000000000000     
   2.1228240173789416E-002   1.3620713681026315E-002   0.0000000000000000     
   2.5433176547134187E-002   1.6614176128412164E-002   0.0000000000000000     
   2.9538006619147426E-002   1.9811653588528346E-002   0.0000000000000000     
   3.3542730389829141E-002   2.3213146061374861E-002   0.0000000000000000     
   3.7447347859179317E-002   2.6818653546951711E-002   0.0000000000000000     
   1.8312399529461086E-002   1.2187043772609221E-002   0.0000000000000000     
   2.2406952227629621E-002   1.5342896816345854E-002   0.0000000000000000     
   2.6369207907185787E-002   1.8651705426629282E-002   0.0000000000000000     
   3.0199166568129571E-002   2.2113469603459501E-002   0.0000000000000000     
   3.3896828210460986E-002   2.5728189346836513E-002   0.0000000000000000     
   1.5834949480378595E-002   1.0977336407206807E-002   0.0000000000000000     
   1.9730615951639864E-002   1.4212204200390426E-002   0.0000000000000000     
   2.3486104683633192E-002   1.7577502191316641E-002   0.0000000000000000     
   2.7101415676358574E-002   2.1073230379985451E-002   0.0000000000000000     
   3.0576548929816021E-002   2.4699388766396855E-002   0.0000000000000000     
   1.3795890026541942E-002   9.9915915848190779E-003   0.0000000000000000     
   1.7404167719164910E-002   1.3222098280545880E-002   0.0000000000000000     
   2.0888696948489643E-002   1.6589043882590422E-002   0.0000000000000000     
   2.4249477714516153E-002   2.0092428390952710E-002   0.0000000000000000     
   2.7486510017244430E-002   2.3732251805632740E-002   0.0000000000000000     
   1.2195221167951130E-002   9.2298093054460264E-003   0.0000000000000000     
   1.5427607530204763E-002   1.2372579056812213E-002   0.0000000000000000     
   1.8576984701755152E-002   1.5686330500450634E-002   0.0000000000000000     
   2.1643352682602299E-002   1.9171063636361282E-002   0.0000000000000000     
   2.4626711472746206E-002   2.2826778464544163E-002   0.0000000000000000     
   3.7447347859179317E-002   2.6818653546951711E-002   0.0000000000000000     
   4.1255492806915886E-002   3.0624198755164155E-002   0.0000000000000000     
   4.4970799012756753E-002   3.4625804395917462E-002   0.0000000000000000     
   4.8593266476701931E-002   3.8823470469211606E-002   0.0000000000000000     
   5.2122895198751414E-002   4.3217196975046612E-002   0.0000000000000000     
   3.3896828210460986E-002   2.5728189346836513E-002   0.0000000000000000     
   3.7485075533014334E-002   2.9525063703566851E-002   0.0000000000000000     
   4.0986791234623926E-002   3.3533291720457055E-002   0.0000000000000000     
   4.4401975315289770E-002   3.7752873397507124E-002   0.0000000000000000     
   4.7730627775011872E-002   4.2183808734717054E-002   0.0000000000000000     
   3.0576548929816021E-002   2.4699388766396855E-002   0.0000000000000000     
   3.3940936235079329E-002   2.8500641478910873E-002   0.0000000000000000     
   3.7224009383222317E-002   3.2521652645887515E-002   0.0000000000000000     
   4.0425768374244976E-002   3.6762422267326789E-002   0.0000000000000000     
   4.3546213208147319E-002   4.1222950343228704E-002   0.0000000000000000     
   2.7486510017244430E-002   2.3732251805632740E-002   0.0000000000000000     
   3.0623074913110882E-002   2.7550932081196210E-002   0.0000000000000000     
   3.3682453458551913E-002   3.1590887172208836E-002   0.0000000000000000     
   3.6664645653567536E-002   3.5852117078670621E-002   0.0000000000000000     
   3.9569651498157749E-002   4.0334621800581547E-002   0.0000000000000000     
   2.4626711472746206E-002   2.2826778464544163E-002   0.0000000000000000     
   2.7531491567108976E-002   2.6675935510422872E-002   0.0000000000000000     
   3.0362123460612726E-002   3.0740995299421019E-002   0.0000000000000000     
   3.3118607153257457E-002   3.5021957831538601E-002   0.0000000000000000     
   3.5800942645043160E-002   3.9518823106775604E-002   0.0000000000000000     
   5.2122895198751414E-002   4.3217196975046612E-002   0.0000000000000000     
   5.5554563706800987E-002   4.7807696644555794E-002   0.0000000000000000     
   5.8883150528746438E-002   5.2595682208872466E-002   0.0000000000000000     
   6.2108655664587752E-002   5.7581153667996619E-002   0.0000000000000000     
   6.5231079114324950E-002   6.2764111021928276E-002   0.0000000000000000     
   4.7730627775011872E-002   4.2183808734717054E-002   0.0000000000000000     
   5.0968611578861470E-002   4.6816782770761504E-002   0.0000000000000000     
   5.4111789691909815E-002   5.1642480544315146E-002   0.0000000000000000     
   5.7160162114156914E-002   5.6660902055377986E-002   0.0000000000000000     
   6.0113728845602746E-002   6.1872047303950004E-002   0.0000000000000000     
   4.3546213208147319E-002   4.1222950343228704E-002   0.0000000000000000     
   4.6582507026411396E-002   4.5888822159271592E-002   0.0000000000000000     
   4.9531812970519278E-002   5.0745623001133826E-002   0.0000000000000000     
   5.2394131040470956E-002   5.5793352868815420E-002   0.0000000000000000     
   5.5169461236266433E-002   6.1032011762316346E-002   0.0000000000000000     
   3.9569651498157749E-002   4.0334621800581547E-002   0.0000000000000000     
   4.2396250049450766E-002   4.5023814810086028E-002   0.0000000000000000     
   4.5143220364574826E-002   4.9905109579328498E-002   0.0000000000000000     
   4.7810562443529915E-002   5.4978506108308914E-002   0.0000000000000000     
   5.0398276286316053E-002   6.0244004397027311E-002   0.0000000000000000     
   3.5800942645043160E-002   3.9518823106775604E-002   0.0000000000000000     
   3.8409840647979580E-002   4.4221760723204849E-002   0.0000000000000000     
   4.0946011874076448E-002   4.9120940278899135E-002   0.0000000000000000     
   4.3409456323333782E-002   5.4216361773858489E-002   0.0000000000000000     
   4.5800173995751564E-002   5.9508025208082876E-002   0.0000000000000000     
   6.5231079114324950E-002   6.2764111021928276E-002   0.0000000000000000     
   6.8258626878783035E-002   6.8140334265712435E-002   0.0000000000000000     
   7.1199504958786991E-002   7.3705603394394137E-002   0.0000000000000000     
   7.4053713354336831E-002   7.9459918407973368E-002   0.0000000000000000     
   7.6821252065432555E-002   8.5403279306450142E-002   0.0000000000000000     
   6.0113728845602746E-002   6.1872047303950004E-002   0.0000000000000000     
   6.2976797593680162E-002   6.7274089781424018E-002   0.0000000000000000     
   6.5753676065822025E-002   7.2865202979192856E-002   0.0000000000000000     
   6.8444364262028309E-002   7.8645386897256489E-002   0.0000000000000000     
   7.1048862182299014E-002   8.4614641535614932E-002   0.0000000000000000     
   5.5169461236266433E-002   6.1032011762316346E-002   0.0000000000000000     
   5.7859262049366554E-002   6.6460246656300001E-002   0.0000000000000000     
   6.0464991971232132E-002   7.2076704525429719E-002   0.0000000000000000     
   6.2986651001863181E-002   7.7881385369705500E-002   0.0000000000000000     
   6.5424239141259666E-002   8.3874289189127357E-002   0.0000000000000000     
   5.0398276286316053E-002   6.0244004397027311E-002   0.0000000000000000     
   5.2906020245842192E-002   6.5698804890340343E-002   0.0000000000000000     
   5.5333452675017311E-002   7.1340108033104713E-002   0.0000000000000000     
   5.7680573573841432E-002   7.7167913825320400E-002   0.0000000000000000     
   5.9947382942314539E-002   8.3182222266987432E-002   0.0000000000000000     
   4.5800173995751564E-002   5.9508025208082876E-002   0.0000000000000000     
   4.8117072183107082E-002   6.4989764483545084E-002   0.0000000000000000     
   5.0359058177177576E-002   7.0655413502217851E-002   0.0000000000000000     
   5.2526131977963096E-002   7.6504972264101190E-002   0.0000000000000000     
   5.4618293585463600E-002   8.2538440769195115E-002   0.0000000000000000     
   7.6821252065432555E-002   8.5403279306450142E-002   0.0000000000000000     
   7.9494783909183617E-002   9.1515035670952510E-002   0.0000000000000000     
   8.2066971702699512E-002   9.7774537082608581E-002   0.0000000000000000     
   8.4537815445980241E-002  0.10418178354141837        0.0000000000000000     
   8.6907315139025776E-002  0.11073677504738183        0.0000000000000000     
   7.1048862182299014E-002   8.4614641535614932E-002   0.0000000000000000     
   7.3563723347482582E-002   9.0752790047590029E-002   0.0000000000000000     
   7.5985501278427472E-002   9.7039655586503640E-002   0.0000000000000000     
   7.8314195975133657E-002  0.10347523815235574        0.0000000000000000     
   8.0549807437601151E-002  0.11005953774514635        0.0000000000000000     
   6.5424239141259666E-002   8.3874289189127357E-002   0.0000000000000000     
   6.7777022212492474E-002   9.0036441516421567E-002   0.0000000000000000     
   7.0044266038632397E-002   9.6348867884314307E-002   0.0000000000000000     
   7.2225970619679461E-002  0.10281156829280567        0.0000000000000000     
   7.4322135955633625E-002  0.10942454274189560        0.0000000000000000     
   5.9947382942314539E-002   8.3182222266987432E-002   0.0000000000000000     
   6.2134680504213273E-002   8.9365990077447069E-002   0.0000000000000000     
   6.4243265983314299E-002   9.5702173976040666E-002   0.0000000000000000     
   6.6273139379617610E-002  0.10219077396276814        0.0000000000000000     
   6.8224300693123213E-002  0.10883179003762956        0.0000000000000000     
   5.4618293585463600E-002   8.2538440769195115E-002   0.0000000000000000     
   5.6636698222644999E-002   8.8741435730666618E-002   0.0000000000000000     
   5.8582501112473179E-002   9.5099573861682621E-002   0.0000000000000000     
   6.0455702254948146E-002  0.10161285516224318        0.0000000000000000     
   6.2256301650069901E-002  0.10828127963234831        0.0000000000000000     
   8.6907315139025776E-002  0.11073677504738183        0.0000000000000000     
   8.9174235551045825E-002  0.11743825689253046        0.0000000000000000     
   9.1337341451250012E-002  0.12428497436889575        0.0000000000000000     
   9.3396632839638352E-002  0.13127692747647765        0.0000000000000000     
   9.5352109716210831E-002  0.13841411621527622        0.0000000000000000     
   8.0549807437601151E-002  0.11005953774514635        0.0000000000000000     
   8.2693360187497136E-002  0.11679022304956482        0.0000000000000000     
   8.4745878746488798E-002  0.12366496275030053        0.0000000000000000     
   8.6707363114576122E-002  0.13068375684735348        0.0000000000000000     
   8.8577813291759122E-002  0.13784660534072368        0.0000000000000000     
   7.4322135955633625E-002  0.10942454274189560        0.0000000000000000     
   7.6334906375975634E-002  0.11618373778770444        0.0000000000000000     
   7.8266426210186160E-002  0.12308509998635253        0.0000000000000000     
   8.0116695458265219E-002  0.13012862933783992        0.0000000000000000     
   8.1885714120212783E-002  0.13731432584216655        0.0000000000000000     
   6.8224300693123213E-002  0.10883179003762956        0.0000000000000000     
   7.0098874116481302E-002  0.11561880110694932        0.0000000000000000     
   7.1898983842342098E-002  0.12254538607705179        0.0000000000000000     
   7.3624629870705588E-002  0.12961154494793695        0.0000000000000000     
   7.5275812201571812E-002  0.13681727771960486        0.0000000000000000     
   6.2256301650069901E-002  0.10828127963234831        0.0000000000000000     
   6.3985263409014156E-002  0.11509541300729947        0.0000000000000000     
   6.5643551642956613E-002  0.12204582102239823        0.0000000000000000     
   6.7231166351897298E-002  0.12913250367764459        0.0000000000000000     
   6.8748107535836198E-002  0.13635546097303852        0.0000000000000000     
   9.5352109716210831E-002  0.13841411621527622        0.0000000000000000     
   9.7163502004117219E-002  0.14566650611608059        0.0000000000000000     
   9.8790539626507218E-002  0.15300406270968001        0.0000000000000000     
  0.10023322258338085       0.16042678599607443        0.0000000000000000     
  0.10149155087473812       0.16793467597526388        0.0000000000000000     
   8.8577813291759122E-002  0.13784660534072368        0.0000000000000000     
   9.0344548704203748E-002  0.14512513961994630        0.0000000000000000     
   9.1994888778075934E-002  0.15249099107455655        0.0000000000000000     
   9.3528833513375709E-002  0.15994415970455439        0.0000000000000000     
   9.4946382910103017E-002  0.16748464550993986        0.0000000000000000     
   8.1885714120212783E-002  0.13731432584216655        0.0000000000000000     
   8.3578053536587121E-002  0.14461666539284632        0.0000000000000000     
   8.5198285047946479E-002  0.15201012388339308        0.0000000000000000     
   8.6746408654290869E-002  0.15949470131380680        0.0000000000000000     
   8.8222424355620277E-002  0.16707039768408752        0.0000000000000000     
   7.5275812201571812E-002  0.13681727771960486        0.0000000000000000     
   7.6864016501267354E-002  0.14414108343478063        0.0000000000000000     
   7.8400728436118894E-002  0.15156146113618962        0.0000000000000000     
   7.9885948006126417E-002  0.15907841082383167        0.0000000000000000     
   8.1319675211289910E-002  0.16669193249770692        0.0000000000000000     
   6.8748107535836198E-002  0.13635546097303852        0.0000000000000000     
   7.0202437598244433E-002  0.14369839374574930        0.0000000000000000     
   7.1602218942593138E-002  0.15114500283294613        0.0000000000000000     
   7.2947451568882299E-002  0.15869528823462903        0.0000000000000000     
   7.4238135477111916E-002  0.16634924995079797        0.0000000000000000     
   0.0000000000000000        0.0000000000000000        0.0000000000000000     
   2.8799910427746780E-003   1.7450823922100837E-003   0.0000000000000000     
   5.8725249183580923E-003   3.8650780738544491E-003   0.0000000000000000     
   8.9776016267502437E-003   6.3599870449330973E-003   0.0000000000000000     
   1.2195221167951130E-002   9.2298093054460264E-003   0.0000000000000000     
   0.0000000000000000        0.0000000000000000        0.0000000000000000     
   2.6103028230794433E-003   1.5891333238245778E-003   0.0000000000000000     
   5.2896993763864022E-003   3.5570728310029011E-003   0.0000000000000000     
   8.0381896599208760E-003   5.9038185215349696E-003   0.0000000000000000     
   1.0855773673682867E-002   8.6293703954207837E-003   0.0000000000000000     
   0.0000000000000000        0.0000000000000000        0.0000000000000000     
   2.3401429173076434E-003   1.4591173303486612E-003   0.0000000000000000     
   4.7202536085458359E-003   3.3000990539776283E-003   0.0000000000000000     
   7.1403320737145745E-003   5.5229451708868997E-003   0.0000000000000000     
   9.6003783128138613E-003   8.1276556810764775E-003   0.0000000000000000     
   0.0000000000000000        0.0000000000000000        0.0000000000000000     
   2.0695113254592798E-003   1.3550344117823339E-003   0.0000000000000000     
   4.1641876148363908E-003   3.0941567427786297E-003   0.0000000000000000     
   6.2840288681313364E-003   5.2173669929888875E-003   0.0000000000000000     
   8.4290350853441151E-003   7.7246651624131076E-003   0.0000000000000000     
   0.0000000000000000        0.0000000000000000        0.0000000000000000     
   1.7984080475343506E-003   1.2768845681255954E-003   0.0000000000000000     
   3.6215013952580720E-003   2.9392458974059061E-003   0.0000000000000000     
   5.4692800431711645E-003   4.9870839878409321E-003   0.0000000000000000     
   7.3417439912736270E-003   7.4203988394306733E-003   0.0000000000000000     
   1.2195221167951130E-002   9.2298093054460264E-003   0.0000000000000000     
   1.5427607530204763E-002   1.2372579056812213E-002   0.0000000000000000     
   1.8576984701755152E-002   1.5686330500450634E-002   0.0000000000000000     
   2.1643352682602299E-002   1.9171063636361282E-002   0.0000000000000000     
   2.4626711472746206E-002   2.2826778464544163E-002   0.0000000000000000     
   1.0855773673682867E-002   8.6293703954207837E-003   0.0000000000000000     
   1.3689126839209295E-002   1.1651545927045337E-002   0.0000000000000000     
   1.6484924578037085E-002   1.4888162590793622E-002   0.0000000000000000     
   1.9243166890166231E-002   1.8339220386665640E-002   0.0000000000000000     
   2.1963853775596742E-002   2.2004719314661383E-002   0.0000000000000000     
   9.6003783128138613E-003   8.1276556810764775E-003   0.0000000000000000     
   1.2076917100628378E-002   1.1046898289101164E-002   0.0000000000000000     
   1.4546473211942813E-002   1.4213340699515756E-002   0.0000000000000000     
   1.7009046646757158E-002   1.7626982912320253E-002   0.0000000000000000     
   1.9464637405071417E-002   2.1287824927514666E-002   0.0000000000000000     
   8.4290350853441151E-003   7.7246651624131076E-003   0.0000000000000000     
   1.0590978314462016E-002   1.0558636142979689E-002   0.0000000000000000     
   1.2761630603472339E-002   1.3661864826617031E-002   0.0000000000000000     
   1.4940991952375077E-002   1.7034351213325135E-002   0.0000000000000000     
   1.7129062361170226E-002   2.0676095303103995E-002   0.0000000000000000     
   7.3417439912736270E-003   7.4203988394306733E-003   0.0000000000000000     
   9.2313104807102107E-003   1.0186759488680915E-002   0.0000000000000000     
   1.1130396752625664E-002   1.3233734972097450E-002   0.0000000000000000     
   1.3039002807019990E-002   1.6561325289680268E-002   0.0000000000000000     
   1.4957128643893187E-002   2.0169530441429377E-002   0.0000000000000000     
   2.4626711472746206E-002   2.2826778464544163E-002   0.0000000000000000     
   2.7531491567108976E-002   2.6675935510422872E-002   0.0000000000000000     
   3.0362123460612726E-002   3.0740995299421019E-002   0.0000000000000000     
   3.3118607153257457E-002   3.5021957831538601E-002   0.0000000000000000     
   3.5800942645043160E-002   3.9518823106775604E-002   0.0000000000000000     
   2.1963853775596742E-002   2.2004719314661383E-002   0.0000000000000000     
   2.4630650939228386E-002   2.5882308462453346E-002   0.0000000000000000     
   2.7227224085960944E-002   2.9969636917714020E-002   0.0000000000000000     
   2.9753573215794415E-002   3.4266704680443391E-002   0.0000000000000000     
   3.2209698328728803E-002   3.8773511750641469E-002   0.0000000000000000     
   1.9464637405071417E-002   2.1287824927514666E-002   0.0000000000000000     
   2.1885017771623855E-002   2.5176707633150122E-002   0.0000000000000000     
   2.4241960031152750E-002   2.9274471917277792E-002   0.0000000000000000     
   2.6535464183658101E-002   3.3581117779897654E-002   0.0000000000000000     
   2.8765530229139906E-002   3.8096645221009723E-002   0.0000000000000000     
   1.7129062361170226E-002   2.0676095303103995E-002   0.0000000000000000     
   1.9294592064295395E-002   2.4559133022513203E-002   0.0000000000000000     
   2.1406331296188158E-002   2.8655500298112337E-002   0.0000000000000000     
   2.3464280056848520E-002   3.2965197129901397E-002   0.0000000000000000     
   2.5468438346276490E-002   3.7488223517880392E-002   0.0000000000000000     
   1.4957128643893187E-002   2.0169530441429377E-002   0.0000000000000000     
   1.6859373817242999E-002   2.4029584630542576E-002   0.0000000000000000     
   1.8720337881067160E-002   2.8112722060217653E-002   0.0000000000000000     
   2.0540020835365672E-002   3.2418942730454613E-002   0.0000000000000000     
   2.2318422680138540E-002   3.6948246641253450E-002   0.0000000000000000     
   3.5800942645043160E-002   3.9518823106775604E-002   0.0000000000000000     
   3.8409840647979580E-002   4.4221760723204849E-002   0.0000000000000000     
   4.0946011874076448E-002   4.9120940278899135E-002   0.0000000000000000     
   4.3409456323333782E-002   5.4216361773858489E-002   0.0000000000000000     
   4.5800173995751564E-002   5.9508025208082876E-002   0.0000000000000000     
   3.2209698328728803E-002   3.8773511750641469E-002   0.0000000000000000     
   3.4597639929491039E-002   4.3485736197885733E-002   0.0000000000000000     
   3.6919438522808087E-002   4.8399056091753712E-002   0.0000000000000000     
   3.9175094108679941E-002   5.3513471432245364E-002   0.0000000000000000     
   4.1364606687106606E-002   5.8828982219360726E-002   0.0000000000000000     
   2.8765530229139906E-002   3.8096645221009723E-002   0.0000000000000000     
   3.0934009001478358E-002   4.2818817533386413E-002   0.0000000000000000     
   3.3042751334553658E-002   4.7745398009800107E-002   0.0000000000000000     
   3.5091757228365800E-002   5.2876386650250816E-002   0.0000000000000000     
   3.7081026682914783E-002   5.8211783454738542E-002   0.0000000000000000     
   2.5468438346276490E-002   3.7488223517880392E-002   0.0000000000000000     
   2.7418947863941539E-002   4.2221004729706850E-002   0.0000000000000000     
   2.9315950309313159E-002   4.7159966033038327E-002   0.0000000000000000     
   3.1159445682391349E-002   5.2305107427874815E-002   0.0000000000000000     
   3.2949433983176117E-002   5.7656428914216330E-002   0.0000000000000000     
   2.2318422680138540E-002   3.6948246641253450E-002   0.0000000000000000     
   2.4052456516880573E-002   4.1692297786847077E-002   0.0000000000000000     
   2.5739035447086594E-002   4.6642760161468386E-002   0.0000000000000000     
   2.7378159470756593E-002   5.1799633765117377E-002   0.0000000000000000     
   2.8969828587890580E-002   5.7162918597794057E-002   0.0000000000000000     
   4.5800173995751564E-002   5.9508025208082876E-002   0.0000000000000000     
   4.8117072183107082E-002   6.4989764483545084E-002   0.0000000000000000     
   5.0359058177177576E-002   7.0655413502217851E-002   0.0000000000000000     
   5.2526131977963096E-002   7.6504972264101190E-002   0.0000000000000000     
   5.4618293585463600E-002   8.2538440769195115E-002   0.0000000000000000     
   4.1364606687106606E-002   5.8828982219360726E-002   0.0000000000000000     
   4.3486721644667659E-002   6.4335788077308526E-002   0.0000000000000000     
   4.5540184367942715E-002   7.0024088630297521E-002   0.0000000000000000     
   4.7524994856931756E-002   7.5893883878327753E-002   0.0000000000000000     
   4.9441153111634800E-002   8.1945173821399125E-002   0.0000000000000000     
   3.7081026682914783E-002   5.8211783454738542E-002   0.0000000000000000     
   3.9009272414030419E-002   6.3739538313025076E-002   0.0000000000000000     
   4.0875207137542523E-002   6.9447601114872179E-002   0.0000000000000000     
   4.2678830853451068E-002   7.5335971860279877E-002   0.0000000000000000     
   4.4420143561756081E-002   8.1404650549248156E-002   0.0000000000000000     
   3.2949433983176117E-002   5.7656428914216330E-002   0.0000000000000000     
   3.4684724491195348E-002   6.3201015190694695E-002   0.0000000000000000     
   3.6364126485976991E-002   6.8925950955941798E-002   0.0000000000000000     
   3.7987639967521018E-002   7.4831236209957616E-002   0.0000000000000000     
   3.9555264935827457E-002   8.0916870952742165E-002   0.0000000000000000     
   2.8969828587890580E-002   5.7162918597794057E-002   0.0000000000000000     
   3.0513077876162455E-002   6.2720218710317396E-002   0.0000000000000000     
   3.2006942413246128E-002   6.8459138153506349E-002   0.0000000000000000     
   3.3451422199141614E-002   7.4379676927360958E-002   0.0000000000000000     
   3.4846517233848906E-002   8.0481835031881180E-002   0.0000000000000000     
   5.4618293585463600E-002   8.2538440769195115E-002   0.0000000000000000     
   5.6636698222644999E-002   8.8741435730666618E-002   0.0000000000000000     
   5.8582501112473179E-002   9.5099573861682621E-002   0.0000000000000000     
   6.0455702254948146E-002  0.10161285516224318        0.0000000000000000     
   6.2256301650069901E-002  0.10828127963234831        0.0000000000000000     
   4.9441153111634800E-002   8.1945173821399125E-002   0.0000000000000000     
   5.1289550209739652E-002   8.8166039900369697E-002   0.0000000000000000     
   5.3071077228934171E-002   9.4544563556097416E-002   0.0000000000000000     
   5.4785734169218343E-002  0.10108074478858227        0.0000000000000000     
   5.6433521030592154E-002  0.10777458359782430        0.0000000000000000     
   4.4420143561756081E-002   8.1404650549248156E-002   0.0000000000000000     
   4.6099711307449290E-002   8.7643064010845942E-002   0.0000000000000000     
   4.7718100135522412E-002   9.4040639074142188E-002   0.0000000000000000     
   4.9275310045975469E-002  0.10059737573913691        0.0000000000000000     
   5.0771341038808440E-002  0.10731327400583010        0.0000000000000000     
   3.9555264935827457E-002   8.0916870952742165E-002   0.0000000000000000     
   4.1067181515773876E-002   8.7172508062095311E-002   0.0000000000000000     
   4.2523569832237915E-002   9.3587800415816935E-002   0.0000000000000000     
   4.3924429885219531E-002  0.10016274801390709        0.0000000000000000     
   4.5269761674718773E-002  0.10689735085636573        0.0000000000000000     
   3.4846517233848906E-002   8.0481835031881180E-002   0.0000000000000000     
   3.6191960834713433E-002   8.6754372054117859E-002   0.0000000000000000     
   3.7487486319080651E-002   9.3186047581121728E-002   0.0000000000000000     
   3.8733093686950541E-002   9.9776861612892828E-002   0.0000000000000000     
   3.9928782938323124E-002  0.10652681414943116        0.0000000000000000     
   6.2256301650069901E-002  0.10828127963234831        0.0000000000000000     
   6.3985263409014156E-002  0.11509541300729947        0.0000000000000000     
   6.5643551642956613E-002  0.12204582102239823        0.0000000000000000     
   6.7231166351897298E-002  0.12913250367764459        0.0000000000000000     
   6.8748107535836198E-002  0.13635546097303852        0.0000000000000000     
   5.6433521030592154E-002  0.10777458359782430        0.0000000000000000     
   5.8013990831392727E-002  0.11461392329346733        0.0000000000000000     
   5.9526696589957150E-002  0.12158660718515529        0.0000000000000000     
   6.0971638306285443E-002  0.12869263527288816        0.0000000000000000     
   6.2348815980377587E-002  0.13593200755666593        0.0000000000000000     
   5.0771341038808440E-002  0.10731327400583010        0.0000000000000000     
   5.2204972961435593E-002  0.11417468177016539        0.0000000000000000     
   5.3574985661271168E-002  0.12116794692808634        0.0000000000000000     
   5.4881379138315145E-002  0.12829306947959299        0.0000000000000000     
   5.6124153392567544E-002  0.13555004942468535        0.0000000000000000     
   4.5269761674718773E-002  0.10689735085636573        0.0000000000000000     
   4.6558209799142755E-002  0.11377768843739357        0.0000000000000000     
   4.7788418856898641E-002  0.12078984025119135        0.0000000000000000     
   4.8960388847986425E-002  0.12793380629775911        0.0000000000000000     
   5.0074119772406112E-002  0.13520958657709681        0.0000000000000000     
   3.9928782938323124E-002  0.10652681414943116        0.0000000000000000     
   4.1073701344514192E-002  0.11342294329515196        0.0000000000000000     
   4.2166996176839576E-002  0.12045228715447040        0.0000000000000000     
   4.3208667435299268E-002  0.12761484572738649        0.0000000000000000     
   4.4198715119893262E-002  0.13491061901390028        0.0000000000000000     
   6.8748107535836198E-002  0.13635546097303852        0.0000000000000000     
   7.0202437598244433E-002  0.14369839374574930        0.0000000000000000     
   7.1602218942593138E-002  0.15114500283294613        0.0000000000000000     
   7.2947451568882299E-002  0.15869528823462903        0.0000000000000000     
   7.4238135477111916E-002  0.16634924995079797        0.0000000000000000     
   6.2348815980377587E-002  0.13593200755666593        0.0000000000000000     
   6.3659133808425514E-002  0.14329316430707986        0.0000000000000000     
   6.4903495986621207E-002  0.15076454579472115        0.0000000000000000     
   6.6081902514964624E-002  0.15834615201958982        0.0000000000000000     
   6.7194353393455780E-002  0.16603798298168584        0.0000000000000000     
   5.6124153392567544E-002  0.13555004942468535        0.0000000000000000     
   5.7299922112717727E-002  0.14292996310009992        0.0000000000000000     
   5.8405298987455029E-002  0.15042388684257313        0.0000000000000000     
   5.9440284016779470E-002  0.15803182065210505        0.0000000000000000     
   6.0404877200691043E-002  0.16575376452869561        0.0000000000000000     
   5.0074119772406112E-002  0.13520958657709681        0.0000000000000000     
   5.1124802511121059E-002  0.14260879012480948        0.0000000000000000     
   5.2107627945094638E-002  0.15012302597650209        0.0000000000000000     
   5.3022596074326842E-002  0.15775229413217473        0.0000000000000000     
   5.3869706898817676E-002  0.16549659459182728        0.0000000000000000     
   4.4198715119893262E-002  0.13491061901390028        0.0000000000000000     
   4.5133775003635530E-002  0.14232964538120851        0.0000000000000000     
   4.6010482859540021E-002  0.14986196319650799        0.0000000000000000     
   4.6828838687606740E-002  0.15750757245979879        0.0000000000000000     
   4.7588842487835688E-002  0.16526647317108084        0.0000000000000000     
   0.0000000000000000        0.0000000000000000        0.0000000000000000     
   1.7984080475343506E-003   1.2768845681255954E-003   0.0000000000000000     
   3.6215013952580720E-003   2.9392458974059061E-003   0.0000000000000000     
   5.4692800431711645E-003   4.9870839878409321E-003   0.0000000000000000     
   7.3417439912736270E-003   7.4203988394306733E-003   0.0000000000000000     
   0.0000000000000000        0.0000000000000000        0.0000000000000000     
   1.5351108032805199E-003   1.2175569786361490E-003   0.0000000000000000     
   3.0995514852842675E-003   2.8208609917642858E-003   0.0000000000000000     
   4.6933220460112432E-003   4.8099120393844111E-003   0.0000000000000000     
   6.3164224854614457E-003   7.1847101214965242E-003   0.0000000000000000     
   0.0000000000000000        0.0000000000000000        0.0000000000000000     
   1.2878973124454511E-003   1.1699408225716965E-003   0.0000000000000000     
   2.6056944203883708E-003   2.7244964997585963E-003   0.0000000000000000     
   3.9533913238287604E-003   4.6636670315607000E-003   0.0000000000000000     
   5.3309880227666194E-003   6.9874524179780080E-003   0.0000000000000000     
   0.0000000000000000        0.0000000000000000        0.0000000000000000     
   1.0567675750291438E-003   1.1340360999322378E-003   0.0000000000000000     
   2.1399302005703827E-003   2.6501524213888381E-003   0.0000000000000000     
   3.2494878766237173E-003   4.5483489643698000E-003   0.0000000000000000     
   4.3854406031891471E-003   6.8286257288751239E-003   0.0000000000000000     
   0.0000000000000000        0.0000000000000000        0.0000000000000000     
   8.4172159103159782E-004   1.1098428107177733E-003   0.0000000000000000     
   1.7022588258303025E-003   2.5978287566550099E-003   0.0000000000000000     
   2.5816117043961136E-003   4.4639578378117099E-003   0.0000000000000000     
   3.4797802267290314E-003   6.7082300541878737E-003   0.0000000000000000     
   7.3417439912736270E-003   7.4203988394306733E-003   0.0000000000000000     
   9.2313104807102107E-003   1.0186759488680915E-002   0.0000000000000000     
   1.1130396752625664E-002   1.3233734972097450E-002   0.0000000000000000     
   1.3039002807019990E-002   1.6561325289680268E-002   0.0000000000000000     
   1.4957128643893187E-002   2.0169530441429377E-002   0.0000000000000000     
   6.3164224854614457E-003   7.1847101214965242E-003   0.0000000000000000     
   7.9562368661165398E-003   9.8956538395217376E-003   0.0000000000000000     
   9.6001492504581825E-003   1.2893141794881161E-002   0.0000000000000000     
   1.1248159638486381E-002   1.6177173987574799E-002   0.0000000000000000     
   1.2900268030201133E-002   1.9747750417602648E-002   0.0000000000000000     
   5.3309880227666194E-003   6.9874524179780080E-003   0.0000000000000000     
   6.7240807374245818E-003   9.6497047088190402E-003   0.0000000000000000     
   8.1182656880252856E-003   1.2604275953892321E-002   0.0000000000000000     
   9.5135428745687315E-003   1.5851166153197850E-002   0.0000000000000000     
   1.0909912297054920E-002   1.9390375306735624E-002   0.0000000000000000     
   4.3854406031891471E-003   6.8286257288751239E-003   0.0000000000000000     
   5.5348420946343437E-003   9.4489120965728281E-003   0.0000000000000000     
   6.6847460653269740E-003   1.2367137449130929E-002   0.0000000000000000     
   7.8351525152670423E-003   1.5583301786549422E-002   0.0000000000000000     
   8.9860614444545427E-003   1.9097405108828316E-002   0.0000000000000000     
   3.4797802267290314E-003   6.7082300541878737E-003   0.0000000000000000     
   4.3885209377458202E-003   9.2932760027830980E-003   0.0000000000000000     
   5.2995903823632468E-003   1.2181726280596982E-002   0.0000000000000000     
   6.2129885605813097E-003   1.5373580887629518E-002   0.0000000000000000     
   7.1287154724000087E-003   1.8868839823880715E-002   0.0000000000000000     
   1.4957128643893187E-002   2.0169530441429377E-002   0.0000000000000000     
   1.6859373817242999E-002   2.4029584630542576E-002   0.0000000000000000     
   1.8720337881067160E-002   2.8112722060217653E-002   0.0000000000000000     
   2.0540020835365672E-002   3.2418942730454613E-002   0.0000000000000000     
   2.2318422680138540E-002   3.6948246641253450E-002   0.0000000000000000     
   1.2900268030201133E-002   1.9747750417602648E-002   0.0000000000000000     
   1.4539960148246255E-002   2.3578688309766935E-002   0.0000000000000000     
   1.6150721715265576E-002   2.7643804888869895E-002   0.0000000000000000     
   1.7732552731259087E-002   3.1943100154911523E-002   0.0000000000000000     
   1.9285453196226789E-002   3.6476574107891818E-002   0.0000000000000000     
   1.0909912297054920E-002   1.9390375306735624E-002   0.0000000000000000     
   1.2296948175084779E-002   2.3197069912714977E-002   0.0000000000000000     
   1.3664224728259237E-002   2.7246416469345221E-002   0.0000000000000000     
   1.5011741956578301E-002   3.1538414976626364E-002   0.0000000000000000     
   1.6339499860041969E-002   3.6073065434558411E-002   0.0000000000000000     
   8.9860614444545427E-003   1.9097405108828316E-002   0.0000000000000000     
   1.0130337897758555E-002   2.2884729439386690E-002   0.0000000000000000     
   1.1260846920048145E-002   2.6920556801643632E-002   0.0000000000000000     
   1.2377588511323319E-002   3.1204887195599138E-002   0.0000000000000000     
   1.3480562671584069E-002   3.5737720621253216E-002   0.0000000000000000     
   7.1287154724000087E-003   1.8868839823880715E-002   0.0000000000000000     
   8.0401293162675920E-003   2.2641666889782076E-002   0.0000000000000000     
   8.9405882906323005E-003   2.6666225885765126E-002   0.0000000000000000     
   9.8300923954941378E-003   3.0942516811829843E-002   0.0000000000000000     
   1.0708641630853100E-002   3.5470539667976239E-002   0.0000000000000000     
   2.2318422680138540E-002   3.6948246641253450E-002   0.0000000000000000     
   2.4052456516880573E-002   4.1692297786847077E-002   0.0000000000000000     
   2.5739035447086594E-002   4.6642760161468386E-002   0.0000000000000000     
   2.7378159470756593E-002   5.1799633765117377E-002   0.0000000000000000     
   2.8969828587890580E-002   5.7162918597794057E-002   0.0000000000000000     
   1.9285453196226789E-002   3.6476574107891818E-002   0.0000000000000000     
   2.0803192910150318E-002   4.1230292082464974E-002   0.0000000000000000     
   2.2279541673011289E-002   4.6190319413285157E-002   0.0000000000000000     
   2.3714499484809713E-002   5.1356656100352380E-002   0.0000000000000000     
   2.5108066345545584E-002   5.6729302143666643E-002   0.0000000000000000     
   1.6339499860041969E-002   3.6073065434558411E-002   0.0000000000000000     
   1.7639814993605604E-002   4.0832582994218436E-002   0.0000000000000000     
   1.8905003912224574E-002   4.5799182806683547E-002   0.0000000000000000     
   2.0135066615898888E-002   5.0972864871953717E-002   0.0000000000000000     
   2.1330003104628532E-002   5.6353629190028981E-002   0.0000000000000000     
   1.3480562671584069E-002   3.5737720621253216E-002   0.0000000000000000     
   1.4562322767246437E-002   4.0499170522107476E-002   0.0000000000000000     
   1.5615422164726452E-002   4.5469350341663529E-002   0.0000000000000000     
   1.6639860864024112E-002   5.0648260079921396E-002   0.0000000000000000     
   1.7635638865139424E-002   5.6035899736881035E-002   0.0000000000000000     
   1.0708641630853100E-002   3.5470539667976239E-002   0.0000000000000000     
   1.1570716231072819E-002   4.0230054666132081E-002   0.0000000000000000     
   1.2410796430516917E-002   4.5200822018225131E-002   0.0000000000000000     
   1.3228882229185397E-002   5.0382841724255382E-002   0.0000000000000000     
   1.4024973627078257E-002   5.5776113784222849E-002   0.0000000000000000     
   2.8969828587890580E-002   5.7162918597794057E-002   0.0000000000000000     
   3.0513077876162455E-002   6.2720218710317396E-002   0.0000000000000000     
   3.2006942413246128E-002   6.8459138153506349E-002   0.0000000000000000     
   3.3451422199141614E-002   7.4379676927360958E-002   0.0000000000000000     
   3.4846517233848906E-002   8.0481835031881180E-002   0.0000000000000000     
   2.5108066345545584E-002   5.6729302143666643E-002   0.0000000000000000     
   2.6459475598281695E-002   6.2296734891439408E-002   0.0000000000000000     
   2.7767960586080841E-002   6.8047431691882113E-002   0.0000000000000000     
   2.9033521308943013E-002   7.3981392544994806E-002   0.0000000000000000     
   3.0256157766868227E-002   8.0098617450777440E-002   0.0000000000000000     
   2.1330003104628532E-002   5.6353629190028981E-002   0.0000000000000000     
   2.2489060686903064E-002   6.1930149753606951E-002   0.0000000000000000     
   2.3611486671212021E-002   6.7691100555385311E-002   0.0000000000000000     
   2.4697281057555403E-002   7.3636481595363998E-002   0.0000000000000000     
   2.5746443845933213E-002   7.9766292873543088E-002   0.0000000000000000     
   1.7635638865139424E-002   5.6035899736881035E-002   0.0000000000000000     
   1.8601833142026548E-002   6.1620463296820027E-002   0.0000000000000000     
   1.9537520668639664E-002   6.7390144744015890E-002   0.0000000000000000     
   2.0442701444978773E-002   7.3344944078468616E-002   0.0000000000000000     
   2.1317375471043867E-002   7.9484861300178219E-002   0.0000000000000000     
   1.4024973627078257E-002   5.5776113784222849E-002   0.0000000000000000     
   1.4797792963652162E-002   6.1367675521078649E-002   0.0000000000000000     
   1.5546062578363785E-002   6.7144564257773903E-002   0.0000000000000000     
   1.6269782471213128E-002   7.3106779994308591E-002   0.0000000000000000     
   1.6968952642200184E-002   7.9254322730682766E-002   0.0000000000000000     
   3.4846517233848906E-002   8.0481835031881180E-002   0.0000000000000000     
   3.6191960834713433E-002   8.6754372054117859E-002   0.0000000000000000     
   3.7487486319080651E-002   9.3186047581121728E-002   0.0000000000000000     
   3.8733093686950541E-002   9.9776861612892828E-002   0.0000000000000000     
   3.9928782938323124E-002  0.10652681414943116        0.0000000000000000     
   3.0256157766868227E-002   8.0098617450777440E-002   0.0000000000000000     
   3.1435229796123232E-002   8.6386649481459785E-002   0.0000000000000000     
   3.2570097232974791E-002   9.2833031709271596E-002   0.0000000000000000     
   3.3660760077422920E-002   9.9437764134212861E-002   0.0000000000000000     
   3.4707218329467597E-002  0.10620084675628366        0.0000000000000000     
   2.5746443845933213E-002   7.9766292873543088E-002   0.0000000000000000     
   2.6758168931858551E-002   8.6067333838667409E-002   0.0000000000000000     
   2.7731650210844509E-002   9.2526403939481722E-002   0.0000000000000000     
   2.8666887682891100E-002   9.9143503175986053E-002   0.0000000000000000     
   2.9563881347998304E-002  0.10591863154818038        0.0000000000000000     
   2.1317375471043867E-002   7.9484861300178219E-002   0.0000000000000000     
   2.2160778241919393E-002   8.5796425125740677E-002   0.0000000000000000     
   2.2972145252689799E-002   9.2266164271752077E-002   0.0000000000000000     
   2.3751476503355073E-002   9.8894078738212279E-002   0.0000000000000000     
   2.4498771993915223E-002  0.10568016852512141        0.0000000000000000     
   1.6968952642200184E-002   7.9254322730682766E-002   0.0000000000000000     
   1.7643057726305755E-002   8.5573923342679672E-002   0.0000000000000000     
   1.8291582358510642E-002   9.2052312706082634E-002   0.0000000000000000     
   1.8914526538814848E-002   9.8689490820891623E-002   0.0000000000000000     
   1.9511890267218369E-002  0.10548545768710667        0.0000000000000000     
   3.9928782938323124E-002  0.10652681414943116        0.0000000000000000     
   4.1073701344514192E-002  0.11342294329515196        0.0000000000000000     
   4.2166996176839576E-002  0.12045228715447040        0.0000000000000000     
   4.3208667435299268E-002  0.12761484572738649        0.0000000000000000     
   4.4198715119893262E-002  0.13491061901390028        0.0000000000000000     
   3.4707218329467597E-002  0.10620084675628366        0.0000000000000000     
   3.5709276293596687E-002  0.11311060908809728        0.0000000000000000     
   3.6666738274298019E-002  0.12015538064226725        0.0000000000000000     
   3.7579604271571594E-002  0.12733516141879350        0.0000000000000000     
   3.8447874285417426E-002  0.13464995141767608        0.0000000000000000     
   2.9563881347998304E-002  0.10591863154818038        0.0000000000000000     
   3.0422763342436987E-002  0.11284084856088641        0.0000000000000000     
   3.1243665802478001E-002  0.11989921371892580        0.0000000000000000     
   3.2026588728121343E-002  0.12709372702229846        0.0000000000000000     
   3.2771532119367015E-002  0.13442438847100452        0.0000000000000000     
   2.4498771993915223E-002  0.10568016852512141        0.0000000000000000     
   2.5214162491035096E-002  0.11261366171351932        0.0000000000000000     
   2.5897778761379515E-002  0.11968378638444602        0.0000000000000000     
   2.6549620804948489E-002  0.12689054253790144        0.0000000000000000     
   2.7169688621742020E-002  0.13423393017388563        0.0000000000000000     
   1.9511890267218369E-002  0.10548545768710667        0.0000000000000000     
   2.0083473739391008E-002  0.11242904854599603        0.0000000000000000     
   2.0629077151002571E-002  0.11950909863882792        0.0000000000000000     
   2.1148700502053048E-002  0.12672560796560239        0.0000000000000000     
   2.1642343792542453E-002  0.13407857652631938        0.0000000000000000     
   4.4198715119893262E-002  0.13491061901390028        0.0000000000000000     
   4.5133775003635530E-002  0.14232964538120851        0.0000000000000000     
   4.6010482859540021E-002  0.14986196319650799        0.0000000000000000     
   4.6828838687606740E-002  0.15750757245979879        0.0000000000000000     
   4.7588842487835688E-002  0.16526647317108084        0.0000000000000000     
   3.8447874285417426E-002  0.13464995141767608        0.0000000000000000     
   3.9270534055027256E-002  0.14208762800118077        0.0000000000000000     
   4.0046569319592870E-002  0.14963606853157349        0.0000000000000000     
   4.0775980079114246E-002  0.15729527300885421        0.0000000000000000     
   4.1458766333591392E-002  0.16506524143302292        0.0000000000000000     
   3.2771532119367015E-002  0.13442438847100452        0.0000000000000000     
   3.3478774130062394E-002  0.14187783711661001        0.0000000000000000     
   3.4148592914054865E-002  0.14944071201068110        0.0000000000000000     
   3.4780988471344434E-002  0.15711301315321782        0.0000000000000000     
   3.5375960801931089E-002  0.16489474054422010        0.0000000000000000     
   2.7169688621742020E-002  0.13423393017388563        0.0000000000000000     
   2.7758495228740923E-002  0.14170027272749622        0.0000000000000000     
   2.8316553642926019E-002  0.14927589363383087        0.0000000000000000     
   2.8843863864297308E-002  0.15696079289288958        0.0000000000000000     
   2.9340425892854776E-002  0.16475497050467236        0.0000000000000000     
   2.1642343792542453E-002  0.13407857652631938        0.0000000000000000     
   2.2109697351062857E-002  0.14155493483383941        0.0000000000000000     
   2.2550451506206319E-002  0.14914161340102278        0.0000000000000000     
   2.2964606257972857E-002  0.15683861222786957        0.0000000000000000     
   2.3352161606362460E-002  0.16464593131437971        0.0000000000000000     
   0.0000000000000000        0.0000000000000000        0.0000000000000000     
   8.4172159103159782E-004   1.1098428107177733E-003   0.0000000000000000     
   1.7022588258303025E-003   2.5978287566550099E-003   0.0000000000000000     
   2.5816117043961136E-003   4.4639578378117099E-003   0.0000000000000000     
   3.4797802267290314E-003   6.7082300541878737E-003   0.0000000000000000     
   0.0000000000000000        0.0000000000000000        0.0000000000000000     
   6.3386091112028282E-004   1.0937974347753534E-003   0.0000000000000000     
   1.2781489350524554E-003   2.5616794809749763E-003   0.0000000000000000     
   1.9328640717965178E-003   4.4036461385988691E-003   0.0000000000000000     
   2.5980063213524697E-003   6.6196974076470315E-003   0.0000000000000000     
   0.0000000000000000        0.0000000000000000        0.0000000000000000     
   4.2428708596266816E-004   1.0823364519520278E-003   0.0000000000000000     
   8.5306916712116795E-004   2.5358585697665991E-003   0.0000000000000000     
   1.2863462434754994E-003   4.3605663534437141E-003   0.0000000000000000     
   1.7241183150256626E-003   6.5564598029833714E-003   0.0000000000000000     
   0.0000000000000000        0.0000000000000000        0.0000000000000000     
   2.1300011555875367E-004   1.0754598622477972E-003   0.0000000000000000     
   4.2701952203643990E-004   2.5203660230298784E-003   0.0000000000000000     
   6.4205821943305878E-004   4.3347184823462450E-003   0.0000000000000000     
   8.5811620774861000E-004   6.5185172401968942E-003   0.0000000000000000     
   0.0000000000000000        0.0000000000000000        0.0000000000000000     
  -9.1460530555337316E-014   1.0731676656626611E-003   0.0000000000000000     
  -2.0172877040688930E-013   2.5152018407648153E-003   0.0000000000000000     
  -3.3080482797487321E-013   4.3261025253064607E-003   0.0000000000000000     
  -4.7868843220874591E-013   6.5058697192876000E-003   0.0000000000000000     
   3.4797802267290314E-003   6.7082300541878737E-003   0.0000000000000000     
   4.3885209377458202E-003   9.2932760027830980E-003   0.0000000000000000     
   5.2995903823632468E-003   1.2181726280596982E-002   0.0000000000000000     
   6.2129885605813097E-003   1.5373580887629518E-002   0.0000000000000000     
   7.1287154724000087E-003   1.8868839823880715E-002   0.0000000000000000     
   2.5980063213524697E-003   6.6196974076470315E-003   0.0000000000000000     
   3.2705915686460094E-003   9.1768503975469470E-003   0.0000000000000000     
   3.9476356986028333E-003   1.2042122217726098E-002   0.0000000000000000     
   4.6291387112229413E-003   1.5215512868184485E-002   0.0000000000000000     
   5.3151006065063344E-003   1.8697022348922104E-002   0.0000000000000000     
   1.7241183150256626E-003   6.5564598029833714E-003   0.0000000000000000     
   2.1665282892219021E-003   9.0936892509614706E-003   0.0000000000000000     
   2.6137190735144610E-003   1.1942405029953904E-002   0.0000000000000000     
   3.0656906679033410E-003   1.5102607139960672E-002   0.0000000000000000     
   3.5224430723885406E-003   1.8574295580981774E-002   0.0000000000000000     
   8.5811620774861000E-004   6.5185172401968942E-003   0.0000000000000000     
   1.0763310994734996E-003   9.0437925630266654E-003   0.0000000000000000     
   1.2978405070981319E-003   1.1882574717280391E-002   0.0000000000000000     
   1.5226444306225071E-003   1.5034863702958074E-002   0.0000000000000000     
   1.7507428700466259E-003   1.8500659520059710E-002   0.0000000000000000     
  -4.7868843220874591E-013   6.5058697192876000E-003   0.0000000000000000     
  -5.9919910287871414E-013   9.0271603337425330E-003   0.0000000000000000     
  -6.4615610225696868E-013   1.1862631279705564E-002   0.0000000000000000     
  -6.1955876965781066E-013   1.5012282557176694E-002   0.0000000000000000     
  -5.1940775899067537E-013   1.8476114166155917E-002   0.0000000000000000     
   7.1287154724000087E-003   1.8868839823880715E-002   0.0000000000000000     
   8.0401293162675920E-003   2.2641666889782076E-002   0.0000000000000000     
   8.9405882906323005E-003   2.6666225885765126E-002   0.0000000000000000     
   9.8300923954941378E-003   3.0942516811829843E-002   0.0000000000000000     
   1.0708641630853100E-002   3.5470539667976239E-002   0.0000000000000000     
   5.3151006065063344E-003   1.8697022348922104E-002   0.0000000000000000     
   5.9986154337935589E-003   2.2459296250442160E-002   0.0000000000000000     
   6.6727772424251593E-003   2.6474980163247841E-002   0.0000000000000000     
   7.3375860324011374E-003   3.0744074087339143E-002   0.0000000000000000     
   7.9930418037214932E-003   3.5266578022716072E-002   0.0000000000000000     
   3.5224430723885406E-003   1.8574295580981774E-002   0.0000000000000000     
   3.9780892535181316E-003   2.2329031507907944E-002   0.0000000000000000     
   4.4267421778401853E-003   2.6338376075629926E-002   0.0000000000000000     
   4.8684018453547025E-003   3.0602329284147710E-002   0.0000000000000000     
   5.3030682560616825E-003   3.5120891133461299E-002   0.0000000000000000     
   1.7507428700466259E-003   1.8500659520059710E-002   0.0000000000000000     
   1.9785507754413092E-003   2.2250872662179431E-002   0.0000000000000000     
   2.2024830968773780E-003   2.6256413622911378E-002   0.0000000000000000     
   2.4225398343548318E-003   3.0517282402255541E-002   0.0000000000000000     
   2.6387209878736707E-003   3.5033479000211920E-002   0.0000000000000000     
  -5.1940775899067537E-013   1.8476114166155917E-002   0.0000000000000000     
  -4.3690815939093075E-013   2.2224819713256627E-002   0.0000000000000000     
  -4.6326373184628344E-013   2.6229092805092204E-002   0.0000000000000000     
  -5.9847579772813117E-013   3.0488933441662647E-002   0.0000000000000000     
  -8.4254391657934136E-013   3.5004341622967956E-002   0.0000000000000000     
   1.0708641630853100E-002   3.5470539667976239E-002   0.0000000000000000     
   1.1570716231072819E-002   4.0230054666132081E-002   0.0000000000000000     
   1.2410796430516917E-002   4.5200822018225131E-002   0.0000000000000000     
   1.3228882229185397E-002   5.0382841724255382E-002   0.0000000000000000     
   1.4024973627078257E-002   5.5776113784222849E-002   0.0000000000000000     
   7.9930418037214932E-003   3.5266578022716072E-002   0.0000000000000000     
   8.6360486982511205E-003   4.0022708061863664E-002   0.0000000000000000     
   9.2635108578549182E-003   4.4992680297266961E-002   0.0000000000000000     
   9.8754282825328828E-003   5.0176494728925956E-002   0.0000000000000000     
   1.0471800972285016E-002   5.5574151356840656E-002   0.0000000000000000     
   5.3030682560616825E-003   3.5120891133461299E-002   0.0000000000000000     
   5.7293734819477181E-003   3.9874603344873638E-002   0.0000000000000000     
   6.1459495949993965E-003   4.4844007639687648E-002   0.0000000000000000     
   6.5527965952167236E-003   5.0029104017903357E-002   0.0000000000000000     
   6.9499144825996943E-003   5.5429892479520737E-002   0.0000000000000000     
   2.6387209878736707E-003   3.5033479000211920E-002   0.0000000000000000     
   2.8506905821626080E-003   3.9785740515161989E-002   0.0000000000000000     
   3.0581126419503570E-003   4.4754804045487213E-002   0.0000000000000000     
   3.2609871672369174E-003   4.9940669591187571E-002   0.0000000000000000     
   3.4593141580222886E-003   5.5343337152263077E-002   0.0000000000000000     
  -8.4254391657934136E-013   3.5004341622967956E-002   0.0000000000000000     
  -1.1042064615093827E-012   3.9756119572728746E-002   0.0000000000000000     
  -1.2922038656118517E-012   4.4725069514665629E-002   0.0000000000000000     
  -1.4065347465289785E-012   4.9911191448778612E-002   0.0000000000000000     
  -1.4471997818871207E-012   5.5314485375067682E-002   0.0000000000000000     
   1.4024973627078257E-002   5.5776113784222849E-002   0.0000000000000000     
   1.4797792963652162E-002   6.1367675521078649E-002   0.0000000000000000     
   1.5546062578363785E-002   6.7144564257773903E-002   0.0000000000000000     
   1.6269782471213128E-002   7.3106779994308591E-002   0.0000000000000000     
   1.6968952642200184E-002   7.9254322730682766E-002   0.0000000000000000     
   1.0471800972285016E-002   5.5574151356840656E-002   0.0000000000000000     
   1.1051096031981331E-002   6.1171379389751222E-002   0.0000000000000000     
   1.1611780566491830E-002   6.6953908036397794E-002   0.0000000000000000     
   1.2153854575816522E-002   7.2921737296780378E-002   0.0000000000000000     
   1.2677318059955402E-002   7.9074867170899010E-002   0.0000000000000000     
   6.9499144825996943E-003   5.5429892479520737E-002   0.0000000000000000     
   7.3358982272154812E-003   6.1031167866206180E-002   0.0000000000000000     
   7.7093427991312543E-003   6.6817725019626059E-002   0.0000000000000000     
   8.0702481983470110E-003   7.2789563939780394E-002   0.0000000000000000     
   8.4186144248627557E-003   7.8946684626669192E-002   0.0000000000000000     
   3.4593141580222886E-003   5.5343337152263077E-002   0.0000000000000000     
   3.6521995493546200E-003   6.0947040950443523E-002   0.0000000000000000     
   3.8387492762820565E-003   6.6736015207458699E-002   0.0000000000000000     
   4.0189633388046020E-003   7.2710259923308651E-002   0.0000000000000000     
   4.1928417369222525E-003   7.8869775097993311E-002   0.0000000000000000     
  -1.4471997818871207E-012   5.5314485375067682E-002   0.0000000000000000     
  -1.6012558032990620E-012   6.0918998642463258E-002   0.0000000000000000     
  -2.0557601844786721E-012   6.6708778599895741E-002   0.0000000000000000     
  -2.8107126272703536E-012   7.2683825247365094E-002   0.0000000000000000     
  -3.8661120745769884E-012   7.8844138584871382E-002   0.0000000000000000     
   1.6968952642200184E-002   7.9254322730682766E-002   0.0000000000000000     
   1.7643057726305755E-002   8.5573923342679672E-002   0.0000000000000000     
   1.8291582358510642E-002   9.2052312706082634E-002   0.0000000000000000     
   1.8914526538814848E-002   9.8689490820891623E-002   0.0000000000000000     
   1.9511890267218369E-002  0.10548545768710667        0.0000000000000000     
   1.2677318059955402E-002   7.9074867170899010E-002   0.0000000000000000     
   1.3181952546893838E-002   8.5400412313942103E-002   0.0000000000000000     
   1.3667539564617207E-002   9.1885487381098183E-002   0.0000000000000000     
   1.4134079113125506E-002   9.8530092372367289E-002   0.0000000000000000     
   1.4581571192418733E-002  0.10533422728774935        0.0000000000000000     
   8.4186144248627557E-003   7.8946684626669192E-002   0.0000000000000000     
   8.7544078655598448E-003   8.5276475863985762E-002   0.0000000000000000     
   9.0775949073196339E-003   9.1766326435423512E-002   0.0000000000000000     
   9.3881755501421232E-003   9.8416236340982427E-002   0.0000000000000000     
   9.6861497940273159E-003  0.10522620558066251        0.0000000000000000     
   4.1928417369222525E-003   7.8869775097993311E-002   0.0000000000000000     
   4.3604236823037721E-003   8.5202113992810635E-002   0.0000000000000000     
   4.5217483866179225E-003   9.1694829869058553E-002   0.0000000000000000     
   4.6768158498647046E-003   9.8347922726737091E-002   0.0000000000000000     
   4.8256260720441176E-003  0.10516139256584621        0.0000000000000000     
  -3.8661120745769884E-012   7.8844138584871382E-002   0.0000000000000000     
  -2.8743765180527792E-012   8.5177326700416736E-002   0.0000000000000000     
   2.5120766469592659E-012   9.1670997682003347E-002   0.0000000000000000     
   1.2293248057427923E-011   9.8325151529631255E-002   0.0000000000000000     
   2.6469137645590557E-011  0.10513978824330039        0.0000000000000000     
   1.9511890267218369E-002  0.10548545768710667        0.0000000000000000     
   2.0083473739391008E-002  0.11242904854599603        0.0000000000000000     
   2.0629077151002571E-002  0.11950909863882792        0.0000000000000000     
   2.1148700502053048E-002  0.12672560796560239        0.0000000000000000     
   2.1642343792542453E-002  0.13407857652631938        0.0000000000000000     
   1.4581571192418733E-002  0.10533422728774935        0.0000000000000000     
   1.5009457106931681E-002  0.11228613801406838        0.0000000000000000     
   1.5417178161099143E-002  0.11937407043814834        0.0000000000000000     
   1.5804734354921114E-002  0.12659802455998928        0.0000000000000000     
   1.6172125688397598E-002  0.13395800037959116        0.0000000000000000     
   9.6861497940273159E-003  0.10522620558066251        0.0000000000000000     
   9.9708726130840631E-003  0.11218405907348825        0.0000000000000000     
   1.0241698981421214E-002  0.11927762173848409        0.0000000000000000     
   1.0498628899038773E-002  0.12650689357565009        0.0000000000000000     
   1.0741662365936737E-002  0.13387187458498620        0.0000000000000000     
   4.8256260720441176E-003  0.10516139256584621        0.0000000000000000     
   4.9677202578481483E-003  0.11212281172425566        0.0000000000000000     
   5.1026396119687838E-003  0.11921975253983520        0.0000000000000000     
   5.2303841344060248E-003  0.12645221501258486        0.0000000000000000     
   5.3509538251598722E-003  0.13382019914250462        0.0000000000000000     
   2.6469137645590557E-011  0.10513978824330039        0.0000000000000000     
   4.1223940710696794E-011  0.11210239596637062        0.0000000000000000     
   5.2741852443576043E-011  0.11920046284220163        0.0000000000000000     
   6.1022874226586074E-011  0.12643398887079355        0.0000000000000000     
   6.6067002996855750E-011  0.13380297405214628        0.0000000000000000     
   2.1642343792542453E-002  0.13407857652631938        0.0000000000000000     
   2.2109697351062857E-002  0.14155493483383941        0.0000000000000000     
   2.2550451506206319E-002  0.14914161340102278        0.0000000000000000     
   2.2964606257972857E-002  0.15683861222786957        0.0000000000000000     
   2.3352161606362460E-002  0.16464593131437971        0.0000000000000000     
   1.6172125688397598E-002  0.13395800037959116        0.0000000000000000     
   1.6518048245606442E-002  0.14144186327666619        0.0000000000000000     
   1.6841198110625497E-002  0.14903747863092656        0.0000000000000000     
   1.7141575283454762E-002  0.15674484644237230        0.0000000000000000     
   1.7419179764094232E-002  0.16456396671100340        0.0000000000000000     
   1.0741662365936737E-002  0.13387187458498620        0.0000000000000000     
   1.0969215660949954E-002  0.14136109789700327        0.0000000000000000     
   1.1179705062913268E-002  0.14896309664221200        0.0000000000000000     
   1.1373130571826680E-002  0.15667787082061241        0.0000000000000000     
   1.1549492187690191E-002  0.16450542043220456        0.0000000000000000     
   5.3509538251598722E-003  0.13382019914250462        0.0000000000000000     
   5.4631995970933871E-003  0.14131263869485058        0.0000000000000000     
   5.5659723630696366E-003  0.14891846743487902        0.0000000000000000     
   5.6592721230886147E-003  0.15663768536258990        0.0000000000000000     
   5.7430988771503292E-003  0.16447029247798317        0.0000000000000000     
   6.6067002996855750E-011  0.13380297405214628        0.0000000000000000     
   5.4036743612692617E-011  0.14129648567020822        0.0000000000000000     
   1.1094599089260526E-011  0.14890359100892767        0.0000000000000000     
  -6.2759432660529704E-011  0.15662429006830472        0.0000000000000000     
  -1.6752534949537878E-010  0.16445858284833925        0.0000000000000000     
   0.0000000000000000        0.0000000000000000        0.0000000000000000     
  -9.1460530555337316E-014   1.0731676656626611E-003   0.0000000000000000     
  -2.0172877040688930E-013   2.5152018407648153E-003   0.0000000000000000     
  -3.3080482797487321E-013   4.3261025253064607E-003   0.0000000000000000     
  -4.7868843220874591E-013   6.5058697192876000E-003   0.0000000000000000     
   0.0000000000000000        0.0000000000000000        0.0000000000000000     
  -2.1300011574935544E-004   1.0754598622091792E-003   0.0000000000000000     
  -4.2701952244950434E-004   2.5203660229828331E-003   0.0000000000000000     
  -6.4205822010044670E-004   4.3347184823209605E-003   0.0000000000000000     
  -8.5811620870218208E-004   6.5185172402235638E-003   0.0000000000000000     
   0.0000000000000000        0.0000000000000000        0.0000000000000000     
  -4.2428708617631221E-004   1.0823364518999109E-003   0.0000000000000000     
  -8.5306916756305309E-004   2.5358585696953584E-003   0.0000000000000000     
  -1.2863462441602227E-003   4.3605663533863416E-003   0.0000000000000000     
  -1.7241183159678213E-003   6.5564598029728624E-003   0.0000000000000000     
   0.0000000000000000        0.0000000000000000        0.0000000000000000     
  -6.3386091137233077E-004   1.0937974347348561E-003   0.0000000000000000     
  -1.2781489355423749E-003   2.5616794809023907E-003   0.0000000000000000     
  -1.9328640725101329E-003   4.4036461385026041E-003   0.0000000000000000     
  -2.5980063222756050E-003   6.6196974075354966E-003   0.0000000000000000     
   0.0000000000000000        0.0000000000000000        0.0000000000000000     
  -8.4172159133741092E-004   1.1098428107140148E-003   0.0000000000000000     
  -1.7022588263874701E-003   2.5978287566039305E-003   0.0000000000000000     
  -2.5816117051501780E-003   4.4639578376697471E-003   0.0000000000000000     
  -3.4797802276255339E-003   6.7082300539114646E-003   0.0000000000000000     
  -4.7868843220874591E-013   6.5058697192876000E-003   0.0000000000000000     
  -5.9919910287871414E-013   9.0271603337425330E-003   0.0000000000000000     
  -6.4615610225696868E-013   1.1862631279705564E-002   0.0000000000000000     
  -6.1955876965781066E-013   1.5012282557176694E-002   0.0000000000000000     
  -5.1940775899067537E-013   1.8476114166155917E-002   0.0000000000000000     
  -8.5811620870218208E-004   6.5185172402235638E-003   0.0000000000000000     
  -1.0763311006611210E-003   9.0437925630601716E-003   0.0000000000000000     
  -1.2978405083836715E-003   1.1882574717200320E-002   0.0000000000000000     
  -1.5226444318698345E-003   1.5034863702644004E-002   0.0000000000000000     
  -1.7507428711196103E-003   1.8500659519391231E-002   0.0000000000000000     
  -1.7241183159678213E-003   6.5564598029728624E-003   0.0000000000000000     
  -2.1665282903771937E-003   9.0936892509306793E-003   0.0000000000000000     
  -2.6137190747796859E-003   1.1942405029735552E-002   0.0000000000000000     
  -3.0656906691752979E-003   1.5102607139387481E-002   0.0000000000000000     
  -3.5224430735640291E-003   1.8574295579886470E-002   0.0000000000000000     
  -2.5980063222756050E-003   6.6196974075354966E-003   0.0000000000000000     
  -3.2705915697474179E-003   9.1768503973540527E-003   0.0000000000000000     
  -3.9476356998341998E-003   1.2042122217311263E-002   0.0000000000000000     
  -4.6291387125359483E-003   1.5215512867407122E-002   0.0000000000000000     
  -5.3151006078526655E-003   1.8697022347641635E-002   0.0000000000000000     
  -3.4797802276255339E-003   6.7082300539114646E-003   0.0000000000000000     
  -4.3885209387717929E-003   9.2932760023302953E-003   0.0000000000000000     
  -5.2995903835472103E-003   1.2181726279927448E-002   0.0000000000000000     
  -6.2129885619517863E-003   1.5373580886702928E-002   0.0000000000000000     
  -7.1287154739855200E-003   1.8868839822656733E-002   0.0000000000000000     
  -5.1940775899067537E-013   1.8476114166155917E-002   0.0000000000000000     
  -4.3690815939093075E-013   2.2224819713256627E-002   0.0000000000000000     
  -4.6326373184628344E-013   2.6229092805092204E-002   0.0000000000000000     
  -5.9847579772813117E-013   3.0488933441662647E-002   0.0000000000000000     
  -8.4254391657934136E-013   3.5004341622967956E-002   0.0000000000000000     
  -1.7507428711196103E-003   1.8500659519391231E-002   0.0000000000000000     
  -1.9785507763648044E-003   2.2250872661295377E-002   0.0000000000000000     
  -2.2024830978372230E-003   2.6256413622209821E-002   0.0000000000000000     
  -2.4225398355368663E-003   3.0517282402134568E-002   0.0000000000000000     
  -2.6387209894637338E-003   3.5033479001069616E-002   0.0000000000000000     
  -3.5224430735640291E-003   1.8574295579886470E-002   0.0000000000000000     
  -3.9780892545906643E-003   2.2329031506451522E-002   0.0000000000000000     
  -4.4267421788999816E-003   2.6338376074301652E-002   0.0000000000000000     
  -4.8684018464919855E-003   3.0602329283436855E-002   0.0000000000000000     
  -5.3030682573666742E-003   3.5120891133857135E-002   0.0000000000000000     
  -5.3151006078526655E-003   1.8697022347641635E-002   0.0000000000000000     
  -5.9986154351144849E-003   2.2459296248725068E-002   0.0000000000000000     
  -6.6727772436515420E-003   2.6474980161367696E-002   0.0000000000000000     
  -7.3375860334638342E-003   3.0744074085569520E-002   0.0000000000000000     
  -7.9930418045513624E-003   3.5266578021330527E-002   0.0000000000000000     
  -7.1287154739855200E-003   1.8868839822656733E-002   0.0000000000000000     
  -8.0401293179362711E-003   2.2641666888116019E-002   0.0000000000000000     
  -8.9405882920919038E-003   2.6666225883407960E-002   0.0000000000000000     
  -9.8300923964524112E-003   3.0942516808532543E-002   0.0000000000000000     
  -1.0708641631017802E-002   3.5470539663489772E-002   0.0000000000000000     
  -8.4254391657934136E-013   3.5004341622967956E-002   0.0000000000000000     
  -1.1042064615093827E-012   3.9756119572728746E-002   0.0000000000000000     
  -1.2922038656118517E-012   4.4725069514665629E-002   0.0000000000000000     
  -1.4065347465289785E-012   4.9911191448778612E-002   0.0000000000000000     
  -1.4471997818871207E-012   5.5314485375067682E-002   0.0000000000000000     
  -2.6387209894637338E-003   3.5033479001069616E-002   0.0000000000000000     
  -2.8506905841506618E-003   3.9785740516666314E-002   0.0000000000000000     
  -3.0581126441304859E-003   4.4754804046575995E-002   0.0000000000000000     
  -3.2609871694032045E-003   4.9940669590798688E-002   0.0000000000000000     
  -3.4593141599688201E-003   5.5343337149334371E-002   0.0000000000000000     
  -5.3030682573666742E-003   3.5120891133857135E-002   0.0000000000000000     
  -5.7293734832746940E-003   3.9874603346067107E-002   0.0000000000000000     
  -6.1459495959666913E-003   4.4844007640571407E-002   0.0000000000000000     
  -6.5527965954426670E-003   5.0029104017370020E-002   0.0000000000000000     
  -6.9499144817026220E-003   5.5429892476462954E-002   0.0000000000000000     
  -7.9930418045513624E-003   3.5266578021330527E-002   0.0000000000000000     
  -8.6360486984762980E-003   4.0022708060931146E-002   0.0000000000000000     
  -9.2635108568008204E-003   4.4992680296651856E-002   0.0000000000000000     
  -9.8754282795249226E-003   5.0176494728492609E-002   0.0000000000000000     
  -1.0471800966648605E-002   5.5574151356453431E-002   0.0000000000000000     
  -1.0708641631017802E-002   3.5470539663489772E-002   0.0000000000000000     
  -1.1570716229755482E-002   4.0230054661258445E-002   0.0000000000000000     
  -1.2410796426632871E-002   4.5200822014817336E-002   0.0000000000000000     
  -1.3228882221649965E-002   5.0382841724166461E-002   0.0000000000000000     
  -1.4024973614806768E-002   5.5776113789305803E-002   0.0000000000000000     
  -1.4471997818871207E-012   5.5314485375067682E-002   0.0000000000000000     
  -1.6012558032990620E-012   6.0918998642463258E-002   0.0000000000000000     
  -2.0557601844786721E-012   6.6708778599895741E-002   0.0000000000000000     
  -2.8107126272703536E-012   7.2683825247365094E-002   0.0000000000000000     
  -3.8661120745769884E-012   7.8844138584871382E-002   0.0000000000000000     
  -3.4593141599688201E-003   5.5343337149334371E-002   0.0000000000000000     
  -3.6521995512683262E-003   6.0947040944896898E-002   0.0000000000000000     
  -3.8387492787427184E-003   6.6736015200200144E-002   0.0000000000000000     
  -4.0189633423919971E-003   7.2710259915244060E-002   0.0000000000000000     
  -4.1928417422161619E-003   7.8869775090028696E-002   0.0000000000000000     
  -6.9499144817026220E-003   5.5429892476462954E-002   0.0000000000000000     
  -7.3358982252627750E-003   6.1031167860375990E-002   0.0000000000000000     
  -7.7093427966393405E-003   6.6817725011634924E-002   0.0000000000000000     
  -8.0702481958323247E-003   7.2789563930239776E-002   0.0000000000000000     
  -8.4186144228417248E-003   7.8946684616190518E-002   0.0000000000000000     
  -1.0471800966648605E-002   5.5574151356453431E-002   0.0000000000000000     
  -1.1051096023584596E-002   6.1171379388900528E-002   0.0000000000000000     
  -1.1611780555745627E-002   6.6953908034200135E-002   0.0000000000000000     
  -1.2153854563131693E-002   7.2921737292352268E-002   0.0000000000000000     
  -1.2677318045742795E-002   7.9074867163356891E-002   0.0000000000000000     
  -1.4024973614806768E-002   5.5776113789305803E-002   0.0000000000000000     
  -1.4797792946233798E-002   6.1367675530470511E-002   0.0000000000000000     
  -1.5546062556061576E-002   6.7144564267895751E-002   0.0000000000000000     
  -1.6269782444290105E-002   7.3106780001581481E-002   0.0000000000000000     
  -1.6968952610919380E-002   7.9254322731527743E-002   0.0000000000000000     
  -3.8661120745769884E-012   7.8844138584871382E-002   0.0000000000000000     
  -2.8743765180527792E-012   8.5177326700416736E-002   0.0000000000000000     
   2.5120766469592659E-012   9.1670997682003347E-002   0.0000000000000000     
   1.2293248057427923E-011   9.8325151529631255E-002   0.0000000000000000     
   2.6469137645590557E-011  0.10513978824330039        0.0000000000000000     
  -4.1928417422161619E-003   7.8869775090028696E-002   0.0000000000000000     
  -4.3604236860062800E-003   8.5202113988087358E-002   0.0000000000000000     
  -4.5217483815534181E-003   9.1694829872953423E-002   0.0000000000000000     
  -4.6768158288575763E-003   9.8347922744626878E-002   0.0000000000000000     
  -4.8256260279187545E-003  0.10516139260310772        0.0000000000000000     
  -8.4186144228417248E-003   7.8946684616190518E-002   0.0000000000000000     
  -8.7544078631236148E-003   8.5276475857105807E-002   0.0000000000000000     
  -9.0775949021340754E-003   9.1766326440604271E-002   0.0000000000000000     
  -9.3881755398730980E-003   9.8416236366685922E-002   0.0000000000000000     
  -9.6861497763406912E-003  0.10522620563535076        0.0000000000000000     
  -1.2677318045742795E-002   7.9074867163356891E-002   0.0000000000000000     
  -1.3181952534226384E-002   8.5400412307472071E-002   0.0000000000000000     
  -1.3667539559229886E-002   9.1885487384955930E-002   0.0000000000000000     
  -1.4134079120753320E-002   9.8530092395808413E-002   0.0000000000000000     
  -1.4581571218796672E-002  0.10533422734002958        0.0000000000000000     
  -1.6968952610919380E-002   7.9254322731527743E-002   0.0000000000000000     
  -1.7643057699314579E-002   8.5573923339186161E-002   0.0000000000000000     
  -1.8291582352840865E-002   9.2052312706008360E-002   0.0000000000000000     
  -1.8914526571498239E-002   9.8689490831994367E-002   0.0000000000000000     
  -1.9511890355286696E-002  0.10548545771714413        0.0000000000000000     
   2.6469137645590557E-011  0.10513978824330039        0.0000000000000000     
   4.1223940710696794E-011  0.11210239596637062        0.0000000000000000     
   5.2741852443576043E-011  0.11920046284220163        0.0000000000000000     
   6.1022874226586074E-011  0.12643398887079355        0.0000000000000000     
   6.6067002996855750E-011  0.13380297405214628        0.0000000000000000     
  -4.8256260279187545E-003  0.10516139260310772        0.0000000000000000     
  -4.9677201894224674E-003  0.11212281178466039        0.0000000000000000     
  -5.1026395240542297E-003  0.11921975262554937        0.0000000000000000     
  -5.2303840318140404E-003  0.12645221512577468        0.0000000000000000     
  -5.3509537127018987E-003  0.13382019928533623        0.0000000000000000     
  -9.6861497763406912E-003  0.10522620563535076        0.0000000000000000     
  -9.9708725867249850E-003  0.11218405916395238        0.0000000000000000     
  -1.0241698946214111E-002  0.11927762186984436        0.0000000000000000     
  -1.0498628854808071E-002  0.12650689375302668        0.0000000000000000     
  -1.0741662312506863E-002  0.13387187481349938        0.0000000000000000     
  -1.4581571218796672E-002  0.10533422734002958        0.0000000000000000     
  -1.5009457150683610E-002  0.11228613810424656        0.0000000000000000     
  -1.5417178213737793E-002  0.11937407057508657        0.0000000000000000     
  -1.5804734407959219E-002  0.12659802475254966        0.0000000000000000     
  -1.6172125733347885E-002  0.13395800063663571        0.0000000000000000     
  -1.9511890355286696E-002  0.10548545771714413        0.0000000000000000     
  -2.0083473881298344E-002  0.11242904860554294        0.0000000000000000     
  -2.0629077326625268E-002  0.11950909874127608        0.0000000000000000     
  -2.1148700691267480E-002  0.12672560812434353        0.0000000000000000     
  -2.1642343975224972E-002  0.13407857675474530        0.0000000000000000     
   6.6067002996855750E-011  0.13380297405214628        0.0000000000000000     
   5.4036743612692617E-011  0.14129648567020822        0.0000000000000000     
   1.1094599089260526E-011  0.14890359100892767        0.0000000000000000     
  -6.2759432660529704E-011  0.15662429006830472        0.0000000000000000     
  -1.6752534949537878E-010  0.16445858284833925        0.0000000000000000     
  -5.3509537127018987E-003  0.13382019928533623        0.0000000000000000     
  -5.4631995031992195E-003  0.14131263880477066        0.0000000000000000     
  -5.5659723397874080E-003  0.14891846738461448        0.0000000000000000     
  -5.6592722224664662E-003  0.15663768502486775        0.0000000000000000     
  -5.7430991512363947E-003  0.16447029172553040        0.0000000000000000     
  -1.0741662312506863E-002  0.13387187481349938        0.0000000000000000     
  -1.0969215609593739E-002  0.14136109808023245        0.0000000000000000     
  -1.1179705036351947E-002  0.14896309658219592        0.0000000000000000     
  -1.1373130592781486E-002  0.15667787031938982        0.0000000000000000     
  -1.1549492278882356E-002  0.16450541929181414        0.0000000000000000     
  -1.6172125733347885E-002  0.13395800063663571        0.0000000000000000     
  -1.6518048265146815E-002  0.14144186349659360        0.0000000000000000     
  -1.6841198078599018E-002  0.14903747860167205        0.0000000000000000     
  -1.7141575173704487E-002  0.15674484595187096        0.0000000000000000     
  -1.7419179550463230E-002  0.16456396554719047        0.0000000000000000     
  -2.1642343975224972E-002  0.13407857675474530        0.0000000000000000     
  -2.2109697469858455E-002  0.14155493505385411        0.0000000000000000     
  -2.2550451466528624E-002  0.14914161344304272        0.0000000000000000     
  -2.2964605965235477E-002  0.15683861192231116        0.0000000000000000     
  -2.3352160965979030E-002  0.16464593049165943        0.0000000000000000     
   0.0000000000000000        0.0000000000000000        0.0000000000000000     
  -8.4172159133741092E-004   1.1098428107140148E-003   0.0000000000000000     
  -1.7022588263874701E-003   2.5978287566039305E-003   0.0000000000000000     
  -2.5816117051501780E-003   4.4639578376697471E-003   0.0000000000000000     
  -3.4797802276255339E-003   6.7082300539114646E-003   0.0000000000000000     
   0.0000000000000000        0.0000000000000000        0.0000000000000000     
  -1.0567675753682211E-003   1.1340360999921718E-003   0.0000000000000000     
  -2.1399302011680444E-003   2.6501524213983722E-003   0.0000000000000000     
  -3.2494878773994700E-003   4.5483489642186006E-003   0.0000000000000000     
  -4.3854406040624962E-003   6.8286257284528584E-003   0.0000000000000000     
   0.0000000000000000        0.0000000000000000        0.0000000000000000     
  -1.2878973127614299E-003   1.1699408227241123E-003   0.0000000000000000     
  -2.6056944209538039E-003   2.7244964998841105E-003   0.0000000000000000     
  -3.9533913245771218E-003   4.6636670314799946E-003   0.0000000000000000     
  -5.3309880236313842E-003   6.9874524175117646E-003   0.0000000000000000     
   0.0000000000000000        0.0000000000000000        0.0000000000000000     
  -1.5351108035170369E-003   1.2175569789098359E-003   0.0000000000000000     
  -3.0995514857447477E-003   2.8208609920611456E-003   0.0000000000000000     
  -4.6933220466831337E-003   4.8099120394539292E-003   0.0000000000000000     
  -6.3164224863321936E-003   7.1847101210881868E-003   0.0000000000000000     
   0.0000000000000000        0.0000000000000000        0.0000000000000000     
  -1.7984080476350422E-003   1.2768845685493429E-003   0.0000000000000000     
  -3.6215013955408775E-003   2.9392458979294769E-003   0.0000000000000000     
  -5.4692800437175053E-003   4.9870839881404026E-003   0.0000000000000000     
  -7.3417439921649261E-003   7.4203988391821204E-003   0.0000000000000000     
  -3.4797802276255339E-003   6.7082300539114646E-003   0.0000000000000000     
  -4.3885209387717929E-003   9.2932760023302953E-003   0.0000000000000000     
  -5.2995903835472103E-003   1.2181726279927448E-002   0.0000000000000000     
  -6.2129885619517863E-003   1.5373580886702928E-002   0.0000000000000000     
  -7.1287154739855200E-003   1.8868839822656733E-002   0.0000000000000000     
  -4.3854406040624962E-003   6.8286257284528584E-003   0.0000000000000000     
  -5.5348420956101482E-003   9.4489120958665823E-003   0.0000000000000000     
  -6.6847460664954429E-003   1.2367137448225216E-002   0.0000000000000000     
  -7.8351525167183796E-003   1.5583301785528756E-002   0.0000000000000000     
  -8.9860614462789618E-003   1.9097405107777205E-002   0.0000000000000000     
  -5.3309880236313842E-003   6.9874524175117646E-003   0.0000000000000000     
  -6.7240807384223080E-003   9.6497047079700977E-003   0.0000000000000000     
  -8.1182656892556139E-003   1.2604275952845662E-002   0.0000000000000000     
  -9.5135428761313010E-003   1.5851166152138465E-002   0.0000000000000000     
  -1.0909912299049371E-002   1.9390375305848504E-002   0.0000000000000000     
  -6.3164224863321936E-003   7.1847101210881868E-003   0.0000000000000000     
  -7.9562368672082742E-003   9.8956538386408346E-003   0.0000000000000000     
  -9.6001492518277276E-003   1.2893141793788792E-002   0.0000000000000000     
  -1.1248159640190547E-002   1.6177173986532060E-002   0.0000000000000000     
  -1.2900268032296738E-002   1.9747750416870633E-002   0.0000000000000000     
  -7.3417439921649261E-003   7.4203988391821204E-003   0.0000000000000000     
  -9.2313104819680501E-003   1.0186759487878796E-002   0.0000000000000000     
  -1.1130396754211781E-002   1.3233734971054600E-002   0.0000000000000000     
  -1.3039002808896121E-002   1.6561325288709530E-002   0.0000000000000000     
  -1.4957128646021070E-002   2.0169530440843589E-002   0.0000000000000000     
  -7.1287154739855200E-003   1.8868839822656733E-002   0.0000000000000000     
  -8.0401293179362711E-003   2.2641666888116019E-002   0.0000000000000000     
  -8.9405882920919038E-003   2.6666225883407960E-002   0.0000000000000000     
  -9.8300923964524112E-003   3.0942516808532543E-002   0.0000000000000000     
  -1.0708641631017802E-002   3.5470539663489772E-002   0.0000000000000000     
  -8.9860614462789618E-003   1.9097405107777205E-002   0.0000000000000000     
  -1.0130337899784410E-002   2.2884729437929154E-002   0.0000000000000000     
  -1.1260846921841944E-002   2.6920556798943195E-002   0.0000000000000000     
  -1.2377588512451567E-002   3.1204887190819337E-002   0.0000000000000000     
  -1.3480562671613273E-002   3.5737720613557566E-002   0.0000000000000000     
  -1.0909912299049371E-002   1.9390375305848504E-002   0.0000000000000000     
  -1.2296948177387294E-002   2.3197069911469248E-002   0.0000000000000000     
  -1.3664224730522553E-002   2.7246416466494179E-002   0.0000000000000000     
  -1.5011741958455144E-002   3.1538414970923287E-002   0.0000000000000000     
  -1.6339499861185065E-002   3.6073065424756572E-002   0.0000000000000000     
  -1.2900268032296738E-002   1.9747750416870633E-002   0.0000000000000000     
  -1.4539960150744923E-002   2.3578688308736315E-002   0.0000000000000000     
  -1.6150721718133726E-002   2.7643804886060903E-002   0.0000000000000000     
  -1.7732552734463142E-002   3.1943100148844397E-002   0.0000000000000000     
  -1.9285453199733175E-002   3.6476574097086795E-002   0.0000000000000000     
  -1.4957128646021070E-002   2.0169530440843589E-002   0.0000000000000000     
  -1.6859373819857297E-002   2.4029584629730340E-002   0.0000000000000000     
  -1.8720337884675461E-002   2.8112722057643369E-002   0.0000000000000000     
  -2.0540020840475563E-002   3.2418942724582664E-002   0.0000000000000000     
  -2.2318422687257606E-002   3.6948246630548236E-002   0.0000000000000000     
  -1.0708641631017802E-002   3.5470539663489772E-002   0.0000000000000000     
  -1.1570716229755482E-002   4.0230054661258445E-002   0.0000000000000000     
  -1.2410796426632871E-002   4.5200822014817336E-002   0.0000000000000000     
  -1.3228882221649965E-002   5.0382841724166461E-002   0.0000000000000000     
  -1.4024973614806768E-002   5.5776113789305803E-002   0.0000000000000000     
  -1.3480562671613273E-002   3.5737720613557566E-002   0.0000000000000000     
  -1.4562322765238422E-002   4.0499170513059325E-002   0.0000000000000000     
  -1.5615422159238375E-002   4.5469350335226040E-002   0.0000000000000000     
  -1.6639860853613127E-002   5.0648260080057704E-002   0.0000000000000000     
  -1.7635638848362677E-002   5.6035899747554331E-002   0.0000000000000000     
  -1.6339499861185065E-002   3.6073065424756572E-002   0.0000000000000000     
  -1.7639814993051308E-002   4.0832582982344157E-002   0.0000000000000000     
  -1.8905003908392868E-002   4.5799182798036138E-002   0.0000000000000000     
  -2.0135066607209734E-002   5.0972864871832516E-002   0.0000000000000000     
  -2.1330003089501913E-002   5.6353629203733296E-002   0.0000000000000000     
  -1.9285453199733175E-002   3.6476574097086795E-002   0.0000000000000000     
  -2.0803192913194133E-002   4.1230292069112932E-002   0.0000000000000000     
  -2.2279541674096338E-002   4.6190319403247623E-002   0.0000000000000000     
  -2.3714499482439776E-002   5.1356656099490874E-002   0.0000000000000000     
  -2.5108066338224464E-002   5.6729302157842693E-002   0.0000000000000000     
  -2.2318422687257606E-002   3.6948246630548236E-002   0.0000000000000000     
  -2.4052456525666909E-002   4.1692297773365659E-002   0.0000000000000000     
  -2.5739035456348796E-002   4.6642760150860510E-002   0.0000000000000000     
  -2.7378159479303273E-002   5.1799633763032794E-002   0.0000000000000000     
  -2.8969828594530331E-002   5.7162918609882499E-002   0.0000000000000000     
  -1.4024973614806768E-002   5.5776113789305803E-002   0.0000000000000000     
  -1.4797792946233798E-002   6.1367675530470511E-002   0.0000000000000000     
  -1.5546062556061576E-002   6.7144564267895751E-002   0.0000000000000000     
  -1.6269782444290105E-002   7.3106780001581481E-002   0.0000000000000000     
  -1.6968952610919380E-002   7.9254322731527743E-002   0.0000000000000000     
  -1.7635638848362677E-002   5.6035899747554331E-002   0.0000000000000000     
  -1.8601833118046356E-002   6.1620463316814297E-002   0.0000000000000000     
  -1.9537520637223482E-002   6.7390144766935944E-002   0.0000000000000000     
  -2.0442701405894055E-002   7.3344944097919279E-002   0.0000000000000000     
  -2.1317375424058080E-002   7.9484861309764357E-002   0.0000000000000000     
  -2.1330003089501913E-002   5.6353629203733296E-002   0.0000000000000000     
  -2.2489060663858265E-002   6.1930149779660187E-002   0.0000000000000000     
  -2.3611486638867640E-002   6.7691100585534916E-002   0.0000000000000000     
  -2.4697281014530049E-002   7.3636481621357483E-002   0.0000000000000000     
  -2.5746443790845487E-002   7.9766292887127874E-002   0.0000000000000000     
  -2.5108066338224464E-002   5.6729302157842693E-002   0.0000000000000000     
  -2.6459475583669512E-002   6.2296734919008237E-002   0.0000000000000000     
  -2.7767960560994048E-002   6.8047431723692667E-002   0.0000000000000000     
  -2.9033521270198082E-002   7.3981392571896037E-002   0.0000000000000000     
  -3.0256157711281612E-002   8.0098617463618307E-002   0.0000000000000000     
  -2.8969828594530331E-002   5.7162918609882499E-002   0.0000000000000000     
  -3.0513077877480102E-002   6.2720218734858391E-002   0.0000000000000000     
  -3.2006942403602717E-002   6.8459138181409210E-002   0.0000000000000000     
  -3.3451422172898163E-002   7.4379676949534970E-002   0.0000000000000000     
  -3.4846517185366452E-002   8.0481835039235658E-002   0.0000000000000000     
  -1.6968952610919380E-002   7.9254322731527743E-002   0.0000000000000000     
  -1.7643057699314579E-002   8.5573923339186161E-002   0.0000000000000000     
  -1.8291582352840865E-002   9.2052312706008360E-002   0.0000000000000000     
  -1.8914526571498239E-002   9.8689490831994367E-002   0.0000000000000000     
  -1.9511890355286696E-002  0.10548545771714413        0.0000000000000000     
  -2.1317375424058080E-002   7.9484861309764357E-002   0.0000000000000000     
  -2.2160778200235490E-002   8.5796425124770620E-002   0.0000000000000000     
  -2.2972145242946225E-002   9.2266164265237635E-002   0.0000000000000000     
  -2.3751476552190284E-002   9.8894078731165402E-002   0.0000000000000000     
  -2.4498772127967677E-002  0.10568016852255387        0.0000000000000000     
  -2.5746443790845487E-002   7.9766292887127874E-002   0.0000000000000000     
  -2.6758168878836395E-002   8.6067333836748000E-002   0.0000000000000000     
  -2.7731650189525201E-002   9.2526403924119802E-002   0.0000000000000000     
  -2.8666887722911902E-002   9.9143503149243209E-002   0.0000000000000000     
  -2.9563881478996513E-002  0.10591863151211832        0.0000000000000000     
  -3.0256157711281612E-002   8.0098617463618307E-002   0.0000000000000000     
  -3.1435229735117295E-002   8.6386649475118302E-002   0.0000000000000000     
  -3.2570097192577793E-002   9.2833031682654804E-002   0.0000000000000000     
  -3.3660760083663102E-002   9.9437764086227856E-002   0.0000000000000000     
  -3.4707218408373208E-002  0.10620084668583743        0.0000000000000000     
  -3.4846517185366452E-002   8.0481835039235658E-002   0.0000000000000000     
  -3.6191960769078185E-002   8.6754372039881511E-002   0.0000000000000000     
  -3.7487486252103998E-002   9.3186047540842712E-002   0.0000000000000000     
  -3.8733093634443848E-002   9.9776861542119288E-002   0.0000000000000000     
  -3.9928782916097777E-002  0.10652681404371124        0.0000000000000000     
  -1.9511890355286696E-002  0.10548545771714413        0.0000000000000000     
  -2.0083473881298344E-002  0.11242904860554294        0.0000000000000000     
  -2.0629077326625268E-002  0.11950909874127608        0.0000000000000000     
  -2.1148700691267480E-002  0.12672560812434353        0.0000000000000000     
  -2.1642343975224972E-002  0.13407857675474530        0.0000000000000000     
  -2.4498772127967677E-002  0.10568016852255387        0.0000000000000000     
  -2.5214162708903375E-002  0.11261366172680479        0.0000000000000000     
  -2.5897779033622365E-002  0.11968378643131983        0.0000000000000000     
  -2.6549621102124648E-002  0.12689054263609900        0.0000000000000000     
  -2.7169688914410229E-002  0.13423393034114231        0.0000000000000000     
  -2.9563881478996513E-002  0.10591863151211832        0.0000000000000000     
  -3.0422763563832878E-002  0.11284084852699541        0.0000000000000000     
  -3.1243666083474880E-002  0.11989921370812490        0.0000000000000000     
  -3.2026589037922493E-002  0.12709372705550678        0.0000000000000000     
  -3.2771532427175745E-002  0.13442438856914102        0.0000000000000000     
  -3.4707218408373208E-002  0.10620084668583743        0.0000000000000000     
  -3.5709276446086867E-002  0.11311060900611482        0.0000000000000000     
  -3.6666738476182813E-002  0.12015538057169127        0.0000000000000000     
  -3.7579604498661039E-002  0.12733516138256684        0.0000000000000000     
  -3.8447874513521538E-002  0.13464995143874145        0.0000000000000000     
  -3.9928782916097777E-002  0.10652681404371124        0.0000000000000000     
  -4.1073701355665349E-002  0.11342294316416299        0.0000000000000000     
  -4.2166996211746181E-002  0.12045228702201898        0.0000000000000000     
  -4.3208667484340255E-002  0.12761484561727918        0.0000000000000000     
  -4.4198715173447596E-002  0.13491061894994361        0.0000000000000000     
  -2.1642343975224972E-002  0.13407857675474530        0.0000000000000000     
  -2.2109697469858455E-002  0.14155493505385411        0.0000000000000000     
  -2.2550451466528624E-002  0.14914161344304272        0.0000000000000000     
  -2.2964605965235477E-002  0.15683861192231116        0.0000000000000000     
  -2.3352160965979030E-002  0.16464593049165943        0.0000000000000000     
  -2.7169688914410229E-002  0.13423393034114231        0.0000000000000000     
  -2.7758495427753375E-002  0.14170027292031809        0.0000000000000000     
  -2.8316553599428373E-002  0.14927589374749470        0.0000000000000000     
  -2.8843863429435221E-002  0.15696079282267217        0.0000000000000000     
  -2.9340424917773913E-002  0.16475497014585047        0.0000000000000000     
  -3.2771532427175745E-002  0.13442438856914102        0.0000000000000000     
  -3.3478774342856309E-002  0.14187783726428960        0.0000000000000000     
  -3.4148592876585886E-002  0.14944071215621452        0.0000000000000000     
  -3.4780988028364469E-002  0.15711301324491569        0.0000000000000000     
  -3.5375959798192066E-002  0.16489474053039316        0.0000000000000000     
  -3.8447874513521538E-002  0.13464995143874145        0.0000000000000000     
  -3.9270534215167262E-002  0.14208762808576875        0.0000000000000000     
  -4.0046569298001156E-002  0.14963606866920215        0.0000000000000000     
  -4.0775979762023240E-002  0.15729527318904174        0.0000000000000000     
  -4.1458765607233480E-002  0.16506524164528749        0.0000000000000000     
  -4.4198715173447596E-002  0.13491061894994361        0.0000000000000000     
  -4.5133775044686228E-002  0.14232964538475540        0.0000000000000000     
  -4.6010482863674200E-002  0.14986196328645765        0.0000000000000000     
  -4.6828838630411505E-002  0.15750757265505033        0.0000000000000000     
  -4.7588842344898165E-002  0.16526647349053347        0.0000000000000000     
   0.0000000000000000        0.0000000000000000        0.0000000000000000     
  -1.7984080476350422E-003   1.2768845685493429E-003   0.0000000000000000     
  -3.6215013955408775E-003   2.9392458979294769E-003   0.0000000000000000     
  -5.4692800437175053E-003   4.9870839881404026E-003   0.0000000000000000     
  -7.3417439921649261E-003   7.4203988391821204E-003   0.0000000000000000     
   0.0000000000000000        0.0000000000000000        0.0000000000000000     
  -2.0695113254273374E-003   1.3550344123336717E-003   0.0000000000000000     
  -4.1641876149196956E-003   3.0941567435037085E-003   0.0000000000000000     
  -6.2840288684770755E-003   5.2173669935101112E-003   0.0000000000000000     
  -8.4290350860994779E-003   7.7246651623528798E-003   0.0000000000000000     
   0.0000000000000000        0.0000000000000000        0.0000000000000000     
  -2.3401429172058138E-003   1.4591173309538615E-003   0.0000000000000000     
  -4.7202536084587085E-003   3.3000990547984452E-003   0.0000000000000000     
  -7.1403320737586824E-003   5.5229451715337503E-003   0.0000000000000000     
  -9.6003783131057355E-003   8.1276556811597771E-003   0.0000000000000000     
   0.0000000000000000        0.0000000000000000        0.0000000000000000     
  -2.6103028229704710E-003   1.5891333244099132E-003   0.0000000000000000     
  -5.2896993761579131E-003   3.5570728318136862E-003   0.0000000000000000     
  -8.0381896595623243E-003   5.9038185222113184E-003   0.0000000000000000     
  -1.0855773673183704E-002   8.6293703956028100E-003   0.0000000000000000     
   0.0000000000000000        0.0000000000000000        0.0000000000000000     
  -2.8799910427213097E-003   1.7450823927018259E-003   0.0000000000000000     
  -5.8725249180173102E-003   3.8650780745494310E-003   0.0000000000000000     
  -8.9776016258880011E-003   6.3599870455428162E-003   0.0000000000000000     
  -1.2195221166333384E-002   9.2298093056819817E-003   0.0000000000000000     
  -7.3417439921649261E-003   7.4203988391821204E-003   0.0000000000000000     
  -9.2313104819680501E-003   1.0186759487878796E-002   0.0000000000000000     
  -1.1130396754211781E-002   1.3233734971054600E-002   0.0000000000000000     
  -1.3039002808896121E-002   1.6561325288709530E-002   0.0000000000000000     
  -1.4957128646021070E-002   2.0169530440843589E-002   0.0000000000000000     
  -8.4290350860994779E-003   7.7246651623528798E-003   0.0000000000000000     
  -1.0590978315661437E-002   1.0558636142325864E-002   0.0000000000000000     
  -1.2761630605037492E-002   1.3661864825722925E-002   0.0000000000000000     
  -1.4940991954227644E-002   1.7034351212544048E-002   0.0000000000000000     
  -1.7129062363231893E-002   2.0676095302789251E-002   0.0000000000000000     
  -9.6003783131057355E-003   8.1276556811597771E-003   0.0000000000000000     
  -1.2076917101248244E-002   1.1046898288623925E-002   0.0000000000000000     
  -1.4546473212934582E-002   1.4213340698873596E-002   0.0000000000000000     
  -1.7009046648164744E-002   1.7626982911908784E-002   0.0000000000000000     
  -1.9464637406938733E-002   2.1287824927729501E-002   0.0000000000000000     
  -1.0855773673183704E-002   8.6293703956028100E-003   0.0000000000000000     
  -1.3689126838728471E-002   1.1651545926772974E-002   0.0000000000000000     
  -1.6484924577903043E-002   1.4888162590506614E-002   0.0000000000000000     
  -1.9243166890707413E-002   1.8339220386803738E-002   0.0000000000000000     
  -2.1963853777141586E-002   2.2004719315664341E-002   0.0000000000000000     
  -1.2195221166333384E-002   9.2298093056819817E-003   0.0000000000000000     
  -1.5427607528102120E-002   1.2372579056773006E-002   0.0000000000000000     
  -1.8576984699942883E-002   1.5686330500621983E-002   0.0000000000000000     
  -2.1643352681855656E-002   1.9171063637228904E-002   0.0000000000000000     
  -2.4626711473840459E-002   2.2826778466593770E-002   0.0000000000000000     
  -1.4957128646021070E-002   2.0169530440843589E-002   0.0000000000000000     
  -1.6859373819857297E-002   2.4029584629730340E-002   0.0000000000000000     
  -1.8720337884675461E-002   2.8112722057643369E-002   0.0000000000000000     
  -2.0540020840475563E-002   3.2418942724582664E-002   0.0000000000000000     
  -2.2318422687257606E-002   3.6948246630548236E-002   0.0000000000000000     
  -1.7129062363231893E-002   2.0676095302789251E-002   0.0000000000000000     
  -1.9294592066953786E-002   2.4559133022036283E-002   0.0000000000000000     
  -2.1406331300296878E-002   2.8655500295862908E-002   0.0000000000000000     
  -2.3464280063261168E-002   3.2965197124269131E-002   0.0000000000000000     
  -2.5468438355846654E-002   3.7488223507254947E-002   0.0000000000000000     
  -1.9464637406938733E-002   2.1287824927729501E-002   0.0000000000000000     
  -2.1885017774263778E-002   2.5176707633239072E-002   0.0000000000000000     
  -2.4241960035147107E-002   2.9274471915340838E-002   0.0000000000000000     
  -2.6535464189588725E-002   3.3581117774034809E-002   0.0000000000000000     
  -2.8765530237588623E-002   3.8096645209320969E-002   0.0000000000000000     
  -2.1963853777141586E-002   2.2004719315664341E-002   0.0000000000000000     
  -2.4630650941787263E-002   2.5882308463338718E-002   0.0000000000000000     
  -2.7227224089226142E-002   2.9969636916077177E-002   0.0000000000000000     
  -2.9753573219458228E-002   3.4266704673879697E-002   0.0000000000000000     
  -3.2209698332483508E-002   3.8773511736746306E-002   0.0000000000000000     
  -2.4626711473840459E-002   2.2826778466593770E-002   0.0000000000000000     
  -2.7531491569524249E-002   2.6675935512335221E-002   0.0000000000000000     
  -3.0362123462533981E-002   3.0740995298071904E-002   0.0000000000000000     
  -3.3118607152869677E-002   3.5021957823803816E-002   0.0000000000000000     
  -3.5800942640531325E-002   3.9518823089530961E-002   0.0000000000000000     
  -2.2318422687257606E-002   3.6948246630548236E-002   0.0000000000000000     
  -2.4052456525666909E-002   4.1692297773365659E-002   0.0000000000000000     
  -2.5739035456348796E-002   4.6642760150860510E-002   0.0000000000000000     
  -2.7378159479303273E-002   5.1799633763032794E-002   0.0000000000000000     
  -2.8969828594530331E-002   5.7162918609882499E-002   0.0000000000000000     
  -2.5468438355846654E-002   3.7488223507254947E-002   0.0000000000000000     
  -2.7418947876810370E-002   4.2221004715989358E-002   0.0000000000000000     
  -2.9315950324909350E-002   4.7159966021641374E-002   0.0000000000000000     
  -3.1159445700143593E-002   5.2305107424210982E-002   0.0000000000000000     
  -3.2949434002513101E-002   5.7656428923698176E-002   0.0000000000000000     
  -2.8765530237588623E-002   3.8096645209320969E-002   0.0000000000000000     
  -3.0934009012965266E-002   4.2818817517871054E-002   0.0000000000000000     
  -3.3042751349537103E-002   4.7745397996356777E-002   0.0000000000000000     
  -3.5091757247304144E-002   5.2876386644778145E-002   0.0000000000000000     
  -3.7081026706266382E-002   5.8211783463135151E-002   0.0000000000000000     
  -3.2209698332483508E-002   3.8773511736746306E-002   0.0000000000000000     
  -3.4597639934131591E-002   4.3485736179010741E-002   0.0000000000000000     
  -3.6919438530232059E-002   4.8399056075006733E-002   0.0000000000000000     
  -3.9175094120784897E-002   5.3513471424734303E-002   0.0000000000000000     
  -4.1364606705790126E-002   5.8828982228193445E-002   0.0000000000000000     
  -3.5800942640531325E-002   3.9518823089530961E-002   0.0000000000000000     
  -3.8409840640309362E-002   4.4221760699408405E-002   0.0000000000000000     
  -4.0946011866994210E-002   4.9120940257591235E-002   0.0000000000000000     
  -4.3409456320585883E-002   5.4216361764079450E-002   0.0000000000000000     
  -4.5800174001084382E-002   5.9508025218873037E-002   0.0000000000000000     
  -2.8969828594530331E-002   5.7162918609882499E-002   0.0000000000000000     
  -3.0513077877480102E-002   6.2720218734858391E-002   0.0000000000000000     
  -3.2006942403602717E-002   6.8459138181409210E-002   0.0000000000000000     
  -3.3451422172898163E-002   7.4379676949534970E-002   0.0000000000000000     
  -3.4846517185366452E-002   8.0481835039235658E-002   0.0000000000000000     
  -3.2949434002513101E-002   5.7656428923698176E-002   0.0000000000000000     
  -3.4684724508214852E-002   6.3201015211624037E-002   0.0000000000000000     
  -3.6364126493445822E-002   6.8925950979509626E-002   0.0000000000000000     
  -3.7987639958205997E-002   7.4831236227354922E-002   0.0000000000000000     
  -3.9555264902495398E-002   8.0916870955159953E-002   0.0000000000000000     
  -3.7081026706266382E-002   5.8211783463135151E-002   0.0000000000000000     
  -3.9009272438798585E-002   6.3739538333718537E-002   0.0000000000000000     
  -4.0875207157275571E-002   6.9447601138818996E-002   0.0000000000000000     
  -4.2678830861697332E-002   7.5335971878436533E-002   0.0000000000000000     
  -4.4420143552063869E-002   8.1404650552571178E-002   0.0000000000000000     
  -4.1364606705790126E-002   5.8828982228193445E-002   0.0000000000000000     
  -4.3486721669231294E-002   6.4335788101141891E-002   0.0000000000000000     
  -4.5540184395091970E-002   7.0024088659337333E-002   0.0000000000000000     
  -4.7524994883372147E-002   7.5893883902779846E-002   0.0000000000000000     
  -4.9441153134071832E-002   8.1945173831469348E-002   0.0000000000000000     
  -4.5800174001084382E-002   5.9508025218873037E-002   0.0000000000000000     
  -4.8117072199512986E-002   6.4989764513894085E-002   0.0000000000000000     
  -5.0359058206895020E-002   7.0655413541064693E-002   0.0000000000000000     
  -5.2526132023230455E-002   7.6504972300384805E-002   0.0000000000000000     
  -5.4618293648519306E-002   8.2538440791854475E-002   0.0000000000000000     
  -3.4846517185366452E-002   8.0481835039235658E-002   0.0000000000000000     
  -3.6191960769078185E-002   8.6754372039881511E-002   0.0000000000000000     
  -3.7487486252103998E-002   9.3186047540842712E-002   0.0000000000000000     
  -3.8733093634443848E-002   9.9776861542119288E-002   0.0000000000000000     
  -3.9928782916097777E-002  0.10652681404371124        0.0000000000000000     
  -3.9555264902495398E-002   8.0916870955159953E-002   0.0000000000000000     
  -4.1067181456143513E-002   8.7172508041534910E-002   0.0000000000000000     
  -4.2523569748979820E-002   9.3587800365090026E-002   0.0000000000000000     
  -4.3924429781004352E-002  0.10016274792582534        0.0000000000000000     
  -4.5269761552217069E-002  0.10689735072374078        0.0000000000000000     
  -4.4420143552063869E-002   8.1404650552571178E-002   0.0000000000000000     
  -4.6099711271737683E-002   8.7643063990575795E-002   0.0000000000000000     
  -4.7718100064081295E-002   9.4040639021803346E-002   0.0000000000000000     
  -4.9275309929094735E-002  0.10059737564625378        0.0000000000000000     
  -5.0771340866777988E-002  0.10731327386392715        0.0000000000000000     
  -4.9441153134071832E-002   8.1945173831469348E-002   0.0000000000000000     
  -5.1289550215860701E-002   8.8166039887004180E-002   0.0000000000000000     
  -5.3071077197408431E-002   9.4544563510982602E-002   0.0000000000000000     
  -5.4785734078715037E-002  0.10108074470340465        0.0000000000000000     
  -5.6433520859780505E-002  0.10777458346427031        0.0000000000000000     
  -5.4618293648519306E-002   8.2538440791854475E-002   0.0000000000000000     
  -5.6636698288512567E-002   8.8741435730820051E-002   0.0000000000000000     
  -5.8582501148961200E-002   9.5099573832627862E-002   0.0000000000000000     
  -6.0455702229865224E-002  0.10161285509727797        0.0000000000000000     
  -6.2256301531224641E-002  0.10828127952477030        0.0000000000000000     
  -3.9928782916097777E-002  0.10652681404371124        0.0000000000000000     
  -4.1073701355665349E-002  0.11342294316416299        0.0000000000000000     
  -4.2166996211746181E-002  0.12045228702201898        0.0000000000000000     
  -4.3208667484340255E-002  0.12761484561727918        0.0000000000000000     
  -4.4198715173447596E-002  0.13491061894994361        0.0000000000000000     
  -4.5269761552217069E-002  0.10689735072374078        0.0000000000000000     
  -4.6558209663716932E-002  0.11377768826977691        0.0000000000000000     
  -4.7788418716602832E-002  0.12078984007487420        0.0000000000000000     
  -4.8960388710874804E-002  0.12793380613903269        0.0000000000000000     
  -5.0074119646532828E-002  0.13520958646225234        0.0000000000000000     
  -5.0771340866777988E-002  0.10731327386392715        0.0000000000000000     
  -5.2204972741390229E-002  0.11417468159159358        0.0000000000000000     
  -5.3574985417190656E-002  0.12116794674602328        0.0000000000000000     
  -5.4881378894179295E-002  0.12829306932721624        0.0000000000000000     
  -5.6124153172356119E-002  0.13555004933517242        0.0000000000000000     
  -5.6433520859780505E-002  0.10777458346427031        0.0000000000000000     
  -5.8013990588685248E-002  0.11461392312961302        0.0000000000000000     
  -5.9526696313509653E-002  0.12158660703546617        0.0000000000000000     
  -6.0971638034253726E-002  0.12869263518182980        0.0000000000000000     
  -6.2348815750917483E-002  0.13593200756870388        0.0000000000000000     
  -6.2256301531224641E-002  0.10828127952477030        0.0000000000000000     
  -6.3985263205601994E-002  0.11509541288383518        0.0000000000000000     
  -6.5643551405559816E-002  0.12204582094320289        0.0000000000000000     
  -6.7231166131098127E-002  0.12913250370287341        0.0000000000000000     
  -6.8748107382216914E-002  0.13635546116284675        0.0000000000000000     
  -4.4198715173447596E-002  0.13491061894994361        0.0000000000000000     
  -4.5133775044686228E-002  0.14232964538475540        0.0000000000000000     
  -4.6010482863674200E-002  0.14986196328645765        0.0000000000000000     
  -4.6828838630411505E-002  0.15750757265505033        0.0000000000000000     
  -4.7588842344898165E-002  0.16526647349053347        0.0000000000000000     
  -5.0074119646532828E-002  0.13520958646225234        0.0000000000000000     
  -5.1124802433773611E-002  0.14260879007791985        0.0000000000000000     
  -5.2107627982793857E-002  0.15012302601942201        0.0000000000000000     
  -5.3022596293593592E-002  0.15775229428675880        0.0000000000000000     
  -5.3869707366172775E-002  0.16549659487993015        0.0000000000000000     
  -5.6124153172356119E-002  0.13555004933517242        0.0000000000000000     
  -5.7299921984789802E-002  0.14292996308193232        0.0000000000000000     
  -5.8405299064549013E-002  0.15042388687953626        0.0000000000000000     
  -5.9440284411633744E-002  0.15803182072798438        0.0000000000000000     
  -6.0404878026043989E-002  0.16575376462727662        0.0000000000000000     
  -6.2348815750917483E-002  0.13593200756870388        0.0000000000000000     
  -6.3659133697734821E-002  0.14329316439679274        0.0000000000000000     
  -6.4903496108939654E-002  0.15076454586680049        0.0000000000000000     
  -6.6081902984531968E-002  0.15834615197872726        0.0000000000000000     
  -6.7194354324511804E-002  0.16603798273257292        0.0000000000000000     
  -6.8748107382216914E-002  0.13635546116284675        0.0000000000000000     
  -7.0202437572608634E-002  0.14369839402250109        0.0000000000000000     
  -7.1602219115965759E-002  0.15114500298121458        0.0000000000000000     
  -7.2947452012288291E-002  0.15869528803898722        0.0000000000000000     
  -7.4238136261576188E-002  0.16634924919581900        0.0000000000000000     
   0.0000000000000000        0.0000000000000000        0.0000000000000000     
  -2.8799910427213097E-003   1.7450823927018259E-003   0.0000000000000000     
  -5.8725249180173102E-003   3.8650780745494310E-003   0.0000000000000000     
  -8.9776016258880011E-003   6.3599870455428162E-003   0.0000000000000000     
  -1.2195221166333384E-002   9.2298093056819817E-003   0.0000000000000000     
   0.0000000000000000        0.0000000000000000        0.0000000000000000     
  -3.2830879433529895E-003   1.9996058867677220E-003   0.0000000000000000     
  -6.6767655951335539E-003   4.3314064465332170E-003   0.0000000000000000     
  -1.0181032955341691E-002   6.9954016792964837E-003   0.0000000000000000     
  -1.3795890023977405E-002   9.9915915850575243E-003   0.0000000000000000     
   0.0000000000000000        0.0000000000000000        0.0000000000000000     
  -3.9534738917601699E-003   2.4253451575457245E-003   0.0000000000000000     
  -7.9104567686032953E-003   5.0633496112925790E-003   0.0000000000000000     
  -1.1870948630529373E-002   7.9140133612405645E-003   0.0000000000000000     
  -1.5834949477538406E-002   1.0977336407389682E-002   0.0000000000000000     
   0.0000000000000000        0.0000000000000000        0.0000000000000000     
  -4.8911488879428517E-003   3.0223002050358328E-003   0.0000000000000000     
  -9.5735984384265321E-003   6.0609075688275180E-003   0.0000000000000000     
  -1.4047348651451042E-002   9.1158220913750577E-003   0.0000000000000000     
  -1.8312399527016382E-002   1.2187043772678451E-002   0.0000000000000000     
   0.0000000000000000        0.0000000000000000        0.0000000000000000     
  -6.0961129319010354E-003   3.7904710292380474E-003   0.0000000000000000     
  -1.1666190604603270E-002   7.3240803191380339E-003   0.0000000000000000     
  -1.6710233018106702E-002   1.0600827869699962E-002   0.0000000000000000     
  -2.1228240172411338E-002   1.3620713680923831E-002   0.0000000000000000     
  -1.2195221166333384E-002   9.2298093056819817E-003   0.0000000000000000     
  -1.5427607528102120E-002   1.2372579056773006E-002   0.0000000000000000     
  -1.8576984699942883E-002   1.5686330500621983E-002   0.0000000000000000     
  -2.1643352681855656E-002   1.9171063637228904E-002   0.0000000000000000     
  -2.4626711473840459E-002   2.2826778466593770E-002   0.0000000000000000     
  -1.3795890023977405E-002   9.9915915850575243E-003   0.0000000000000000     
  -1.7404167715692288E-002   1.3222098280724751E-002   0.0000000000000000     
  -2.0888696945137928E-002   1.6589043883206565E-002   0.0000000000000000     
  -2.4249477712314327E-002   2.0092428392502980E-002   0.0000000000000000     
  -2.7486510017221494E-002   2.3732251808613977E-002   0.0000000000000000     
  -1.5834949477538406E-002   1.0977336407389682E-002   0.0000000000000000     
  -1.9730615947822064E-002   1.4212204200728912E-002   0.0000000000000000     
  -2.3486104679572014E-002   1.7577502192247241E-002   0.0000000000000000     
  -2.7101415672788273E-002   2.1073230381944662E-002   0.0000000000000000     
  -3.0576548927470828E-002   2.4699388769821182E-002   0.0000000000000000     
  -1.8312399527016382E-002   1.2187043772678451E-002   0.0000000000000000     
  -2.2406952224491451E-002   1.5342896816785497E-002   0.0000000000000000     
  -2.6369207903245154E-002   1.8651705427743998E-002   0.0000000000000000     
  -3.0199166563277490E-002   2.2113469605553954E-002   0.0000000000000000     
  -3.3896828204588468E-002   2.5728189350215369E-002   0.0000000000000000     
  -2.1228240172411338E-002   1.3620713680923831E-002   0.0000000000000000     
  -2.5433176545700452E-002   1.6614176128894501E-002   0.0000000000000000     
  -2.9538006616157336E-002   1.9811653589696842E-002   0.0000000000000000     
  -3.3542730383781985E-002   2.3213146063330858E-002   0.0000000000000000     
  -3.7447347848574411E-002   2.6818653549796539E-002   0.0000000000000000     
  -2.4626711473840459E-002   2.2826778466593770E-002   0.0000000000000000     
  -2.7531491569524249E-002   2.6675935512335221E-002   0.0000000000000000     
  -3.0362123462533981E-002   3.0740995298071904E-002   0.0000000000000000     
  -3.3118607152869677E-002   3.5021957823803816E-002   0.0000000000000000     
  -3.5800942640531325E-002   3.9518823089530961E-002   0.0000000000000000     
  -2.7486510017221494E-002   2.3732251808613977E-002   0.0000000000000000     
  -3.0623074914297589E-002   2.7550932083935244E-002   0.0000000000000000     
  -3.3682453457980779E-002   3.1590887170862447E-002   0.0000000000000000     
  -3.6664645648271078E-002   3.5852117069395562E-002   0.0000000000000000     
  -3.9569651485168458E-002   4.0334621779534618E-002   0.0000000000000000     
  -3.0576548927470828E-002   2.4699388769821182E-002   0.0000000000000000     
  -3.3940936232930138E-002   2.8500641481845470E-002   0.0000000000000000     
  -3.7224009378476655E-002   3.2521652643986196E-002   0.0000000000000000     
  -4.0425768364110395E-002   3.6762422256243363E-002   0.0000000000000000     
  -4.3546213189831345E-002   4.1222950318616960E-002   0.0000000000000000     
  -3.3896828204588468E-002   2.5728189350215369E-002   0.0000000000000000     
  -3.7485075525421900E-002   2.9525063706065887E-002   0.0000000000000000     
  -4.0986791224021636E-002   3.3533291717443167E-002   0.0000000000000000     
  -4.4401975300387655E-002   3.7752873384347199E-002   0.0000000000000000     
  -4.7730627754519972E-002   4.2183808706777993E-002   0.0000000000000000     
  -3.7447347848574411E-002   2.6818653549796539E-002   0.0000000000000000     
  -4.1255492791772881E-002   3.0624198756596499E-002   0.0000000000000000     
  -4.4970798994615695E-002   3.4625804391233354E-002   0.0000000000000000     
  -4.8593266457102845E-002   3.8823470453707092E-002   0.0000000000000000     
  -5.2122895179234338E-002   4.3217196944017718E-002   0.0000000000000000     
  -3.5800942640531325E-002   3.9518823089530961E-002   0.0000000000000000     
  -3.8409840640309362E-002   4.4221760699408405E-002   0.0000000000000000     
  -4.0946011866994210E-002   4.9120940257591235E-002   0.0000000000000000     
  -4.3409456320585883E-002   5.4216361764079450E-002   0.0000000000000000     
  -4.5800174001084382E-002   5.9508025218873037E-002   0.0000000000000000     
  -3.9569651485168458E-002   4.0334621779534618E-002   0.0000000000000000     
  -4.2396250029982117E-002   4.5023814780986542E-002   0.0000000000000000     
  -4.5143220344021184E-002   4.9905109553458282E-002   0.0000000000000000     
  -4.7810562427285666E-002   5.4978506096949833E-002   0.0000000000000000     
  -5.0398276279775556E-002   6.0244004411461195E-002   0.0000000000000000     
  -4.3546213189831345E-002   4.1222950318616960E-002   0.0000000000000000     
  -4.6582507001633446E-002   4.5888822125667597E-002   0.0000000000000000     
  -4.9531812945510588E-002   5.0745622971955860E-002   0.0000000000000000     
  -5.2394131021462821E-002   5.5793352857481729E-002   0.0000000000000000     
  -5.5169461229490104E-002   6.1032011782245217E-002   0.0000000000000000     
  -4.7730627754519972E-002   4.2183808706777993E-002   0.0000000000000000     
  -5.0968611555263325E-002   4.6816782733451578E-002   0.0000000000000000     
  -5.4111789671462442E-002   5.1642480513083948E-002   0.0000000000000000     
  -5.7160162103117335E-002   5.6660902045675109E-002   0.0000000000000000     
  -6.0113728850228004E-002   6.1872047331225082E-002   0.0000000000000000     
  -5.2122895179234338E-002   4.3217196944017718E-002   0.0000000000000000     
  -5.5554563690871764E-002   4.7807696604338465E-002   0.0000000000000000     
  -5.8883150521876731E-002   5.2595682176842559E-002   0.0000000000000000     
  -6.2108655672249227E-002   5.7581153661530007E-002   0.0000000000000000     
  -6.5231079141989265E-002   6.2764111058400796E-002   0.0000000000000000     
  -4.5800174001084382E-002   5.9508025218873037E-002   0.0000000000000000     
  -4.8117072199512986E-002   6.4989764513894085E-002   0.0000000000000000     
  -5.0359058206895020E-002   7.0655413541064693E-002   0.0000000000000000     
  -5.2526132023230455E-002   7.6504972300384805E-002   0.0000000000000000     
  -5.4618293648519306E-002   8.2538440791854475E-002   0.0000000000000000     
  -5.0398276279775556E-002   6.0244004411461195E-002   0.0000000000000000     
  -5.2906020255238190E-002   6.5698804929788565E-002   0.0000000000000000     
  -5.5333452707420849E-002   7.1340108084728113E-002   0.0000000000000000     
  -5.7680573636323562E-002   7.7167913876279845E-002   0.0000000000000000     
  -5.9947383041946328E-002   8.3182222304443776E-002   0.0000000000000000     
  -5.5169461229490104E-002   6.1032011782245217E-002   0.0000000000000000     
  -5.7859262062001392E-002   6.6460246706638776E-002   0.0000000000000000     
  -6.0464992011405629E-002   7.2076704591054835E-002   0.0000000000000000     
  -6.2986651077702807E-002   7.7881385435493403E-002   0.0000000000000000     
  -6.5424239260892927E-002   8.3874289239954491E-002   0.0000000000000000     
  -6.0113728850228004E-002   6.1872047331225082E-002   0.0000000000000000     
  -6.2976797619802613E-002   6.7274089844444690E-002   0.0000000000000000     
  -6.5753676118849316E-002   7.2865203060044806E-002   0.0000000000000000     
  -6.8444364347368142E-002   7.8645386978025450E-002   0.0000000000000000     
  -7.1048862305359103E-002   8.4614641598386581E-002   0.0000000000000000     
  -6.5231079141989265E-002   6.2764111058400796E-002   0.0000000000000000     
  -6.8258626928641847E-002   6.8140334343206349E-002   0.0000000000000000     
  -7.1199505029751961E-002   7.3705603491698080E-002   0.0000000000000000     
  -7.4053713445319636E-002   7.9459918503876015E-002   0.0000000000000000     
  -7.6821252175344842E-002   8.5403279379740127E-002   0.0000000000000000     
  -5.4618293648519306E-002   8.2538440791854475E-002   0.0000000000000000     
  -5.6636698288512567E-002   8.8741435730820051E-002   0.0000000000000000     
  -5.8582501148961200E-002   9.5099573832627862E-002   0.0000000000000000     
  -6.0455702229865224E-002  0.10161285509727797        0.0000000000000000     
  -6.2256301531224641E-002  0.10828127952477030        0.0000000000000000     
  -5.9947383041946328E-002   8.3182222304443776E-002   0.0000000000000000     
  -6.2134680625409611E-002   8.9365990092837674E-002   0.0000000000000000     
  -6.4243266087833872E-002   9.5702173965079337E-002   0.0000000000000000     
  -6.6273139429219100E-002  0.10219077392116875        0.0000000000000000     
  -6.8224300649565334E-002  0.10883178996110594        0.0000000000000000     
  -6.5424239260892927E-002   8.3874289239954491E-002   0.0000000000000000     
  -6.7777022362268166E-002   9.0036441543871332E-002   0.0000000000000000     
  -7.0044266183120679E-002   9.6348867886677222E-002   0.0000000000000000     
  -7.2225970723450453E-002  0.10281156826837214        0.0000000000000000     
  -7.4322135983257528E-002  0.10942454268895611        0.0000000000000000     
  -7.1048862305359103E-002   8.4614641598386581E-002   0.0000000000000000     
  -7.3563723499088227E-002   9.0752790083921023E-002   0.0000000000000000     
  -7.5985501434821634E-002   9.7039655597421545E-002   0.0000000000000000     
  -7.8314196112559312E-002  0.10347523813888813        0.0000000000000000     
  -8.0549807532301246E-002  0.11005953770832079        0.0000000000000000     
  -7.6821252175344842E-002   8.5403279379740127E-002   0.0000000000000000     
  -7.9494784035869806E-002   9.1515035712986761E-002   0.0000000000000000     
  -8.2066971842936737E-002   9.7774537097312292E-002   0.0000000000000000     
  -8.4537815596545621E-002  0.10418178353271669        0.0000000000000000     
  -8.6907315296696458E-002  0.11073677501920000        0.0000000000000000     
  -6.2256301531224641E-002  0.10828127952477030        0.0000000000000000     
  -6.3985263205601994E-002  0.11509541288383518        0.0000000000000000     
  -6.5643551405559816E-002  0.12204582094320289        0.0000000000000000     
  -6.7231166131098127E-002  0.12913250370287341        0.0000000000000000     
  -6.8748107382216914E-002  0.13635546116284675        0.0000000000000000     
  -6.8224300649565334E-002  0.10883178996110594        0.0000000000000000     
  -7.0098873987970003E-002  0.11561880103070234        0.0000000000000000     
  -7.1898983683530523E-002  0.12254538607576934        0.0000000000000000     
  -7.3624629736246908E-002  0.12961154509630701        0.0000000000000000     
  -7.5275812146119156E-002  0.13681727809231525        0.0000000000000000     
  -7.4322135983257528E-002  0.10942454268895611        0.0000000000000000     
  -7.6334906331618782E-002  0.11618373774665670        0.0000000000000000     
  -7.8266426137611117E-002  0.12308510003970148        0.0000000000000000     
  -8.0116695401234506E-002  0.13012862956809046        0.0000000000000000     
  -8.1885714122489003E-002  0.13731432633182367        0.0000000000000000     
  -8.0549807532301246E-002  0.11005953770832079        0.0000000000000000     
  -8.2693360236548386E-002  0.11679022303169827        0.0000000000000000     
  -8.4745878767801611E-002  0.12366496283499930        0.0000000000000000     
  -8.6707363126060935E-002  0.13068375711822386        0.0000000000000000     
  -8.8577813311326387E-002  0.13784660588137193        0.0000000000000000     
  -8.6907315296696458E-002  0.11073677501920000        0.0000000000000000     
  -8.9174235702758758E-002  0.11743825688582704        0.0000000000000000     
  -9.1337341574102004E-002  0.12428497446166276        0.0000000000000000     
  -9.3396632910726210E-002  0.13127692774670707        0.0000000000000000     
  -9.5352109712631361E-002  0.13841411674096010        0.0000000000000000     
  -6.8748107382216914E-002  0.13635546116284675        0.0000000000000000     
  -7.0202437572608634E-002  0.14369839402250109        0.0000000000000000     
  -7.1602219115965759E-002  0.15114500298121458        0.0000000000000000     
  -7.2947452012288291E-002  0.15869528803898722        0.0000000000000000     
  -7.4238136261576188E-002  0.16634924919581900        0.0000000000000000     
  -7.5275812146119156E-002  0.13681727809231525        0.0000000000000000     
  -7.6864016557521606E-002  0.14414108390076497        0.0000000000000000     
  -7.8400728614828497E-002  0.15156146135862691        0.0000000000000000     
  -7.9885948318039857E-002  0.15907841046590110        0.0000000000000000     
  -8.1319675667155672E-002  0.16669193122258752        0.0000000000000000     
  -8.1885714122489003E-002  0.13731432633182367        0.0000000000000000     
  -8.3578053600583985E-002  0.14461666597329184        0.0000000000000000     
  -8.5198285134728949E-002  0.15201012413488582        0.0000000000000000     
  -8.6746408724923854E-002  0.15949470081660555        0.0000000000000000     
  -8.8222424371168756E-002  0.16707039601845108        0.0000000000000000     
  -8.8577813311326387E-002  0.13784660588137193        0.0000000000000000     
  -9.0344548701795813E-002  0.14512514024008172        0.0000000000000000     
  -9.1994888675667144E-002  0.15249099130999122        0.0000000000000000     
  -9.3528833232940325E-002  0.15994415909110057        0.0000000000000000     
  -9.4946382373615412E-002  0.16748464358340973        0.0000000000000000     
  -9.5352109712631361E-002  0.13841411674096010        0.0000000000000000     
  -9.7163501861157103E-002  0.14566650670113454        0.0000000000000000     
  -9.8790539237643055E-002  0.15300406288394322        0.0000000000000000     
 -0.10023322184208926       0.16042678528938620        0.0000000000000000     
 -0.10149154967449565       0.16793467391746342        0.0000000000000000     
 </DataArray>
 <DataArray  type="Float64" Name="stress" NumberOfComponents="3" format="ascii">
   13417066682.129240        4025120004.6387720        2893958325.7790599     
   11766776311.483444        1890777764.6839280        1715764867.5000629     
   10313704086.419485        413829343.33522034        810728126.99602246     
   9057850006.9373684       -405725259.40735149        178848104.26693842     
   7999214073.0370960       -567886043.54378414       -179875200.68719074     
   10539952999.924360        3161985899.9773078        2225831354.4674764     
   9667580495.4109783        1589753311.2491207        1446745302.6324611     
   8943803659.3937531        512839617.50810766        863183279.76435268     
   8368622491.8726778       -68755181.245732784        475145285.86315042     
   7942036992.8477535       -155031085.01240015        282631320.92885578     
   8337693677.6314096        2501308103.2894230        1712503760.7072620     
   8021431356.9417372        1424642861.0952806        1275798892.0495906     
   7805142227.6625309        681221590.26934791        956985363.55077636     
   7688826289.7937813        271044290.81162453        756063175.21082079     
   7672483543.3354988        194110962.72211123        673032327.02972198     
   6810288715.2503948        2043086614.5751185        1353975544.4984174     
   6828328896.0757179        1395446414.2224066        1202925635.7514532     
   6897719791.2258148        918975261.61894107        1092134378.3552961     
   7018461400.7006845        613673156.76472092        1021601772.3099489     
   7190553724.5003281        479540099.65974832        991327817.61540937     
   5957738112.7813129        1787321433.8343940        1150246705.8409421     
   6088273112.8129177        1502163970.6304989        1228125533.7380471     
   6221536350.0836077        1226100631.5568864        1268630324.1779113     
   6357527824.5933819        959131416.61355615        1271761077.1605344     
   6496247536.3422413        701256325.80050921        1237517792.6859167     
   7999214073.0370960       -567886043.54378414       -179875200.68719074     
   7917175753.0918312       -200666781.50620508       -78054193.854241252     
   7793787921.8421993        28720776.183490276       -8980792.3826340195     
   7629050579.2882071        120276629.52530766        27345003.727631759     
   7422963725.4298487        74000778.519250870        30923194.476553671     
   7942036992.8477535       -155031085.01240015        282631320.92885578     
   7739305634.4455528        15898639.432800770        281391160.07103962     
   7513285895.0362425        109200427.18763733        265355391.35978213     
   7263977774.6198235        124874278.25211191        234524014.79507759     
   6991381273.1962976        62920192.626224041        188897030.37693253     
   7672483543.3354988        194110962.72211123        673032327.02972198     
   7400350567.9274979        184138576.01027346        589802317.16127539     
   7122990341.8096418        156742020.26559162        509728696.94728100     
   6840402864.9819307        111921295.48806071        432811466.38773918     
   6552588137.4443712        49676401.677687407        359050625.48265386     
   7190553724.5003281        479540099.65974832        991327817.61540937     
   6900310553.5376625        304053028.22621322        847179277.41646016     
   6622901262.1623974        171345555.41735172        724139124.37986183     
   6358325850.3745356        81417681.233158350        622207358.50561345     
   6106584318.1740742        34269405.673639536        541383979.79371691     
   6496247536.3422413        701256325.80050921        1237517792.6859167     
   6239185591.2760487        375641996.08061981        1053522040.8365953     
   6013018656.0945120        153011032.64291930        908586673.65752387     
   5817746730.7976322        33363435.487404823        802711691.14870024     
   5653369815.3854084        16699204.614078760        735897093.31012559     
   7422963725.4298487        74000778.519250870        30923194.476553671     
   7217465959.9507618       -16823824.945264816        14783381.610864541     
   7023828378.9811516       -68114480.044849873        3703469.9263689579     
   6842050982.5210247       -79871186.779495716       -2316540.5769290701     
   6672133770.5703764       -52093945.149207592       -3276649.8990281029     
   6991381273.1962976        62920192.626224041        188897030.37693253     
   6807450557.8411865        3620182.1492028236        181124603.73562616     
   6631019875.7975864       -30679717.289468765        177607408.39600053     
   6462089227.0654936       -39979505.689778090        178345444.35804647     
   6300658611.6449080       -24279183.051729679        183338711.62176791     
   6552588137.4443712        49676401.677687407        359050625.48265386     
   6387925415.4146118        21211267.148567438        354558742.00143123     
   6226402575.4983912        3212406.3312275410        353517419.94236505     
   6068019617.6957026       -4320180.7743327618        355926659.30545604     
   5912776542.0065441       -1386494.1681222916        361786460.09069723     
   6106584318.1740742        34269405.673639536        541383979.79371691     
   5958890532.6710386        35949430.052839041        535085796.40827763     
   5809976478.0835629        33561890.817234039        531433504.56547081     
   5659842154.4116440        27106787.966825962        530427104.26529855     
   5508487561.6552887        16584121.501618385        532066595.50776047     
   5653369815.3854084        16699204.614078760        735897093.31012559     
   5520345909.6104622        47834670.862003088        722705766.95616388     
   5381741583.5530987        60368736.168545723        711355662.26531637     
   5237556837.2133236        54301400.533709049        701846779.23757923     
   5087791670.5911350        29632663.957489491        694179117.87295449     
   6672133770.5703764       -52093945.149207592       -3276649.8990281029     
   6484558446.0945635       -17622235.668853045        2486179.3688730076     
   6293029685.4219818        3671353.1556117535        14529686.518705009     
   6097547488.5526352        11786821.324187756        32853871.550476868     
   5898111855.4865160        6724168.8368575573        57458734.464170650     
   6300658611.6449080       -24279183.051729679        183338711.62176791     
   6124483064.2419472       -4774586.6002554893        179673278.47698876     
   5946232375.8844948        7812873.3362596035        181950175.89759141     
   5765906546.5725555        13483196.757811546        190169403.88358840     
   5583505576.3061237        12236383.664384365        204330962.43496975     
   5912776542.0065441       -1386494.1681222916        361786460.09069723     
   5747034065.0577421        2860977.2688703537        350884108.98255879     
   5581094742.3967257        6452296.3318204880        345585741.12325937     
   5414958574.0235052        9387463.0207476616        345891356.51281172     
   5248625559.9380636        11666477.335628748        351800955.15120757     
   5508487561.6552887        16584121.501618385        532066595.50776047     
   5352211448.5419502        5284455.9385182858        516118670.88558495     
   5197616784.9586782       -410377.85769081116        505436382.19571483     
   5044703570.9054718       -500379.88701033592        500019729.43814391     
   4893471806.3823385        5014449.8505682945        499868712.61287725     
   5087791670.5911350        29632663.957489491        694179117.87295449     
   4940015214.6945686        2495849.4086866379        675376964.18607199     
   4795798503.5703468       -12775149.232293606        661502099.11494553     
   4655141537.2184725       -16180331.965456009        652554522.65957940     
   4518044315.6389418       -7719698.7907991409        648534234.81997561     
   5898111855.4865160        6724168.8368575573        57458734.464170650     
   5731472962.9605350        5947174.2566192150        78845561.158484668     
   5565125947.7818909        6143104.1674847603        99980882.937575772     
   5399070809.9505959        7311958.5695161819        120864699.80143850     
   5233307549.4666348        9453737.4626774788        141497011.75007766     
   5583505576.3061237        12236383.664384365        204330962.43496975     
   5418114395.4942036        12550213.612316132        219245850.76666200     
   5252462777.3103943        11995918.987280369        235120293.51788819     
   5086550721.7546854        10573499.789249659        251954290.68865281     
   4920378228.8270893        8282956.0182607174        269747842.27894884     
   5248625559.9380636        11666477.335628748        351800955.15120757     
   5087942260.3680944        14109182.670101643        359599537.94783473     
   4926446208.7069950        13842714.367479324        369568734.49875808     
   4764137404.9547749        10867072.427786589        381708544.80398041     
   4601015849.1114349        5182256.8510205746        396018968.86350644     
   4893471806.3823385        5014449.8505682945        499868712.61287725     
   4740956557.5822048        10624081.429937363        499906622.70199877     
   4587076241.9717102        11683490.308121920        503326205.88018888     
   4431830859.5508642        8192676.4851281643        510127462.14743513     
   4275220410.3196611        151639.96094059944        520310391.50374067     
   4518044315.6389418       -7719698.7907991409        648534234.81997561     
   4377157287.1365328        2094909.8918430805        640167105.02916467     
   4234352877.1045361        5518246.8092021942        636392707.66217458     
   4089631085.5429525        2550311.9612598419        637211042.71900761     
   3942991912.4517803       -6808894.6519751549        642622110.19965661     
   5233307549.4666348        9453737.4626774788        141497011.75007766     
   5036943967.2171822        3510384.8029551506        134686975.77063406     
   4841010462.5501041       -999375.91549611092        134241909.21037525     
   4645507035.4654160       -4075544.6926572323        140161812.06930578     
   4450433685.9631062       -5718121.5285587311        152446684.34741729     
   4920378228.8270893        8282956.0182607174        269747842.27894884     
   4739932325.0312147        2529309.1596522331        261139330.78063706     
   4560286805.9739237       -556388.57033443451        258366439.64254868     
   4381441671.6552467       -974137.17161583900        261429168.86470905     
   4203396922.0751677        1276063.3557691574        270327518.44709349     
   4601015849.1114349        5182256.8510205746        396018968.86350644     
   4434975197.8864183       -835411.97130465508        386044006.86189812     
   4270105238.5562162       -2950774.4775969982        381375316.16157717     
   4106405971.1208305       -1163830.6678352356        382012896.76253778     
   3943877395.5802627        4525419.4579875469        387956748.66479468     
   4275220410.3196611        151639.96094059944        520310391.50374067     
   4122072585.7827969       -6583778.5899193287        509401004.01443160     
   3970465760.2969575       -8182533.6373419762        503268538.76745492     
   3820399933.8621550       -4644625.1813256741        501912995.76281470     
   3671875106.4783735        4029946.7781071663        505334375.00050771     
   3942991912.4517803       -6808894.6519751549        642622110.19965661     
   3801224488.7203465       -14715790.696169853        631210322.23822856     
   3661368371.1961608       -16251666.049543142        624046107.46018469     
   3523423559.8792186       -11416520.712105036        621129465.86552119     
   3387390054.7695227       -210354.68385171890        622460397.45424509     
   4450433685.9631062       -5718121.5285587311        152446684.34741729     
   4250100851.4601350       -9081360.9170398712        171333061.80530533     
   4049243774.2852502       -14192075.878587246        200763694.51058787     
   3847862454.4384956       -21050266.413030148        240738582.46327585     
   3645956891.9198208       -29655932.520529509        291257725.66336989     
   4203396922.0751677        1276063.3557691574        270327518.44709349     
   4029590059.7167392        4538677.2820274830        282866152.64640236     
   3854812074.5311952        4564215.1178979874        303736082.48300970     
   3679062966.5185199        1352676.8633179665        332937307.95692801     
   3502342735.6787148       -5095937.4816701412        370469829.06814808     
   3943877395.5802627        4525419.4579875469        387956748.66479468     
   3790273763.6232610        12517064.176108122        393626279.42440742     
   3635252128.6839037        15782032.286363602        405414146.21124351     
   3478812490.7621951        14320323.788787603        423320349.02528465     
   3320954849.8581276        8131938.6833448410        447344887.86654133     
   3671875106.4783735        4029946.7781071663        505334375.00050771     
   3532151963.1796761        14853799.765130997        503613442.13933921     
   3390563936.7433882        19461375.626869917        505797885.69530058     
   3247111027.1695228        17852674.363346696        511887705.66836590     
   3101793234.4580626        10027695.974509716        521882902.05855191     
   3387390054.7695227       -210354.68385171890        622460397.45424509     
   3255224658.3859925        11548884.049141169        612827640.79119062     
   3120747498.7096519        15602245.139420629        604887300.93516254     
   2983958575.7404952        11949728.586986780        598639377.88615847     
   2844857889.4785290        591334.39184081554        594083871.64417815     
   3645956891.9198208       -29655932.520529509        291257725.66336989     
   3274277624.8673573       -88716963.390601635        332153266.07261008     
   2903436938.9027295       -144982723.96787810        431974547.01393664     
   2533434834.0259733       -198453214.25227249        590721568.48731494     
   2164271310.2370539       -249128434.24384260        808394330.49279749     
   3502342735.6787148       -5095937.4816701412        370469829.06814808     
   3272569602.8271084       -26076213.456780910        390992221.40409619     
   3044680258.0598125       -40777195.817523360        452959571.46362704     
   2818674701.3768344       -49198884.563873053        556371879.24676764     
   2594552932.7781668       -51341279.695852637        701229144.75349104     
   3320954849.8581276        8131938.6833448410        447344887.86654133     
   3183142757.4688497        10248889.481626868        448713540.29173970     
   3048259660.1603513        22129157.215836525        474046367.63203782     
   2916305557.9326377        43772741.885999680        523343369.88744146     
   2787280450.7856984        75179643.492076397        596604547.05797040     
   3101793234.4580626        10027695.974509716        521882902.05855191     
   3005997088.7925963        20258345.424641252        505317222.73553586     
   2914175145.2043667        43736335.132255197        495234935.51914507     
   2826327403.6933885        80461665.097348213        491636040.40937674     
   2742453864.2596474        130434335.31992376        494520537.40623444     
   2844857889.4785290        591334.39184081554        594083871.64417815     
   2741132596.7983375        3952154.3722507954        560803268.73549139     
   2642426713.1918530        24044337.931710005        516525275.12495118     
   2548740238.6590834        60867885.070185065        461249890.81254518     
   2460073173.2000122        114422795.78769600        394977115.79827160     
   5957738112.7813129        1787321433.8343940        1150246705.8409421     
   6088273112.8129177        1502163970.6304989        1228125533.7380471     
   6221536350.0836077        1226100631.5568864        1268630324.1779113     
   6357527824.5933819        959131416.61355615        1271761077.1605344     
   6496247536.3422413        701256325.80050921        1237517792.6859167     
   5434562021.2023249        1630368606.3606975        1033646940.6629207     
   5489838970.8954468        1372425231.8816686        1114052198.9670892     
   5547315830.3771992        1121814890.0314114        1167660512.4546962     
   5606992599.6475830        878537580.80992615        1194471881.1257410     
   5668869278.7066002        642593304.21721339        1194486304.9802241     
   4895280591.4915934        1468584177.4474781        936505944.89243698     
   4905519755.5338860        1246920971.0996115        1018821251.5781406     
   4917430501.9143553        1030829705.8790059        1084916706.0879614     
   4931012830.6330042        820310381.78566206        1134792308.4218996     
   4946266741.6898327        615362998.81958044        1168448058.5799546     
   4339893823.6491175        1301968147.0947351        858823718.52949131     
   4335315466.7282333        1125651188.2843268        942432691.57120132     
   4331880364.6950760        953145079.09967017        1020398905.0777074     
   4329588517.5496435        784449819.54076374        1092722359.0490098     
   4328439925.2919359        619565409.60760856        1159403053.4851081     
   3768401717.6748981        1130520515.3024695        800600261.57408345     
   3779226104.4784942        1008615883.4358163        884886518.94627070     
   3790665418.7193623        888761009.69340336        974107109.42393351     
   3802719660.3975019        770955894.07523084        1068262033.0070719     
   3815388829.5129142        655200536.58129859        1167351289.6956847     
   6496247536.3422413        701256325.80050921        1237517792.6859167     
   6239185591.2760487        375641996.08061981        1053522040.8365953     
   6013018656.0945120        153011032.64291930        908586673.65752387     
   5817746730.7976322        33363435.487404823        802711691.14870024     
   5653369815.3854084        16699204.614078760        735897093.31012559     
   5668869278.7066002        642593304.21721339        1194486304.9802241     
   5518888798.9882030        383013102.69385290        1073760651.9863832     
   5393030094.7795773        203838819.53639221        981106327.31370771     
   5291293166.0807199        105070454.74483156        916523330.96219826     
   5213678012.8916349        86708008.319170713        880011662.93185353     
   4946266741.6898327        615362998.81958044        1168448058.5799546     
   4871970423.4647083        412397734.33639050        1103090397.6708922     
   4815022646.3744707        267260940.30281329        1054815008.7339137     
   4775423410.4191151        179952616.71884894        1023621891.7690158     
   4753172715.5986443        150472763.58449745        1009511046.7762022     
   4328439925.2919359        619565409.60760856        1159403053.4851081     
   4298430464.7055645        463795891.00823295        1141511277.8901253     
   4278996310.8791909        343277394.94218242        1129712717.9181406     
   4270137463.8128152        258009921.40945840        1124007373.5691559     
   4271853923.5064359        207993470.41005898        1124395244.8431714     
   3815388829.5129142        655200536.58129859        1167351289.6956847     
   3798268922.7107706        537207572.70938098        1189023292.6440787     
   3784951088.2937393        431888183.45450079        1205799454.8663895     
   3775435326.2618203        339242368.81665921        1217679776.3626175     
   3769721636.6150088        259270128.79585397        1224664257.1327605     
   5653369815.3854084        16699204.614078760        735897093.31012559     
   5520345909.6104622        47834670.862003088        722705766.95616388     
   5381741583.5530987        60368736.168545723        711355662.26531637     
   5237556837.2133236        54301400.533709049        701846779.23757923     
   5087791670.5911350        29632663.957489491        694179117.87295449     
   5213678012.8916349        86708008.319170713        880011662.93185353     
   5078085570.6539373        84166909.014341354        856040790.48646688     
   4940271045.5452070        74218866.806063175        836024414.22648704     
   4800234437.5654373        56863881.694330215        819962534.15191293     
   4657975746.7146349        32101953.679148197        807855150.26274610     
   4753172715.5986443        150472763.58449745        1009511046.7762022     
   4621049664.1047497        116066476.88888049        978678688.55266607     
   4490062867.1511984        85447705.327743292        953914101.03682983     
   4360212324.7379894        58616448.901083946        935217284.22869277     
   4231498036.8651271        35572707.608904600        922588238.12825799     
   4271853923.5064359        207993470.41005898        1124395244.8431714     
   4149238189.9628978        143533374.48562264        1090619461.1547611     
   4031117048.3710804        94055251.733590841        1065024722.6963440     
   3917490498.7309875        59559102.153972149        1047611029.4679215     
   3808358541.0426188        40044925.746761322        1038378381.4694940     
   3769721636.6150088        259270128.79585397        1224664257.1327605     
   3662651148.2283792        166567601.80456018        1191863108.2927530     
   3563433589.2048507        100041506.02360523        1169356279.2050316     
   3472068959.5444241        59691841.452990770        1157143769.8695967     
   3388557259.2470999        45518608.092713475        1155225580.2864506     
   5087791670.5911350        29632663.957489491        694179117.87295449     
   4940015214.6945686        2495849.4086866379        675376964.18607199     
   4795798503.5703468       -12775149.232293606        661502099.11494553     
   4655141537.2184725       -16180331.965456009        652554522.65957940     
   4518044315.6389418       -7719698.7907991409        648534234.81997561     
   4657975746.7146349        32101953.679148197        807855150.26274610     
   4524508733.6795673        10527157.878165245        793740071.85637689     
   4393626196.1767292       -2432719.4820601940        784421425.78590989     
   4265328134.2061176       -6777678.4015281200        779899212.05134094     
   4139614547.7677331       -2507718.8802347183        780173430.65266466     
   4231498036.8651271        35572707.608904600        922588238.12825799     
   4111966591.6062407        19447768.030140638        912022420.88893819     
   3994044352.6394634        8686849.4250731468        906122179.70565474     
   3877731319.9647951        3289951.7937068939        904887514.57840717     
   3763027493.5822382        3257075.1360392570        908318425.50719512     
   3808358541.0426188        40044925.746761322        1038378381.4694940     
   3702388788.4745893        29257679.864619732        1030224011.2837491     
   3597052972.9585528        20583557.489115477        1026604360.8741796     
   3492351094.4945078        14022558.620252609        1027519430.2407839     
   3388283153.0824580        9574683.2580313683        1032969219.3835599     
   3388557259.2470999        45518608.092713475        1155225580.2864506     
   3295775324.2846127        39956893.381604671        1148344843.0408115     
   3202652057.1339970        33257404.710066199        1145867969.2914853     
   3109187457.7952566        25420142.078111529        1147794959.0384707     
   3015381526.2683887        16445105.485733509        1154125812.2817671     
   4518044315.6389418       -7719698.7907991409        648534234.81997561     
   4377157287.1365328        2094909.8918430805        640167105.02916467     
   4234352877.1045361        5518246.8092021942        636392707.66217458     
   4089631085.5429525        2550311.9612598419        637211042.71900761     
   3942991912.4517803       -6808894.6519751549        642622110.19965661     
   4139614547.7677331       -2507718.8802347183        780173430.65266466     
   4009329051.0911102        2581591.6281294823        770697836.99452031     
   3877903644.1955867        3871201.4068405628        765874988.81875813     
   3745338327.0811615        1361110.4558763504        765704886.12538135     
   3611633099.7478385       -4948681.2247474194        770187528.91439235     
   3763027493.5822382        3257075.1360392570        908318425.50719512     
   3643514994.6130099        3672527.2346153259        898641417.84418416     
   3523640056.7355700        2879849.6391553879        893677168.72211981     
   3403402679.9499192        879042.34965968132        893425678.14100492     
   3282802864.2560563       -2329894.6338737011        897886946.10083866     
   3388283153.0824580        9574683.2580313683        1032969219.3835599     
   3279715117.7022352        5367716.7112979889        1023997847.5781531     
   3171562114.7244925        2544191.5061620474        1019799247.3722599     
   3063824144.1492233        1104107.6426041126        1020373418.7658751     
   2956501205.9764342        1047465.1206507683        1025720361.7590071     
   3015381526.2683887        16445105.485733509        1154125812.2817671     
   2917929420.3587861        7667160.0581744909        1146767126.1964316     
   2821669818.1623473        2864227.0078344345        1144241224.7691743     
   2726602719.6790762        2036306.3347184658        1146548107.9999936     
   2632728124.9089694        5183398.0388156176        1153687775.8888879     
   3942991912.4517803       -6808894.6519751549        642622110.19965661     
   3801224488.7203465       -14715790.696169853        631210322.23822856     
   3661368371.1961608       -16251666.049543142        624046107.46018469     
   3523423559.8792186       -11416520.712105036        621129465.86552119     
   3387390054.7695227       -210354.68385171890        622460397.45424509     
   3611633099.7478385       -4948681.2247474194        770187528.91439235     
   3481753953.0758777       -9910665.1050708294        761502579.50864744     
   3353146573.9427352       -10633423.855989695        757035290.31205571     
   3225810962.3484163       -7116957.4774991274        756785661.32462800     
   3099747118.2929220        638734.03041183949        760753692.54636037     
   3282802864.2560563       -2329894.6338737011        897886946.10083866     
   3164726529.0029192       -4372606.0425282717        891182706.80428493     
   3047282422.6201806       -4307887.8831785917        888666214.74266315     
   2930470545.1078448       -2135740.1558201313        890337469.91597629     
   2814290896.4659119        2143837.1395478249        896196472.32422698     
   2956501205.9764342        1047465.1206507683        1025720361.7590071     
   2850142216.5014772        1898386.4914655685        1020250704.1251514     
   2743775917.2285028        2724941.8688993454        1018938880.7520071     
   2637402308.1575069        3527131.2529312372        1021784891.6395698     
   2531021389.2884965        4304954.6435647011        1028788736.7878438     
   2632728124.9089694        5183398.0388156176        1153687775.8888879     
   2538001015.5715547        8902312.4969285727        1148706571.4712405     
   2442627057.7676969        10465065.400237560        1147853288.3400798     
   2346606251.4973974        9871656.7487416267        1151127926.4954054     
   2249938596.7606626        7122086.5424559116        1158530485.9372165     
   3387390054.7695227       -210354.68385171890        622460397.45424509     
   3255224658.3859925        11548884.049141169        612827640.79119062     
   3120747498.7096519        15602245.139420629        604887300.93516254     
   2983958575.7404952        11949728.586986780        598639377.88615847     
   2844857889.4785290        591334.39184081554        594083871.64417815     
   3099747118.2929220        638734.03041183949        760753692.54636037     
   2971734000.7645965        7618212.5806481838        750178390.06244433     
   2842322897.5111828        9937738.7139350176        742207753.00998139     
   2711513808.5326886        7597312.4302852154        736841781.38897669     
   2579306733.8291135        596933.72969007492        734080475.19944370     
   2814290896.4659119        2143837.1395478249        896196472.32422698     
   2693036482.4340262        5125482.8993946314        885744697.84846449     
   2571297860.2447896        6493101.4680715799        878809837.42859542     
   2449075029.8982000        6246692.8455725908        875391891.06462002     
   2326367991.3942628        4386257.0319118500        875490858.75653696     
   2531021389.2884965        4304954.6435647011        1028788736.7878438     
   2419132103.3942909        4070695.0053889751        1019526564.1492559     
   2307672386.9104729        5268333.4018315077        1014693554.1909992     
   2196642239.8370328        7897869.8328661919        1014289706.9130627     
   2086041662.1739743        11959304.298504472        1018315022.3154629     
   2249938596.7606626        7122086.5424559116        1158530485.9372165     
   2150020863.6453896        4453848.8986452818        1151523988.9648221     
   2051446477.5082331        6263434.5152142048        1149858903.2971928     
   1954215438.3491812        12550843.392139673        1153535228.9343269     
   1858327746.1682475        23316075.529458523        1162552965.8762248     
   2844857889.4785290        591334.39184081554        594083871.64417815     
   2741132596.7983375        3952154.3722507954        560803268.73549139     
   2642426713.1918530        24044337.931710005        516525275.12495118     
   2548740238.6590834        60867885.070185065        461249890.81254518     
   2460073173.2000122        114422795.78769600        394977115.79827160     
   2579306733.8291135        596933.72969007492        734080475.19944370     
   2451851406.6448898       -2137997.8299410343        712623785.54898381     
   2327666541.8133163        6028611.7859245539        685317325.79883456     
   2206752139.3343992        25096762.577300191        652161095.94899797     
   2089108199.2081187        55066454.544170260        613155095.99947023     
   2326367991.3942628        4386257.0319118500        875490858.75653696     
   2189890117.1407771       -32179.837347388268        863817644.52307296     
   2054933758.5188887        621102.06537115574        851442280.79208469     
   1921498915.5285923        6346102.7400683165        838364767.56358397     
   1789585588.1698925        17142822.186744571        824585104.83755863     
   2086041662.1739743        11959304.298504472        1018315022.3154629     
   1955248728.2860022        10269608.350048304        1014384845.6577574     
   1824228363.3085625        7821808.7700518370        1014900140.1046988     
   1692980567.2416677        4615905.5585094690        1019860905.6562922     
   1561505340.0852928        651898.71540677547        1029267142.3125343     
   1858327746.1682475        23316075.529458523        1162552965.8762248     
   1747927240.0805666        28767366.732259512        1164325388.9530392     
   1635550356.1823552        27630731.899968207        1175690903.7366772     
   1521197094.4736230        19906171.032606363        1196649510.2271352     
   1404867454.9543672        5593684.1301712990        1227201208.4244077     
   3768401717.6748981        1130520515.3024695        800600261.57408345     
   3779226104.4784942        1008615883.4358163        884886518.94627070     
   3790665418.7193623        888761009.69340336        974107109.42393351     
   3802719660.3975019        770955894.07523084        1068262033.0070719     
   3815388829.5129142        655200536.58129859        1167351289.6956847     
   3207973690.9058242        962392107.27174723        756689325.33426833     
   3236010579.2894220        868137178.05508327        853052402.46475780     
   3263774688.4605150        772972984.79673672        951340831.70900726     
   3291266018.4191031        676899527.49670744        1051554613.0670161     
   3318484569.1651859        579916806.15499568        1153693746.5387838     
   2685779160.6787868        805733748.20363605        721944661.11810064     
   2722431462.0946259        736549395.07263315        829348900.24881959     
   2757923277.6481848        663496755.73402524        935669510.50158226     
   2792254607.3394613        586575830.18781161        1040906491.8763884     
   2825425451.1684561        505786618.43399298        1145059844.3732383     
   2201818126.9937849        660545438.09813547        696366268.92558038     
   2238488752.8941073        613852534.48846602        813776012.29845595     
   2273111186.2823710        560332322.50526869        927093145.80165887     
   2305685427.1585774        499984802.14854324        1036317669.4351898     
   2336211475.5227242        432809973.41828924        1141449583.1990488     
   1756090589.8508189        526827176.95524567        679954148.75670767     
   1784182451.6878650        500046596.30258209        806333738.61366653     
   1809338414.3630753        463479685.11046731        925611737.60923719     
   1831558477.8764505        417126443.37890148        1037788145.7434196     
   1850842642.2279899        360986871.10788488        1142862963.0162139     
   3815388829.5129142        655200536.58129859        1167351289.6956847     
   3798268922.7107706        537207572.70938098        1189023292.6440787     
   3784951088.2937393        431888183.45450079        1205799454.8663895     
   3775435326.2618203        339242368.81665921        1217679776.3626175     
   3769721636.6150088        259270128.79585397        1224664257.1327605     
   3318484569.1651859        579916806.15499568        1153693746.5387838     
   3294182327.2490640        472682109.50731778        1181982251.1134806     
   3273584246.4087620        377794616.44570625        1207159046.1979139     
   3256690326.6442795        295254326.97016048        1229224131.7920845     
   3243500567.9556184        225061241.08068204        1248177507.8959906     
   2825425451.1684561        505786618.43399298        1145059844.3732383     
   2799038391.9549842        410839444.35554224        1179850620.7133985     
   2776257582.5080404        327913102.83218670        1213313818.7991138     
   2757083022.8276243        257007593.86392677        1245449438.6303873     
   2741514712.9137392        198122917.45076287        1276257480.2072167     
   2336211475.5227242        432809973.41828924        1141449583.1990488     
   2312837116.8285303        351679577.25405484        1182628401.4438310     
   2292971096.5915742        282243642.61394399        1224263772.6699898     
   2276613414.8118548        224502169.49795943        1266355696.8775265     
   2263764071.4893732        178455157.90609837        1308904174.0664389     
   1850842642.2279899        360986871.10788488        1142862963.0162139     
   1835578501.8697038        295202508.20285529        1190315593.3047800     
   1823724788.6593630        240786235.79097891        1240008907.8105416     
   1815281502.5969689        197738053.87225598        1291942906.5335011     
   1810248643.6825206        166057962.44668704        1346117589.4736571     
   3769721636.6150088        259270128.79585397        1224664257.1327605     
   3662651148.2283792        166567601.80456018        1191863108.2927530     
   3563433589.2048507        100041506.02360523        1169356279.2050316     
   3472068959.5444241        59691841.452990770        1157143769.8695967     
   3388557259.2470999        45518608.092713475        1155225580.2864506     
   3243500567.9556184        225061241.08068204        1248177507.8959906     
   3165572855.9643021        150457727.67479229        1230878336.9017956     
   3093838318.1550074        96498128.208970428        1221525671.0166161     
   3028296954.5277276        63182442.683204889        1220119510.2404518     
   2968948765.0824690        50510671.097500086        1226659854.5733018     
   2741514712.9137392        198122917.45076287        1276257480.2072167     
   2686021735.4798193        139606005.07890785        1272523906.0142379     
   2635062177.0468340        96200489.376837015        1274389022.2870018     
   2588636037.6147833        67906370.344546318        1281852829.0255096     
   2546743317.1836681        54723647.982039094        1294915326.2297590     
   2263764071.4893732        178455157.90609837        1308904174.0664389     
   2223997786.7749286        134012434.01689911        1316799815.6300783     
   2187105165.8803339        99148589.527203798        1327946333.0161889     
   2153086208.8055916        73863624.437013984        1342343726.2247705     
   2121940915.5506999        58157538.746325374        1359991995.2558219     
   1810248643.6825206        166057962.44668704        1346117589.4736571     
   1779501009.8496289        133677014.48876685        1363706065.7493174     
   1749967284.6555059        105342428.66007441        1382197603.2041774     
   1721647468.1001492        81054204.960603058        1401592201.8382359     
   1694541560.1835616        60812343.390361488        1421889861.6514931     
   3388557259.2470999        45518608.092713475        1155225580.2864506     
   3295775324.2846127        39956893.381604671        1148344843.0408115     
   3202652057.1339970        33257404.710066199        1145867969.2914853     
   3109187457.7952566        25420142.078111529        1147794959.0384707     
   3015381526.2683887        16445105.485733509        1154125812.2817671     
   2968948765.0824690        50510671.097500086        1226659854.5733018     
   2886513271.9077730        40627780.648844600        1218869088.7821655     
   2804290146.6977873        31452783.415890932        1215630455.2709129     
   2722279389.4525132        22985679.398639441        1216943954.0395472     
   2640481000.1719532        15226468.597102761        1222809585.0880661     
   2546743317.1836681        54723647.982039094        1294915326.2297590     
   2475077890.8926864        40646669.324608207        1286860515.4047706     
   2404178532.7192535        29123251.059011579        1283506105.6432402     
   2334045242.6633744        20153393.185253620        1284852096.9451692     
   2264678020.7250452        13737095.703333378        1290898489.3105538     
   2121940915.5506999        58157538.746325374        1359991995.2558219     
   2061469181.2393568        40013559.408900738        1352319122.9086266     
   2002317215.1984017        26268807.639441729        1349494920.4084630     
   1944485017.4278359        16923283.437944651        1351519387.7553303     
   1887972587.9276628        11976986.804420114        1358392524.9492271     
   1694541560.1835616        60812343.390361488        1421889861.6514931     
   1645687142.9477792        38728450.901718855        1415244911.2937348     
   1598706194.1352248        22889453.157170236        1413596899.5665812     
   1553598713.7458994        13295350.156718314        1416945826.4700320     
   1510364701.7798038        9946141.9003637433        1425291692.0040886     
   3015381526.2683887        16445105.485733509        1154125812.2817671     
   2917929420.3587861        7667160.0581744909        1146767126.1964316     
   2821669818.1623473        2864227.0078344345        1144241224.7691743     
   2726602719.6790762        2036306.3347184658        1146548107.9999936     
   2632728124.9089694        5183398.0388156176        1153687775.8888879     
   2640481000.1719532        15226468.597102761        1222809585.0880661     
   2555998474.0453148        8333343.7715657949        1216287640.2299399     
   2472405553.8197808        4405571.9497076273        1214474551.9463179     
   2389702239.4953523        3443153.1315383911        1217370320.2372081     
   2307888531.0720282        5446087.3170498610        1224974945.1025991     
   2264678020.7250452        13737095.703333378        1290898489.3105538     
   2192810994.1426010        8622567.4081820250        1284859904.8988953     
   2121530675.6491995        5463732.7431735992        1283406248.9781766     
   2050837065.2448466        4260591.7083221674        1286537521.5483954     
   1980730162.9295342        5013144.3036168814        1294253722.6095502     
   1887972587.9276628        11976986.804420114        1358392524.9492271     
   1828366980.6506417        8534830.9680224657        1352483920.2033019     
   1769045183.6506014        6038709.3882292509        1351036315.8647478     
   1710007196.9275529        4488622.0650721788        1354049711.9335592     
   1651253020.4814832        3884568.9985123873        1361524108.4097426     
   1510364701.7798038        9946141.9003637433        1425291692.0040886     
   1462666433.5694380        8070134.4510927200        1419159686.1431615     
   1414949077.8239932        6130501.8848937154        1417364752.6060300     
   1367212634.5434749        4127244.2017837167        1419906891.3926971     
   1319457103.7278805        2060361.4017490745        1426786102.5031657     
   2632728124.9089694        5183398.0388156176        1153687775.8888879     
   2538001015.5715547        8902312.4969285727        1148706571.4712405     
   2442627057.7676969        10465065.400237560        1147853288.3400798     
   2346606251.4973974        9871656.7487416267        1151127926.4954054     
   2249938596.7606626        7122086.5424559116        1158530485.9372165     
   2307888531.0720282        5446087.3170498610        1224974945.1025991     
   2223642726.8270082        7536131.2156738043        1218691331.3129649     
   2139045825.5553555        8455851.6921871901        1216718231.8216524     
   2054097827.2570715        8205248.7465964556        1219055646.6286502     
   1968798731.9321554        6784322.3789005280        1225703575.7339685     
   1980730162.9295342        5013144.3036168814        1294253722.6095502     
   1907487358.0964272        5630825.9386068583        1287012742.7943718     
   1834189207.6764975        6064022.2841854095        1284264870.2893422     
   1760835711.6697435        6312733.3403475285        1286010105.0944614     
   1687426870.0761619        6376959.1070927382        1292248447.2097275     
   1651253020.4814832        3884568.9985123873        1361524108.4097426     
   1589534909.3798096        3186396.6657331586        1353670805.9154596     
   1528057204.1311200        3289577.1762274504        1350493203.7431593     
   1466819904.7354095        4194110.5299933553        1351991301.8928370     
   1405823011.1926873        5899996.7270454764        1358165100.3644943     
   1319457103.7278805        2060361.4017490745        1426786102.5031657     
   1269785380.6771555        202843.39704513550        1418665520.6762271     
   1220649814.9192233        132516.36831390858        1415403232.1830969     
   1172050406.4540811        1849380.3155484200        1416999237.0237768     
   1123987155.2817256        5353435.2387454510        1423453535.1982665     
   2249938596.7606626        7122086.5424559116        1158530485.9372165     
   2150020863.6453896        4453848.8986452818        1151523988.9648221     
   2051446477.5082331        6263434.5152142048        1149858903.2971928     
   1954215438.3491812        12550843.392139673        1153535228.9343269     
   1858327746.1682475        23316075.529458523        1162552965.8762248     
   1968798731.9321554        6784322.3789005280        1225703575.7339685     
   1882962487.4381647        6077801.3365486860        1219789249.4423594     
   1798054625.7352438        8465889.5977572203        1218912722.3389404     
   1714075146.8233886        13948587.162524223        1223073994.4237168     
   1631024050.7026076        22525894.030865729        1232273065.6966856     
   1687426870.0761619        6376959.1070927382        1292248447.2097275     
   1614804651.0132465        7371915.7091315985        1286942166.7140203     
   1542695850.5543585        10078267.657924891        1286370073.2899301     
   1471100468.6994970        14496014.953475893        1290532166.9374635     
   1400018505.4486620        20625157.595781207        1299428447.6566191     
   1405823011.1926873        5899996.7270454764        1358165100.3644943     
   1345547354.3706412        8336192.0164095759        1352982740.7798014     
   1285370151.9655833        11100568.695733845        1352230956.1501646     
   1225291403.9775035        14193126.764988661        1355909746.4755671     
   1165311110.4064145        17613866.224206090        1364019111.7560256     
   1123987155.2817256        5353435.2387454510        1423453535.1982665     
   1075190597.5103493        8970630.2583900094        1417910971.6397145     
   1026077529.9689114        11532792.711166263        1416495370.9196355     
   976647952.65741646        13039922.597087324        1419206733.0380328     
   926901865.57586181        13492019.916139424        1426045057.9949102     
   1858327746.1682475        23316075.529458523        1162552965.8762248     
   1747927240.0805666        28767366.732259512        1164325388.9530392     
   1635550356.1823552        27630731.899968207        1175690903.7366772     
   1521197094.4736230        19906171.032606363        1196649510.2271352     
   1404867454.9543672        5593684.1301712990        1227201208.4244077     
   1631024050.7026076        22525894.030865729        1232273065.6966856     
   1543545552.3121557        29327731.679102600        1229950611.8120470     
   1454843781.9839077        32051996.201350033        1235355715.2695141     
   1364918739.7178550        30698687.597597539        1248488376.0690830     
   1273770425.5140171        25267805.867864728        1269348594.2107558     
   1400018505.4486620        20625157.595781207        1299428447.6566191     
   1330131916.5705376        27178512.233990312        1293889740.3287113     
   1259775161.6273410        32164646.655282676        1294213055.9781880     
   1188948240.6190777        35583560.859689236        1300398394.6050525     
   1117651153.5457392        37435254.847186506        1312445756.2093077     
   1165311110.4064145        17613866.224206090        1364019111.7560256     
   1107686332.8557103        22319708.396908522        1356142774.5030291     
   1050344495.1126603        27968683.261797786        1352262925.8626993     
   993285597.17726386        34560790.818868339        1352379565.8350365     
   936509639.04953003        42096031.068128973        1356492694.4200478     
   926901865.57586181        13492019.916139424        1426045057.9949102     
   876208801.16767359        14751320.167877257        1416709714.3350015     
   826551782.43985796        19464106.020853132        1409505324.9230464     
   777930809.39243793        27630377.475142926        1404431889.7590427     
   730345882.02539325        39250134.530686408        1401489408.8429914     
   1756090589.8508189        526827176.95524567        679954148.75670767     
   1784182451.6878650        500046596.30258209        806333738.61366653     
   1809338414.3630753        463479685.11046731        925611737.60923719     
   1831558477.8764505        417126443.37890148        1037788145.7434196     
   1850842642.2279899        360986871.10788488        1142862963.0162139     
   1326376836.3203614        397913050.89610839        669603787.61591518     
   1339671589.3690357        375495372.39559501        791721221.87300181     
   1350764418.0498056        345737946.00206715        908551032.04223299     
   1359655322.3626716        308640771.71552497        1020093218.1236092     
   1366344302.3076324        264203849.53596756        1126347780.1171300     
   890457153.47288382        267137146.04186514        662210672.50763535     
   894137559.94328034        250637198.35653025        780922255.09110284     
   896350016.83970332        229244085.42461726        896160180.36024761     
   897094524.16215277        202957807.24612617        1007924448.3150697     
   896371081.91062927        171778363.82105708        1116215058.9555690     
   448331541.30838668        134499462.39251602        657774803.43186843     
   447580363.41059858        125472074.18538760        773936838.26796925     
   446095210.73276800        113998103.37811735        888439182.56328022     
   443876083.27489507        100077549.97070573        1001281836.3178011     
   440922981.03697944        83710413.963152036        1112464799.5315323     
 -0.17313051175843658       -5.1939153527530972E-002   656296180.38861406     
 -0.22900956543202700      -0.11783315280471093        770764971.40360117     
 -0.27100011223175302      -0.13743221590518345        885388038.65133119     
 -0.29910229226989549      -0.11073659302944990        1000165382.1318038     
 -0.31331599402851662       -3.7746042555311818E-002   1115097001.8450191     
   1850842642.2279899        360986871.10788488        1142862963.0162139     
   1835578501.8697038        295202508.20285529        1190315593.3047800     
   1823724788.6593630        240786235.79097891        1240008907.8105416     
   1815281502.5969689        197738053.87225598        1291942906.5335011     
   1810248643.6825206        166057962.44668704        1346117589.4736571     
   1366344302.3076324        264203849.53596756        1126347780.1171300     
   1360618920.4788127        216582394.39488050        1181698028.8819005     
   1357451358.9985151        177487007.08219987        1237953659.7373853     
   1356841617.8667397        146917687.59792709        1295114672.6835842     
   1358789697.0834856        124874435.94205868        1353181067.7204967     
   896371081.91062927        171778363.82105708        1116215058.9555690     
   896369309.67846727        141175271.76406941        1178468218.2638843     
   898072750.99540389        116256224.87074202        1240291457.5364306     
   901481405.86143827        97021223.141074836        1301684776.7732074     
   906595274.27657127        83470266.575069040        1362648175.9742153     
   440922981.03697944        83710413.963152036        1112464799.5315323     
   442829669.46866709        68981140.310421452        1180626161.4507306     
   445588964.65002888        57093889.156604290        1247022301.2076762     
   449200866.58106560        48048660.501702517        1311653218.8023701     
   453665375.26177597        41845454.345713869        1374518914.2348113     
 -0.31331599402851662       -3.7746042555311818E-002   1115097001.8450191     
 -0.15058719495723100        3.3938316900384589E-002   1188171858.4424388     
  -3.7608486608824994E-002  -6.0210699178329503E-002   1258146190.7511239     
   2.5620425538434480E-002 -0.32019258610129997        1325019998.7710736     
   3.9100019010075676E-002 -0.74600553527633129        1388793282.5022879     
   1810248643.6825206        166057962.44668704        1346117589.4736571     
   1779501009.8496289        133677014.48876685        1363706065.7493174     
   1749967284.6555059        105342428.66007441        1382197603.2041774     
   1721647468.1001492        81054204.960603058        1401592201.8382359     
   1694541560.1835616        60812343.390361488        1421889861.6514931     
   1358789697.0834856        124874435.94205868        1353181067.7204967     
   1333330308.2443085        99869125.874122083        1372031169.8127766     
   1308781350.9278452        77898587.548564434        1392344021.2079511     
   1285142825.1340930        58962820.965379477        1414119621.9060175     
   1262414730.8630559        43061826.124574125        1437357971.9069774     
   906595274.27657127        83470266.575069040        1362648175.9742153     
   888023239.35594988        66320327.074568361        1382405847.2477179     
   870058158.84198689        51193568.929595262        1404185955.9478080     
   852700032.73468292        38089992.140151292        1427988502.0744865     
   835948861.03403676        27009596.706234843        1453813485.6277518     
   453665375.26177597        41845454.345713869        1374518914.2348113     
   443579803.18455166        33030618.090100646        1394830098.0541403     
   433797708.39793128        25227372.803166062        1417723407.4237514     
   424319090.90191513        18435718.484912932        1443198842.3436446     
   415143950.69650340        12655655.135341138        1471256402.8138194     
   3.9100019010075676E-002 -0.74600553527633129        1388793282.5022879     
 -0.26988461831656629       -1.0792761945144345        1409303922.2320447     
 -0.40432123079983828      -0.83071993080229045        1432956375.6357784     
 -0.36420738220171572       -3.2836313796230643E-004   1459750642.7134898     
 -0.14954452511482363        1.4118921919881786        1489686723.4651763     
   1694541560.1835616        60812343.390361488        1421889861.6514931     
   1645687142.9477792        38728450.901718855        1415244911.2937348     
   1598706194.1352248        22889453.157170236        1413596899.5665812     
   1553598713.7458994        13295350.156718314        1416945826.4700320     
   1510364701.7798038        9946141.9003637433        1425291692.0040886     
   1262414730.8630559        43061826.124574125        1437357971.9069774     
   1227780562.0281925        27100900.200350285        1434372747.8495212     
   1194551494.3864818        15823644.919969141        1435916245.4934554     
   1162727527.9379225        9230060.2834253907        1441988464.8387787     
   1132308662.6825163        7320146.2907262444        1452589405.8854952     
   835948861.03403676        27009596.706234843        1453813485.6277518     
   814197177.94519269        16770308.549957663        1453941559.4355094     
   793382228.81942618        9653466.9372694492        1458130138.0154424     
   773504013.65673614        5659071.8681696951        1466379221.3675499     
   754562532.45712173        4787123.3426581621        1478688809.4918349     
   415143950.69650340        12655655.135341138        1471256402.8138194     
   404936990.69878000        7736675.9505378753        1473951346.0517011     
   395198397.43405992        4378919.2090773284        1480238577.1325443     
   385928170.90233886        2582384.9109481424        1490118096.0563476     
   377126311.10361999        2347073.0561587960        1503589902.8231149     
 -0.14954452511482363        1.4118921919881786        1489686723.4651763     
  0.28895693072726886        2.4021016059949294        1494402107.6980941     
  0.23038340923631467        1.7353944288915242        1502241562.8447595     
 -0.32526579300852465      -0.58823168405816428        1513205088.9051704     
  -1.3779900755260455       -4.5687747312501248        1527292685.8793297     
   1510364701.7798038        9946141.9003637433        1425291692.0040886     
   1462666433.5694380        8070134.4510927200        1419159686.1431615     
   1414949077.8239932        6130501.8848937154        1417364752.6060300     
   1367212634.5434749        4127244.2017837167        1419906891.3926971     
   1319457103.7278805        2060361.4017490745        1426786102.5031657     
   1132308662.6825163        7320146.2907262444        1452589405.8854952     
   1096116709.7090900        5787664.2351613641        1446595178.9983220     
   1059910441.2035270        4207463.7391422987        1445035616.4172204     
   1023689857.1658304        2579544.8026791215        1447910718.1421833     
   987454957.59599662        903907.42575752735        1455220484.1732240     
   754562532.45712173        4787123.3426581621        1478688809.4918349     
   730155728.95569444        3681816.9513240755        1472837928.9151845     
   705739381.92507172        2544698.7960059345        1471519304.6268733     
   681313491.36525166        1375768.8766974509        1474732936.6269021     
   656878057.27623761        175027.19340825081        1482478824.9152663     
   377126311.10361999        2347073.0561587960        1503589902.8231149     
   364783491.30924886        1752592.5995709598        1497887935.8937492     
   352435899.98862106        1142207.0554617345        1496815817.2349918     
   340083537.14173818        515916.42383545637        1500373546.8468428     
   327726402.76860070       -126279.29530845582        1508561124.7293062     
  -1.3779900755260455       -4.5687747312501248        1527292685.8793297     
  -3.2302482575244036       -8.8201026381785255        1521745199.9340115     
  -4.6058206012847425       -11.482476016256715        1520925154.2415740     
  -5.5047118992189494       -12.555913268803858        1524832548.8020127     
  -5.9269134472090128       -12.040385035148550        1533467383.6153343     
   1319457103.7278805        2060361.4017490745        1426786102.5031657     
   1269785380.6771555        202843.39704513550        1418665520.6762271     
   1220649814.9192233        132516.36831390858        1415403232.1830969     
   1172050406.4540811        1849380.3155484200        1416999237.0237768     
   1123987155.2817256        5353435.2387454510        1423453535.1982665     
   987454957.59599662        903907.42575752735        1455220484.1732240     
   950492055.61702085       -401962.86104750633        1448112129.0289083     
   913931272.12370622       -367438.19564610720        1445794193.4403055     
   877772607.11606371        1007481.4219954610        1448266677.4074152     
   842016060.59407902        3722795.9918262959        1455529580.9302335     
   656878057.27623761        175027.19340825081        1482478824.9152663     
   632430051.28872454       -637372.89959043264        1476226317.8452675     
   608250124.97975135       -556174.06412416697        1474696356.5528803     
   584338278.34932005        418623.69981470704        1477888941.0381062     
   560694511.39742553        2287020.3922133744        1485804071.3009443     
   327726402.76860070       -126279.29530845582        1508561124.7293062     
   315599367.69226938       -503386.71858346462        1503008087.1253083     
   303606373.48735374       -433691.23713834584        1502109721.5208206     
   291747420.15385181        82807.149018168449        1505866027.9158478     
   280022507.69176346        1046108.4398870766        1514277006.3103924     
  -5.9269134472090128       -12.040385035148550        1533467383.6153343     
   4.8276555829874521       -4.3180174179847395        1528457436.8690236     
   17.646513142674237        10.285311270257420        1528034288.3441265     
   32.529661851093167        31.769610974690430        1532197938.0406442     
   49.477098425613661        60.134869885850620        1540948385.9585781     
   1123987155.2817256        5353435.2387454510        1423453535.1982665     
   1075190597.5103493        8970630.2583900094        1417910971.6397145     
   1026077529.9689114        11532792.711166263        1416495370.9196355     
   976647952.65741646        13039922.597087324        1419206733.0380328     
   926901865.57586181        13492019.916139424        1426045057.9949102     
   842016060.59407902        3722795.9918262959        1455529580.9302335     
   803984309.72632658        6005399.3104437292        1450058593.5109155     
   765715176.67124915        7496728.6713143289        1449049246.6484489     
   727208661.42885494        8196784.0744608939        1452501540.3428388     
   688464763.99914730        8105565.5198931694        1460415474.5940883     
   560694511.39742553        2287020.3922133744        1485804071.3009443     
   534383789.48580414        3521898.6255417466        1480496975.5340536     
   507914812.96960247        4229261.5102673769        1479986198.0423973     
   481287581.84882390        4409109.0464037061        1484271738.8259776     
   454502096.12346482        4061441.2339431643        1493353597.8847919     
   280022507.69176346        1046108.4398870766        1514277006.3103924     
   266389036.78878498        1520128.2036837190        1509226117.7091286     
   252676438.86397105        1730391.2280298769        1509306225.1014760     
   238884713.91731256        1676897.5128940344        1514517328.4874392     
   225013861.94881791        1359647.0583038777        1524859427.8670149     
   49.477098425613661        60.134869885850620        1540948385.9585781     
   51.635276137247189        88.044898729769670        1536246020.0361395     
   54.354351422688922        117.82458754082815        1537009327.8256910     
   57.634329703426275        149.47395334981678        1543238309.3272345     
   61.475208623285397        182.99298587420975        1554932964.5407693     
   926901865.57586181        13492019.916139424        1426045057.9949102     
   876208801.16767359        14751320.167877257        1416709714.3350015     
   826551782.43985796        19464106.020853132        1409505324.9230464     
   777930809.39243793        27630377.475142926        1404431889.7590427     
   730345882.02539325        39250134.530686408        1401489408.8429914     
   688464763.99914730        8105565.5198931694        1460415474.5940883     
   644488447.83513463        7263074.9878384173        1454398730.2975464     
   601289153.62293720        9010657.6285082698        1451902789.8140557     
   558866881.36256349        13348313.441920519        1452927653.1436265     
   517221631.05399680        20276042.428022861        1457473320.2862537     
   454502096.12346482        4061441.2339431643        1493353597.8847919     
   421213526.96107692        2308459.5453571975        1490353258.6016147     
   388442956.02194005        2282138.6009405106        1492263572.6966057     
   356190383.30605257        3982478.4006938487        1499084540.1697595     
   324455808.81341422        7409478.9446034431        1510816161.0210693     
   225013861.94881791        1359647.0583038777        1524859427.8670149     
   206384038.54550007       -112526.15957643092        1524573299.2472188     
   188013189.63686305       -721451.06185457855        1530587673.5706887     
   169901315.22290948       -467127.64851913601        1542902550.8374279     
   152048415.30364007        650444.08042654395        1561517931.0474296     
   61.475208623285397        182.99298587420975        1554932964.5407693     
  -17.411602150916572        117.87301901486083        1557058852.2343557     
  -145.53229075139376       -111.35987185040396        1566875092.4363120     
  -322.88686449829800       -504.70571285681416        1584381685.1466448     
  -549.47532293411973       -1062.1645069896192        1609578630.3653457     
 -0.17313051175843658       -5.1939153527530972E-002   656296180.38861406     
 -0.22900956543202700      -0.11783315280471093        770764971.40360117     
 -0.27100011223175302      -0.13743221590518345        885388038.65133119     
 -0.29910229226989549      -0.11073659302944990        1000165382.1318038     
 -0.31331599402851662       -3.7746042555311818E-002   1115097001.8450191     
  -448331541.67692399       -134499462.50307721        657774803.39220321     
  -447580363.86285305       -125472074.37109616        773936838.23925471     
  -446095211.25829768       -113998103.60416760        888439182.55401504     
  -443876083.86325848       -100077550.20229203        1001281836.3364846     
  -440922981.67773473       -83710414.165468752        1112464799.5866635     
  -890457153.90825033       -267137146.17247510        662210672.45696700     
  -894137560.41003954       -250637198.49836215        780922255.04211080     
  -896350017.34474897       -229244085.60064909        896160180.32992995     
  -897094524.71237814       -202957807.47933614        1007924448.3204247     
  -896371082.51292753       -171778364.13442284        1116215059.0135951     
  -1326376836.8671098       -397913051.06013292        669603787.58290470     
  -1339671589.8705690       -375495372.49963099        791721221.81216955     
  -1350764418.5303533       -345737946.12687653        908551031.97907615     
  -1359655322.8464618       -308640771.94186944        1020093218.0836245     
  -1366344302.8188937       -264203849.94460967        1126347780.1258154     
  -1756090590.5535018       -526827177.16605055        679954148.77001679     
  -1784182452.2444422       -500046596.37490284        806333738.54943073     
  -1809338414.8151114       -463479685.18284988        925611737.50145304     
  -1831558478.2655084       -417126443.58989167        1037788145.6260837     
  -1850842642.5956345       -360986871.59602809        1142862962.9233229     
 -0.31331599402851662       -3.7746042555311818E-002   1115097001.8450191     
 -0.15058719495723100        3.3938316900384589E-002   1188171858.4424388     
  -3.7608486608824994E-002  -6.0210699178329503E-002   1258146190.7511239     
   2.5620425538434480E-002 -0.32019258610129997        1325019998.7710736     
   3.9100019010075676E-002 -0.74600553527633129        1388793282.5022879     
  -440922981.67773473       -83710414.165468752        1112464799.5866635     
  -442829669.82861948       -68981140.447965771        1180626161.4272351     
  -445588964.78211957       -57093889.405847684        1247022301.0893426     
  -449200866.53823477       -48048661.039113045        1311653218.5729866     
  -453665375.09696543       -41845455.347763360        1374518913.8781660     
  -896371082.51292753       -171778364.13442284        1116215059.0135951     
  -896369310.09093666       -141175272.10515538        1178468218.2189760     
  -898072751.22442710       -116256225.26082358        1240291457.3561635     
  -901481405.91339803       -97021223.601426810        1301684776.4251583     
  -906595274.15784931       -83470267.126965851        1362648175.4259593     
  -1366344302.8188937       -264203849.94460967        1126347780.1258154     
  -1360618920.9375398       -216582394.93763065        1181698028.8176615     
  -1357451359.3645306       -177487007.62513831        1237953659.5515857     
  -1356841618.0998683       -146917688.00713271        1295114672.3275888     
  -1358789697.1435523       -124874436.08361441        1353181067.1456692     
  -1850842642.5956345       -360986871.59602809        1142862962.9233229     
  -1835578502.3684266       -295202508.94539082        1190315593.2232919     
  -1823724789.2024305       -240786236.49879158        1240008907.6756103     
  -1815281503.0976458       -197738054.25623012        1291942906.2802775     
  -1810248644.0540731       -166057962.21770930        1346117589.0372944     
   3.9100019010075676E-002 -0.74600553527633129        1388793282.5022879     
 -0.26988461831656629       -1.0792761945144345        1409303922.2320447     
 -0.40432123079983828      -0.83071993080229045        1432956375.6357784     
 -0.36420738220171572       -3.2836313796230643E-004   1459750642.7134898     
 -0.14954452511482363        1.4118921919881786        1489686723.4651763     
  -453665375.09696543       -41845455.347763360        1374518913.8781660     
  -443579803.52613056       -33030619.590741992        1394830097.9685545     
  -433797709.09105283       -25227374.286244452        1417723407.6562979     
  -424319091.79173464       -18435719.434279412        1443198842.9413967     
  -415143951.62817347       -12655655.034837157        1471256403.8238521     
  -906595274.15784931       -83470267.126965851        1362648175.4259593     
  -888023239.49754012       -66320327.916753411        1382405847.0149541     
  -870058159.28329730       -51193570.193427682        1404185956.1246827     
  -852700033.51511979       -38089993.956985325        1427988502.7551439     
  -835948862.19300699       -27009599.207428336        1453813486.9063423     
  -1358789697.1435523       -124874436.08361441        1353181067.1456692     
  -1333330308.1841156       -99869126.057315886        1372031169.3712440     
  -1308781350.9810524       -77898588.552260041        1392344021.0409317     
  -1285142825.5343630       -58962823.568450809        1414119622.1547325     
  -1262414731.8440456       -43061831.105880737        1437357972.7126460     
  -1810248644.0540731       -166057962.21770930        1346117589.0372944     
  -1779501009.5858564       -133677014.01242936        1363706065.0374250     
  -1749967284.1843195       -105342429.36274809        1382197602.4050462     
  -1721647467.8494639       -81054208.268671572        1401592201.1401598     
  -1694541560.5812876       -60812350.730193377        1421889861.2427649     
 -0.14954452511482363        1.4118921919881786        1489686723.4651763     
  0.28895693072726886        2.4021016059949294        1494402107.6980941     
  0.23038340923631467        1.7353944288915242        1502241562.8447595     
 -0.32526579300852465      -0.58823168405816428        1513205088.9051704     
  -1.3779900755260455       -4.5687747312501248        1527292685.8793297     
  -415143951.62817347       -12655655.034837157        1471256403.8238521     
  -404936990.94355023       -7736674.8782283366        1473951346.4624863     
  -395198397.34239268       -4378918.3331710845        1480238577.0306065     
  -385928170.82469666       -2582385.3996524513        1490118095.5282121     
  -377126311.39046329       -2347076.0776761472        1503589901.9553020     
  -835948862.19300699       -27009599.207428336        1453813486.9063423     
  -814197178.36015344       -16770311.013788790        1453941560.2665730     
  -793382228.19715261       -9653468.3863249421        1458130138.5720274     
  -773504011.70400310       -5659071.3250325322        1466379221.8227060     
  -754562528.88070595       -4787119.8299142718        1478688810.0186071     
  -1262414731.8440456       -43061831.105880737        1437357972.7126460     
  -1227780561.9608507       -27100906.004574895        1434372749.1103551     
  -1194551492.3338993       -15823648.424078286        1435916247.4690239     
  -1162727522.9631855       -9230058.3643746376        1441988467.7886572     
  -1132308653.8487146       -7320135.8254800439        1452589410.0692499     
  -1694541560.5812876       -60812350.730193377        1421889861.2427649     
  -1645687141.7456439       -38728459.850591838        1415244912.9938302     
  -1598706189.7526319       -22889458.446427107        1413596903.7215958     
  -1553598704.6022463       -13295346.517684221        1416945833.4260604     
  -1510364686.2944901       -9946124.0643742085        1425291702.1072273     
  -1.3779900755260455       -4.5687747312501248        1527292685.8793297     
  -3.2302482575244036       -8.8201026381785255        1521745199.9340115     
  -4.6058206012847425       -11.482476016256715        1520925154.2415740     
  -5.5047118992189494       -12.555913268803858        1524832548.8020127     
  -5.9269134472090128       -12.040385035148550        1533467383.6153343     
  -377126311.39046329       -2347076.0776761472        1503589901.9553020     
  -364783493.69678521       -1752598.9128088951        1497887936.1984904     
  -352435904.28333127       -1142216.0153574198        1496815818.7434752     
  -340083543.15010989       -515927.38534718752        1500373549.5902565     
  -327726410.29711527        126266.97724004090        1508561128.7388356     
  -754562528.88070595       -4787119.8299142718        1478688810.0186071     
  -730155725.78703845       -3681811.4926275611        1472837930.9005706     
  -705739379.73051310       -2544693.2791469991        1471519308.1332452     
  -681313490.71113038       -1375765.1894745827        1474732941.7166355     
  -656878058.72888911       -175027.22360983491        1482478831.6507368     
  -1132308653.8487146       -7320135.8254800439        1452589410.0692499     
  -1096116699.5010099       -5787646.5595621467        1446595184.0402532     
  -1059910430.9473621       -4207443.2738333344        1445035622.4108887     
  -1023689848.1877701       -2579525.9682894349        1447910725.1811531     
  -987454951.22223151       -903894.64292532206        1455220492.3510499     
  -1510364686.2944901       -9946124.0643742085        1425291702.1072273     
  -1462666414.8387003       -8070104.1136131287        1419159695.6175392     
  -1414949057.9338803       -6130465.9994179010        1417364761.5763981     
  -1367212615.5800283       -4127209.7217839956        1419906899.9838071     
  -1319457087.7771475       -2060335.2807194591        1426786110.8397639     
  -5.9269134472090128       -12.040385035148550        1533467383.6153343     
   4.8276555829874521       -4.3180174179847395        1528457436.8690236     
   17.646513142674237        10.285311270257420        1528034288.3441265     
   32.529661851093167        31.769610974690430        1532197938.0406442     
   49.477098425613661        60.134869885850620        1540948385.9585781     
  -327726410.29711527        126266.97724004090        1508561128.7388356     
  -315599358.94210404        503382.73887297511        1503008094.5263371     
  -303606345.78042006        433704.52274836600        1502109729.9298575     
  -291747370.81205589       -82767.671108901501        1505866034.9493945     
  -280022434.03702414       -1046033.8427423388        1514277009.5849504     
  -656878058.72888911       -175027.22360983491        1482478831.6507368     
  -632430048.50314105        637372.05838185549        1476226329.6715026     
  -608250116.72833407        556176.50390124321        1474696368.7028878     
  -584338263.40446997       -418613.88705435395        1477888948.7448959     
  -560694488.53154695       -2286999.1144796610        1485804069.7975209     
  -987454951.22223151       -903894.64292532206        1455220492.3510499     
  -950492063.85545564        401963.64050656557        1448112142.3045244     
  -913931295.19723272        367426.22875702381        1445794204.6632235     
  -877772645.24757266       -1007506.8781996369        1448266679.4271431     
  -842016114.00646579       -3722835.6803333163        1455529566.5962861     
  -1319457087.7771475       -2060335.2807194591        1426786110.8397639     
  -1269785404.9990461       -202842.51474809647        1418665532.4253979     
  -1220649881.1871178       -132546.30268985033        1415403237.8108578     
  -1172050516.3413634       -1849446.6445448399        1416999226.9961431     
  -1123987310.4617825       -5353543.5403062105        1423453499.9812553     
   49.477098425613661        60.134869885850620        1540948385.9585781     
   51.635276137247189        88.044898729769670        1536246020.0361395     
   54.354351422688922        117.82458754082815        1537009327.8256910     
   57.634329703426275        149.47395334981678        1543238309.3272345     
   61.475208623285397        182.99298587420975        1554932964.5407693     
  -280022434.03702414       -1046033.8427423388        1514277009.5849504     
  -266388961.96318525       -1520018.9104334712        1509226114.8896275     
  -252676361.24704400       -1730241.8371153474        1509306218.6430612     
  -238884631.88858917       -1676702.6227517426        1514517320.8452561     
  -225013773.88782957       -1359401.2673739940        1524859421.4962146     
  -560694488.53154695       -2286999.1144796610        1485804069.7975209     
  -534383761.57985264       -3521861.6712341309        1480496962.4242857     
  -507914777.90444505       -4229201.8156074286        1479986178.2365832     
  -481287537.50532383       -4409019.5476050973        1484271717.2344050     
  -454502040.38249022       -4061314.8672255874        1493353579.4177566     
  -842016114.00646579       -3722835.6803333163        1455529566.5962861     
  -803984347.21472120       -6005440.2374884784        1450058562.6401198     
  -765715195.61785913       -7496762.1109163463        1449049206.6062472     
  -727208659.21587610       -8196801.3006086051        1452501498.4946699     
  -688464738.00877070       -8105557.8065606356        1460415438.3053880     
  -1123987310.4617825       -5353543.5403062105        1423453499.9812553     
  -1075190718.8677938       -8970754.6092073321        1417910915.5371251     
  -1026077614.3872768       -11532922.723011315        1416495303.7520583     
  -976647997.02023709       -13040047.881741047        1419206664.6260569     
  -926901866.76667106       -13492130.085381627        1426044998.1591175     
   61.475208623285397        182.99298587420975        1554932964.5407693     
  -17.411602150916572        117.87301901486083        1557058852.2343557     
  -145.53229075139376       -111.35987185040396        1566875092.4363120     
  -322.88686449829800       -504.70571285681416        1584381685.1466448     
  -549.47532293411973       -1062.1645069896192        1609578630.3653457     
  -225013773.88782957       -1359401.2673739940        1524859421.4962146     
  -206384074.63198686        112691.23366826773        1524573207.0084128     
  -188013412.52231044        721326.58082623035        1530587509.9017360     
  -169901787.55880168        466504.77408764511        1542902330.1761925     
  -152049199.74146548       -651774.18655832857        1561517667.8317714     
  -454502040.38249022       -4061314.8672255874        1493353579.4177566     
  -421213520.49040771       -2308351.9970933199        1490353110.1842318     
  -388443025.65678024       -2282139.3218111396        1492263323.2045913     
  -356190555.88160717       -3982676.8413774371        1499084218.4788382     
  -324456111.16488945       -7409964.5557941198        1510815796.0069606     
  -688464738.00877070       -8105557.8065606356        1460415438.3053880     
  -644488354.98686481       -7263011.8192691505        1454398561.7618136     
  -601288984.93569994       -9010509.0677799284        1451902532.3448732     
  -558866627.85527515       -13348049.552088737        1452927350.0545757     
  -517221283.74559546       -20275633.272217810        1457473014.8909032     
  -926901866.76667106       -13492130.085381627        1426044998.1591175     
  -876208578.12135792       -14751288.232855737        1416709561.7411551     
  -826551290.35907304       -19463782.657089770        1409505137.3225830     
  -777930003.47981334       -27629613.358074039        1404431724.9034021     
  -730344717.48358095       -39248780.335818708        1401489324.4836154     
  -1756090590.5535018       -526827177.16605055        679954148.77001679     
  -1784182452.2444422       -500046596.37490284        806333738.54943073     
  -1809338414.8151114       -463479685.18284988        925611737.50145304     
  -1831558478.2655084       -417126443.58989167        1037788145.6260837     
  -1850842642.5956345       -360986871.59602809        1142862962.9233229     
  -2201818127.7941175       -660545438.33823514        696366269.01057804     
  -2238488753.4751806       -613852534.51286054        813776012.29822278     
  -2273111186.6871500       -560332322.45717216        927093145.72065079     
  -2305685427.4300256       -499984802.17116976        1036317669.2778616     
  -2336211475.7038069       -432809973.65485370        1141449582.9698558     
  -2685779161.4156480       -805733748.42469430        721944661.29686356     
  -2722431462.6234775       -736549395.02608597        829348900.33303189     
  -2757923278.0133910       -663496755.56775498        935669510.46615839     
  -2792254607.5853868       -586575830.04970133        1040906491.6962426     
  -2825425451.3394675       -505786618.47192556        1145059844.0232849     
  -3207973691.4180923       -962392107.42542768        756689325.62887323     
  -3236010579.6893315       -868137177.91457844        853052402.65385818     
  -3263774688.7938323       -772972984.51459813        951340831.73797643     
  -3291266018.7315936       -676899527.22548628        1051554612.8812267     
  -3318484569.5026150       -579916806.04724383        1153693746.0836103     
  -3768401717.8014507       -1130520515.3404353        800600262.00660682     
  -3779226104.6727438       -1008615883.1783383        884886519.26070189     
  -3790665419.0284748       -888761009.29770148        974107109.53610444     
  -3802719660.8686452       -770955893.69852519        1068262032.8328143     
  -3815388830.1932530       -655200536.38080871        1167351289.1508319     
  -1850842642.5956345       -360986871.59602809        1142862962.9233229     
  -1835578502.3684266       -295202508.94539082        1190315593.2232919     
  -1823724789.2024305       -240786236.49879158        1240008907.6756103     
  -1815281503.0976458       -197738054.25623012        1291942906.2802775     
  -1810248644.0540731       -166057962.21770930        1346117589.0372944     
  -2336211475.7038069       -432809973.65485370        1141449582.9698558     
  -2312837117.2652354       -351679577.76536107        1182628401.2757573     
  -2292971097.2125912       -282243643.16229159        1224263772.5367763     
  -2276613415.5458746       -224502169.84564686        1266355696.7529130     
  -2263764072.2650843       -178455157.81542349        1308904173.9241674     
  -2825425451.3394675       -505786618.47192556        1145059844.0232849     
  -2799038392.3959093       -410839444.65549207        1179850620.4562840     
  -2776257583.1629930       -327913103.20786536        1213313818.6471694     
  -2757083023.6407194       -257007594.12904668        1245449438.5959408     
  -2741514713.8290892       -198122917.41903615        1276257480.3025980     
  -3318484569.5026150       -579916806.04724383        1153693746.0836103     
  -3294182327.7604465       -472682109.61578155        1181982250.7648730     
  -3273584247.0536346       -377794616.63550997        1207159046.0067899     
  -3256690327.3821821       -295254327.10643351        1229224131.8093607     
  -3243500568.7460861       -225061241.02854693        1248177508.1725867     
  -3815388830.1932530       -655200536.38080871        1167351289.1508319     
  -3798268923.3588486       -537207572.64623046        1189023292.2015233     
  -3784951088.8845177       -431888183.44522750        1205799454.6156371     
  -3775435326.7702608       -339242368.77780426        1217679776.3931739     
  -3769721637.0160751       -259270128.64395511        1224664257.5341337     
  -1810248644.0540731       -166057962.21770930        1346117589.0372944     
  -1779501009.5858564       -133677014.01242936        1363706065.0374250     
  -1749967284.1843195       -105342429.36274809        1382197602.4050462     
  -1721647467.8494639       -81054208.268671572        1401592201.1401598     
  -1694541560.5812876       -60812350.730193377        1421889861.2427649     
  -2263764072.2650843       -178455157.81542349        1308904173.9241674     
  -2223997786.6095958       -134012433.56377554        1316799814.7870655     
  -2187105165.0897112       -99148589.764142632        1327946331.4927504     
  -2153086207.7054291       -73863626.416514158        1342343724.0412219     
  -2121940914.4567494       -58157543.520896673        1359991992.4324789     
  -2741514713.8290892       -198122917.41903615        1276257480.3025980     
  -2686021735.6283445       -139606004.71362865        1272523905.1145210     
  -2635062176.6321259       -96200489.356639743        1274389020.2445259     
  -2588636036.8404326       -67906371.348069668        1281852825.6926119     
  -2546743316.2532649       -54723650.687918305        1294915321.4587784     
  -3243500568.7460861       -225061241.02854693        1248177508.1725867     
  -3165572856.6421008       -150457727.46198273        1230878336.0197921     
  -3093838318.8115640       -96498128.140246987        1221525668.6603732     
  -3028296955.2544746       -63182443.063336253        1220119506.0943305     
  -2968948765.9708333       -50510672.231253862        1226659848.3216629     
  -3769721637.0160751       -259270128.64395511        1224664257.5341337     
  -3662651149.6508632       -166567601.80883658        1191863107.5028777     
  -3563433591.6280241       -100041506.11495900        1169356276.7402930     
  -3472068962.9475546       -59691841.562314034        1157143765.2463775     
  -3388557263.6094561       -45518608.150909185        1155225573.0211341     
  -1694541560.5812876       -60812350.730193377        1421889861.2427649     
  -1645687141.7456439       -38728459.850591838        1415244912.9938302     
  -1598706189.7526319       -22889458.446427107        1413596903.7215958     
  -1553598704.6022463       -13295346.517684221        1416945833.4260604     
  -1510364686.2944901       -9946124.0643742085        1425291702.1072273     
  -2121940914.4567494       -58157543.520896673        1359991992.4324789     
  -2061469177.6345198       -40013565.048073530        1352319123.0914388     
  -2002317207.9919798       -26268810.507550120        1349494923.7803283     
  -1944485005.5291278       -16923279.899318218        1351519394.4991486     
  -1887972570.2459698       -11976973.223397613        1358392535.2478993     
  -2546743316.2532649       -54723650.687918305        1294915321.4587784     
  -2475077887.0066476       -40646672.290530682        1286860513.9657273     
  -2404178525.2767792       -29123252.282312274        1283506107.5558388     
  -2334045231.0636611       -20153390.663259387        1284852102.2291107     
  -2264678004.3672957       -13737087.433376551        1290898497.9855430     
  -2968948765.9708333       -50510672.231253862        1226659848.3216629     
  -2886513269.8620267       -40627781.577963471        1218869085.6166990     
  -2804290141.6070318       -31452783.770712376        1215630455.0481262     
  -2722279381.2058444       -22985678.809490442        1216943956.6159451     
  -2640480988.6584692       -15226466.694309115        1222809590.3201554     
  -3388557263.6094561       -45518608.150909185        1155225573.0211341     
  -3295775326.2006569       -39956892.910370827        1148344838.0443518     
  -3202652056.9827299       -33257404.972739220        1145867966.2571909     
  -3109187455.9556751       -25420144.338014603        1147794957.6596537     
  -3015381523.1194911       -16445111.006195903        1154125812.2517374     
  -1510364686.2944901       -9946124.0643742085        1425291702.1072273     
  -1462666414.8387003       -8070104.1136131287        1419159695.6175392     
  -1414949057.9338803       -6130465.9994179010        1417364761.5763981     
  -1367212615.5800283       -4127209.7217839956        1419906899.9838071     
  -1319457087.7771475       -2060335.2807194591        1426786110.8397639     
  -1887972570.2459698       -11976973.223397613        1358392535.2478993     
  -1828366959.9337852       -8534808.7580498457        1352483926.8026369     
  -1769045161.3777041       -6038683.4797092676        1351036319.3719175     
  -1710007174.5777235       -4488597.3883727789        1354049712.9557397     
  -1651252999.5338447       -3884550.4840414524        1361524107.5541065     
  -2264678004.3672957       -13737087.433376551        1290898497.9855430     
  -2192810973.5815897       -8622553.9682993889        1284859907.5120504     
  -2121530651.7571189       -5463717.0406742096        1283406246.6190965     
  -2050837038.8938835       -4260576.6504956484        1286537515.3066792     
  -1980730134.9918816       -5013132.7977687120        1294253713.5747988     
  -2640480988.6584692       -15226466.694309115        1222809590.3201554     
  -2555998455.7821164       -8333339.7443704605        1216287637.7457795     
  -2472405529.0721283       -4405566.6823194027        1214474543.3179348     
  -2389702208.5285106       -3443147.5081682205        1217370307.0366218     
  -2307888494.1512594       -5446082.2219032049        1224974928.9018414     
  -3015381523.1194911       -16445111.006195903        1154125812.2517374     
  -2917929406.5353608       -7667166.0862511396        1146767117.5038221     
  -2821669793.3227305       -2864232.4046416283        1144241209.4684329     
  -2726602683.4816008       -2036309.9613685608        1146548088.1455698     
  -2632728077.0119715       -5183398.7564281225        1153687753.5352333     
  -1319457087.7771475       -2060335.2807194591        1426786110.8397639     
  -1269785404.9990461       -202842.51474809647        1418665532.4253979     
  -1220649881.1871178       -132546.30268985033        1415403237.8108578     
  -1172050516.3413634       -1849446.6445448399        1416999226.9961431     
  -1123987310.4617825       -5353543.5403062105        1423453499.9812553     
  -1651252999.5338447       -3884550.4840414524        1361524107.5541065     
  -1589534948.1701207       -3186406.7916719913        1353670809.5820811     
  -1528057304.4621048       -3289621.9516642690        1350493207.2776949     
  -1466820068.4097955       -4194195.9640178680        1351991300.6409466     
  -1405823240.0131998       -5900128.8287349939        1358165089.6718392     
  -1980730134.9918816       -5013132.7977687120        1294253713.5747988     
  -1907487395.4202123       -5630842.2923009396        1287012739.2406576     
  -1834189312.1937857       -6064072.9376502037        1284264872.4419646     
  -1760835885.3126030       -6312824.7338104248        1286010113.1787231     
  -1687427114.7766626       -6377097.6807807684        1292248461.4509356     
  -2307888494.1512594       -5446082.2219032049        1224974928.9018414     
  -2223642746.7493200       -7536149.0166412592        1218691321.4011233     
  -2139045904.3821576       -8455899.2606368065        1216718233.3036695     
  -2054097967.0497782       -8205332.9539129734        1219055664.6094794     
  -1968798934.7521794       -6784450.0964477062        1225703615.3185537     
  -2632728077.0119715       -5183398.7564281225        1153687753.5352333     
  -2538001002.1574402       -8902326.9646720886        1148706556.0634809     
  -2442627081.0272288       -10465100.920649767        1147853289.8628066     
  -2346606313.6213245       -9871720.6243205070        1151127954.9332073     
  -2249938699.9397402       -7122186.0757180452        1158530551.2746878     
  -1123987310.4617825       -5353543.5403062105        1423453499.9812553     
  -1075190718.8677938       -8970754.6092073321        1417910915.5371251     
  -1026077614.3872768       -11532922.723011315        1416495303.7520583     
  -976647997.02023709       -13040047.881741047        1419206664.6260569     
  -926901866.76667106       -13492130.085381627        1426044998.1591175     
  -1405823240.0131998       -5900128.8287349939        1358165089.6718392     
  -1345547529.7254820       -8336334.3232659101        1352982729.6854501     
  -1285370271.4724844       -11100713.266862929        1352230948.5949330     
  -1225291465.2542114       -14193265.659541726        1355909746.4002876     
  -1165311111.0706582       -17613991.501287341        1364019123.1015210     
  -1687427114.7766626       -6377097.6807807684        1292248461.4509356     
  -1614804839.4043345       -7372063.6836789250        1286942200.1808317     
  -1542695980.9879718       -10078419.539799273        1286370124.0434105     
  -1471100539.5275841       -14496165.249162257        1290532233.0386705     
  -1400018515.0231600       -20625300.811747313        1299428527.1666126     
  -1968798934.7521794       -6784450.0964477062        1225703615.3185537     
  -1882962647.9043539       -6077942.6904410124        1219789327.0232801     
  -1798054742.9337442       -8466041.5418241024        1218912830.0974951     
  -1714075219.8403504       -13948746.650597334        1223074124.5412028     
  -1631024078.6241758       -22526058.016761482        1232273210.3544030     
  -2249938699.9397402       -7122186.0757180452        1158530551.2746878     
  -2150020955.2255330       -4453971.3435460329        1151524110.2127862     
  -2051446557.3097923       -6263579.2729225159        1149859066.7571852     
  -1954215506.1925163       -12551009.863854885        1153535420.9078860     
  -1858327801.8737054       -23316263.116329908        1162553172.6648879     
  -926901866.76667106       -13492130.085381627        1426044998.1591175     
  -876208578.12135792       -14751288.232855737        1416709561.7411551     
  -826551290.35907304       -19463782.657089770        1409505137.3225830     
  -777930003.47981334       -27629613.358074039        1404431724.9034021     
  -730344717.48358095       -39248780.335818708        1401489324.4836154     
  -1165311111.0706582       -17613991.501287341        1364019123.1015210     
  -1107686001.1120839       -22319678.315541327        1356142720.0078337     
  -1050343793.6495577       -27968373.449963808        1352262827.9249811     
  -993284488.68309569       -34560076.904589891        1352379446.8529699     
  -936508086.21268737       -42094788.679408699        1356492576.7917817     
  -1400018515.0231600       -20625300.811747313        1299428527.1666126     
  -1330131586.5757670       -27178517.140107393        1293889772.1820025     
  -1259774462.2374587       -32164413.832083523        1294213027.2196727     
  -1188947142.0082355       -35582990.887678266        1300398292.2796183     
  -1117649625.8880985       -37434248.306890011        1312445567.3618469     
  -1631024078.6241758       -22526058.016761482        1232273210.3544030     
  -1543545334.5124116       -29327804.706565201        1229950718.2636676     
  -1454843296.1227558       -32051903.803411722        1235355735.2066567     
  -1364917963.4552212       -30698355.307312846        1248488261.1833708     
  -1273769336.5097942       -25267159.218256772        1269348296.1938052     
  -1858327801.8737054       -23316263.116329908        1162553172.6648879     
  -1747927244.9220104       -28767541.014902711        1164325558.2528276     
  -1635550295.3054650       -27630843.363973618        1175690951.8859360     
  -1521196953.0240574       -19906170.163496673        1196649353.5642116     
  -1404867218.0777938       -5593521.4135146141        1227200763.2876596     
  -3768401717.8014507       -1130520515.3404353        800600262.00660682     
  -3779226104.6727438       -1008615883.1783383        884886519.26070189     
  -3790665419.0284748       -888761009.29770148        974107109.53610444     
  -3802719660.8686452       -770955893.69852519        1068262032.8328143     
  -3815388830.1932530       -655200536.38080871        1167351289.1508319     
  -4339893823.4264479       -1301968147.0279346        858823719.07605326     
  -4335315466.7586880       -1125651188.1192682        942432691.91369998     
  -4331880364.9994354       -953145078.90562081        1020398905.2031791     
  -4329588518.1486874       -784449819.38699257        1092722358.9444907     
  -4328439926.2064447       -619565409.56338298        1159403053.1376345     
  -4895280591.1538076       -1468584177.3461423        936505945.48320079     
  -4905519755.4312115       -1246920971.0361717        1018821251.9096534     
  -4917430502.0411863       -1030829705.8347778        1084916706.2184634     
  -4931012830.9837379       -820310381.74196279        1134792308.4096308     
  -4946266742.2588596       -615362998.75772464        1168448058.4831557     
  -5434562020.9835310       -1630368606.2950594        1033646941.2280493     
  -5489838970.6903105       -1372425231.9290478        1114052199.2485623     
  -5547315830.1537294       -1121814890.0851722        1167660512.5819576     
  -5606992599.3737907       -878537580.76343405        1194471881.2282355     
  -5668869278.3504934       -642593303.96383214        1194486305.1873951     
  -5957738112.9156170       -1787321433.8746850        1150246706.3105989     
  -6088273112.5359859       -1502163970.7978971        1228125533.9304266     
  -6221536349.3370657       -1226100631.6568046        1268630324.2936618     
  -6357527823.3188543       -959131416.45140767        1271761077.4003043     
  -6496247534.4813461       -701256325.18170500        1237517793.2503541     
  -3815388830.1932530       -655200536.38080871        1167351289.1508319     
  -3798268923.3588486       -537207572.64623046        1189023292.2015233     
  -3784951088.8845177       -431888183.44522750        1205799454.6156371     
  -3775435326.7702608       -339242368.77780426        1217679776.3931739     
  -3769721637.0160751       -259270128.64395511        1224664257.5341337     
  -4328439926.2064447       -619565409.56338298        1159403053.1376345     
  -4298430465.4570322       -463795890.92178726        1141511277.8177905     
  -4278996311.4414172       -343277394.72619045        1129712718.0906038     
  -4270137464.1596022       -258009920.97659349        1124007373.9560754     
  -4271853923.6115885       -207993469.67299819        1124395245.4142056     
  -4946266742.2588596       -615362998.75772464        1168448058.4831557     
  -4871970424.0823326       -412397734.15547872        1103090398.0234270     
  -4815022647.0133352       -267260939.91165709        1054815009.3855921     
  -4775423411.0518646       -179952616.02626133        1023621892.5696501     
  -4753172716.1979198       -150472762.49928880        1009511047.5756016     
  -5668869278.3504934       -642593303.96383214        1194486305.1873951     
  -5518888799.2347555       -383013102.34730792        1073760652.8184352     
  -5393030095.6002712       -203838819.00163078        981106328.50060260     
  -5291293167.4470434       -105070453.92680240        916523332.23389864     
  -5213678014.7750721       -86708007.122824907        880011664.01832330     
  -6496247534.4813461       -701256325.18170500        1237517793.2503541     
  -6239185590.9142962       -375641995.49727082        1053522042.2028126     
  -6013018657.2022295       -153011031.99610877        908586675.43563437     
  -5817746733.3451443       -33363434.678220034        802711692.94881988     
  -5653369819.3430386       -16699203.543604851        735897094.74236941     
  -3769721637.0160751       -259270128.64395511        1224664257.5341337     
  -3662651149.6508632       -166567601.80883658        1191863107.5028777     
  -3563433591.6280241       -100041506.11495900        1169356276.7402930     
  -3472068962.9475546       -59691841.562314034        1157143765.2463775     
  -3388557263.6094561       -45518608.150909185        1155225573.0211341     
  -4271853923.6115885       -207993469.67299819        1124395245.4142056     
  -4149238191.8372216       -143533374.18278313        1090619460.4309573     
  -4031117052.1299033       -94055252.249398470        1065024720.6502892     
  -3917490504.4896326       -59559103.872836351        1047611026.0722005     
  -3808358548.9164109       -40044929.053102970        1038378376.6966933     
  -4753172716.1979198       -150472762.49928880        1009511047.5756016     
  -4621049665.9175148       -116066476.12491083        978678687.79490399     
  -4490062870.4288340       -85447705.722953081        953914099.15069640     
  -4360212329.7318792       -58616451.293410540        935217281.64297855     
  -4231498043.8266482       -35572712.836287498        922588235.27175033     
  -5213678014.7750721       -86708007.122824907        880011664.01832330     
  -5078085571.8917398       -84166907.635219812        856040789.59471929     
  -4940271046.5248117       -74218866.535622120        836024412.24151576     
  -4800234438.6742840       -56863883.824033499        819962531.95871198     
  -4657975748.3401613       -32101959.500453234        807855148.74630618     
  -5653369819.3430386       -16699203.543604851        735897094.74236941     
  -5520345909.7598953       -47834668.713703871        722705765.83040249     
  -5381741580.4178371       -60368734.687405586        711355659.92274618     
  -5237556831.3168554       -54301401.464704275        701846777.01939809     
  -5087791662.4569530       -29632669.045601368        694179117.12035906     
  -3388557263.6094561       -45518608.150909185        1155225573.0211341     
  -3295775326.2006569       -39956892.910370827        1148344838.0443518     
  -3202652056.9827299       -33257404.972739220        1145867966.2571909     
  -3109187455.9556751       -25420144.338014603        1147794957.6596537     
  -3015381523.1194911       -16445111.006195903        1154125812.2517374     
  -3808358548.9164109       -40044929.053102970        1038378376.6966933     
  -3702388795.4754243       -29257683.917456865        1030224010.0017488     
  -3597052979.0076628       -20583562.025885105        1026604362.4738379     
  -3492351099.5131230       -14022563.378396511        1027519434.1129628     
  -3388283156.9918089       -9574687.9749860764        1032969224.9191240     
  -4231498043.8266482       -35572712.836287498        922588235.27175033     
  -4111966600.1322904       -19447775.539167404        912022423.27923143     
  -3994044362.1935086       -8686857.4273018837        906122186.43115950     
  -3877731330.0103064       -3289958.5006957054        904887524.72753716     
  -3763027503.5826778       -3257078.7593433857        908318438.16836333     
  -4657975748.3401613       -32101959.500453234        807855148.74630618     
  -4524508740.1712532       -10527167.775508642        793740077.87680006     
  -4393626206.5402756        2432708.8230009079        784421438.12915480     
  -4265328147.4472251        6777670.2950844765        779899229.50337195     
  -4139614562.8921080        2507716.6407287121        780173451.99945271     
  -5087791662.4569530       -29632669.045601368        694179117.12035906     
  -4940015215.5923147       -2495860.6264791489        675376973.79445565     
  -4795798512.0479565        12775136.725036383        661502117.56782544     
  -4655141551.8238802        16180323.008941650        652554548.44047260     
  -4518044334.9200878        7719698.2252402306        648534266.41239333     
  -3015381523.1194911       -16445111.006195903        1154125812.2517374     
  -2917929406.5353608       -7667166.0862511396        1146767117.5038221     
  -2821669793.3227305       -2864232.4046416283        1144241209.4684329     
  -2726602683.4816008       -2036309.9613685608        1146548088.1455698     
  -2632728077.0119715       -5183398.7564281225        1153687753.5352333     
  -3388283156.9918089       -9574687.9749860764        1032969224.9191240     
  -3279715106.3996530       -5367717.0141491890        1023997844.1204760     
  -3171562088.1950364       -2544187.3451098204        1019799235.2214222     
  -3063824102.3779578       -1104098.9678699970        1020373398.2219638     
  -2956501148.9484215       -1047451.8824334145        1025720333.1220992     
  -3763027503.5826778       -3257078.7593433857        908318438.16836333     
  -3643514989.8765850       -3672523.0258357525        898641420.80026901     
  -3523640037.5740733       -2879838.6375963688        893677160.51883829     
  -3403402646.6751413       -879025.59461975098        893425657.32407069     
  -3282802817.1797867        2329916.1030945778        897886911.21596575     
  -4139614562.8921080        2507716.6407287121        780173451.99945271     
  -4009329056.9661698       -2581584.1213250160        770697847.54320157     
  -3877903641.4598494       -3871186.2821071148        765874985.36067927     
  -3745338316.3731446       -1361089.8416152000        765704865.45189166     
  -3611633081.7060652        4948705.2001481056        770187487.81683576     
  -4518044334.9200878        7719698.2252402306        648534266.41239333     
  -4377157307.6683922       -2094900.3005976677        640167124.34927046     
  -4234352899.8523564       -5518230.2786333561        636392709.74694860     
  -4089631111.4719768       -2550291.7088575363        637211022.60542631     
  -3942991942.5272536        6808915.4087252617        642622062.92470598     
  -2632728077.0119715       -5183398.7564281225        1153687753.5352333     
  -2538001002.1574402       -8902326.9646720886        1148706556.0634809     
  -2442627081.0272288       -10465100.920649767        1147853289.8628066     
  -2346606313.6213245       -9871720.6243205070        1151127954.9332073     
  -2249938699.9397402       -7122186.0757180452        1158530551.2746878     
  -2956501148.9484215       -1047451.8824334145        1025720333.1220992     
  -2850142165.7418551       -1898377.0560288429        1020250673.4537628     
  -2743775874.0107055       -2724940.4810094833        1018938857.4694556     
  -2637402273.7549658       -3527142.1573705673        1021784885.1691816     
  -2531021364.9746447       -4304982.0851141214        1028788756.5529381     
  -3282802817.1797867        2329916.1030945778        897886911.21596575     
  -3164726461.5841713        4372633.1752510071        891182661.97476125     
  -3047282335.2150717        4307919.4923505783        888666168.83054101     
  -2930470438.0724845        2135775.0544196367        890337431.78330851     
  -2814290770.1564140       -2143800.1385750771        896196450.83305979     
  -3611633081.7060652        4948705.2001481056        770187487.81683576     
  -3481753889.6843882        9910703.7291555405        761502521.62647963     
  -3353146464.6403279        10633478.999457121        757035223.94606388     
  -3225810806.5738816        7117031.0110361576        756785594.77558744     
  -3099746915.4850492       -638640.23609459400        760753634.11505246     
  -3942991942.5272536        6808915.4087252617        642622062.92470598     
  -3801224450.0425091        14715834.605695486        631210252.40891635     
  -3661368262.2864742        16251738.040283442        624046022.81602311     
  -3523423379.2591491        11416625.712511539        621129374.14602065     
  -3387389800.9605470        210497.62233018875        622460306.39891505     
  -2249938699.9397402       -7122186.0757180452        1158530551.2746878     
  -2150020955.2255330       -4453971.3435460329        1151524110.2127862     
  -2051446557.3097923       -6263579.2729225159        1149859066.7571852     
  -1954215506.1925163       -12551009.863854885        1153535420.9078860     
  -1858327801.8737054       -23316263.116329908        1162553172.6648879     
  -2531021364.9746447       -4304982.0851141214        1028788756.5529381     
  -2419132099.6816745       -4070739.5711215734        1019526633.3816171     
  -2307672400.8333158       -5268385.2058471441        1014693660.4841669     
  -2196642268.4295778       -7897918.9893021584        1014289837.8605844     
  -2086041702.4704609       -11959340.921490192        1018315165.5108660     
  -2814290770.1564140       -2143800.1385750771        896196450.83305979     
  -2693036405.2344818       -5125456.1276878119        885744722.63180852     
  -2571297826.4033194       -6493065.7527120113        878809897.37199283     
  -2449075033.6629343       -6246629.0136473179        875391975.05361199     
  -2326368027.0133195       -4386145.9104881287        875490955.67666590     
  -3099746915.4850492       -638640.23609459400        760753634.11505246     
  -2971733871.8839674       -7618121.0132688284        750178377.96335709     
  -2842322834.0198069       -9937620.9135156870        742207777.42066455     
  -2711513801.8925781       -7597139.9368805885        736841832.48697519     
  -2579306775.5022769       -596678.08332216740        734080543.16228414     
  -3387389800.9605470        210497.62233018875        622460306.39891505     
  -3255224499.6301222       -11548734.227835655        612827599.37626398     
  -3120747423.6827774       -15602050.688280106        604887300.63018024     
  -2983958573.1185117       -11949451.758987308        598639410.16066813     
  -2844857947.9373317       -590937.43996882439        594083927.96772528     
  -1858327801.8737054       -23316263.116329908        1162553172.6648879     
  -1747927244.9220104       -28767541.014902711        1164325558.2528276     
  -1635550295.3054650       -27630843.363973618        1175690951.8859360     
  -1521196953.0240574       -19906170.163496673        1196649353.5642116     
  -1404867218.0777938       -5593521.4135146141        1227200763.2876596     
  -2086041702.4704609       -11959340.921490192        1018315165.5108660     
  -1955248907.7182961       -10269683.025672436        1014384966.3013297     
  -1824228692.9895909       -7821958.5413846970        1014900187.5559750     
  -1692981058.2843342       -4616167.4685921669        1019860829.2747951     
  -1561506003.6025310       -652309.80731308460        1029266891.4578037     
  -2326368027.0133195       -4386145.9104881287        875490955.67666590     
  -2189890387.5492263        32229.853161215782        863817703.53328860     
  -2054934300.7969003       -621236.75574755669        851442284.27310491     
  -1921499766.7563353       -6346545.7371913195        838364697.89610243     
  -1789586785.4275467       -17143697.091208339        824584944.40230250     
  -2579306775.5022769       -596678.08332216740        734080543.16228414     
  -2451851684.4147921        2138197.6216092110        712623769.94870484     
  -2327667118.7273846       -6028678.0070612431        685317242.03732407     
  -2206753078.4400573       -25097304.969320297        652160959.42813957     
  -2089109563.5527973       -55067683.265170813        613154922.12117124     
  -2844857947.9373317       -590937.43996882439        594083927.96772528     
  -2741132798.3149948       -3951779.7203373909        560803165.54757428     
  -2642427146.7810540       -24044282.295339704        516525060.84863460     
  -2548740993.3354945       -60868445.164944410        461249613.87090665     
  -2460074337.9783306       -114424268.32921147        394976824.61439461     
  -5957738112.9156170       -1787321433.8746850        1150246706.3105989     
  -6088273112.5359859       -1502163970.7978971        1228125533.9304266     
  -6221536349.3370657       -1226100631.6568046        1268630324.2936618     
  -6357527823.3188543       -959131416.45140767        1271761077.4003043     
  -6496247534.4813461       -701256325.18170500        1237517793.2503541     
  -6810288715.5464497       -2043086614.6639347        1353975544.8139093     
  -6828328895.6628227       -1395446414.4487042        1202925635.9979162     
  -6897719790.0298109       -918975261.73552060        1092134378.5634875     
  -7018461398.6474123       -613673156.52438498        1021601772.5106231     
  -7190553721.5156298       -479540098.81529570        991327817.83932316     
  -8337693677.4724073       -2501308103.2417221        1712503760.8210409     
  -8021431356.2614803       -1424642861.3410578        1275798892.3210032     
  -7805142226.3710728       -681221590.50879264        956985363.84068716     
  -7688826287.8011827       -271044290.74492502        756063175.38009310     
  -7672483540.5518141       -194110962.04945660        673032326.93922043     
  -10539952998.693497       -3161985899.6080489        2225831354.3319921     
  -9667580494.3319588       -1589753311.4749575        1446745302.8996873     
  -8943803658.3608475       -512839617.97661829        863183280.12526143     
  -8368622490.7801628        68755180.886973381        475145286.00871456     
  -7942036991.5899019        155031085.11581087        282631320.55004454     
  -13417066679.209711       -4025120003.7629132        2893958325.3467646     
  -11766776309.874260       -1890777764.8504045        1715764867.7339694     
  -10313704085.999142       -413829344.13899899        810728127.41721022     
  -9057850007.5843525        405725258.37130499        178848104.39648679     
  -7999214074.6298933        567886042.68050957       -179875201.32820043     
  -6496247534.4813461       -701256325.18170500        1237517793.2503541     
  -6239185590.9142962       -375641995.49727082        1053522042.2028126     
  -6013018657.2022295       -153011031.99610877        908586675.43563437     
  -5817746733.3451443       -33363434.678220034        802711692.94881988     
  -5653369819.3430386       -16699203.543604851        735897094.74236941     
  -7190553721.5156298       -479540098.81529570        991327817.83932316     
  -6900310552.5876923       -304053027.57864070        847179278.18920588     
  -6622901263.2627335       -171345555.01857400        724139125.71658611     
  -6358325853.5407505       -81417681.135094643        622207360.42146587     
  -6106584323.4217434       -34269405.928204060        541383982.30384016     
  -7672483540.5518141       -194110962.04945660        673032326.93922043     
  -7400350566.5568953       -184138575.34875250        589802317.31386781     
  -7122990341.9129477       -156742019.81795120        509728697.76314652     
  -6840402866.6199713       -111921295.45705247        432811468.28705686     
  -6552588140.6779680       -49676402.266060829        359050628.88559914     
  -7942036991.5899019        155031085.11581087        282631320.55004454     
  -7739305632.8219042       -15898638.807603836        281391159.57679564     
  -7513285893.1528730       -109200426.39423847        265355391.57531381     
  -7263977772.5828066       -124874277.64409828        234524016.54559490     
  -6991381271.1117058       -62920192.557169914        188897034.48764187     
  -7999214074.6298933        567886042.68050957       -179875201.32820043     
  -7917175751.3827200        200666782.04479933       -78054195.022004902     
  -7793787916.9825087       -28720774.747447014       -8980792.8469120730     
  -7629050571.4292564       -120276627.69621992        27345005.197081178     
  -7422963714.7229633       -74000776.801535130        30923199.109974243     
  -5653369819.3430386       -16699203.543604851        735897094.74236941     
  -5520345909.7598953       -47834668.713703871        722705765.83040249     
  -5381741580.4178371       -60368734.687405586        711355659.92274618     
  -5237556831.3168554       -54301401.464704275        701846777.01939809     
  -5087791662.4569530       -29632669.045601368        694179117.12035906     
  -6106584323.4217434       -34269405.928204060        541383982.30384016     
  -5958890531.7691908       -35949428.800918579        535085796.49571753     
  -5809976471.4189348       -33561889.347957134        531433502.59113044     
  -5659842142.3709784       -27106787.569330931        530427100.59007639     
  -5508487544.6253204       -16584123.465033054        532066590.49255747     
  -6552588140.6779680       -49676402.266060829        359050628.88559914     
  -6387925412.9582148       -21211266.642053604        354558743.27656519     
  -6226402567.6019802       -3212405.5630996227        353517418.47029072     
  -6068019604.6092625        4320180.9707944393        355926654.46677524     
  -5912776523.9800673        1386492.9596226215        361786451.26602161     
  -6991381271.1117058       -62920192.557169914        188897034.48764187     
  -6807450553.3269691       -3620182.2371034622        181124606.17294329     
  -6631019868.9669743        30679716.667171478        177607407.56022638     
  -6462089218.0317087        39979504.155664921        178345438.64949575     
  -6300658600.5211830        24279180.228366613        183338699.44074675     
  -7422963714.7229633       -74000776.801535130        30923199.109974243     
  -7217465952.8754587        16823824.413923264        14783385.184853721     
  -7023828375.5139046        68114477.342875481        3703469.8609394049     
  -6842050982.6383114        79871181.985295296       -2316546.8617649833     
  -6672133774.2486706        52093938.341199398       -3276664.9832581221     
  -5087791662.4569530       -29632669.045601368        694179117.12035906     
  -4940015215.5923147       -2495860.6264791489        675376973.79445565     
  -4795798512.0479565        12775136.725036383        661502117.56782544     
  -4655141551.8238802        16180323.008941650        652554548.44047260     
  -4518044334.9200878        7719698.2252402306        648534266.41239333     
  -5508487544.6253204       -16584123.465033054        532066590.49255747     
  -5352211443.6658945       -5284463.8909506798        516118675.42138338     
  -5197616790.8509827        410368.53473401070        505436395.36501116     
  -5044703586.1806011        500373.81200647354        500019750.32344192     
  -4893471829.6547327       -5014448.0591249466        499868740.29667586     
  -5912776523.9800673        1386492.9596226215        361786451.26602161     
  -5747034060.5957661       -2860983.8123037815        350884108.82129723     
  -5581094750.1802292       -6452303.8134357929        345585749.30690366     
  -5414958592.7334557       -9387467.0437703133        345891372.72283930     
  -5248625588.2554388       -11666473.503308058        351800979.06910682     
  -6300658600.5211830        24279180.228366613        183338699.44074675     
  -6124483066.3819399        4774579.6094481945        179673273.99419805     
  -5946232390.0356941       -7812880.3194675446        181950179.39350018     
  -5765906571.4824495       -13483199.558384418        190169415.63866431     
  -5583505610.7222137       -12236378.107319117        204330982.72968307     
  -6672133774.2486706        52093938.341199398       -3276664.9832581221     
  -6484558461.0244017        17622226.374320269        2486170.9400832900     
  -6293029710.4173765       -3671360.9833724499        14529685.624805951     
  -6097547522.4275866       -11786823.731844664        32853879.070919152     
  -5898111897.0550375       -6724161.8711283207        57458751.278411679     
  -4518044334.9200878        7719698.2252402306        648534266.41239333     
  -4377157307.6683922       -2094900.3005976677        640167124.34927046     
  -4234352899.8523564       -5518230.2786333561        636392709.74694860     
  -4089631111.4719768       -2550291.7088575363        637211022.60542631     
  -3942991942.5272536        6808915.4087252617        642622062.92470598     
  -4893471829.6547327       -5014448.0591249466        499868740.29667586     
  -4740956592.3395710       -10624072.666965961        499906637.82591724     
  -4587076289.4997873       -11683478.859385252        503326206.26979101     
  -4431830921.1353645       -8192666.6363492012        510127445.62829965     
  -4275220487.2463102       -151635.99788117409        520310355.90144348     
  -5248625588.2554388       -11666473.503308058        351800979.06910682     
  -5087942302.4372950       -14109172.661304951        359599548.64437759     
  -4926446266.1342287       -13842703.536237001        369568732.58812141     
  -4764137479.3462439       -10867066.128094912        381708530.90032905     
  -4601015942.0733366       -5182260.4368863106        396018943.58100790     
  -5583505610.7222137       -12236378.107319117        204330982.72968307     
  -5418114437.9615517       -12550200.283599854        219245856.80465850     
  -5252462829.7556849       -11995904.309196234        235120288.70194134     
  -5086550786.1046085       -10573490.184089422        251954278.42151979     
  -4920378307.0083189       -8282957.9082815647        269747825.96339869     
  -5898111897.0550375       -6724161.8711283207        57458751.278411679     
  -5731472998.9123430       -5947155.5338487625        78845562.306758463     
  -5565125980.3641529       -6143081.1782495975        99980874.611245766     
  -5399070841.4104624       -7311938.8043162823        120864688.19186302     
  -5233307582.0512733       -9453728.4120614529        141497003.04862145     
  -3942991942.5272536        6808915.4087252617        642622062.92470598     
  -3801224450.0425091        14715834.605695486        631210252.40891635     
  -3661368262.2864742        16251738.040283442        624046022.81602311     
  -3523423379.2591491        11416625.712511539        621129374.14602065     
  -3387389800.9605470        210497.62233018875        622460306.39891505     
  -4275220487.2463102       -151635.99788117409        520310355.90144348     
  -4122072582.3002911        6583805.8391466141        509400955.15567625     
  -3970465674.8251781        8182589.4398188591        503268477.84797657     
  -3820399764.8209743        4644714.8041222095        501912923.97835362     
  -3671874852.2876754       -4029818.0679225922        505334293.54679757     
  -4601015942.0733366       -5182260.4368863106        396018943.58100790     
  -4434975217.4798174        835426.19607734680        386043977.73936331     
  -4270105183.0994015        2950812.1187057495        381375277.85097092     
  -4106405838.9320951        1163897.3309609890        382012843.91582519     
  -3943877184.9778914       -4525318.1671144962        387956675.93392718     
  -4920378307.0083189       -8282957.9082815647        269747825.96339869     
  -4739932355.5810871       -2529304.3235044479        261139320.15998924     
  -4560286787.1091528        556406.07691931725        258366422.82500151     
  -4381441601.5925179        974173.29303073883        261429133.95843968     
  -4203396799.0311885       -1276002.6752228737        270327453.56030118     
  -5233307582.0512733       -9453728.4120614529        141497003.04862145     
  -5036943996.6041040       -3510385.7196407318        134686982.41754529     
  -4841010486.8544254        999371.31450104713        134241912.77006337     
  -4645507052.8022594        4075542.6902487278        140161794.10619715     
  -4450433694.4475737        5718128.4077394009        152446626.42592150     
  -3387389800.9605470        210497.62233018875        622460306.39891505     
  -3255224499.6301222       -11548734.227835655        612827599.37626398     
  -3120747423.6827774       -15602050.688280106        604887300.63018024     
  -2983958573.1185117       -11949451.758987308        598639410.16066813     
  -2844857947.9373317       -590937.43996882439        594083927.96772528     
  -3671874852.2876754       -4029818.0679225922        505334293.54679757     
  -3532151815.5098648       -14853676.344319582        503613411.19259214     
  -3390563888.5211544       -19461233.917711496        505797907.77355039     
  -3247111071.3215399       -17852490.788104177        511887783.28967279     
  -3101793363.9110274       -10027446.955492616        521883037.74095726     
  -3943877184.9778914       -4525318.1671144962        387956675.93392718     
  -3790273639.4424148       -12516970.876633406        393626253.10780793     
  -3635252088.1020627       -15781937.569879293        405414179.87545133     
  -3478812530.9568396       -14320218.246899366        423320456.23684984     
  -3320954968.0067253       -8131812.9076154232        447345082.19200379     
  -4203396799.0311885       -1276002.6752228737        270327453.56030118     
  -4029589971.4277792       -4538617.8247809410        282866125.12191075     
  -3854812022.4255209       -4564161.6448302269        303736116.93587899     
  -3679062952.0243940       -1352634.1353325844        332937429.00219768     
  -3502342760.2244272        5095964.7036499977        370470061.32087147     
  -4450433694.4475737        5718128.4077394009        152446626.42592150     
  -4250100811.4659653        9081382.8111982346        171333027.23490238     
  -4049243691.4915128        14192093.857468605        200763718.95484412     
  -3847862334.5242395        21050261.546481133        240738701.58571902     
  -3645956740.5641065        29655885.878348589        291257975.12754738     
  -2844857947.9373317       -590937.43996882439        594083927.96772528     
  -2741132798.3149948       -3951779.7203373909        560803165.54757428     
  -2642427146.7810540       -24044282.295339704        516525060.84863460     
  -2548740993.3354945       -60868445.164944410        461249613.87090665     
  -2460074337.9783306       -114424268.32921147        394976824.61439461     
  -3101793363.9110274       -10027446.955492616        521883037.74095726     
  -3005997239.7068334       -20258099.152938366        505317134.15493947     
  -2914175382.2419925       -43736307.148226738        495234663.27616256     
  -2826327791.5164971       -80462070.941340208        491635625.10461622     
  -2742454467.5303588       -130435390.53229809        494520019.64031845     
  -3320954968.0067253       -8131812.9076154232        447345082.19200379     
  -3183142797.8320303       -10248753.605551839        448713474.01399869     
  -3048259663.0476456       -22129145.604542017        474046073.52925897     
  -2916305563.6535716       -43772988.904559255        523342880.73777860     
  -2787280499.6498156       -75180283.505619884        596603895.63955760     
  -3502342760.2244272        5095964.7036499977        370470061.32087147     
  -3272569472.6905761        26076256.921825886        390992185.12475109     
  -3044679989.1980128        40777202.335732102        452959291.60792130     
  -2818674309.7467108        49198800.945413351        556371380.77038252     
  -2594552434.3366890        51341052.750833392        701228452.61212432     
  -3645956740.5641065        29655885.878348589        291257975.12754738     
  -3274277264.2824779        88716932.429203033        332153267.48719651     
  -2903436360.6930861        144982736.67258263        431974317.51215816     
  -2533434029.7959213        198453298.60856318        590721125.20243454     
  -2164270271.5909910        249128618.23706484        808393690.55802059     
 </DataArray>
 <DataArray  type="Float64" Name="VM" NumberOfComponents="1" format="ascii">
   12935955715.472778     
   11340866525.525778     
   10210165209.530251     
   9272551871.5849533     
   8303591249.5492039     
   10130377927.583799     
   9321994209.0519753     
   8826275978.3905506     
   8443414295.8086061     
   8035601423.4158030     
   7982264385.6427870     
   7734874389.1694794     
   7669076841.8783264     
   7669576052.6931505     
   7666439014.3806448     
   6491531014.2910194     
   6586795077.2915964     
   6757402792.5806332     
   6961276058.0672388     
   7171753986.8839579     
   5657735479.4191799     
   5890913219.2974300     
   6116443113.7954245     
   6331865219.5378733     
   6536957141.5701180     
   8303591249.5492039     
   8020531815.9752893     
   7779482847.7867708     
   7569777141.1369438     
   7386435555.9049444     
   8035601423.4158030     
   7746715626.3317547     
   7473431346.8244839     
   7213798392.9578676     
   6967820194.6995440     
   7666439014.3806448     
   7381057231.0361729     
   7101025109.6160440     
   6826421337.5412025     
   6557447834.2183285     
   7171753986.8839579     
   6910992102.7290993     
   6658115960.7539845     
   6409265348.0747461     
   6161295906.9165640     
   6536957141.5701180     
   6328867963.0536795     
   6142990865.3216372     
   5965419373.5327148     
   5787149207.4653034     
   7386435555.9049444     
   7225937928.9548244     
   7058135040.1362982     
   6882335351.0966740     
   6698335077.5758314     
   6967820194.6995440     
   6812867998.0178070     
   6653528148.8814144     
   6489527561.0033617     
   6320815019.6427021     
   6557447834.2183285     
   6406846396.0697088     
   6254839831.3051348     
   6101405333.7575836     
   5946578404.1225519     
   6161295906.9165640     
   6012852937.8352938     
   5865937605.3207035     
   5720593202.4940729     
   5576884561.2178507     
   5787149207.4653034     
   5637317985.0558281     
   5491810134.4982033     
   5350542990.9573536     
   5213577591.2824039     
   6698335077.5758314     
   6493388926.0089293     
   6291245147.1400595     
   6091928408.3265228     
   5895592700.7249107     
   6320815019.6427021     
   6134770161.6793814     
   5950680713.0069981     
   5768588254.8912077     
   5588614833.7429419     
   5946578404.1225519     
   5777657446.5877562     
   5609896415.4434757     
   5443340357.8143940     
   5278092945.3853178     
   5576884561.2178507     
   5423748448.9156332     
   5271029425.8215599     
   5118751588.6563053     
   4967007105.4051886     
   5213577591.2824039     
   5075414184.8606977     
   4936989833.3151398     
   4798271405.9573650     
   4659340289.5976143     
   5895592700.7249107     
   5730129273.6826286     
   5564752100.0365000     
   5399478319.2912941     
   5234327767.5194340     
   5588614833.7429419     
   5425157034.2911739     
   5262256708.7149086     
   5099977479.8214245     
   4938393153.7349138     
   5278092945.3853178     
   5118935855.2521086     
   4961009134.1246033     
   4804420393.7463579     
   4649303509.6403551     
   4967007105.4051886     
   4814159691.7560129     
   4663456197.0033169     
   4515038583.8946247     
   4369099449.0939188     
   4659340289.5976143     
   4514397226.8692970     
   4372801798.5880594     
   4234710476.9682732     
   4100361999.7268996     
   5234327767.5194340     
   5040590936.0369539     
   4847090256.7519903     
   4653882379.1383009     
   4461116540.2223759     
   4938393153.7349138     
   4760205598.4249763     
   4582468003.7251844     
   4405262288.1342564     
   4228760387.3660140     
   4649303509.6403551     
   4485510078.1132536     
   4322354563.0017300     
   4159946162.5411839     
   3998483838.6303411     
   4369099449.0939188     
   4218664801.8670192     
   4069028316.8744545     
   3920327986.1357765     
   3772793934.0047584     
   4100361999.7268996     
   3962416132.2113180     
   3825400166.6501083     
   3689481616.3527846     
   3554925430.9987020     
   4461116540.2223759     
   4264985518.4592290     
   4071235920.0372772     
   3880895812.4432316     
   3695470006.9012375     
   4228760387.3660140     
   4057014594.6297059     
   3888286202.6695366     
   3723314559.7811189     
   3563147766.9484925     
   3998483838.6303411     
   3844959521.7274580     
   3694728316.8082271     
   3548256480.2991567     
   3406193445.4923067     
   3772793934.0047584     
   3631078592.6045055     
   3492536616.7654905     
   3357404681.3873091     
   3226019726.3607359     
   3554925430.9987020     
   3418435298.9498672     
   3284552275.9975548     
   3153347649.2327032     
   3024953129.9406695     
   3695470006.9012375     
   3369009648.0960693     
   3071110592.6860991     
   2829717289.2080116     
   2691806268.0254169     
   3563147766.9484925     
   3354750773.0630665     
   3164081430.1695995     
   3002444380.4556985     
   2888375920.1584530     
   3406193445.4923067     
   3271683160.0202212     
   3146280520.5672603     
   3033276169.1162167     
   2938170944.0119305     
   3226019726.3607359     
   3121148643.9767890     
   3017059367.5347033     
   2914156422.0362716     
   2813184645.9559689     
   3024953129.9406695     
   2906284754.1578674     
   2778463018.1907105     
   2642517674.6799965     
   2500316961.7845173     
   5657735479.4191799     
   5890913219.2974300     
   6116443113.7954245     
   6331865219.5378733     
   6536957141.5701180     
   5151456574.6047258     
   5311386478.7749958     
   5467944155.5545769     
   5618231910.8136482     
   5760782951.2197981     
   4643544991.6319008     
   4755641991.4438829     
   4868863518.6414595     
   4980571893.9100361     
   5088839687.1912918     
   4134262990.5412645     
   4224516057.6633291     
   4320694893.1203671     
   4421140099.7134857     
   4524394782.6930237     
   3625128277.1868668     
   3719830765.9431200     
   3825793879.1793189     
   3942952191.4394326     
   4071211362.2124467     
   6536957141.5701180     
   6328867963.0536795     
   6142990865.3216372     
   5965419373.5327148     
   5787149207.4653034     
   5760782951.2197981     
   5652425293.9222879     
   5560101065.2495403     
   5474752016.2395134     
   5390839512.0787373     
   5088839687.1912918     
   5054443926.9133368     
   5030597193.4962311     
   5012096077.1242065     
   4995738938.6627417     
   4524394782.6930237     
   4539511063.2931614     
   4559333127.4330215     
   4581384395.0787439     
   4603941083.9794016     
   4071211362.2124467     
   4112944094.9629149     
   4152055330.7807107     
   4187653493.0051723     
   4219010977.8353362     
   5787149207.4653034     
   5637317985.0558281     
   5491810134.4982033     
   5350542990.9573536     
   5213577591.2824039     
   5390839512.0787373     
   5250242648.6967793     
   5112918500.0814714     
   4978909505.6755371     
   4848311902.3192272     
   4995738938.6627417     
   4868742999.7300463     
   4744908495.3253994     
   4624197373.3944607     
   4506642029.5498075     
   4603941083.9794016     
   4495506384.6953135     
   4391177097.2209492     
   4290620407.8995767     
   4193731265.5351257     
   4219010977.8353362     
   4134524421.0562177     
   4056323249.9235544     
   3983530707.5965962     
   3915838129.5758419     
   5213577591.2824039     
   5075414184.8606977     
   4936989833.3151398     
   4798271405.9573650     
   4659340289.5976143     
   4848311902.3192272     
   4723741079.8483429     
   4600064831.0208416     
   4477354955.1739025     
   4355778647.7266741     
   4506642029.5498075     
   4395911007.1017485     
   4287300118.2538252     
   4180970904.7811790     
   4077162879.8781505     
   4193731265.5351257     
   4096864653.2711554     
   4003363981.4219036     
   3913454949.2729859     
   3827425882.5775123     
   3915838129.5758419     
   3832509652.1555123     
   3753746737.2703261     
   3679803887.2190375     
   3610986997.3320374     
   4659340289.5976143     
   4514397226.8692970     
   4372801798.5880594     
   4234710476.9682732     
   4100361999.7268996     
   4355778647.7266741     
   4224488267.4792528     
   4096685612.7017045     
   3972577895.4824600     
   3852448240.6175447     
   4077162879.8781505     
   3960366559.9251924     
   3847320708.6367321     
   3738286661.9084029     
   3633600358.1419268     
   3827425882.5775123     
   3726213930.9969530     
   3629147995.5901017     
   3536541043.8512001     
   3448783905.6415162     
   3610986997.3320374     
   3526644748.3137341     
   3446971250.9691887     
   3372318494.8918414     
   3303123404.0236650     
   4100361999.7268996     
   3962416132.2113180     
   3825400166.6501083     
   3689481616.3527846     
   3554925430.9987020     
   3852448240.6175447     
   3727851102.7459893     
   3605366519.1145787     
   3485260189.2685285     
   3367891214.6245279     
   3633600358.1419268     
   3523062740.8723750     
   3415883340.4857550     
   3312404463.7934036     
   3213052880.9284201     
   3448783905.6415162     
   3352706083.8189001     
   3261218546.4209580     
   3174702191.6977391     
   3093608034.0295467     
   3303123404.0236650     
   3221415013.6353951     
   3145421390.4792123     
   3075512960.0128875     
   3012113679.2037721     
   3554925430.9987020     
   3418435298.9498672     
   3284552275.9975548     
   3153347649.2327032     
   3024953129.9406695     
   3367891214.6245279     
   3239895763.4254775     
   3115007061.9431009     
   2993421465.1229110     
   2875396727.5011935     
   3213052880.9284201     
   3097143791.1658912     
   2985270396.4027658     
   2877784181.0323296     
   2775113683.0717826     
   3093608034.0295467     
   2993438223.8953938     
   2898625715.7280159     
   2809679971.1628909     
   2727207672.3798633     
   3012113679.2037721     
   2931050353.4243889     
   2856947544.5823278     
   2790433483.2438893     
   2732249062.0131111     
   3024953129.9406695     
   2906284754.1578674     
   2778463018.1907105     
   2642517674.6799965     
   2500316961.7845173     
   2875396727.5011935     
   2745964297.5607824     
   2610175240.7088971     
   2467983955.1036749     
   2319535107.7264309     
   2775113683.0717826     
   2652212654.6456146     
   2529098394.0187078     
   2405944882.2324457     
   2282992267.0854259     
   2727207672.3798633     
   2624872046.5869575     
   2530547059.4191246     
   2445145940.4071331     
   2369694908.5260220     
   2732249062.0131111     
   2659465128.2071004     
   2603333300.7781544     
   2565163892.8777642     
   2546349129.3181529     
   3625128277.1868668     
   3719830765.9431200     
   3825793879.1793189     
   3942952191.4394326     
   4071211362.2124467     
   3138104748.8004923     
   3255644443.2380013     
   3382610075.6439695     
   3518532346.6438828     
   3662953200.3059549     
   2694848037.2927489     
   2830616827.7751446     
   2973706088.6421132     
   3123034887.2313790     
   3277693219.4001517     
   2298847616.1623135     
   2449538534.3203902     
   2604959540.8568511     
   2763191154.3045731     
   2922805904.9122229     
   1955315248.0985842     
   2119363477.8667588     
   2284775390.2851562     
   2448595956.9244270     
   2608870899.4071388     
   4071211362.2124467     
   4112944094.9629149     
   4152055330.7807107     
   4187653493.0051723     
   4219010977.8353362     
   3662953200.3059549     
   3702595124.5179920     
   3740860726.3875308     
   3776854642.3246751     
   3809829852.7555718     
   3277693219.4001517     
   3321082963.8220534     
   3364692140.1470733     
   3407697365.7944250     
   3449419978.1614976     
   2922805904.9122229     
   2975793387.0210695     
   3030951461.8525858     
   3087593798.8860621     
   3145184263.3739738     
   2608870899.4071388     
   2676785238.7918305     
   2749125054.1736941     
   2825375454.9250193     
   2905179321.7675323     
   4219010977.8353362     
   4134524421.0562177     
   4056323249.9235544     
   3983530707.5965962     
   3915838129.5758419     
   3809829852.7555718     
   3756645921.0710888     
   3709308926.9844694     
   3667330653.8838782     
   3630609824.7355652     
   3449419978.1614976     
   3423035072.8866129     
   3401692972.6925249     
   3385159222.0685773     
   3373417587.9650793     
   3145184263.3739738     
   3141332105.1310759     
   3141136012.2087054     
   3144496993.8705750     
   3151403396.7214284     
   2905179321.7675323     
   2919879741.9185743     
   2936076866.1105247     
   2953722248.7176108     
   2972781951.8176494     
   3915838129.5758419     
   3832509652.1555123     
   3753746737.2703261     
   3679803887.2190375     
   3610986997.3320374     
   3630609824.7355652     
   3559952587.3493204     
   3494295635.0569429     
   3433892505.0496426     
   3379046670.3989749     
   3373417587.9650793     
   3315884347.1165733     
   3263903928.6737146     
   3217711788.7781744     
   3177593724.1501384     
   3151403396.7214284     
   3107260945.1309633     
   3069328170.0398579     
   3037797767.4408336     
   3012915942.0269732     
   2972781951.8176494     
   2941905101.8831420     
   2917971983.2586102     
   2901102638.0048933     
   2891478407.0373979     
   3610986997.3320374     
   3526644748.3137341     
   3446971250.9691887     
   3372318494.8918414     
   3303123404.0236650     
   3379046670.3989749     
   3309073057.7164540     
   3244497123.2908373     
   3185660375.4616647     
   3132969999.4813194     
   3177593724.1501384     
   3121246813.3329935     
   3070948645.4883199     
   3027003373.7153583     
   2989760110.6589494     
   3012915942.0269732     
   2969011976.9666314     
   2931684150.5192752     
   2901175805.1518650     
   2877756229.1786108     
   2891478407.0373979     
   2858268173.6510768     
   2831997996.7665157     
   2812836885.1490312     
   2800965633.8605461     
   3303123404.0236650     
   3221415013.6353951     
   3145421390.4792123     
   3075512960.0128875     
   3012113679.2037721     
   3132969999.4813194     
   3063251832.5352073     
   2999785135.2941213     
   2942927256.1785007     
   2893078857.4272070     
   2989760110.6589494     
   2932064869.4307871     
   2881175633.1179013     
   2837416525.4690733     
   2801143981.1733446     
   2877756229.1786108     
   2831755717.7286510     
   2793105558.0449734     
   2762076693.3350611     
   2738962598.7113628     
   2800965633.8605461     
   2765851218.9221945     
   2738598758.7022562     
   2719411429.2809939     
   2708508536.5690665     
   3012113679.2037721     
   2931050353.4243889     
   2856947544.5823278     
   2790433483.2438893     
   2732249062.0131111     
   2893078857.4272070     
   2828037806.6799335     
   2770396117.9769144     
   2720674407.7451878     
   2679458400.5482965     
   2801143981.1733446     
   2750346273.4174008     
   2707158704.8911233     
   2671973325.2347398     
   2645211613.8695860     
   2738962598.7113628     
   2700192090.2746954     
   2669010488.3327866     
   2645680153.5805750     
   2630471252.4600620     
   2708508536.5690665     
   2679157465.7647820     
   2657162390.7594304     
   2642672719.5408559     
   2635837029.6499543     
   2732249062.0131111     
   2659465128.2071004     
   2603333300.7781544     
   2565163892.8777642     
   2546349129.3181529     
   2679458400.5482965     
   2622300482.5164266     
   2578619464.5218949     
   2549159476.5736675     
   2534695590.3954005     
   2645211613.8695860     
   2599286548.4250159     
   2563690718.9054627     
   2538831434.0794187     
   2525123270.7612162     
   2630471252.4600620     
   2592318194.1929884     
   2561342248.7331781     
   2537769386.7526393     
   2521827974.1188178     
   2635837029.6499543     
   2603119949.6381135     
   2574411465.1531196     
   2549849418.8804178     
   2529584391.8766437     
   1955315248.0985842     
   2119363477.8667588     
   2284775390.2851562     
   2448595956.9244270     
   2608870899.4071388     
   1653763995.1308758     
   1820204312.4900503     
   1988336907.6745925     
   2155469130.9825115     
   2319845893.0328331     
   1393546173.8543715     
   1570896417.2794864     
   1749234824.1873879     
   1926559939.3273830     
   2101623167.5667038     
   1206977216.4899149     
   1398873573.7850051     
   1590319162.9368150     
   1780537955.1210639     
   1969071977.8449297     
   1136738329.2464685     
   1335004091.1654100     
   1533537067.3578625     
   1732337257.8238254     
   1931404662.5632992     
   2608870899.4071388     
   2676785238.7918305     
   2749125054.1736941     
   2825375454.9250193     
   2905179321.7675323     
   2319845893.0328331     
   2406810414.4407754     
   2496163785.0375843     
   2587513477.4859943     
   2680582394.7001605     
   2101623167.5667038     
   2205272146.5094609     
   2308811886.4743338     
   2412005138.5657196     
   2514684608.8487377     
   1969071977.8449297     
   2086131351.9581356     
   2200355128.1026525     
   2311668032.3008361     
   2420017813.5253038     
   1931404662.5632992     
   2057974026.9458399     
   2179173125.7301908     
   2295001958.9163508     
   2405460526.5043197     
   2905179321.7675323     
   2919879741.9185743     
   2936076866.1105247     
   2953722248.7176108     
   2972781951.8176494     
   2680582394.7001605     
   2702220126.7871089     
   2726332741.2500439     
   2752906820.8196521     
   2781937671.5061960     
   2514684608.8487377     
   2543074408.5161271     
   2574935959.5110326     
   2610272465.0796518     
   2649090849.3205948     
   2420017813.5253038     
   2453539352.8057294     
   2491524086.8814754     
   2533975657.9214311     
   2580898478.2817879     
   2405460526.5043197     
   2440985996.6119990     
   2481953247.6309214     
   2528362279.5610876     
   2580213092.4024935     
   2972781951.8176494     
   2941905101.8831420     
   2917971983.2586102     
   2901102638.0048933     
   2891478407.0373979     
   2781937671.5061960     
   2765353711.2142882     
   2755697351.6715879     
   2753049336.8709717     
   2757523485.5469174     
   2649090849.3205948     
   2644122184.1453195     
   2645811814.8278542     
   2654198039.3349314     
   2669332713.2402439     
   2580898478.2817879     
   2584279138.9276023     
   2593798207.6692290     
   2609464777.9394126     
   2631291015.4313731     
   2580213092.4024935     
   2588380377.4711165     
   2601958712.0887980     
   2620948096.2555351     
   2645348529.9713326     
   2891478407.0373979     
   2858268173.6510768     
   2831997996.7665157     
   2812836885.1490312     
   2800965633.8605461     
   2757523485.5469174     
   2733692414.7727365     
   2717232435.6812315     
   2708254653.2772760     
   2706875600.2322736     
   2669332713.2402439     
   2652961993.5303292     
   2644311980.1198072     
   2643437977.2327242     
   2650396996.7175093     
   2631291015.4313731     
   2619815939.2891288     
   2616329984.0885420     
   2620847947.5077586     
   2633384893.4804330     
   2645348529.9713326     
   2635740002.4597673     
   2634319641.6559377     
   2641087447.5598359     
   2656043420.1714730     
   2800965633.8605461     
   2765851218.9221945     
   2738598758.7022562     
   2719411429.2809939     
   2708508536.5690665     
   2706875600.2322736     
   2682331744.3211985     
   2665814859.9989400     
   2657448124.0268612     
   2657361348.1011119     
   2650396996.7175093     
   2634028035.9726319     
   2625737010.6129265     
   2625580687.5939326     
   2633617751.4353690     
   2633384893.4804330     
   2622377168.2784824     
   2619410150.3957005     
   2624498025.7840762     
   2637655269.5091314     
   2656043420.1714730     
   2647365937.8636484     
   2646633023.1193786     
   2653844675.9386663     
   2669000896.3215137     
   2708508536.5690665     
   2679157465.7647820     
   2657162390.7594304     
   2642672719.5408559     
   2635837029.6499543     
   2657361348.1011119     
   2636210985.8909850     
   2622950005.5174050     
   2617674736.5259991     
   2620478794.1347084     
   2633617751.4353690     
   2619028498.5845180     
   2612838433.2954559     
   2615095201.1897945     
   2625844173.2284436     
   2637655269.5091314     
   2627518012.7544594     
   2626295297.8116612     
   2634000066.0995011     
   2650644444.5716457     
   2669000896.3215137     
   2660856159.6280704     
   2662178247.5013871     
   2672967159.9414687     
   2693222896.9483128     
   2635837029.6499543     
   2603119949.6381135     
   2574411465.1531196     
   2549849418.8804178     
   2529584391.8766437     
   2620478794.1347084     
   2599339174.4439859     
   2584623175.7697229     
   2576440710.3714347     
   2574903408.6406946     
   2625844173.2284436     
   2615322602.6949086     
   2613533693.8266492     
   2620540460.3848062     
   2636402632.5609798     
   2650644444.5716457     
   2648695686.9305301     
   2657739829.5815125     
   2677795900.5246277     
   2708880763.6420822     
   2693222896.9483128     
   2696905042.4447880     
   2713907269.2138767     
   2744229577.2556205     
   2787871966.5700564     
   1136738329.2464685     
   1335004091.1654100     
   1533537067.3578625     
   1732337257.8238254     
   1931404662.5632992     
   1206977216.5332105     
   1398873573.8487132     
   1590319163.0343654     
   1780537955.2668741     
   1969071978.0541816     
   1393546174.0019119     
   1570896417.4171252     
   1749234824.3444629     
   1926559939.5332870     
   2101623167.8502202     
   1653763995.4372025     
   1820204312.7112453     
   1988336907.8520012     
   2155469131.1572990     
   2319845893.2436919     
   1955315248.6110280     
   2119363478.1829567     
   2284775390.4523058     
   2448595956.9901457     
   2608870899.4148378     
   1931404662.5632992     
   2057974026.9458399     
   2179173125.7301908     
   2295001958.9163508     
   2405460526.5043197     
   1969071978.0541816     
   2086131351.9786513     
   2200355127.9077268     
   2311668031.8614535     
   2420017812.8115349     
   2101623167.8502202     
   2205272146.5444331     
   2308811886.2109103     
   2412005137.9530902     
   2514684607.8354797     
   2319845893.2436919     
   2406810414.4802699     
   2496163784.8381543     
   2587513476.9830151     
   2680582393.8293929     
   2608870899.4148378     
   2676785238.8249116     
   2749125054.1548080     
   2825375454.7853322     
   2905179321.4401159     
   2405460526.5043197     
   2440985996.6119990     
   2481953247.6309214     
   2528362279.5610876     
   2580213092.4024935     
   2420017812.8115349     
   2453539352.6037693     
   2491524087.2815228     
   2533975659.0159464     
   2580898480.1642804     
   2514684607.8354797     
   2543074408.0590553     
   2574935959.7567320     
   2610272466.1757536     
   2649090851.4163346     
   2680582393.8293929     
   2702220126.0475411     
   2726332740.8066998     
   2752906820.8336616     
   2781937672.1394467     
   2905179321.4401159     
   2919879740.8897500     
   2936076864.5253410     
   2953722246.7078700     
   2972781949.5120301     
   2580213092.4024935     
   2588380377.4711165     
   2601958712.0887980     
   2620948096.2555351     
   2645348529.9713326     
   2580898480.1642804     
   2584279139.7492685     
   2593798207.5460663     
   2609464776.9875479     
   2631291013.7708502     
   2649090851.4163346     
   2644122185.2790155     
   2645811815.3506365     
   2654198039.6003065     
   2669332713.5980878     
   2781937672.1394467     
   2765353711.9150634     
   2755697353.1365914     
   2753049339.8123360     
   2757523490.6637964     
   2972781949.5120301     
   2941905101.2869802     
   2917971985.5058250     
   2901102644.2792592     
   2891478418.5126081     
   2645348529.9713326     
   2635740002.4597673     
   2634319641.6559377     
   2641087447.5598359     
   2656043420.1714730     
   2631291013.7708502     
   2619815939.7081766     
   2616329986.6555967     
   2620847952.2894077     
   2633384900.5411534     
   2669332713.5980878     
   2652961996.7107100     
   2644311986.1197734     
   2643437986.0560007     
   2650397008.3760462     
   2757523490.6637964     
   2733692422.2008410     
   2717232445.2106857     
   2708254664.7193065     
   2706875613.4247432     
   2891478418.5126081     
   2858268185.8814554     
   2831998009.2059269     
   2812836897.2849059     
   2800965645.2254558     
   2656043420.1714730     
   2647365937.8636484     
   2646633023.1193786     
   2653844675.9386663     
   2669000896.3215137     
   2633384900.5411534     
   2622377179.7099690     
   2619410162.4207125     
   2624498034.5998421     
   2637655271.2742257     
   2650397008.3760462     
   2634028055.0861282     
   2625737029.4551978     
   2625580698.3734517     
   2633617746.2791491     
   2706875613.4247432     
   2682331768.8806934     
   2665814884.1180534     
   2657448135.7223544     
   2657361335.2021456     
   2800965645.2254558     
   2765851248.3690171     
   2738598790.2937508     
   2719411446.6805615     
   2708508523.0305066     
   2669000896.3215137     
   2660856159.6280704     
   2662178247.5013871     
   2672967159.9414687     
   2693222896.9483128     
   2637655271.2742257     
   2627518005.8085451     
   2626295286.3229661     
   2634000054.2172141     
   2650644436.4303112     
   2633617746.2791491     
   2619028474.3974886     
   2612838398.5571733     
   2615095164.3862481     
   2625844142.8569183     
   2657361335.2021456     
   2636210940.1918964     
   2622949939.8720074     
   2617674663.9134173     
   2620478727.6639528     
   2708508523.0305066     
   2679157400.6539121     
   2657162291.2185073     
   2642672603.0752845     
   2635836914.1414824     
   2693222896.9483128     
   2696905042.4447880     
   2713907269.2138767     
   2744229577.2556205     
   2787871966.5700564     
   2650644436.4303112     
   2648695536.9050527     
   2657739558.1723042     
   2677795529.2416887     
   2708880315.3813300     
   2625844142.8569183     
   2615322356.4924226     
   2613533276.7315159     
   2620539918.4543958     
   2636402013.3044500     
   2620478727.6639528     
   2599338876.3066673     
   2584622719.6857791     
   2576440170.5309176     
   2574902859.5268903     
   2635836914.1414824     
   2603119631.2456446     
   2574411050.3521662     
   2549849013.2511888     
   2529584098.9484224     
   1955315248.6110280     
   2119363478.1829567     
   2284775390.4523058     
   2448595956.9901457     
   2608870899.4148378     
   2298847616.8451324     
   2449538534.7733250     
   2604959541.0906782     
   2763191154.3241577     
   2922805904.7155213     
   2694848038.0165811     
   2830616828.2992706     
   2973706088.9466419     
   3123034887.2838354     
   3277693219.1571078     
   3138104749.4273081     
   3255644443.7631879     
   3382610076.0235763     
   3518532346.8142276     
   3662953200.1866031     
   3625128277.5773597     
   3719830766.3995109     
   3825793879.6394796     
   3942952191.8141222     
   4071211362.3882880     
   2608870899.4148378     
   2676785238.8249116     
   2749125054.1548080     
   2825375454.7853322     
   2905179321.4401159     
   2922805904.7155213     
   2975793386.9960217     
   3030951461.9757037     
   3087593799.1443706     
   3145184263.7601528     
   3277693219.1571078     
   3321082963.8030739     
   3364692140.3728185     
   3407697366.2965946     
   3449419978.9793644     
   3662953200.1866031     
   3702595124.5720630     
   3740860726.6703849     
   3776854642.9008770     
   3809829853.6961575     
   4071211362.3882880     
   4112944095.1561775     
   4152055331.0733285     
   4187653493.4839921     
   4219010978.5894189     
   2905179321.4401159     
   2919879740.8897500     
   2936076864.5253410     
   2953722246.7078700     
   2972781949.5120301     
   3145184263.7601528     
   3141332104.0984850     
   3141136009.6635346     
   3144496989.7026153     
   3151403390.8203554     
   3449419978.9793644     
   3423035072.1251307     
   3401692970.0888524     
   3385159217.3344407     
   3373417580.7985783     
   3809829853.6961575     
   3756645920.8428335     
   3709308925.2225900     
   3667330650.1890922     
   3630609818.6714067     
   4219010978.5894189     
   4134524421.6028843     
   4056323249.8529267     
   3983530706.4623971     
   3915838126.8708320     
   2972781949.5120301     
   2941905101.2869802     
   2917971985.5058250     
   2901102644.2792592     
   2891478418.5126081     
   3151403390.8203554     
   3107260941.2032833     
   3069328168.9060483     
   3037797769.9714642     
   3012915949.1130958     
   3373417580.7985783     
   3315884341.4937282     
   3263903925.0415440     
   3217711787.6289973     
   3177593726.0112004     
   3630609818.6714067     
   3559952582.0847573     
   3494295630.6226511     
   3433892501.5082994     
   3379046667.8429990     
   3915838126.8708320     
   3832509649.4996305     
   3753746734.2534647     
   3679803883.4417152     
   3610986992.4010930     
   2891478418.5126081     
   2858268185.8814554     
   2831998009.2059269     
   2812836897.2849059     
   2800965645.2254558     
   3012915949.1130958     
   2969011980.0320640     
   2931684149.7144980     
   2901175800.6612525     
   2877756221.2453623     
   3177593726.0112004     
   3121246806.8274274     
   3070948631.4422979     
   3027003353.0019412     
   2989760084.2322817     
   3379046667.8429990     
   3309073042.4385266     
   3244497096.7596931     
   3185660339.2184739     
   3132969955.1804543     
   3610986992.4010930     
   3526644725.9308395     
   3446971213.2040386     
   3372318443.9214873     
   3303123342.1779666     
   2800965645.2254558     
   2765851248.3690171     
   2738598790.2937508     
   2719411446.6805615     
   2708508523.0305066     
   2877756221.2453623     
   2831755741.9085078     
   2793105605.8069134     
   2762076755.7374344     
   2738962666.3875589     
   2989760084.2322817     
   2932064883.7085729     
   2881175686.4066849     
   2837416615.8718414     
   2801144106.5902205     
   3132969955.1804543     
   3063251828.7252898     
   2999785176.3694453     
   2942927346.7479105     
   2893079002.3669558     
   3303123342.1779666     
   3221414980.9438329     
   3145421396.4963455     
   3075513015.0819283     
   3012113794.6053085     
   2708508523.0305066     
   2679157400.6539121     
   2657162291.2185073     
   2642672603.0752845     
   2635836914.1414824     
   2738962666.3875589     
   2700192125.6914172     
   2669010499.9435225     
   2645680150.2615638     
   2630471243.4912705     
   2801144106.5902205     
   2750346387.7105832     
   2707158808.6169748     
   2671973419.2580376     
   2645211699.2917666     
   2893079002.3669558     
   2828037966.9813204     
   2770396287.2532558     
   2720674579.6197195     
   2679458568.4781976     
   3012113794.6053085     
   2931050518.7135706     
   2856947747.5093498     
   2790433711.1397138     
   2732249301.4322796     
   2635836914.1414824     
   2603119631.2456446     
   2574411050.3521662     
   2549849013.2511888     
   2529584098.9484224     
   2630471243.4912705     
   2592317974.5106649     
   2561341869.9312553     
   2537768900.2090206     
   2521827430.5478668     
   2645211699.2917666     
   2599286427.6465836     
   2563690390.3474131     
   2538830895.5307159     
   2525122519.2932305     
   2679458568.4781976     
   2622300484.6450310     
   2578619246.9921417     
   2549158981.7647448     
   2534694756.8661962     
   2732249301.4322796     
   2659465298.3352895     
   2603333294.2584758     
   2565163590.5450749     
   2546348399.8238387     
   3625128277.5773597     
   3719830766.3995109     
   3825793879.6394796     
   3942952191.8141222     
   4071211362.3882880     
   4134262990.6972227     
   4224516057.9604583     
   4320694893.5353088     
   4421140100.2174921     
   4524394783.2532816     
   4643544991.7080183     
   4755641991.5805826     
   4868863518.8563385     
   4980571894.2344456     
   5088839687.6658754     
   5151456574.7625618     
   5311386478.7543421     
   5467944155.4160748     
   5618231910.6431122     
   5760782951.1145096     
   5657735479.8173571     
   5890913219.1230316     
   6116443113.1521187     
   6331865218.5560265     
   6536957140.3822813     
   4071211362.3882880     
   4112944095.1561775     
   4152055331.0733285     
   4187653493.4839921     
   4219010978.5894189     
   4524394783.2532816     
   4539511063.9438591     
   4559333128.1528053     
   4581384395.8543396     
   4603941084.8016253     
   5088839687.6658754     
   5054443927.7867098     
   5030597194.6670952     
   5012096078.5113354     
   4995738940.1920815     
   5760782951.1145096     
   5652425294.7745409     
   5560101066.8985720     
   5474752018.5652323     
   5390839514.9764767     
   6536957140.3822813     
   6328867963.6429796     
   6142990867.4815540     
   5965419377.1267681     
   5787149212.3918867     
   4219010978.5894189     
   4134524421.6028843     
   4056323249.8529267     
   3983530706.4623971     
   3915838126.8708320     
   4603941084.8016253     
   4495506385.9986429     
   4391177098.9168644     
   4290620409.8692966     
   4193731267.6328254     
   4995738940.1920815     
   4868743001.3163624     
   4744908497.0800467     
   4624197375.4052200     
   4506642031.8916445     
   5390839514.9764767     
   5250242650.0927200     
   5112918500.1739159     
   4978909504.6523685     
   4848311900.3596802     
   5787149212.3918867     
   5637317985.8021908     
   5491810131.2421570     
   5350542983.8962040     
   5213577580.6132107     
   3915838126.8708320     
   3832509649.4996305     
   3753746734.2534647     
   3679803883.4417152     
   3610986992.4010930     
   4193731267.6328254     
   4096864656.8034039     
   4003363986.0573163     
   3913454954.6866074     
   3827425888.4392715     
   4506642031.8916445     
   4395911013.0671854     
   4287300127.6977768     
   4180970917.5788870     
   4077162895.8969526     
   4848311900.3596802     
   4723741084.3759737     
   4600064842.1405067     
   4477354973.0442200     
   4355778672.5097685     
   5213577580.6132107     
   5075414184.1162395     
   4936989842.8715677     
   4798271426.2952881     
   4659340321.2269449     
   3610986992.4010930     
   3526644725.9308395     
   3446971213.2040386     
   3372318443.9214873     
   3303123342.1779666     
   3827425888.4392715     
   3726213918.0734100     
   3629147963.9869857     
   3536540993.6425982     
   3448783836.8815217     
   4077162895.8969526     
   3960366559.5143113     
   3847320690.4077344     
   3738286624.3161416     
   3633600299.4466062     
   4355778672.5097685     
   4224488282.3843117     
   4096685615.3181071     
   3972577883.1449795     
   3852448210.3122554     
   4659340321.2269449     
   4514397259.6366968     
   4372801829.4942513     
   4234710502.6885843     
   4100362016.4603338     
   3303123342.1779666     
   3221414980.9438329     
   3145421396.4963455     
   3075513015.0819283     
   3012113794.6053085     
   3448783836.8815217     
   3352706016.6870918     
   3261218488.8377848     
   3174702152.3718643     
   3093608022.6856198     
   3633600299.4466062     
   3523062658.4694371     
   3415883240.7631555     
   3312404353.7760701     
   3213052768.5335150     
   3852448210.3122554     
   3727851026.1234598     
   3605366401.2974629     
   3485260035.7598696     
   3367891031.5323844     
   4100362016.4603338     
   3962416082.8885007     
   3825400055.5122571     
   3689481447.7215381     
   3554925209.4223423     
   3012113794.6053085     
   2931050518.7135706     
   2856947747.5093498     
   2790433711.1397138     
   2732249301.4322796     
   3093608022.6856198     
   2993438273.6893606     
   2898625817.8996229     
   2809680116.2148371     
   2727207849.6720986     
   3213052768.5335150     
   3097143756.9612069     
   2985270435.5333672     
   2877784287.9006848     
   2775113851.0325561     
   3367891031.5323844     
   3239895678.7381606     
   3115007074.9281864     
   2993421574.5370202     
   2875396931.5386500     
   3554925209.4223423     
   3418435196.5962586     
   3284552296.1751962     
   3153347795.0674973     
   3024953404.6799994     
   2732249301.4322796     
   2659465298.3352895     
   2603333294.2584758     
   2565163590.5450749     
   2546348399.8238387     
   2727207849.6720986     
   2624872292.2418394     
   2530547300.1425653     
   2445146094.1818314     
   2369694883.4540143     
   2775113851.0325561     
   2652212956.2268314     
   2529098783.3916373     
   2405945312.3811841     
   2282992690.9133768     
   2875396931.5386500     
   2745964622.8938546     
   2610175659.1650419     
   2467984444.8307390     
   2319535658.2903066     
   3024953404.6799994     
   2906285060.5235820     
   2778463335.1456242     
   2642517991.6551743     
   2500317286.1360950     
   5657735479.8173571     
   5890913219.1230316     
   6116443113.1521187     
   6331865218.5560265     
   6536957140.3822813     
   6491531014.7337990     
   6586795076.9729757     
   6757402791.4984188     
   6961276056.2759209     
   7171753984.4509439     
   7982264385.5848122     
   7734874388.5787945     
   7669076840.6292648     
   7669576050.8118963     
   7666439011.9257317     
   10130377926.482798     
   9321994208.0707893     
   8826275977.2696342     
   8443414294.5651836     
   8035601422.1735916     
   12935955712.790438     
   11340866524.037859     
   10210165208.841108     
   9272551871.6872463     
   8303591250.7048836     
   6536957140.3822813     
   6328867963.6429796     
   6142990867.4815540     
   5965419377.1267681     
   5787149212.3918867     
   7171753984.4509439     
   6910992102.3804703     
   6658115962.4585629     
   6409265351.8010511     
   6161295912.6399870     
   7666439011.9257317     
   7381057230.0307856     
   7101025110.1088562     
   6826421339.5454617     
   6557447837.7067509     
   8035601422.1735916     
   7746715624.9684820     
   7473431345.3550100     
   7213798391.3906403     
   6967820192.9856586     
   8303591250.7048836     
   8020531814.5802174     
   7779482843.6427631     
   7569777134.1874590     
   7386435546.1028318     
   5787149212.3918867     
   5637317985.8021908     
   5491810131.2421570     
   5350542983.8962040     
   5213577580.6132107     
   6161295912.6399870     
   6012852937.5804367     
   5865937598.9213400     
   5720593189.7822294     
   5576884542.0227995     
   6557447837.7067509     
   6406846394.0871639     
   6254839823.5789757     
   6101405319.9891539     
   5946578383.9846792     
   6967820192.9856586     
   6812867993.6589022     
   6653528141.6782675     
   6489527550.7360334     
   6320815006.0551100     
   7386435546.1028318     
   7225937921.6349192     
   7058135035.2985744     
   6882335348.7815952     
   6698335077.8325424     
   5213577580.6132107     
   5075414184.1162395     
   4936989842.8715677     
   4798271426.2952881     
   4659340321.2269449     
   5576884542.0227995     
   5423748441.4851103     
   5271029430.8231382     
   5118751606.8375282     
   4967007137.5600557     
   5946578383.9846792     
   5777657438.8700190     
   5609896420.9819527     
   5443340377.5067186     
   5278092980.1928968     
   6320815006.0551100     
   6134770159.9277639     
   5950680723.9791803     
   5768588279.5298862     
   5588614873.0797615     
   6698335077.8325424     
   6493388936.2628708     
   6291245168.2186346     
   6091928441.1213417     
   5895592746.2555141     
   4659340321.2269449     
   4514397259.6366968     
   4372801829.4942513     
   4234710502.6885843     
   4100362016.4603338     
   4967007137.5600557     
   4814159734.9534807     
   4663456249.4215012     
   4515038643.5048800     
   4369099513.5856276     
   5278092980.1928968     
   5118935904.2093878     
   4961009195.9922991     
   4804420467.2252293     
   4649303593.3540831     
   5588614873.0797615     
   5425157084.0111837     
   5262256767.6491985     
   5099977546.8871489     
   4938393227.9533930     
   5895592746.2555141     
   5730129319.0157595     
   5564752143.6241846     
   5399478359.8029490     
   5234327803.8707094     
   4100362016.4603338     
   3962416082.8885007     
   3825400055.5122571     
   3689481447.7215381     
   3554925209.4223423     
   4369099513.5856276     
   4218664794.1177311     
   4069028238.1206379     
   3920327837.5072913     
   3772793716.5152192     
   4649303593.3540831     
   4485510097.0033731     
   4322354516.6742954     
   4159946050.3975706     
   3998483659.6920972     
   4938393227.9533930     
   4760205629.4939203     
   4582467990.8190355     
   4405262230.1991549     
   4228760282.7747369     
   5234327803.8707094     
   5040590965.4678335     
   4847090279.0255308     
   4653882393.8273840     
   4461116546.1942015     
   3554925209.4223423     
   3418435196.5962586     
   3284552296.1751962     
   3153347795.0674973     
   3024953404.6799994     
   3772793716.5152192     
   3631078495.9076705     
   3492536647.6740284     
   3357404847.2713542     
   3226020035.4177289     
   3998483659.6920972     
   3844959437.1149974     
   3694728334.2393284     
   3548256609.3104572     
   3406193698.1210241     
   4228760282.7747369     
   4057014530.6908455     
   3888286185.5605397     
   3723314599.0279131     
   3563147876.9543338     
   4461116546.1942015     
   4264985485.3512635     
   4071235850.1662641     
   3880895712.9535995     
   3695469892.5676332     
   3024953404.6799994     
   2906285060.5235820     
   2778463335.1456242     
   2642517991.6551743     
   2500317286.1360950     
   3226020035.4177289     
   3121148862.8039894     
   3017059473.8184152     
   2914156397.0230269     
   2813184481.6091161     
   3406193698.1210241     
   3271683237.6315498     
   3146280395.9612403     
   3033275806.2087021     
   2938170305.7276378     
   3563147876.9543338     
   3354750654.4617610     
   3164081052.7516627     
   3002443691.8544817     
   2888374857.9217463     
   3695469892.5676332     
   3369009277.4603462     
   3071109942.1587038     
   2829716307.0453014     
   2691804899.3142729     
 </DataArray>
 <DataArray  type="Float64" Name="strain" NumberOfComponents="3" format="ascii">
  0.20349217801229347        0.0000000000000000       0.12540486078375926     
  0.18665904970130442       -2.7320918812685085E-002   7.4349810925002729E-002
  0.16982592139031533       -4.4671364709843751E-002   3.5131552169827641E-002
  0.15299279307932623       -5.2051337691476032E-002   7.7500845182339982E-003
  0.13615966476833719       -4.9460837757581880E-002  -7.7945920297782662E-003
  0.15985595383218612        0.0000000000000000        9.6452692026923970E-002
  0.15317757503393739       -2.1842013956236216E-002   6.2692296447406648E-002
  0.14649919623568869       -3.6171691338500310E-002   3.7404608789788615E-002
  0.13982081743743996       -4.2989032146792262E-002   2.0589629054069851E-002
  0.13314243863919123       -4.2294036381112107E-002   1.2247357240250417E-002
  0.12645502077740972        0.0000000000000000        7.4208496297314686E-002
  0.12656730831021923       -1.6363109099787349E-002   5.5284618655482259E-002
  0.12667959584302876       -2.7672017967156848E-002   4.1469365753866977E-002
  0.12679188337583824       -3.3926726602108499E-002   3.2762737592468900E-002
  0.12690417090864775       -3.5127235004642300E-002   2.9164734171287950E-002
  0.10328937884796432        0.0000000000000000        5.8672273594931421E-002
  0.10682824953014994       -1.0884204243338479E-002   5.2126777549229633E-002
  0.11036712021233554       -1.9172344595813389E-002   4.7325823062062830E-002
  0.11390599089452114       -2.4864421057424740E-002   4.4269410133431122E-002
  0.11744486157670674       -2.7960433628172507E-002   4.2957538763334406E-002
   9.0359028043849918E-002   0.0000000000000000        4.9844023919774161E-002
   9.3960398693729477E-002  -5.4052993868896121E-003   5.3218773128648714E-002
   9.7561769343609037E-002  -1.0672671224469934E-002   5.4973980714376154E-002
  0.10116313999348858       -1.5802115512740973E-002   5.5109646676956489E-002
  0.10476451064336814       -2.0793632251702721E-002   5.3625771016389726E-002
  0.13615966476833719       -4.9460837757581880E-002  -7.7945920297782662E-003
  0.13295626312572822       -4.2930325123895913E-002  -3.3823484003504545E-003
  0.12975286148311921       -3.8490260006152827E-002  -3.8916766991414081E-004
  0.12654945984051025       -3.6140642404352573E-002   1.1849501615307095E-003
  0.12334605819790123       -3.5881472318495061E-002   1.3400050939839925E-003
  0.13314243863919123       -4.2294036381112107E-002   1.2247357240250417E-002
  0.12890893404359521       -3.8431550848347755E-002   1.2193616936411716E-002
  0.12467542944799918       -3.5746422355387261E-002   1.1498733625590559E-002
  0.12044192485240315       -3.4238650902230577E-002   1.0162707307786695E-002
  0.11620842025680717       -3.3908236488877752E-002   8.1855379830004099E-003
  0.12690417090864775       -3.5127235004642300E-002   2.9164734171287950E-002
  0.12241848325207359       -3.3932776572799597E-002   2.5558100410321933E-002
  0.11793279559549941       -3.3002584704621682E-002   2.2088243534382178E-002
  0.11344710793892521       -3.2336659400108644E-002   1.8755163543468699E-002
  0.10896142028235108       -3.1935000659260401E-002   1.5558860437581666E-002
  0.11744486157670674       -2.7960433628172507E-002   4.2957538763334406E-002
  0.11348491075116331       -2.9434002297251426E-002   3.6711102021379942E-002
  0.10952495992561988       -3.0258747053856130E-002   3.1379362056460677E-002
  0.10556500910007646       -3.0434667897986704E-002   2.6962318868576581E-002
  0.10160505827453303       -2.9961764829643044E-002   2.3459972457727733E-002
  0.10476451064336814       -2.0793632251702721E-002   5.3625771016389726E-002
  0.10210821654086438       -2.4935228021703247E-002   4.5652621769585795E-002
   9.9451922438360610E-002  -2.7514909403090572E-002   3.9372089191826033E-002
   9.6795628335856837E-002  -2.8532676395864744E-002   3.4784173283110342E-002
   9.4139334233353078E-002  -2.7988529000025728E-002   3.1888874043438778E-002
  0.12334605819790123       -3.5881472318495061E-002   1.3400050939839925E-003
  0.12037521845723903       -3.6367726882174892E-002   6.4061320313746339E-004
  0.11740437871657677       -3.6254383228986588E-002   1.6048369680932151E-004
  0.11443353897591456       -3.5541441358930052E-002  -1.0038342500025971E-004
  0.11146269923525232       -3.4228901272005341E-002  -1.4198816229121780E-004
  0.11620842025680717       -3.3908236488877752E-002   8.1855379830004099E-003
  0.11343940838660710       -3.3976916420052558E-002   7.8487328285438002E-003
  0.11067039651640712       -3.3666428000479073E-002   7.6963210304933569E-003
  0.10790138464620712       -3.2976771230157104E-002   7.7283025888486810E-003
  0.10513237277600712       -3.1907946109086704E-002   7.9446775036099426E-003
  0.10896142028235108       -3.1935000659260401E-002   1.5558860437581666E-002
  0.10635936725450071       -3.1586105957930273E-002   1.5364212153395354E-002
  0.10375731422665038       -3.1078472771971500E-002   1.5319088197502485E-002
  0.10115526119880004       -3.0412101101384061E-002   1.5423488569903094E-002
   9.8553208170949688E-002  -2.9586990946168096E-002   1.5677413270596879E-002
  0.10160505827453303       -2.9961764829643044E-002   2.3459972457727733E-002
   9.9135095060919790E-002  -2.9195295495807880E-002   2.3187051177692031E-002
   9.6665131847306546E-002  -2.8490517543463913E-002   2.3028785197837069E-002
   9.4195168633693274E-002  -2.7847430972611123E-002   2.2985174518162937E-002
   9.1725205420080058E-002  -2.7266035783249473E-002   2.3056219138669620E-002
   9.4139334233353078E-002  -2.7988529000025728E-002   3.1888874043438778E-002
   9.1766591805864356E-002  -2.6804485033685592E-002   3.1317249901433766E-002
   8.9393849378375592E-002  -2.5902562314956402E-002   3.0825412031497045E-002
   8.7021106950886856E-002  -2.5282760843838136E-002   3.0413360433628436E-002
   8.4648364523398134E-002  -2.4945080620330851E-002   3.0081095107828026E-002
  0.11146269923525232       -3.4228901272005341E-002  -1.4198816229121780E-004
  0.10816408527992033       -3.2716496158287034E-002   1.0773443931783033E-004
  0.10486547132458832       -3.1403959207849719E-002   6.2961974914388374E-004
  0.10156685736925632       -3.0291290420693381E-002   1.4236677671873310E-003
   9.8268243413924317E-002  -2.9378489796818286E-002   2.4898784934473950E-003
  0.10513237277600712       -3.1907946109086704E-002   7.9446775036099426E-003
  0.10209859067036706       -3.0701991764547326E-002   7.7858420673361795E-003
   9.9064808564726936E-002  -2.9600947323818141E-002   7.8845076222289617E-003
   9.6031026459086871E-002  -2.8604812786899251E-002   8.2406741682888307E-003
   9.2997244353446806E-002  -2.7713588153790880E-002   8.8543417055153562E-003
   9.8553208170949688E-002  -2.9586990946168096E-002   1.5677413270596879E-002
   9.5769596197951348E-002  -2.8687487370807535E-002   1.5204978055910881E-002
   9.2985984224952994E-002  -2.7797935439786620E-002   1.4975382115341239E-002
   9.0202372251954682E-002  -2.6918335153105065E-002   1.4988625448888508E-002
   8.7418760278956245E-002  -2.6048686510763169E-002   1.5244708056552328E-002
   9.1725205420080058E-002  -2.7266035783249473E-002   2.3056219138669620E-002
   8.9177101862673261E-002  -2.6672982977067786E-002   2.2365142405042015E-002
   8.6628998305266422E-002  -2.5994923555754904E-002   2.1902243228480976E-002
   8.4080894747859583E-002  -2.5231857519310865E-002   2.1667521608986235E-002
   8.1532791190452800E-002  -2.4383784867735556E-002   2.1660977546558016E-002
   8.4648364523398134E-002  -2.4945080620330851E-002   3.0081095107828026E-002
   8.2321107664532711E-002  -2.4658478583328064E-002   2.9266335114729786E-002
   7.9993850805667246E-002  -2.4191911671723292E-002   2.8665090961647641E-002
   7.7666593946801810E-002  -2.3545379885516624E-002   2.8277362648581772E-002
   7.5339337087936359E-002  -2.2718883224708025E-002   2.8103150175532277E-002
   9.8268243413924317E-002  -2.9378489796818286E-002   2.4898784934473950E-003
   9.5494813511392496E-002  -2.8558245243859026E-002   3.4166409835343359E-003
   9.2721383608860758E-002  -2.7723244669451377E-002   4.3325049272949501E-003
   8.9947953706329006E-002  -2.6873488073594371E-002   5.2374703247290016E-003
   8.7174523803797199E-002  -2.6008975456288552E-002   6.1315371758366988E-003
   9.2997244353446806E-002  -2.7713588153790880E-002   8.8543417055153562E-003
   9.0239155523508474E-002  -2.6881401750599082E-002   9.5006535332220199E-003
   8.7481066693570170E-002  -2.6062381903430631E-002   1.0188546052441821E-002
   8.4722977863631838E-002  -2.5256528612285931E-002   1.0918019263174955E-002
   8.1964889033693533E-002  -2.4463841877164438E-002   1.1689073165421116E-002
   8.7418760278956245E-002  -2.6048686510763169E-002   1.5244708056552328E-002
   8.4728491759451061E-002  -2.5204558257338777E-002   1.5582646644406173E-002
   8.2038223239945862E-002  -2.4401519137410323E-002   1.6014645161612849E-002
   7.9347954720440650E-002  -2.3639569150977431E-002   1.6540703608172485E-002
   7.6657686200935465E-002  -2.2918708298040158E-002   1.7160821984085278E-002
   8.1532791190452800E-002  -2.4383784867735556E-002   2.1660977546558016E-002
   7.8962822219220394E-002  -2.3527714764078736E-002   2.1662620317086614E-002
   7.6392853247987891E-002  -2.2740656371389851E-002   2.1810802254808186E-002
   7.3822884276755429E-002  -2.2022609689668852E-002   2.2105523359722188E-002
   7.1252915305522982E-002  -2.1373574718915961E-002   2.2546783631828764E-002
   7.5339337087936359E-002  -2.2718883224708025E-002   2.8103150175532277E-002
   7.2942146902816335E-002  -2.1850871270818611E-002   2.7740574551263802E-002
   7.0544956717696269E-002  -2.1079793605369317E-002   2.7577017332027567E-002
   6.8147766532576232E-002  -2.0405650228360425E-002   2.7612478517823662E-002
   6.5750576347456208E-002  -1.9828441139791819E-002   2.7846958108651787E-002
   8.7174523803797199E-002  -2.6008975456288552E-002   6.1315371758366988E-003
   8.3931514196271595E-002  -2.5126213422703325E-002   5.8364356167274756E-003
   8.0688504588745880E-002  -2.4221708578008788E-002   5.8171493991162615E-003
   7.7445494981220220E-002  -2.3295460922204698E-002   6.0736785230032508E-003
   7.4202485373694560E-002  -2.2347470455291507E-002   6.6060229883880828E-003
   8.1964889033693533E-002  -2.4463841877164438E-002   1.1689073165421116E-002
   7.8986225538055316E-002  -2.3657506472495204E-002   1.1316037667160939E-002
   7.6007562042417071E-002  -2.2810707172708528E-002   1.1195879051177110E-002
   7.3028898546778867E-002  -2.1923443977803166E-002   1.1328597317470726E-002
   7.0050235051140608E-002  -2.0995716887779681E-002   1.1714192466040718E-002
   7.6657686200935465E-002  -2.2918708298040158E-002   1.7160821984085278E-002
   7.3920430357963487E-002  -2.2188799522287167E-002   1.6728573630682253E-002
   7.1183174514991593E-002  -2.1399705767407698E-002   1.6526263700335012E-002
   6.8445918672019684E-002  -2.0551427033401407E-002   1.6553892193043304E-002
   6.5708662829047776E-002  -1.9643963320268187E-002   1.6811459108807769E-002
   7.1252915305522982E-002  -2.1373574718915961E-002   2.2546783631828764E-002
   6.8734128655996221E-002  -2.0720092572079310E-002   2.2074043507292036E-002
   6.6215342006469335E-002  -1.9988704362107153E-002   2.1808303346589713E-002
   6.3696555356942547E-002  -1.9179410088999538E-002   2.1749563149721970E-002
   6.1177768707415696E-002  -1.8292209752756750E-002   2.1897822916688667E-002
   6.5750576347456208E-002  -1.9828441139791819E-002   2.7846958108651787E-002
   6.3427320432153295E-002  -1.9251385621871231E-002   2.7352447296989907E-002
   6.1104064516850395E-002  -1.8577702956806524E-002   2.7041997989941335E-002
   5.8780808601547503E-002  -1.7807393144597845E-002   2.6915610187505920E-002
   5.6457552686244639E-002  -1.6940456185245145E-002   2.6973283889683952E-002
   7.4202485373694560E-002  -2.2347470455291507E-002   6.6060229883880828E-003
   7.0880420995587445E-002  -2.1401860272584672E-002   7.4244326782298975E-003
   6.7558356617480442E-002  -2.0482753469402704E-002   8.6997600954588084E-003
   6.4236292239373410E-002  -1.9590150045742979E-002   1.0432005240075287E-002
   6.0914227861266323E-002  -1.8724050001607928E-002   1.2621168112079362E-002
   7.0050235051140608E-002  -2.0995716887779681E-002   1.1714192466040718E-002
   6.7137140942202189E-002  -2.0072305677216573E-002   1.2257533281344102E-002
   6.4224046833263770E-002  -1.9197990120691011E-002   1.3161896907597087E-002
   6.1310952724325407E-002  -1.8372770218203965E-002   1.4427283344800215E-002
   5.8397858615386933E-002  -1.7596645969754743E-002   1.6053692592953084E-002
   6.5708662829047776E-002  -1.9643963320268187E-002   1.6811459108807769E-002
   6.3108644072840475E-002  -1.8742751081847836E-002   1.7057138775057656E-002
   6.0508625316633244E-002  -1.7913226771980123E-002   1.7567946335820553E-002
   5.7908606560425978E-002  -1.7155390390664514E-002   1.8343881791095668E-002
   5.5308587804218740E-002  -1.6469241937901558E-002   1.9384945140883458E-002
   6.1177768707415696E-002  -1.8292209752756750E-002   2.1897822916688667E-002
   5.8794930387502276E-002  -1.7413196486479529E-002   2.1823249159371366E-002
   5.6412092067588793E-002  -1.6628463423269110E-002   2.1917908380129691E-002
   5.4029253747675317E-002  -1.5938010563125170E-002   2.2181800578962522E-002
   5.1646415427761827E-002  -1.5341837906048483E-002   2.2614925755870582E-002
   5.6457552686244639E-002  -1.6940456185245145E-002   2.6973283889683952E-002
   5.4195999886187507E-002  -1.6083641891110945E-002   2.6555864434284926E-002
   5.1934447086130431E-002  -1.5343700074557917E-002   2.6211783040523712E-002
   4.9672894286073327E-002  -1.4720630735586031E-002   2.5941039708400199E-002
   4.7411341486016279E-002  -1.4214433874195298E-002   2.5743634437914387E-002
   6.0914227861266323E-002  -1.8724050001607928E-002   1.2621168112079362E-002
   5.5014878564742298E-002  -1.7850004180846812E-002   1.4393308196479770E-002
   4.9115529268218217E-002  -1.6933563427311615E-002   1.8718897037270588E-002
   4.3216179971694246E-002  -1.5974727741001074E-002   2.5597934634450314E-002
   3.7316830675170110E-002  -1.4973497121915980E-002   3.5030420988021227E-002
   5.8397858615386933E-002  -1.7596645969754743E-002   1.6053692592953084E-002
   5.4673207781069044E-002  -1.6797451571748556E-002   1.6942996260844168E-002
   5.0948556946751156E-002  -1.5903021220591118E-002   1.9628248096757173E-002
   4.7223906112433267E-002  -1.4913354916282054E-002   2.4109448100693265E-002
   4.3499255278115379E-002  -1.3828452658821710E-002   3.0386596272651278E-002
   5.5308587804218740E-002  -1.6469241937901558E-002   1.9384945140883458E-002
   5.3001134843739361E-002  -1.5744898962650467E-002   1.9444253412642054E-002
   5.0693681883260011E-002  -1.4872479013871148E-002   2.0542009264054972E-002
   4.8386228922780633E-002  -1.3851982091563193E-002   2.2678212695122463E-002
   4.6078775962301255E-002  -1.2683408195727219E-002   2.5852863705845386E-002
   5.1646415427761827E-002  -1.5341837906048483E-002   2.2614925755870582E-002
   4.9998659752753395E-002  -1.4692346353552294E-002   2.1897079651873222E-002
   4.8350904077744838E-002  -1.3841936807150915E-002   2.1460180539162953E-002
   4.6703148402736407E-002  -1.2790609266844475E-002   2.1304228417739660E-002
   4.5055392727727836E-002  -1.1538363732632839E-002   2.1429223287603494E-002
   4.7411341486016279E-002  -1.4214433874195298E-002   2.5743634437914387E-002
   4.5665782508111041E-002  -1.3639793744454176E-002   2.4301474978537962E-002
   4.3920223530205665E-002  -1.2811394600430764E-002   2.2382761922081218E-002
   4.2174664552300470E-002  -1.1729236442125666E-002   1.9987495268543626E-002
   4.0429105574395052E-002  -1.0393319269538459E-002   1.7115675017925103E-002
   9.0359028043849918E-002   0.0000000000000000        4.9844023919774161E-002
   9.3960398693729477E-002  -5.4052993868896121E-003   5.3218773128648714E-002
   9.7561769343609037E-002  -1.0672671224469934E-002   5.4973980714376154E-002
  0.10116313999348858       -1.5802115512740973E-002   5.5109646676956489E-002
  0.10476451064336814       -2.0793632251702721E-002   5.3625771016389726E-002
   8.2424190654901933E-002   0.0000000000000000        4.4791367428726567E-002
   8.4635190022182435E-002  -4.5754409897827593E-003   4.8275595288573864E-002
   8.6846189389462938E-002  -9.0396643180291423E-003   5.0598622206370167E-002
   8.9057188756743427E-002  -1.3392669984739146E-002   5.1760448182115441E-002
   9.1268188124023930E-002  -1.7634457989912776E-002   5.1761073215809708E-002
   7.4245088970955830E-002   0.0000000000000000        4.0581924278672271E-002
   7.5524057736733374E-002  -3.7455825926759052E-003   4.4148920901719430E-002
   7.6803026502510890E-002  -7.4066574115883438E-003   4.7013057263811664E-002
   7.8081995268288421E-002  -1.0983224456737318E-002   4.9174333364948981E-002
   7.9360964034065978E-002  -1.4475283728122824E-002   5.0632749205131368E-002
   6.5821722992011611E-002   0.0000000000000000        3.7215694469611288E-002
   6.6627001837382252E-002  -2.9157241955690520E-003   4.0838749968085390E-002
   6.7432280682752921E-002  -5.7736505051475453E-003   4.4217285886700652E-002
   6.8237559528123576E-002  -8.5737789287354867E-003   4.7351302225457095E-002
   6.9042838373494217E-002  -1.1316109466332869E-002   5.0240798984354691E-002
   5.7154092718069288E-002   0.0000000000000000        3.4692678001543617E-002
   5.7944022324129152E-002  -2.0858657984621993E-003   3.8345082487671732E-002
   5.8733951930189016E-002  -4.1406435987067520E-003   4.2211308075037118E-002
   5.9523881536248879E-002  -6.1643334007336625E-003   4.6291354763639783E-002
   6.0313811142308750E-002  -8.1569352045429300E-003   5.0585222553479671E-002
  0.10476451064336814       -2.0793632251702721E-002   5.3625771016389726E-002
  0.10210821654086438       -2.4935228021703247E-002   4.5652621769585795E-002
   9.9451922438360610E-002  -2.7514909403090572E-002   3.9372089191826033E-002
   9.6795628335856837E-002  -2.8532676395864744E-002   3.4784173283110342E-002
   9.4139334233353078E-002  -2.7988529000025728E-002   3.1888874043438778E-002
   9.1268188124023930E-002  -1.7634457989912776E-002   5.1761073215809708E-002
   9.0066414469667455E-002  -2.1210892283376800E-002   4.6529628252743274E-002
   8.8864640815310994E-002  -2.3567836814958019E-002   4.2514607516927337E-002
   8.7662867160954519E-002  -2.4705291584656411E-002   3.9716011008361925E-002
   8.6461093506598072E-002  -2.4623256592471998E-002   3.8133838727046988E-002
   7.9360964034065978E-002  -1.4475283728122824E-002   5.0632749205131368E-002
   7.9137518386063199E-002  -1.7486556545050370E-002   4.7800583899071998E-002
   7.8914072738060434E-002  -1.9620764226825464E-002   4.5708650378469592E-002
   7.8690627090057669E-002  -2.0877906773448088E-002   4.4356948643324019E-002
   7.8467181442054917E-002  -2.1257984184918262E-002   4.3745478693635431E-002
   6.9042838373494217E-002  -1.1316109466332869E-002   5.0240798984354691E-002
   6.9321528290051573E-002  -1.3762220806723938E-002   4.9465488708572092E-002
   6.9600218206608930E-002  -1.5673691638692911E-002   4.8954217776452764E-002
   6.9878908123166286E-002  -1.7050521962239770E-002   4.8706986187996758E-002
   7.0157598039723643E-002  -1.7892711777364529E-002   4.8723793943204093E-002
   6.0313811142308750E-002  -8.1569352045429300E-003   5.0585222553479671E-002
   6.0618444181632612E-002  -1.0037885068397506E-002   5.1524342681243417E-002
   6.0923077220956481E-002  -1.1726619050560348E-002   5.2251309710876881E-002
   6.1227710260280371E-002  -1.3223137151031445E-002   5.2766123642380092E-002
   6.1532343299604213E-002  -1.4527439369810810E-002   5.3068784475752959E-002
   9.4139334233353078E-002  -2.7988529000025728E-002   3.1888874043438778E-002
   9.1766591805864356E-002  -2.6804485033685592E-002   3.1317249901433766E-002
   8.9393849378375592E-002  -2.5902562314956402E-002   3.0825412031497045E-002
   8.7021106950886856E-002  -2.5282760843838136E-002   3.0413360433628436E-002
   8.4648364523398134E-002  -2.4945080620330851E-002   3.0081095107828026E-002
   8.6461093506598072E-002  -2.4623256592471998E-002   3.8133838727046988E-002
   8.4213924965827247E-002  -2.3987646036363997E-002   3.7095100921080232E-002
   8.1966756425056464E-002  -2.3464374114291649E-002   3.6227724616481105E-002
   7.9719587884285639E-002  -2.3053440826255017E-002   3.5531709813249560E-002
   7.7472419343514842E-002  -2.2754846172254040E-002   3.5007056511385665E-002
   7.8467181442054917E-002  -2.1257984184918262E-002   4.3745478693635431E-002
   7.6437162017301413E-002  -2.1170807039042405E-002   4.2409409837282197E-002
   7.4407142592547923E-002  -2.1026185913626934E-002   4.1336277711595960E-002
   7.2377123167794419E-002  -2.0824120808671888E-002   4.0526082316576686E-002
   7.0347103743040929E-002  -2.0564611724177229E-002   3.9978823652224514E-002
   7.0157598039723643E-002  -1.7892711777364529E-002   4.8723793943204093E-002
   6.8436302960286854E-002  -1.8353968041720778E-002   4.7260176650039648E-002
   6.6715007880850052E-002  -1.8587997712962222E-002   4.6151071316841576E-002
   6.4993712801413264E-002  -1.8594800791088734E-002   4.5396477943609931E-002
   6.3272417721976504E-002  -1.8374377276100404E-002   4.4996396530344741E-002
   6.1532343299604213E-002  -1.4527439369810810E-002   5.3068784475752959E-002
   6.0211347794783515E-002  -1.5537129044399224E-002   5.1647401359352627E-002
   5.8890352289962825E-002  -1.6149809512297501E-002   5.0672105432218041E-002
   5.7569356785142113E-002  -1.6365480773505608E-002   5.0142896694349195E-002
   5.6248361280321429E-002  -1.6184142828023607E-002   5.0059775145746194E-002
   8.4648364523398134E-002  -2.4945080620330851E-002   3.0081095107828026E-002
   8.2321107664532711E-002  -2.4658478583328064E-002   2.9266335114729786E-002
   7.9993850805667246E-002  -2.4191911671723292E-002   2.8665090961647641E-002
   7.7666593946801810E-002  -2.3545379885516624E-002   2.8277362648581772E-002
   7.5339337087936359E-002  -2.2718883224708025E-002   2.8103150175532277E-002
   7.7472419343514842E-002  -2.2754846172254040E-002   3.5007056511385665E-002
   7.5355843105268633E-002  -2.2447091037095086E-002   3.4395403113776334E-002
   7.3239266867022465E-002  -2.2008676305584653E-002   3.3991595117389431E-002
   7.1122690628776269E-002  -2.1439601977722725E-002   3.3795632522224776E-002
   6.9006114390530060E-002  -2.0739868053509247E-002   3.3807515328282134E-002
   7.0347103743040929E-002  -2.0564611724177229E-002   3.9978823652224514E-002
   6.8435537686619974E-002  -2.0235703490862192E-002   3.9520971571853990E-002
   6.6523971630199033E-002  -1.9825440939446101E-002   3.9265294453911706E-002
   6.4612405573778051E-002  -1.9333824069928861E-002   3.9211792298397642E-002
   6.2700839517357110E-002  -1.8760852882310539E-002   3.9360465105311791E-002
   6.3272417721976504E-002  -1.8374377276100404E-002   4.4996396530344741E-002
   6.1560191408586720E-002  -1.8024315944629284E-002   4.4643040488962463E-002
   5.9847965095196971E-002  -1.7642205573307507E-002   4.4486188971214452E-002
   5.8135738781807195E-002  -1.7228046162134993E-002   4.4525841977100640E-002
   5.6423512468417480E-002  -1.6781837711111768E-002   4.4761999506620929E-002
   5.6248361280321429E-002  -1.6184142828023607E-002   5.0059775145746194E-002
   5.4729804271168858E-002  -1.5812928398396320E-002   4.9761609865101836E-002
   5.3211247262016287E-002  -1.5458970207168882E-002   4.9654278669297697E-002
   5.1692690252863722E-002  -1.5122268254341091E-002   4.9737781558333735E-002
   5.0174133243711144E-002  -1.4802822539913052E-002   5.0012118532209909E-002
   7.5339337087936359E-002  -2.2718883224708025E-002   2.8103150175532277E-002
   7.2942146902816335E-002  -2.1850871270818611E-002   2.7740574551263802E-002
   7.0544956717696269E-002  -2.1079793605369317E-002   2.7577017332027567E-002
   6.8147766532576232E-002  -2.0405650228360425E-002   2.7612478517823662E-002
   6.5750576347456208E-002  -1.9828441139791819E-002   2.7846958108651787E-002
   6.9006114390530060E-002  -2.0739868053509247E-002   3.3807515328282134E-002
   6.6809242893377849E-002  -2.0003618728320058E-002   3.3396906269762550E-002
   6.4612371396225582E-002  -1.9324998197530592E-002   3.3187916182146185E-002
   6.2415499899073315E-002  -1.8704006461141204E-002   3.3180545065433192E-002
   6.0218628401921048E-002  -1.8140643519151650E-002   3.3374792919623669E-002
   6.2700839517357110E-002  -1.8760852882310539E-002   3.9360465105311791E-002
   6.0706887274043754E-002  -1.8156366185821463E-002   3.8941128106581312E-002
   5.8712935030730384E-002  -1.7570202789691926E-002   3.8726010644625192E-002
   5.6718982787417022E-002  -1.7002362693921934E-002   3.8715112719443549E-002
   5.4725030544103638E-002  -1.6452845898511509E-002   3.8908434331036343E-002
   5.6423512468417480E-002  -1.6781837711111768E-002   4.4761999506620929E-002
   5.4635080044814092E-002  -1.6309113643322874E-002   4.4373240061719971E-002
   5.2846647621210732E-002  -1.5815407381853094E-002   4.4191300719464595E-002
   5.1058215197607372E-002  -1.5300718926702716E-002   4.4216181479854587E-002
   4.9269782774003984E-002  -1.4765048277871326E-002   4.4447882342890307E-002
   5.0174133243711144E-002  -1.4802822539913052E-002   5.0012118532209909E-002
   4.8593821205688892E-002  -1.4461861100824355E-002   4.9693242135178700E-002
   4.7013509167666612E-002  -1.4060611974014495E-002   4.9583786406664221E-002
   4.5433197129644338E-002  -1.3599075159483404E-002   4.9683751346666388E-002
   4.3852885091622079E-002  -1.3077250657231254E-002   4.9993136955185147E-002
   6.5750576347456208E-002  -1.9828441139791819E-002   2.7846958108651787E-002
   6.3427320432153295E-002  -1.9251385621871231E-002   2.7352447296989907E-002
   6.1104064516850395E-002  -1.8577702956806524E-002   2.7041997989941335E-002
   5.8780808601547503E-002  -1.7807393144597845E-002   2.6915610187505920E-002
   5.6457552686244639E-002  -1.6940456185245145E-002   2.6973283889683952E-002
   6.0218628401921048E-002  -1.8140643519151650E-002   3.3374792919623669E-002
   5.8078785876789982E-002  -1.7573947517130567E-002   3.2998445112041391E-002
   5.5938943351658874E-002  -1.6942956600646840E-002   3.2804862580189081E-002
   5.3799100826527765E-002  -1.6247670769700399E-002   3.2794045324067211E-002
   5.1659258301396643E-002  -1.5488090024291079E-002   3.2965993343675615E-002
   5.4725030544103638E-002  -1.6452845898511509E-002   3.8908434331036343E-002
   5.2767305180261299E-002  -1.5896509412390070E-002   3.8617917294852346E-002
   5.0809579816418898E-002  -1.5308210244487211E-002   3.8508869305515406E-002
   4.8851854452576518E-002  -1.4687948394802895E-002   3.8581290363025642E-002
   4.6894129088734124E-002  -1.4035723863337096E-002   3.8835180467383171E-002
   4.9269782774003984E-002  -1.4765048277871326E-002   4.4447882342890307E-002
   4.7492878342567296E-002  -1.4219071307649628E-002   4.4210863845423228E-002
   4.5715973911130553E-002  -1.3673463888327526E-002   4.4154018165920308E-002
   4.3939069479693796E-002  -1.3128226019905350E-002   4.4277345304381356E-002
   4.2162165048257122E-002  -1.2583357702383072E-002   4.4580845260806565E-002
   4.3852885091622079E-002  -1.3077250657231254E-002   4.9993136955185147E-002
   4.2255505363707938E-002  -1.2541633202908964E-002   4.9777284763753760E-002
   4.0658125635793754E-002  -1.2038717532167856E-002   4.9740309161403456E-002
   3.9060745907879585E-002  -1.1568503645007961E-002   4.9882210148134237E-002
   3.7463366179965429E-002  -1.1130991541429047E-002   5.0202987723946046E-002
   5.6457552686244639E-002  -1.6940456185245145E-002   2.6973283889683952E-002
   5.4195999886187507E-002  -1.6083641891110945E-002   2.6555864434284926E-002
   5.1934447086130431E-002  -1.5343700074557917E-002   2.6211783040523712E-002
   4.9672894286073327E-002  -1.4720630735586031E-002   2.5941039708400199E-002
   4.7411341486016279E-002  -1.4214433874195298E-002   2.5743634437914387E-002
   5.1659258301396643E-002  -1.5488090024291079E-002   3.2965993343675615E-002
   4.9490808949840037E-002  -1.4731699794145514E-002   3.2507730236039256E-002
   4.7322359598283376E-002  -1.4045985508990333E-002   3.2162335963765859E-002
   4.5153910246726714E-002  -1.3430947168825355E-002   3.1929810526855659E-002
   4.2985460895170108E-002  -1.2886584773650733E-002   3.1810153925309226E-002
   4.6894129088734124E-002  -1.4035723863337096E-002   3.8835180467383171E-002
   4.4858313959403470E-002  -1.3379757697180222E-002   3.8382270240100130E-002
   4.2822498830072803E-002  -1.2748270943422756E-002   3.8081759621905804E-002
   4.0786683700742142E-002  -1.2141263602064791E-002   3.7933648612800200E-002
   3.8750868571411481E-002  -1.1558735673106113E-002   3.7937937212783268E-002
   4.2162165048257122E-002  -1.2583357702383072E-002   4.4580845260806565E-002
   4.0298514914877903E-002  -1.2027815600214972E-002   4.4179484446467757E-002
   3.8434864781498726E-002  -1.1450556377855175E-002   4.3970054014943298E-002
   3.6571214648119549E-002  -1.0851580035304061E-002   4.3952553966232717E-002
   3.4707564514740386E-002  -1.0230886572561465E-002   4.4126984300336729E-002
   3.7463366179965429E-002  -1.1130991541429047E-002   5.0202987723946046E-002
   3.5811411816263267E-002  -1.0675873503249528E-002   4.9899372855142288E-002
   3.4159457452561146E-002  -1.0152841812287594E-002   4.9827219142878354E-002
   3.2507503088858990E-002  -9.5618964685435792E-003   4.9986526587154162E-002
   3.0855548725156834E-002  -8.9030374720169281E-003   5.0377295187969739E-002
   4.7411341486016279E-002  -1.4214433874195298E-002   2.5743634437914387E-002
   4.5665782508111041E-002  -1.3639793744454176E-002   2.4301474978537962E-002
   4.3920223530205665E-002  -1.2811394600430764E-002   2.2382761922081218E-002
   4.2174664552300470E-002  -1.1729236442125666E-002   1.9987495268543626E-002
   4.0429105574395052E-002  -1.0393319269538459E-002   1.7115675017925103E-002
   4.2985460895170108E-002  -1.2886584773650733E-002   3.1810153925309226E-002
   4.0874880099897870E-002  -1.2294890330390135E-002   3.0880364040455965E-002
   3.8764299304625646E-002  -1.1537855845967837E-002   2.9697084117949496E-002
   3.6653718509353485E-002  -1.0615481320383660E-002   2.8260314157789915E-002
   3.4543137714081129E-002  -9.5277667536377564E-003   2.6570054159977041E-002
   3.8750868571411481E-002  -1.1558735673106113E-002   3.7937937212783268E-002
   3.6498329518199688E-002  -1.0949986916326343E-002   3.7432097929333163E-002
   3.4245790464987956E-002  -1.0264317091504924E-002   3.6895832167657003E-002
   3.1993251411776197E-002  -9.5017261986418237E-003   3.6329139927755306E-002
   2.9740712358564486E-002  -8.6622142377370537E-003   3.5732021209627540E-002
   3.4707564514740386E-002  -1.0230886572561465E-002   4.4126984300336729E-002
   3.2536130763016459E-002  -9.6050835022625375E-003   4.3956676645169487E-002
   3.0364697011292449E-002  -8.9907783370419478E-003   4.3979006071203613E-002
   2.8193263259568582E-002  -8.3879710768998469E-003   4.4193972578439329E-002
   2.6021829507844513E-002  -7.7966617218363510E-003   4.4601576166876489E-002
   3.0855548725156834E-002  -8.9030374720169281E-003   5.0377295187969739E-002
   2.8988283834348150E-002  -8.2601800881985099E-003   5.0454100187965034E-002
   2.7121018943539410E-002  -7.7172395825789719E-003   5.0946605828589342E-002
   2.5253754052730684E-002  -7.2742159551580088E-003   5.1854812109842524E-002
   2.3386489161921931E-002  -6.9311092059356483E-003   5.3178719031724331E-002
   5.7154092718069288E-002   0.0000000000000000        3.4692678001543617E-002
   5.7944022324129152E-002  -2.0858657984621993E-003   3.8345082487671732E-002
   5.8733951930189016E-002  -4.1406435987067520E-003   4.2211308075037118E-002
   5.9523881536248879E-002  -6.1643334007336625E-003   4.6291354763639783E-002
   6.0313811142308750E-002  -8.1569352045429300E-003   5.0585222553479671E-002
   4.8654267645405001E-002   0.0000000000000000        3.2789870764484960E-002
   4.9592823764548280E-002  -1.7110999288623878E-003   3.6965604106806174E-002
   5.0531379883691566E-002  -3.4359903623569638E-003   4.1224769374056981E-002
   5.1469936002834844E-002  -5.1746713004837217E-003   4.5567366566237368E-002
   5.2408492121978123E-002  -6.9271427432426678E-003   4.9993395683347298E-002
   4.0734317270294931E-002   0.0000000000000000        3.1284268648451026E-002
   4.1691110726213933E-002  -1.3363340592625777E-003   3.5938452344115517E-002
   4.2647904182132955E-002  -2.7313371260071695E-003   4.0545678788401901E-002
   4.3604697638051963E-002  -4.1850092002337774E-003   4.5105947981310165E-002
   4.4561491093970972E-002  -5.6973502819423977E-003   4.9619259922840324E-002
   3.3394241592739071E-002   0.0000000000000000        3.0175871653441818E-002
   3.4238883209126124E-002  -9.6156818966276780E-004   3.5263627199599759E-002
   3.5083524825513177E-002  -2.0266838896573782E-003   4.0174036318071885E-002
   3.5928166441900236E-002  -3.1953470999838323E-003   4.4907099008858226E-002
   3.6772808058287289E-002  -4.4675578206421328E-003   4.9462815271958775E-002
   2.6634040612737421E-002   0.0000000000000000        2.9464679779457333E-002
   2.7236141213284840E-002  -5.8680232006295702E-004   3.4941128673258881E-002
   2.7838241813832251E-002  -1.3220306533075869E-003   4.0109841963066946E-002
   2.8440342414379666E-002  -2.2056849997338941E-003   4.4970819648881520E-002
   2.9042443014927075E-002  -3.2377653593418688E-003   4.9524061730702604E-002
   6.0313811142308750E-002  -8.1569352045429300E-003   5.0585222553479671E-002
   6.0618444181632612E-002  -1.0037885068397506E-002   5.1524342681243417E-002
   6.0923077220956481E-002  -1.1726619050560348E-002   5.2251309710876881E-002
   6.1227710260280371E-002  -1.3223137151031445E-002   5.2766123642380092E-002
   6.1532343299604213E-002  -1.4527439369810810E-002   5.3068784475752959E-002
   5.2408492121978123E-002  -6.9271427432426678E-003   4.9993395683347298E-002
   5.2539628239947817E-002  -8.5928764777900256E-003   5.1219230881584157E-002
   5.2670764357917496E-002  -1.0071344291282038E-002   5.2310225335242932E-002
   5.2801900475887183E-002  -1.1362546183718720E-002   5.3266379044323658E-002
   5.2933036593856897E-002  -1.2466482155100059E-002   5.4087692008826259E-002
   4.4561491093970972E-002  -5.6973502819423977E-003   4.9619259922840324E-002
   4.4596442644138694E-002  -7.1478678871825518E-003   5.1126860230913930E-002
   4.4631394194306402E-002  -8.4160695320037553E-003   5.2576932147961601E-002
   4.4666345744474110E-002  -9.5019552164060106E-003   5.3969475673983455E-002
   4.4701297294641840E-002  -1.0405524940389314E-002   5.5304490808979395E-002
   3.6772808058287289E-002  -4.4675578206421328E-003   4.9462815271958775E-002
   3.6788887394205237E-002  -5.7028592965750729E-003   5.1247230729232672E-002
   3.6804966730123179E-002  -6.7607947727254692E-003   5.3051430149032894E-002
   3.6821046066041120E-002  -7.6413642490932854E-003   5.4875413531359482E-002
   3.6837125401959062E-002  -8.3445677256785596E-003   5.6719180876212354E-002
   2.9042443014927075E-002  -3.2377653593418688E-003   4.9524061730702604E-002
   2.9116962490147454E-002  -4.2578507059675965E-003   5.1580342376540467E-002
   2.9191481965367822E-002  -5.1055200134471667E-003   5.3733719338456803E-002
   2.9266001440588201E-002  -5.7807732817805784E-003   5.5984192616451718E-002
   2.9340520915808577E-002  -6.2836105109678186E-003   5.8331762210525148E-002
   6.1532343299604213E-002  -1.4527439369810810E-002   5.3068784475752959E-002
   6.0211347794783515E-002  -1.5537129044399224E-002   5.1647401359352627E-002
   5.8890352289962825E-002  -1.6149809512297501E-002   5.0672105432218041E-002
   5.7569356785142113E-002  -1.6365480773505608E-002   5.0142896694349195E-002
   5.6248361280321429E-002  -1.6184142828023607E-002   5.0059775145746194E-002
   5.2933036593856897E-002  -1.2466482155100059E-002   5.4087692008826259E-002
   5.2007258961031068E-002  -1.3320235485241638E-002   5.3338061265744474E-002
   5.1081481328205267E-002  -1.3860889453958861E-002   5.2932779077386694E-002
   5.0155703695379437E-002  -1.4088444061251891E-002   5.2871845443752910E-002
   4.9229926062553643E-002  -1.4002899307120675E-002   5.3155260364843082E-002
   4.4701297294641840E-002  -1.0405524940389314E-002   5.5304490808979395E-002
   4.4068998899269116E-002  -1.1103341926083966E-002   5.5142702593950307E-002
   4.3436700503896385E-002  -1.1571969395620220E-002   5.5223524299103412E-002
   4.2804402108523661E-002  -1.1811407348998146E-002   5.5546955924438750E-002
   4.2172103713150937E-002  -1.1821655786217689E-002   5.6112997469956225E-002
   3.6837125401959062E-002  -8.3445677256785596E-003   5.6719180876212354E-002
   3.6396567609497645E-002  -8.8864483669263226E-003   5.7061325343970057E-002
   3.5956009817036214E-002  -9.2830493372816070E-003   5.7544341097368189E-002
   3.5515452024574790E-002  -9.5343706367443902E-003   5.8168228136406729E-002
   3.5074894232113372E-002  -9.6404122653147434E-003   5.8932986461085614E-002
   2.9340520915808577E-002  -6.2836105109678186E-003   5.8331762210525148E-002
   2.8989965091716648E-002  -6.6695548077686968E-003   5.9093929515803750E-002
   2.8639409267624729E-002  -6.9941292789429572E-003   5.9895229472181018E-002
   2.8288853443532803E-002  -7.2573339244906944E-003   6.0735662079656888E-002
   2.7938297619440888E-002  -7.4591687444117843E-003   6.1615227338231368E-002
   5.6248361280321429E-002  -1.6184142828023607E-002   5.0059775145746194E-002
   5.4729804271168858E-002  -1.5812928398396320E-002   4.9761609865101836E-002
   5.3211247262016287E-002  -1.5458970207168882E-002   4.9654278669297697E-002
   5.1692690252863722E-002  -1.5122268254341091E-002   4.9737781558333735E-002
   5.0174133243711144E-002  -1.4802822539913052E-002   5.0012118532209909E-002
   4.9229926062553643E-002  -1.4002899307120675E-002   5.3155260364843082E-002
   4.7905415628551995E-002  -1.3755436682058121E-002   5.2817660513893840E-002
   4.6580905194550340E-002  -1.3497237676557423E-002   5.2677319728406224E-002
   4.5256394760548692E-002  -1.3228302290618577E-002   5.2734238008380382E-002
   4.3931884326547044E-002  -1.2948630524241389E-002   5.2988415353816196E-002
   4.2172103713150937E-002  -1.1821655786217689E-002   5.6112997469956225E-002
   4.1048064834921738E-002  -1.1697944965719964E-002   5.5763955667540062E-002
   3.9924025956692505E-002  -1.1535505145946076E-002   5.5618597911207074E-002
   3.8799987078463306E-002  -1.1334336326895979E-002   5.5676924200957330E-002
   3.7675948200234087E-002  -1.1094438508569671E-002   5.5938934536790663E-002
   3.5074894232113372E-002  -9.6404122653147434E-003   5.8932986461085614E-002
   3.4157751890278108E-002  -9.6404532493817724E-003   5.8600495326040482E-002
   3.3240609548442816E-002  -9.5737726153346456E-003   5.8478113217700065E-002
   3.2323467206607545E-002  -9.4403703631734375E-003   5.8565840136064314E-002
   3.1406324864772281E-002  -9.2402464928979799E-003   5.8863676081133173E-002
   2.7938297619440888E-002  -7.4591687444117843E-003   6.1615227338231368E-002
   2.7234476794621057E-002  -7.5829615330435807E-003   6.1327279489395176E-002
   2.6530655969801233E-002  -7.6120400847232879E-003   6.1255865647885190E-002
   2.5826835144981398E-002  -7.5464043994508583E-003   6.1400985813701389E-002
   2.5123014320161577E-002  -7.3860544772262893E-003   6.1762639986843837E-002
   5.0174133243711144E-002  -1.4802822539913052E-002   5.0012118532209909E-002
   4.8593821205688892E-002  -1.4461861100824355E-002   4.9693242135178700E-002
   4.7013509167666612E-002  -1.4060611974014495E-002   4.9583786406664221E-002
   4.5433197129644338E-002  -1.3599075159483404E-002   4.9683751346666388E-002
   4.3852885091622079E-002  -1.3077250657231254E-002   4.9993136955185147E-002
   4.3931884326547044E-002  -1.2948630524241389E-002   5.2988415353816196E-002
   4.2558307848564091E-002  -1.2641103307367146E-002   5.2705797743297395E-002
   4.1184731370581137E-002  -1.2288601569937108E-002   5.2627230584340441E-002
   3.9811154892598177E-002  -1.1891125311951120E-002   5.2752713876945689E-002
   3.8437578414615217E-002  -1.1448674533409309E-002   5.3082247621112633E-002
   3.7675948200234087E-002  -1.1094438508569671E-002   5.5938934536790663E-002
   3.6503737065335773E-002  -1.0820345513909972E-002   5.5677262545618791E-002
   3.5331525930437452E-002  -1.0516591165859769E-002   5.5614270789054322E-002
   3.4159314795539165E-002  -1.0183175464418862E-002   5.5749959267097138E-002
   3.2987103660640824E-002  -9.8200984095873911E-003   5.6084327979747176E-002
   3.1406324864772281E-002  -9.2402464928979799E-003   5.8863676081133173E-002
   3.0430108856003918E-002  -8.9995877204528361E-003   5.8607636542143085E-002
   2.9453892847235541E-002  -8.7445807617825173E-003   5.8544907020805732E-002
   2.8477676838467188E-002  -8.4752256168865621E-003   5.8675487517120900E-002
   2.7501460829698825E-002  -8.1915222857655429E-003   5.8999378031088845E-002
   2.5123014320161577E-002  -7.3860544772262893E-003   6.1762639986843837E-002
   2.4337423220568505E-002  -7.1788299269956446E-003   6.1496919732870331E-002
   2.3551832120975419E-002  -6.9725703577050713E-003   6.1419139279594637E-002
   2.2766241021382329E-002  -6.7672757693543126E-003   6.1529298627016879E-002
   2.1980649921789261E-002  -6.5629461619435836E-003   6.1827397775137183E-002
   4.3852885091622079E-002  -1.3077250657231254E-002   4.9993136955185147E-002
   4.2255505363707938E-002  -1.2541633202908964E-002   4.9777284763753760E-002
   4.0658125635793754E-002  -1.2038717532167856E-002   4.9740309161403456E-002
   3.9060745907879585E-002  -1.1568503645007961E-002   4.9882210148134237E-002
   3.7463366179965429E-002  -1.1130991541429047E-002   5.0202987723946046E-002
   3.8437578414615217E-002  -1.1448674533409309E-002   5.3082247621112633E-002
   3.7023031457705108E-002  -1.0992611447207146E-002   5.2809957690228476E-002
   3.5608484500794992E-002  -1.0554298266240325E-002   5.2724456712271606E-002
   3.4193937543884875E-002  -1.0133734990508750E-002   5.2825744687241508E-002
   3.2779390586974752E-002  -9.7309216200124338E-003   5.3113821615138640E-002
   3.2987103660640824E-002  -9.8200984095873911E-003   5.6084327979747176E-002
   3.1763301838580754E-002  -9.4435896915053552E-003   5.5770552187756117E-002
   3.0539500016520699E-002  -9.0698790003127319E-003   5.5651477712538165E-002
   2.9315698194460654E-002  -8.6989663360095924E-003   5.5727104554093326E-002
   2.8091896372400567E-002  -8.3308516985959313E-003   5.5997432712421524E-002
   2.7501460829698825E-002  -8.1915222857655429E-003   5.8999378031088845E-002
   2.6476316506334828E-002  -7.8945679358034954E-003   5.8659068256336586E-002
   2.5451172182970862E-002  -7.5854597343851422E-003   5.8521372162203565E-002
   2.4426027859606857E-002  -7.2641976815104913E-003   5.8586289748689603E-002
   2.3400883536242895E-002  -6.9307817771793456E-003   5.8853821015794755E-002
   2.1980649921789261E-002  -6.5629461619435836E-003   6.1827397775137183E-002
   2.1162075460967364E-002  -6.3455461801016910E-003   6.1475505895969840E-002
   2.0343501000145488E-002  -6.1010404684575525E-003   6.1334140061267528E-002
   1.9524926539323608E-002  -5.8294290270112653E-003   6.1403300271030331E-002
   1.8706352078501701E-002  -5.5307118557628709E-003   6.1682986525258221E-002
   3.7463366179965429E-002  -1.1130991541429047E-002   5.0202987723946046E-002
   3.5811411816263267E-002  -1.0675873503249528E-002   4.9899372855142288E-002
   3.4159457452561146E-002  -1.0152841812287594E-002   4.9827219142878354E-002
   3.2507503088858990E-002  -9.5618964685435792E-003   4.9986526587154162E-002
   3.0855548725156834E-002  -8.9030374720169281E-003   5.0377295187969739E-002
   3.2779390586974752E-002  -9.7309216200124338E-003   5.3113821615138640E-002
   3.1352319117286670E-002  -9.3135157482483466E-003   5.2857534142502244E-002
   2.9925247647598609E-002  -8.8491749687135968E-003   5.2819551301354087E-002
   2.8498176177910523E-002  -8.3378992814082051E-003   5.2999873091694398E-002
   2.7071104708222465E-002  -7.7796886863319425E-003   5.3398499513523046E-002
   2.8091896372400567E-002  -8.3308516985959313E-003   5.5997432712421524E-002
   2.6876551271675118E-002  -7.9511579932473736E-003   5.5767493890940878E-002
   2.5661206170949680E-002  -7.5455081251397105E-003   5.5742703175896968E-002
   2.4445861070224235E-002  -7.1139020942728864E-003   5.5923060567290087E-002
   2.3230515969498794E-002  -6.6563399006469570E-003   5.6308566065120164E-002
   2.3400883536242895E-002  -6.9307817771793456E-003   5.8853821015794755E-002
   2.2384108279428640E-002  -6.5888002382463798E-003   5.8629252100458058E-002
   2.1367333022614385E-002  -6.2418412815656854E-003   5.8596674766507137E-002
   2.0350557765800116E-002  -5.8899049071377066E-003   5.8756089013941241E-002
   1.9333782508985878E-002  -5.5329911149619715E-003   5.9107494842761107E-002
   1.8706352078501701E-002  -5.5307118557628709E-003   6.1682986525258221E-002
   1.7874990140547206E-002  -5.2264424832452472E-003   6.1442808771054291E-002
   1.7043628202592691E-002  -4.9381744379917852E-003   6.1381466073184204E-002
   1.6212266264638172E-002  -4.6659077200022943E-003   6.1498958431648085E-002
   1.5380904326683667E-002  -4.4096423292769860E-003   6.1795285846446113E-002
   3.0855548725156834E-002  -8.9030374720169281E-003   5.0377295187969739E-002
   2.8988283834348150E-002  -8.2601800881985099E-003   5.0454100187965034E-002
   2.7121018943539410E-002  -7.7172395825789719E-003   5.0946605828589342E-002
   2.5253754052730684E-002  -7.2742159551580088E-003   5.1854812109842524E-002
   2.3386489161921931E-002  -6.9311092059356483E-003   5.3178719031724331E-002
   2.7071104708222465E-002  -7.7796886863319425E-003   5.3398499513523046E-002
   2.5579120546807083E-002  -7.2289322335757356E-003   5.3297859845188700E-002
   2.4087136385391714E-002  -6.7400189732303717E-003   5.3532080995012277E-002
   2.2595152223976261E-002  -6.3129489052959828E-003   5.4101162962993596E-002
   2.1103168062560962E-002  -5.9477220297723399E-003   5.5005105749132754E-002
   2.3230515969498794E-002  -6.6563399006469570E-003   5.6308566065120164E-002
   2.2032972715005678E-002  -6.1976843789528502E-003   5.6068555414244159E-002
   2.0835429460512603E-002  -5.7627983638819935E-003   5.6082565759054820E-002
   1.9637886206019518E-002  -5.3516818554339013E-003   5.6350597099552271E-002
   1.8440342951526384E-002  -4.9643348536089205E-003   5.6872649435736666E-002
   1.9333782508985878E-002  -5.5329911149619715E-003   5.9107494842761107E-002
   1.8349840338943962E-002  -5.1664365243300758E-003   5.8766186895131266E-002
   1.7365898168902015E-002  -4.7855777545333378E-003   5.8598060120716972E-002
   1.6381955998860057E-002  -4.3904148055718475E-003   5.8603114519518253E-002
   1.5398013828818190E-002  -3.9809476774455010E-003   5.8781350091535400E-002
   1.5380904326683667E-002  -4.4096423292769860E-003   6.1795285846446113E-002
   1.4529723418621840E-002  -4.1351886697070794E-003   6.1390754287850069E-002
   1.3678542510560034E-002  -3.8083571451850706E-003   6.1078564079998676E-002
   1.2827361602498252E-002  -3.4291477557098077E-003   6.0858715222891852E-002
   1.1976180694436456E-002  -2.9975605012821926E-003   6.0731207716529623E-002
   2.6634040612737421E-002   0.0000000000000000        2.9464679779457333E-002
   2.7236141213284840E-002  -5.8680232006295702E-004   3.4941128673258881E-002
   2.7838241813832251E-002  -1.3220306533075869E-003   4.0109841963066946E-002
   2.8440342414379666E-002  -2.2056849997338941E-003   4.4970819648881520E-002
   2.9042443014927075E-002  -3.2377653593418688E-003   4.9524061730702604E-002
   2.0116715350858815E-002   0.0000000000000000        2.9016164130022989E-002
   2.0450382960839286E-002  -4.4010174025192750E-004   3.4307919614496744E-002
   2.0784050570819758E-002  -9.9152299021457602E-004   3.9370544721830096E-002
   2.1117718180800236E-002  -1.6542637498879421E-003   4.4204039452023065E-002
   2.1451385790780705E-002  -2.4283240192720370E-003   4.8808403805075631E-002
   1.3505266827672072E-002   0.0000000000000000        2.8695795808664201E-002
   1.3649106673938687E-002  -2.9340116044089754E-004   3.3839964387281124E-002
   1.3792946520205301E-002  -6.6101532712156165E-004   3.8833607815610731E-002
   1.3936786366471917E-002  -1.1028425000419945E-003   4.3676726093653022E-002
   1.4080626212738536E-002  -1.6188826792021948E-003   4.8369319221407997E-002
   6.7996950431771985E-003   0.0000000000000000        2.8503574815380964E-002
   6.8323123525830384E-003  -1.4670058062986649E-004   3.3537262991611999E-002
   6.8649296619888800E-003  -3.3050766402855074E-004   3.8499031244408809E-002
   6.8975469713947225E-003  -5.5142125019604646E-004   4.3388879573771383E-002
   6.9301642808005633E-003  -8.0944133913236297E-004   4.8206807979699728E-002
  -2.6258127616696214E-012   0.0000000000000000        2.8439501150173276E-002
  -3.2276603265102288E-012  -8.1883805291838030E-013   3.3399815427489384E-002
  -3.8295074576699673E-012  -9.3553637059429207E-013   3.8366815008224350E-002
  -4.4313552393510092E-012  -3.5009842247468725E-013   4.3340499892378162E-002
  -5.0332030210320511E-012   9.3747926088738609E-013   4.8320870079950826E-002
   2.9042443014927075E-002  -3.2377653593418688E-003   4.9524061730702604E-002
   2.9116962490147454E-002  -4.2578507059675965E-003   5.1580342376540467E-002
   2.9191481965367822E-002  -5.1055200134471667E-003   5.3733719338456803E-002
   2.9266001440588201E-002  -5.7807732817805784E-003   5.5984192616451718E-002
   2.9340520915808577E-002  -6.2836105109678186E-003   5.8331762210525148E-002
   2.1451385790780705E-002  -2.4283240192720370E-003   4.8808403805075631E-002
   2.1594070036005809E-002  -3.1933880291460551E-003   5.1206914584882357E-002
   2.1736754281230918E-002  -3.8291400102892434E-003   5.3644658588620033E-002
   2.1879438526456029E-002  -4.3355799627015808E-003   5.6121635816288651E-002
   2.2022122771681134E-002  -4.7127078863831162E-003   5.8637846267888191E-002
   1.4080626212738536E-002  -1.6188826792021948E-003   4.8369319221407997E-002
   1.4233612135820774E-002  -2.1289253523245131E-003   5.1066956124768324E-002
   1.4386598058903022E-002  -2.5527600071313197E-003   5.3745963159911994E-002
   1.4539583981985264E-002  -2.8903866436226105E-003   5.6406340326838986E-002
   1.4692569905067508E-002  -3.1418052617983722E-003   5.9048087625549334E-002
   6.9301642808005633E-003  -8.0944133913236297E-004   4.8206807979699728E-002
   7.0355887895923452E-003  -1.0644626755029784E-003   5.1160466996198327E-002
   7.1410132983841272E-003  -1.2763800039734066E-003   5.4037633052332633E-002
   7.2464378071759143E-003  -1.4451933245436196E-003   5.6838306148102702E-002
   7.3518623159676971E-003  -1.5709026372136489E-003   5.9562486283508492E-002
  -5.0332030210320511E-012   9.3747926088738609E-013   4.8320870079950826E-002
  -2.6794781671224399E-012   1.3185745897925649E-012   5.1487447199172351E-002
  -3.2575461425543573E-013  -8.1546921992803334E-013   5.4519668265882032E-002
   2.0279700228137409E-012  -5.4646452293805048E-012   5.7417533280079855E-002
   4.3816946598829176E-012  -1.2628925682989234E-011   6.0181042241765806E-002
   2.9340520915808577E-002  -6.2836105109678186E-003   5.8331762210525148E-002
   2.8989965091716648E-002  -6.6695548077686968E-003   5.9093929515803750E-002
   2.8639409267624729E-002  -6.9941292789429572E-003   5.9895229472181018E-002
   2.8288853443532803E-002  -7.2573339244906944E-003   6.0735662079656888E-002
   2.7938297619440888E-002  -7.4591687444117843E-003   6.1615227338231368E-002
   2.2022122771681134E-002  -4.7127078863831162E-003   5.8637846267888191E-002
   2.1722826174701199E-002  -5.0021661099861753E-003   5.9454684025220320E-002
   2.1423529577721267E-002  -5.2455969621631529E-003   6.0334907585677881E-002
   2.1124232980741321E-002  -5.4430004429141410E-003   6.1278516949260765E-002
   2.0824936383761396E-002  -5.5943765522390443E-003   6.2285512115969027E-002
   1.4692569905067508E-002  -3.1418052617983722E-003   5.9048087625549334E-002
   1.4468785687226324E-002  -3.3347774122036104E-003   5.9904253380734442E-002
   1.4245001469385139E-002  -3.4970646453833468E-003   6.0848058091071681E-002
   1.4021217251543958E-002  -3.6286669613375595E-003   6.1879501756561081E-002
   1.3797433033702771E-002  -3.7295843600662695E-003   6.2998584377202585E-002
   7.3518623159676971E-003  -1.5709026372136489E-003   5.9562486283508492E-002
   7.2278436292920242E-003  -1.6673887144210810E-003   6.0442637582346082E-002
   7.1038249426163581E-003  -1.7485323286035555E-003   6.1434680988362557E-002
   6.9798062559406878E-003  -1.8143334797610267E-003   6.2538616501557939E-002
   6.8557875692650183E-003  -1.8647921678934982E-003   6.3754444121932180E-002
   4.3816946598829176E-012  -1.2628925682989234E-011   6.0181042241765806E-002
   8.9830400062940186E-013  -1.6638513483657746E-011   6.1069836630055274E-002
  -2.5850875259858519E-012  -1.1823726026038983E-011   6.2094776277550397E-002
  -6.0684812210054506E-012   1.8155641920425403E-012   6.3255861184251222E-002
  -9.5518697118546214E-012   2.4279259158710431E-011   6.4553091350157646E-002
   2.7938297619440888E-002  -7.4591687444117843E-003   6.1615227338231368E-002
   2.7234476794621057E-002  -7.5829615330435807E-003   6.1327279489395176E-002
   2.6530655969801233E-002  -7.6120400847232879E-003   6.1255865647885190E-002
   2.5826835144981398E-002  -7.5464043994508583E-003   6.1400985813701389E-002
   2.5123014320161577E-002  -7.3860544772262893E-003   6.1762639986843837E-002
   2.0824936383761396E-002  -5.5943765522390443E-003   6.2285512115969027E-002
   2.0327504866134792E-002  -5.6872211401351250E-003   6.2156152406812583E-002
   1.9830073348508184E-002  -5.7090300565995900E-003   6.2223037304716400E-002
   1.9332641830881580E-002  -5.6598033016325225E-003   6.2486166809680409E-002
   1.8835210313254976E-002  -5.5395408752338116E-003   6.2945540921704790E-002
   1.3797433033702771E-002  -3.7295843600662695E-003   6.2998584377202585E-002
   1.3486101423003424E-002  -3.7914807472266693E-003   6.3004134242205412E-002
   1.3174769812304090E-002  -3.8060200284759736E-003   6.3185639314002506E-002
   1.2863438201604755E-002  -3.7732022038141863E-003   6.3543099592593827E-002
   1.2552106590905405E-002  -3.6930272732413061E-003   6.4076515077979512E-002
   6.8557875692650183E-003  -1.8647921678934982E-003   6.3754444121932180E-002
   6.7102664652269779E-003  -1.8957403543182691E-003   6.3871224995573711E-002
   6.5647453611889454E-003  -1.9030100003523441E-003   6.4143671675743585E-002
   6.4192242571509068E-003  -1.8866011059958919E-003   6.4571784162441734E-002
   6.2737031531128725E-003  -1.8465136712487867E-003   6.5155562455668309E-002
  -9.5518697118546214E-012   2.4279259158710431E-011   6.4553091350157646E-002
  -7.1945591845201662E-012   3.8590242112945816E-011   6.4757424666917418E-002
  -4.8372486571857110E-012   2.7771323435343831E-011   6.5097134389939582E-002
  -2.4799381298512557E-012  -8.1775324359267820E-012   6.5572220519224053E-002
  -1.2262760251680049E-013  -6.9256295143205193E-011   6.6182683054770958E-002
   2.5123014320161577E-002  -7.3860544772262893E-003   6.1762639986843837E-002
   2.4337423220568505E-002  -7.1788299269956446E-003   6.1496919732870331E-002
   2.3551832120975419E-002  -6.9725703577050713E-003   6.1419139279594637E-002
   2.2766241021382329E-002  -6.7672757693543126E-003   6.1529298627016879E-002
   2.1980649921789261E-002  -6.5629461619435836E-003   6.1827397775137183E-002
   1.8835210313254976E-002  -5.5395408752338116E-003   6.2945540921704790E-002
   1.8239673507309026E-002  -5.3841224779594271E-003   6.2685791089927292E-002
   1.7644136701363070E-002  -5.2294278103652628E-003   6.2618210044746214E-002
   1.7048599895417113E-002  -5.0754568724511676E-003   6.2742797786161278E-002
   1.6453063089471157E-002  -4.9222096642173585E-003   6.3059554314173039E-002
   1.2552106590905405E-002  -3.6930272732413061E-003   6.4076515077979512E-002
   1.2150853064504953E-002  -3.5894150289230708E-003   6.3822976919657992E-002
   1.1749599538104500E-002  -3.4862852630252600E-003   6.3765836533831180E-002
   1.1348346011704039E-002  -3.3836379755479672E-003   6.3905093920499090E-002
   1.0947092485303584E-002  -3.2814731664910501E-003   6.4240749079661541E-002
   6.2737031531128725E-003  -1.8465136712487867E-003   6.5155562455668309E-002
   6.0709618921562930E-003  -1.7947075798867285E-003   6.4908477222062472E-002
   5.8682206311997092E-003  -1.7431427156854098E-003   6.4862018746849645E-002
   5.6654793702431263E-003  -1.6918190786447667E-003   6.5016187030029857E-002
   5.4627381092865546E-003  -1.6407366687648112E-003   6.5370982071603273E-002
  -1.2262760251680049E-013  -6.9256295143205193E-011   6.6182683054770958E-002
  -9.7369577678474428E-012  -1.3085046934868672E-010   6.5942291997140495E-002
  -1.9351296606795465E-011  -1.6834549726452153E-010   6.5906756683801540E-002
  -2.8965631976296535E-011  -1.8174166165063621E-010   6.6076077114753884E-002
  -3.8579965611074130E-011  -1.7103851668309744E-010   6.6450253289997818E-002
   2.1980649921789261E-002  -6.5629461619435836E-003   6.1827397775137183E-002
   2.1162075460967364E-002  -6.3455461801016910E-003   6.1475505895969840E-002
   2.0343501000145488E-002  -6.1010404684575525E-003   6.1334140061267528E-002
   1.9524926539323608E-002  -5.8294290270112653E-003   6.1403300271030331E-002
   1.8706352078501701E-002  -5.5307118557628709E-003   6.1682986525258221E-002
   1.6453063089471157E-002  -4.9222096642173585E-003   6.3059554314173039E-002
   1.5843544074588919E-002  -4.7591596591025631E-003   6.2751525591252688E-002
   1.5234025059706668E-002  -4.5757803305459671E-003   6.2651081715746570E-002
   1.4624506044824417E-002  -4.3720716785470605E-003   6.2758222687654658E-002
   1.4014987029942187E-002  -4.1480337031066239E-003   6.3072948506976784E-002
   1.0947092485303584E-002  -3.2814731664910501E-003   6.4240749079661541E-002
   1.0543687719310028E-002  -3.1727731381034630E-003   6.3969807106628265E-002
   1.0140282953316477E-002  -3.0505201926341596E-003   6.3903508783958146E-002
   9.7368781873229289E-003  -2.9147143300830222E-003   6.4041854111651267E-002
   9.3334734213293587E-003  -2.7653555504502381E-003   6.4384843089707586E-002
   5.4627381092865546E-003  -1.6407366687648112E-003   6.5370982071603273E-002
   5.2625063951307399E-003  -1.5863866171044044E-003   6.5130350442096696E-002
   5.0622746809749208E-003  -1.5252600547224077E-003   6.5091421265902227E-002
   4.8620429668191061E-003  -1.4573569816189562E-003   6.5254194543020075E-002
   4.6618112526632888E-003  -1.3826773977940326E-003   6.5618670273450336E-002
  -3.8579965611074130E-011  -1.7103851668309744E-010   6.6450253289997818E-002
   1.0205101347304790E-010  -9.6105234881349588E-011   6.6233155597657689E-002
   2.4268199602661689E-010   8.3189288790919136E-011   6.6214819161578814E-002
   3.8331297597810066E-010   3.6684520698937462E-010   6.6395243981761248E-002
   5.2394395766430790E-010   7.5486233930277535E-010   6.6774430058205048E-002
   1.8706352078501701E-002  -5.5307118557628709E-003   6.1682986525258221E-002
   1.7874990140547206E-002  -5.2264424832452472E-003   6.1442808771054291E-002
   1.7043628202592691E-002  -4.9381744379917852E-003   6.1381466073184204E-002
   1.6212266264638172E-002  -4.6659077200022943E-003   6.1498958431648085E-002
   1.5380904326683667E-002  -4.4096423292769860E-003   6.1795285846446113E-002
   1.4014987029942187E-002  -4.1480337031066239E-003   6.3072948506976784E-002
   1.3369711498886556E-002  -3.9198315601242373E-003   6.2835872385473002E-002
   1.2724435967830915E-002  -3.7036304055010072E-003   6.2792134021432786E-002
   1.2079160436775279E-002  -3.4994302392365936E-003   6.2941733414856343E-002
   1.1433884905719657E-002  -3.3072310613308509E-003   6.3284670565743828E-002
   9.3334734213293587E-003  -2.7653555504502381E-003   6.4384843089707586E-002
   8.8887869983023601E-003  -2.6132206370033245E-003   6.4154868939808984E-002
   8.4441005752753703E-003  -2.4690863730102222E-003   6.4132735248503880E-002
   7.9994141522483804E-003  -2.3329527584707247E-003   6.4318442015792357E-002
   7.5547277292213645E-003  -2.2048197933849378E-003   6.4711989241674317E-002
   4.6618112526632888E-003  -1.3826773977940326E-003   6.5618670273450336E-002
   4.4322166387946648E-003  -1.3066097138825297E-003   6.5399798434062240E-002
   4.2026220249260348E-003  -1.2345423405193574E-003   6.5403269754397295E-002
   3.9730274110574056E-003  -1.1664752777049954E-003   6.5629084234455695E-002
   3.7434327971887791E-003  -1.1024085254390248E-003   6.6077241874237316E-002
   5.2394395766430790E-010   7.5486233930277535E-010   6.6774430058205048E-002
   4.2036344197193820E-010   1.2092385981432585E-009   6.6570660868232712E-002
   3.1678291934067460E-010   1.6919713685670246E-009   6.6603737539113278E-002
   2.1320239497468751E-010   2.2030609073131480E-009   6.6873660070846830E-002
   1.0962188101704129E-010   2.7425070547870689E-009   6.7380428463433339E-002
   1.5380904326683667E-002  -4.4096423292769860E-003   6.1795285846446113E-002
   1.4529723418621840E-002  -4.1351886697070794E-003   6.1390754287850069E-002
   1.3678542510560034E-002  -3.8083571451850706E-003   6.1078564079998676E-002
   1.2827361602498252E-002  -3.4291477557098077E-003   6.0858715222891852E-002
   1.1976180694436456E-002  -2.9975605012821926E-003   6.0731207716529623E-002
   1.1433884905719657E-002  -3.3072310613308509E-003   6.3284670565743828E-002
   1.0705158755646385E-002  -3.1013909893783664E-003   6.3023944979560348E-002
   9.9764326055730781E-003  -2.8562681409728813E-003   6.2915787558609076E-002
   9.2477064554997886E-003  -2.5718625161141422E-003   6.2960198302890485E-002
   8.5189803054264990E-003  -2.2481741148029366E-003   6.3157177212404325E-002
   7.5547277292213645E-003  -2.2048197933849378E-003   6.4711989241674317E-002
   7.0086831516244959E-003  -2.0675933090494314E-003   6.4581974539403300E-002
   6.4626385740276324E-003  -1.9041791367606919E-003   6.4664754816852910E-002
   5.9165939964307404E-003  -1.7145772765186987E-003   6.4960330074022909E-002
   5.3705494188338865E-003  -1.4987877283236806E-003   6.5468700310913008E-002
   3.7434327971887791E-003  -1.1024085254390248E-003   6.6077241874237316E-002
   3.4402966065562165E-003  -1.0337956287204408E-003   6.6064842967379481E-002
   3.1371604159236570E-003  -9.5209013254855812E-004   6.6325465854729843E-002
   2.8340242252910871E-003  -8.5729203692319969E-004   6.6859110536288541E-002
   2.5308880346585350E-003  -7.4940134184442453E-004   6.7665777012055284E-002
   1.0962188101704129E-010   2.7425070547870689E-009   6.7380428463433339E-002
  -8.7955846425624706E-010   2.0516083276689301E-009   6.7472550263488751E-002
  -1.8687388199378763E-009  -1.1283364104164306E-009   6.7897920672240181E-002
  -2.8579191773542290E-009  -6.7973275584554127E-009   6.8656539689687948E-002
  -3.8470995139538999E-009  -1.4955365168489720E-008   6.9748407315831651E-002
  -2.6258127616696214E-012   0.0000000000000000        2.8439501150173276E-002
  -3.2276603265102288E-012  -8.1883805291838030E-013   3.3399815427489384E-002
  -3.8295074576699673E-012  -9.3553637059429207E-013   3.8366815008224350E-002
  -4.4313552393510092E-012  -3.5009842247468725E-013   4.3340499892378162E-002
  -5.0332030210320511E-012   9.3747926088738609E-013   4.8320870079950826E-002
  -6.7996950487666805E-003   0.0000000000000000        2.8503574813662141E-002
  -6.8323123591920694E-003   1.4670057979599554E-004   3.3537262990367703E-002
  -6.8649296696174566E-003   3.3050766288869517E-004   3.8499031244007317E-002
  -6.8975469800428473E-003   5.5142124927809195E-004   4.3388879574580999E-002
  -6.9301642904682353E-003   8.0944133896419454E-004   4.8206807982088748E-002
  -1.3505266834275130E-002   0.0000000000000000        2.8695795806468569E-002
  -1.3649106681008849E-002   2.9340116041082914E-004   3.3839964385158135E-002
  -1.3792946527742571E-002   6.6101532671292672E-004   3.8833607814296962E-002
  -1.3936786374476290E-002   1.1028424989062893E-003   4.3676726093885072E-002
  -1.4080626221210011E-002   1.6188826769909237E-003   4.8369319223922458E-002
  -2.0116715359151164E-002   0.0000000000000000        2.9016164128592536E-002
  -2.0450382968677999E-002   4.4010174102566274E-004   3.4307919611860679E-002
  -2.0784050578204840E-002   9.9152299053715826E-004   3.9370544719093299E-002
  -2.1117718187731681E-002   1.6542637485344848E-003   4.4204039450290396E-002
  -2.1451385797258513E-002   2.4283240150176407E-003   4.8808403805452004E-002
  -2.6634040623394778E-002   0.0000000000000000        2.9464679780034059E-002
  -2.7236141222199521E-002   5.8680232164049634E-004   3.4941128670475330E-002
  -2.7838241821004271E-002   1.3220306543613915E-003   4.0109841958396300E-002
  -2.8440342419809018E-002   2.2056849981626804E-003   4.4970819643796962E-002
  -2.9042443018613768E-002   3.2377653530443707E-003   4.9524061726677331E-002
  -5.0332030210320511E-012   9.3747926088738609E-013   4.8320870079950826E-002
  -2.6794781671224399E-012   1.3185745897925649E-012   5.1487447199172351E-002
  -3.2575461425543573E-013  -8.1546921992803334E-013   5.4519668265882032E-002
   2.0279700228137409E-012  -5.4646452293805048E-012   5.7417533280079855E-002
   4.3816946598829176E-012  -1.2628925682989234E-011   6.0181042241765806E-002
  -6.9301642904682353E-003   8.0944133896419454E-004   4.8206807982088748E-002
  -7.0355887949038291E-003   1.0644626750103345E-003   5.1160466995180190E-002
  -7.1410132993394212E-003   1.2763800004798034E-003   5.4037633047204846E-002
  -7.2464378037750141E-003   1.4451933153726228E-003   5.6838306138162757E-002
  -7.3518623082106079E-003   1.5709026196887715E-003   5.9562486268053855E-002
  -1.4080626221210011E-002   1.6188826769909237E-003   4.8369319223922458E-002
  -1.4233612140989834E-002   2.1289253487020939E-003   5.1066956122822298E-002
  -1.4386598060769668E-002   2.5527600017750760E-003   5.3745963152100416E-002
  -1.4539583980549499E-002   2.8903866362098769E-003   5.6406340311756863E-002
  -1.4692569900329326E-002   3.1418052520064826E-003   5.9048087601791574E-002
  -2.1451385797258513E-002   2.4283240150176407E-003   4.8808403805452004E-002
  -2.1594070040937507E-002   3.1933880223938534E-003   5.1206914582098667E-002
  -2.1736754284616487E-002   3.8291400030703486E-003   5.3644658580568716E-002
  -2.1879438528295478E-002   4.3355799570471308E-003   5.6121635800862178E-002
  -2.2022122771974465E-002   4.7127078843241868E-003   5.8637846242978998E-002
  -2.9042443018613768E-002   3.2377653530443707E-003   4.9524061726677331E-002
  -2.9116962494746823E-002   4.2578506960856194E-003   5.1580342373009319E-002
  -2.9191481970879885E-002   5.1055200043656273E-003   5.3733719332609779E-002
  -2.9266001447012947E-002   5.7807732778843938E-003   5.5984192605478697E-002
  -2.9340520923146006E-002   6.2836105166418771E-003   5.8331762191616093E-002
   4.3816946598829176E-012  -1.2628925682989234E-011   6.0181042241765806E-002
   8.9830400062940186E-013  -1.6638513483657746E-011   6.1069836630055274E-002
  -2.5850875259858519E-012  -1.1823726026038983E-011   6.2094776277550397E-002
  -6.0684812210054506E-012   1.8155641920425403E-012   6.3255861184251222E-002
  -9.5518697118546214E-012   2.4279259158710431E-011   6.4553091350157646E-002
  -7.3518623082106079E-003   1.5709026196887715E-003   5.9562486268053855E-002
  -7.2278436274817994E-003   1.6673886911182864E-003   6.0442637578637361E-002
  -7.1038249467529919E-003   1.7485323073511902E-003   6.1434680998439579E-002
  -6.9798062660241800E-003   1.8143334683873493E-003   6.2538616527460525E-002
  -6.8557875852953715E-003   1.8647921742269147E-003   6.3754444165700253E-002
  -1.4692569900329326E-002   3.1418052520064826E-003   5.9048087601791574E-002
  -1.4468785685375235E-002   3.3347773988751436E-003   5.9904253370648010E-002
  -1.4245001470421150E-002   3.4970646265260249E-003   6.0848058098736245E-002
  -1.4021217255467068E-002   3.6286669349591765E-003   6.1879501786056237E-002
  -1.3797433040512976E-002   3.7295843241745633E-003   6.2998584432608168E-002
  -2.2022122771974465E-002   4.7127078843241868E-003   5.8637846242978998E-002
  -2.1722826172782012E-002   5.0021661066319790E-003   5.9454684006087236E-002
  -2.1423529573589572E-002   5.2455969457009281E-003   6.0334907578440372E-002
  -2.1124232974397132E-002   5.4430004015309690E-003   6.1278516960038408E-002
  -2.0824936375204689E-002   5.5943764741222153E-003   6.2285512150881329E-002
  -2.9340520923146006E-002   6.2836105166418771E-003   5.8331762191616093E-002
  -2.8989965089702127E-002   6.6695548143887937E-003   5.9093929484955086E-002
  -2.8639409256258252E-002   6.9941292648757966E-003   5.9895229437552003E-002
  -2.8288853422814376E-002   7.2573338681027940E-003   6.0735662049406926E-002
  -2.7938297589370491E-002   7.4591686240698812E-003   6.1615227320519814E-002
  -9.5518697118546214E-012   2.4279259158710431E-011   6.4553091350157646E-002
  -7.1945591845201662E-012   3.8590242112945816E-011   6.4757424666917418E-002
  -4.8372486571857110E-012   2.7771323435343831E-011   6.5097134389939582E-002
  -2.4799381298512557E-012  -8.1775324359267820E-012   6.5572220519224053E-002
  -1.2262760251680049E-013  -6.9256295143205193E-011   6.6182683054770958E-002
  -6.8557875852953715E-003   1.8647921742269147E-003   6.3754444165700253E-002
  -6.7102664746680292E-003   1.8957403734139455E-003   6.3871225013374403E-002
  -6.5647453640406894E-003   1.9030100144924456E-003   6.4143671671326286E-002
  -6.4192242534133487E-003   1.8866010974626091E-003   6.4571784139555860E-002
  -6.2737031427860072E-003   1.8465136223243805E-003   6.5155562418063084E-002
  -1.3797433040512976E-002   3.7295843241745633E-003   6.2998584432608168E-002
  -1.3486101417600281E-002   3.7914807082376212E-003   6.3004134278218160E-002
  -1.3174769794687586E-002   3.8060200012136804E-003   6.3185639338121186E-002
  -1.2863438171774889E-002   3.7732022031028065E-003   6.3543099612317258E-002
  -1.2552106548862196E-002   3.6930273139049591E-003   6.4076515100806308E-002
  -2.0824936375204689E-002   5.5943764741222153E-003   6.2285512150881329E-002
  -2.0327504835991304E-002   5.6872210430613385E-003   6.2156152461448719E-002
  -1.9830073296777932E-002   5.7090299879348589E-003   6.2223037390324372E-002
  -1.9332641757564554E-002   5.6598033087430178E-003   6.2486166937508476E-002
  -1.8835210218351175E-002   5.5395410054855723E-003   6.2945541103000824E-002
  -2.7938297589370491E-002   7.4591686240698812E-003   6.1615227320519814E-002
  -2.7234476729841105E-002   7.5829613778850211E-003   6.1327279563065981E-002
  -2.6530655870311729E-002   7.6120399746560409E-003   6.1255865827935817E-002
  -2.5826835010782347E-002   7.5464044143831602E-003   6.1400986115129286E-002
  -2.5123014151252964E-002   7.3860546970662133E-003   6.1762640424646520E-002
  -1.2262760251680049E-013  -6.9256295143205193E-011   6.6182683054770958E-002
  -9.7369577678474428E-012  -1.3085046934868672E-010   6.5942291997140495E-002
  -1.9351296606795465E-011  -1.6834549726452153E-010   6.5906756683801540E-002
  -2.8965631976296535E-011  -1.8174166165063621E-010   6.6076077114753884E-002
  -3.8579965611074130E-011  -1.7103851668309744E-010   6.6450253289997818E-002
  -6.2737031427860072E-003   1.8465136223243805E-003   6.5155562418063084E-002
  -6.0709619003823751E-003   1.7947074866037777E-003   6.4908477235267922E-002
  -5.8682206579787344E-003   1.7431425878273663E-003   6.4862018812217259E-002
  -5.6654794155750953E-003   1.6918189259947630E-003   6.5016187148911109E-002
  -5.4627381731714546E-003   1.6407365011062436E-003   6.5370982245349540E-002
  -1.2552106548862196E-002   3.6930273139049591E-003   6.4076515100806308E-002
  -1.2150853038987504E-002   3.5894151040580663E-003   6.3822977005691395E-002
  -1.1749599529112816E-002   3.4862853440001153E-003   6.3765836685773958E-002
  -1.1348346019238134E-002   3.3836380337310757E-003   6.3905094141054206E-002
  -1.0947092509363435E-002   3.2814731732509483E-003   6.4240749371531930E-002
  -1.8835210218351175E-002   5.5395410054855723E-003   6.2945541103000824E-002
  -1.8239673425552359E-002   5.3841227215123480E-003   6.2685791308410968E-002
  -1.7644136632753535E-002   5.2294281001729215E-003   6.2618210304471844E-002
  -1.7048599839954721E-002   5.0754571414673606E-003   6.2742798091183299E-002
  -1.6453063047155901E-002   4.9222098453957364E-003   6.3059554668545501E-002
  -2.5123014151252964E-002   7.3860546970662133E-003   6.1762640424646520E-002
  -2.4337423060076940E-002   7.1788303389666158E-003   6.1496920143426698E-002
  -2.3551831968900913E-002   6.9725708563457695E-003   6.1419139668310585E-002
  -2.2766240877724882E-002   6.7672762492037401E-003   6.1529298999298307E-002
  -2.1980649786548862E-002   6.5629465175404134E-003   6.1827398136389766E-002
  -3.8579965611074130E-011  -1.7103851668309744E-010   6.6450253289997818E-002
   1.0205101347304790E-010  -9.6105234881349588E-011   6.6233155597657689E-002
   2.4268199602661689E-010   8.3189288790919136E-011   6.6214819161578814E-002
   3.8331297597810066E-010   3.6684520698937462E-010   6.6395243981761248E-002
   5.2394395766430790E-010   7.5486233930277535E-010   6.6774430058205048E-002
  -5.4627381731714546E-003   1.6407365011062436E-003   6.5370982245349540E-002
  -5.2625062293960986E-003   1.5863865070250699E-003   6.5130350762807945E-002
  -5.0622742856207426E-003   1.5252601376145730E-003   6.5091421630293828E-002
  -4.8620423418453875E-003   1.4573573928751311E-003   6.5254194847807090E-002
  -4.6618103980700237E-003   1.3826782728060816E-003   6.5618670415347857E-002
  -1.0947092509363435E-002   3.2814731732509483E-003   6.4240749371531930E-002
  -1.0543687668677592E-002   3.1727731101554024E-003   6.3969807619098443E-002
  -1.0140282827991740E-002   3.0505201920400238E-003   6.3903509310458476E-002
  -9.7368779873058947E-003   2.9147144189047777E-003   6.4041854445612154E-002
  -9.3334731466200513E-003   2.7653557907497406E-003   6.4384843024559241E-002
  -1.6453063047155901E-002   4.9222098453957364E-003   6.3059554668545501E-002
  -1.5843544215793461E-002   4.7591597132857211E-003   6.2751526166529389E-002
  -1.5234025384430996E-002   4.5757802464654468E-003   6.2651082202073022E-002
  -1.4624506553068546E-002   4.3720714449345353E-003   6.2758222775176203E-002
  -1.4014987721706097E-002   4.1480333086934412E-003   6.3072947885839059E-002
  -2.1980649786548862E-002   6.5629465175404134E-003   6.1827398136389766E-002
  -2.1162075870743695E-002   6.3455463164160952E-003   6.1475506405100577E-002
  -2.0343501954938517E-002   6.1010403008907588E-003   6.1334140305137175E-002
  -1.9524928039133336E-002   5.8294284709644040E-003   6.1403299836499531E-002
  -1.8706354123328175E-002   5.5307108266371419E-003   6.1682984999187729E-002
   5.2394395766430790E-010   7.5486233930277535E-010   6.6774430058205048E-002
   4.2036344197193820E-010   1.2092385981432585E-009   6.6570660868232712E-002
   3.1678291934067460E-010   1.6919713685670246E-009   6.6603737539113278E-002
   2.1320239497468751E-010   2.2030609073131480E-009   6.6873660070846830E-002
   1.0962188101704129E-010   2.7425070547870689E-009   6.7380428463433339E-002
  -4.6618103980700237E-003   1.3826782728060816E-003   6.5618670415347857E-002
  -4.4322159381675868E-003   1.3066111613087017E-003   6.5399798311883861E-002
  -4.2026214782651568E-003   1.2345444422832974E-003   6.5403269474532649E-002
  -3.9730270183627276E-003   1.1664781157304169E-003   6.5629083903294430E-002
  -3.7434325584602898E-003   1.1024121816495813E-003   6.6077241598169301E-002
  -9.3334731466200513E-003   2.7653557907497406E-003   6.4384843024559241E-002
  -8.8887867179747067E-003   2.6132211133786942E-003   6.4154868371719048E-002
  -8.4441002893293794E-003   2.4690871925954344E-003   6.4132734390251939E-002
  -7.9994138606840383E-003   2.3329540283998675E-003   6.4318441080157551E-002
  -7.5547274320387093E-003   2.2048216207920246E-003   6.4711988441436122E-002
  -1.4014987721706097E-002   4.1480333086934412E-003   6.3072947885839059E-002
  -1.3369711919057911E-002   3.9198310654487978E-003   6.2835871047738523E-002
  -1.2724436116409736E-002   3.7036299429073563E-003   6.2792132286270716E-002
  -1.2079160313761557E-002   3.4994299410692365E-003   6.2941731601435694E-002
  -1.1433884511113376E-002   3.3072310599345095E-003   6.3284668993233484E-002
  -1.8706354123328175E-002   5.5307108266371419E-003   6.1682984999187729E-002
  -1.7874991541417192E-002   5.2264410175188458E-003   6.1442806339942091E-002
  -1.7043628959506223E-002   4.9381726932195280E-003   6.1381463162589189E-002
  -1.6212266377595246E-002   4.6659058537388345E-003   6.1498955467129135E-002
  -1.5380903795684277E-002   4.4096404990769944E-003   6.1795283253561761E-002
   1.0962188101704129E-010   2.7425070547870689E-009   6.7380428463433339E-002
  -8.7955846425624706E-010   2.0516083276689301E-009   6.7472550263488751E-002
  -1.8687388199378763E-009  -1.1283364104164306E-009   6.7897920672240181E-002
  -2.8579191773542290E-009  -6.7973275584554127E-009   6.8656539689687948E-002
  -3.8470995139538999E-009  -1.4955365168489720E-008   6.9748407315831651E-002
  -3.7434325584602898E-003   1.1024121816495813E-003   6.6077241598169301E-002
  -3.4402980333681221E-003   1.0337985603877387E-003   6.6064838970364553E-002
  -3.1371635082759718E-003   9.5208917229198942E-004   6.6325458762408557E-002
  -2.8340289831837997E-003   8.5728401736213586E-004   6.6859100974301672E-002
  -2.5308944580916329E-003   7.4938309559802185E-004   6.7665765606043426E-002
  -7.5547274320387093E-003   2.2048216207920246E-003   6.4711988441436122E-002
  -7.0086835815213284E-003   2.0675950691671496E-003   6.4581968107983376E-002
  -6.4626397310039484E-003   1.9041794729203823E-003   6.4664744005532293E-002
  -5.9165958804865658E-003   1.7145748320517452E-003   6.4960316134082985E-002
  -5.3705520299691875E-003   1.4987811465612122E-003   6.5468684493634965E-002
  -1.1433884511113376E-002   3.3072310599345095E-003   6.3284668993233484E-002
  -1.0705157524018068E-002   3.1013915779465051E-003   6.3023937676345260E-002
  -9.9764305369227663E-003   2.8562697735488342E-003   6.2915776401611168E-002
  -9.2477035498274747E-003   2.5718656467415635E-003   6.2960185169031610E-002
  -8.5189765627321692E-003   2.2481791975243470E-003   6.3157163978605810E-002
  -1.5380903795684277E-002   4.4096404990769944E-003   6.1795283253561761E-002
  -1.4529719860858353E-002   4.1351880867258606E-003   6.1390747675450053E-002
  -1.3678535926032437E-002   3.8083600741772028E-003   6.1078555950645264E-002
  -1.2827351991206520E-002   3.4291564614311668E-003   6.0858708079147422E-002
  -1.1976168056380590E-002   2.9975772484875929E-003   6.0731204060956667E-002
  -2.6634040623394778E-002   0.0000000000000000        2.9464679780034059E-002
  -2.7236141222199521E-002   5.8680232164049634E-004   3.4941128670475330E-002
  -2.7838241821004271E-002   1.3220306543613915E-003   4.0109841958396300E-002
  -2.8440342419809018E-002   2.2056849981626804E-003   4.4970819643796962E-002
  -2.9042443018613768E-002   3.2377653530443707E-003   4.9524061726677331E-002
  -3.3394241604877445E-002   0.0000000000000000        3.0175871657125049E-002
  -3.4238883218688711E-002   9.6156819216156042E-004   3.5263627199589656E-002
  -3.5083524832499970E-002   2.0266838924828797E-003   4.0174036314561533E-002
  -3.5928166446311242E-002   3.1953471009639649E-003   4.4907099002040672E-002
  -3.6772808060122508E-002   4.4675578176048038E-003   4.9462815262027088E-002
  -4.0734317281470658E-002   0.0000000000000000        3.1284268656197420E-002
  -4.1691110735260863E-002   1.3363340626826228E-003   3.5938452347764716E-002
  -4.2647904189051074E-002   2.7313371306043705E-003   4.0545678786866865E-002
  -4.3604697642841278E-002   4.1850092037652459E-003   4.5105947973503847E-002
  -4.4561491096631496E-002   5.6973502821652446E-003   4.9619259907675677E-002
  -4.8654267653174398E-002   0.0000000000000000        3.2789870777251172E-002
  -4.9592823771915963E-002   1.7110999332036834E-003   3.6965604115000522E-002
  -5.0531379890657549E-002   3.4359903687258592E-003   4.1224769375312310E-002
  -5.1469936009399128E-002   5.1746713065665305E-003   4.5567366558186488E-002
  -5.2408492128140700E-002   6.9271427467256777E-003   4.9993395663623111E-002
  -5.7154092719988669E-002   0.0000000000000000        3.4692678020286298E-002
  -5.7944022328654039E-002   2.0858658037247475E-003   3.8345082501297083E-002
  -5.8733951937319409E-002   4.1406436068473496E-003   4.2211308079897862E-002
  -5.9523881545984793E-002   6.1643334093678080E-003   4.6291354756088622E-002
  -6.0313811154650177E-002   8.1569352112861211E-003   5.0585222529869384E-002
  -2.9042443018613768E-002   3.2377653530443707E-003   4.9524061726677331E-002
  -2.9116962494746823E-002   4.2578506960856194E-003   5.1580342373009319E-002
  -2.9191481970879885E-002   5.1055200043656273E-003   5.3733719332609779E-002
  -2.9266001447012947E-002   5.7807732778843938E-003   5.5984192605478697E-002
  -2.9340520923146006E-002   6.2836105166418771E-003   5.8331762191616093E-002
  -3.6772808060122508E-002   4.4675578176048038E-003   4.9462815262027088E-002
  -3.6788887398927113E-002   5.7028592902368235E-003   5.1247230721949484E-002
  -3.6804966737731731E-002   6.7607947666914305E-003   5.3051430143260310E-002
  -3.6821046076536343E-002   7.6413642469685917E-003   5.4875413525959565E-002
  -3.6837125415340954E-002   8.3445677310683627E-003   5.6719180870047257E-002
  -4.4561491096631496E-002   5.6973502821652446E-003   4.9619259907675677E-002
  -4.4596442649987696E-002   7.1478678843880129E-003   5.1126860219772308E-002
  -4.4631394203343888E-002   8.4160695290172068E-003   5.2576932141377340E-002
  -4.4666345756700088E-002   9.5019552160528174E-003   5.3969475672490774E-002
  -4.4701297310056301E-002   1.0405524945494841E-002   5.5304490813112582E-002
  -5.2408492128140700E-002   6.9271427467256777E-003   4.9993395663623111E-002
  -5.2539628247928530E-002   8.5928764785392058E-003   5.1219230866477831E-002
  -5.2670764367716359E-002   1.0071344291343006E-002   5.2310225326960898E-002
  -5.2801900487504196E-002   1.1362546185137016E-002   5.3266379045072303E-002
  -5.2933036607292039E-002   1.2466482159921317E-002   5.4087692020812088E-002
  -6.0313811154650177E-002   8.1569352112861211E-003   5.0585222529869384E-002
  -6.0618444192749657E-002   1.0037885072690402E-002   5.1524342662066014E-002
  -6.0923077230849151E-002   1.1726619053668796E-002   5.2251309700010941E-002
  -6.1227710268948660E-002   1.3223137154221232E-002   5.2766123643704206E-002
  -6.1532343307048147E-002   1.4527439374347792E-002   5.3068784493145796E-002
  -2.9340520923146006E-002   6.2836105166418771E-003   5.8331762191616093E-002
  -2.8989965089702127E-002   6.6695548143887937E-003   5.9093929484955086E-002
  -2.8639409256258252E-002   6.9941292648757966E-003   5.9895229437552003E-002
  -2.8288853422814376E-002   7.2573338681027940E-003   6.0735662049406926E-002
  -2.7938297589370491E-002   7.4591686240698812E-003   6.1615227320519814E-002
  -3.6837125415340954E-002   8.3445677310683627E-003   5.6719180870047257E-002
  -3.6396567609007717E-002   8.8864483736517189E-003   5.7061325307439507E-002
  -3.5956009802674480E-002   9.2830493293795131E-003   5.7544341031352517E-002
  -3.5515451996341249E-002   9.5343705982519102E-003   5.8168228041786285E-002
  -3.5074894190008005E-002   9.6404121802688009E-003   5.8932986338740757E-002
  -4.4701297310056301E-002   1.0405524945494841E-002   5.5304490813112582E-002
  -4.4068998903570931E-002   1.1103341932914578E-002   5.5142702554962578E-002
  -4.3436700497085562E-002   1.1571969393883299E-002   5.5223524210596120E-002
  -4.2804402090600192E-002   1.1811407328401000E-002   5.5546955780013188E-002
  -4.2172103684114823E-002   1.1821655736467686E-002   5.6112997263213726E-002
  -5.2933036607292039E-002   1.2466482159921317E-002   5.4087692020812088E-002
  -5.2007258973391764E-002   1.3320235492177456E-002   5.3338061227524325E-002
  -5.1081481339491495E-002   1.3860889458387036E-002   5.2932778975282840E-002
  -5.0155703705591234E-002   1.4088444058550103E-002   5.2871845264087662E-002
  -4.9229926071690952E-002   1.4002899292666602E-002   5.3155260093938728E-002
  -6.1532343307048147E-002   1.4527439374347792E-002   5.3068784493145796E-002
  -6.0211347818470200E-002   1.5537129051440370E-002   5.1647401325124700E-002
  -5.8890352329892273E-002   1.6149809522890805E-002   5.0672105325412699E-002
  -5.7569356841314340E-002   1.6365480788699205E-002   5.0142896494009687E-002
  -5.6248361352736392E-002   1.6184142848865463E-002   5.0059774830915810E-002
  -2.7938297589370491E-002   7.4591686240698812E-003   6.1615227320519814E-002
  -2.7234476729841105E-002   7.5829613778850211E-003   6.1327279563065981E-002
  -2.6530655870311729E-002   7.6120399746560409E-003   6.1255865827935817E-002
  -2.5826835010782347E-002   7.5464044143831602E-003   6.1400986115129286E-002
  -2.5123014151252964E-002   7.3860546970662133E-003   6.1762640424646520E-002
  -3.5074894190008005E-002   9.6404121802688009E-003   5.8932986338740757E-002
  -3.4157751802001625E-002   9.6404531373713714E-003   5.8600495333962346E-002
  -3.3240609413995245E-002   9.5737725315007301E-003   5.8478113363814227E-002
  -3.2323467025988872E-002   9.4403703626570017E-003   5.8565840428296441E-002
  -3.1406324637982506E-002   9.2402466308398878E-003   5.8863676527408967E-002
  -4.2172103684114823E-002   1.1821655736467686E-002   5.6112997263213726E-002
  -4.1048064755324805E-002   1.1697944896857725E-002   5.5763955605181520E-002
  -3.9924025826534766E-002   1.1535505088345362E-002   5.5618597994086347E-002
  -3.8799986897744720E-002   1.1334336310930650E-002   5.5676924429928130E-002
  -3.7675947968954709E-002   1.1094438564613535E-002   5.5938934912706864E-002
  -4.9229926071690952E-002   1.4002899292666602E-002   5.3155260093938728E-002
  -4.7905415589810631E-002   1.3755436656344077E-002   5.2817660376723627E-002
  -4.6580905107930302E-002   1.3497237645189952E-002   5.2677319718752141E-002
  -4.5256394626049953E-002   1.3228302259204381E-002   5.2734238120024292E-002
  -4.3931884144169611E-002   1.2948630498387195E-002   5.2988415580540071E-002
  -5.6248361352736392E-002   1.6184142848865463E-002   5.0059774830915810E-002
  -5.4729804305459095E-002   1.5812928415830436E-002   4.9761609648588584E-002
  -5.3211247258181806E-002   1.5458970202034662E-002   4.9654278537811611E-002
  -5.1692690210904516E-002   1.5122268207478135E-002   4.9737781498584994E-002
  -5.0174133163627205E-002   1.4802822432160856E-002   5.0012118530908617E-002
  -2.5123014151252964E-002   7.3860546970662133E-003   6.1762640424646520E-002
  -2.4337423060076940E-002   7.1788303389666158E-003   6.1496920143426698E-002
  -2.3551831968900913E-002   6.9725708563457695E-003   6.1419139668310585E-002
  -2.2766240877724882E-002   6.7672762492037401E-003   6.1529298999298307E-002
  -2.1980649786548862E-002   6.5629465175404134E-003   6.1827398136389766E-002
  -3.1406324637982506E-002   9.2402466308398878E-003   5.8863676527408967E-002
  -3.0430108621772839E-002   8.9995879870347628E-003   5.8607636828114262E-002
  -2.9453892605563189E-002   8.7445810822266989E-003   5.8544907172783094E-002
  -2.8477676589353528E-002   8.4752259164157379E-003   5.8675487561415385E-002
  -2.7501460573143871E-002   8.1915224896018657E-003   5.8999377994011282E-002
  -3.7675947968954709E-002   1.1094438564613535E-002   5.5938934912706864E-002
  -3.6503736789851665E-002   1.0820345635102958E-002   5.5677262658855517E-002
  -3.5331525610748614E-002   1.0516591308107691E-002   5.5614270686827512E-002
  -3.4159314431645577E-002   1.0183175583627821E-002   5.5749958996622773E-002
  -3.2987103252542518E-002   9.8200984616632625E-003   5.6084327588241278E-002
  -4.3931884144169611E-002   1.2948630498387195E-002   5.2988415580540071E-002
  -4.2558307564313419E-002   1.2641103283171074E-002   5.2705797635650448E-002
  -4.1184730984457206E-002   1.2288601533988652E-002   5.2627230210443840E-002
  -3.9811154404601007E-002   1.1891125250839751E-002   5.2752713304920283E-002
  -3.8437577824744808E-002   1.1448674433724576E-002   5.3082246919079798E-002
  -5.0174133163627205E-002   1.4802822432160856E-002   5.0012118530908617E-002
  -4.8593820945158094E-002   1.4461860931239287E-002   4.9693241758498957E-002
  -4.7013508726688968E-002   1.4060611759869626E-002   4.9583785743632092E-002
  -4.5433196508219843E-002   1.3599074918051863E-002   4.9683750486308020E-002
  -4.3852884289750718E-002   1.3077250405786056E-002   4.9993135986526771E-002
  -2.1980649786548862E-002   6.5629465175404134E-003   6.1827398136389766E-002
  -2.1162075870743695E-002   6.3455463164160952E-003   6.1475506405100577E-002
  -2.0343501954938517E-002   6.1010403008907588E-003   6.1334140305137175E-002
  -1.9524928039133336E-002   5.8294284709644040E-003   6.1403299836499531E-002
  -1.8706354123328175E-002   5.5307108266371419E-003   6.1682984999187729E-002
  -2.7501460573143871E-002   8.1915224896018657E-003   5.8999377994011282E-002
  -2.6476317102210319E-002   7.8945679609894043E-003   5.8659068415223517E-002
  -2.5451173631276761E-002   7.5854594897827865E-003   5.8521372315366776E-002
  -2.4426030160343167E-002   7.2641970759820124E-003   5.8586289694441018E-002
  -2.3400886689409654E-002   6.9307807195870819E-003   5.8853820552446368E-002
  -3.2987103252542518E-002   9.8200984616632625E-003   5.6084327588241278E-002
  -3.1763302378875369E-002   9.4435896055627133E-003   5.5770552033761828E-002
  -3.0539501505208178E-002   9.0698786786747587E-003   5.5651477805818472E-002
  -2.9315700631541000E-002   8.6989656809995097E-003   5.5727104904411337E-002
  -2.8091899757873805E-002   8.3308506125369663E-003   5.5997433329540547E-002
  -3.8437577824744808E-002   1.1448674433724576E-002   5.3082246919079798E-002
  -3.7023031700738791E-002   1.0992611250135911E-002   5.2809957260715343E-002
  -3.5608485576732775E-002   1.0554297867566842E-002   5.2724456776492339E-002
  -3.4193939452726738E-002   1.0133734286017007E-002   5.2825745466410771E-002
  -3.2779393328720749E-002   9.7309205054867676E-003   5.3113823330470662E-002
  -4.3852884289750718E-002   1.3077250405786056E-002   4.9993135986526771E-002
  -4.2255505067800639E-002   1.2541632894709331E-002   4.9777284096084173E-002
  -4.0658125845850566E-002   1.2038717056458648E-002   4.9740309227388285E-002
  -3.9060746623900480E-002   1.1568502891034615E-002   4.9882211380438982E-002
  -3.7463367401950415E-002   1.1130990398436735E-002   5.0202990555236471E-002
  -1.8706354123328175E-002   5.5307108266371419E-003   6.1682984999187729E-002
  -1.7874991541417192E-002   5.2264410175188458E-003   6.1442806339942091E-002
  -1.7043628959506223E-002   4.9381726932195280E-003   6.1381463162589189E-002
  -1.6212266377595246E-002   4.6659058537388345E-003   6.1498955467129135E-002
  -1.5380903795684277E-002   4.4096404990769944E-003   6.1795283253561761E-002
  -2.3400886689409654E-002   6.9307807195870819E-003   5.8853820552446368E-002
  -2.2384110490475034E-002   6.5887987432396433E-003   5.8629251619702838E-002
  -2.1367334291540425E-002   6.2418394695813728E-003   5.8596674439113761E-002
  -2.0350558092605813E-002   5.8899028986120275E-003   5.8756089010679136E-002
  -1.9333781893671201E-002   5.5329890303318363E-003   5.9107495334399240E-002
  -2.8091899757873805E-002   8.3308506125369663E-003   5.5997433329540547E-002
  -2.6876553671653848E-002   7.9511564689603575E-003   5.5767495341169371E-002
  -2.5661207585433866E-002   7.5455062459432037E-003   5.5742705375214460E-002
  -2.4445861499213926E-002   7.1138999434852170E-003   5.5923063431675725E-002
  -2.3230515412993931E-002   6.6563375615866782E-003   5.6308569510553214E-002
  -3.2779393328720749E-002   9.7309205054867676E-003   5.3113823330470662E-002
  -3.1352321084953692E-002   9.3135141946810857E-003   5.2857537504342141E-002
  -2.9925248841186615E-002   8.8491730223049861E-003   5.2819555970891455E-002
  -2.8498176597419520E-002   8.3378969883584637E-003   5.2999878730118792E-002
  -2.7071104353652453E-002   7.7796860928415201E-003   5.3398505782024132E-002
  -3.7463367401950415E-002   1.1130990398436735E-002   5.0202990555236471E-002
  -3.5811412730374484E-002   1.0675871920401897E-002   4.9899378109220738E-002
  -3.4159458058798595E-002   1.0152839798666921E-002   4.9827226226144689E-002
  -3.2507503387222664E-002   9.5618940332316653E-003   4.9986534906008392E-002
  -3.0855548715646774E-002   8.9030346240963620E-003   5.0377304148811808E-002
  -1.5380903795684277E-002   4.4096404990769944E-003   6.1795283253561761E-002
  -1.4529719860858353E-002   4.1351880867258606E-003   6.1390747675450053E-002
  -1.3678535926032437E-002   3.8083600741772028E-003   6.1078555950645264E-002
  -1.2827351991206520E-002   3.4291564614311668E-003   6.0858708079147422E-002
  -1.1976168056380590E-002   2.9975772484875929E-003   6.0731204060956667E-002
  -1.9333781893671201E-002   5.5329890303318363E-003   5.9107495334399240E-002
  -1.8349834960290360E-002   5.1664353669680640E-003   5.8766184533672799E-002
  -1.7365888026909478E-002   4.7855794107483918E-003   5.8598055876749183E-002
  -1.6381941093528644E-002   4.3904211616723129E-003   5.8603109363628697E-002
  -1.5397994160147747E-002   3.9809606197399594E-003   5.8781344994310536E-002
  -2.3230515412993931E-002   6.6563375615866782E-003   5.6308569510553214E-002
  -2.2032967190562247E-002   6.1976826472103785E-003   5.6068556794553442E-002
  -2.0835418968130560E-002   5.7627987473192338E-003   5.6082564512852484E-002
  -1.9637870745698865E-002   5.3516858619132059E-003   5.6350592665450124E-002
  -1.8440322523267192E-002   4.9643439909923259E-003   5.6872641252346701E-002
  -2.7071104353652453E-002   7.7796860928415201E-003   5.3398505782024132E-002
  -2.5579116551674032E-002   7.2289299274526375E-003   5.3297864458092266E-002
  -2.4087128749695538E-002   6.7400180838902493E-003   5.3532081858955124E-002
  -2.2595140947717123E-002   6.3129505621542254E-003   5.4101157984612736E-002
  -2.1103153145738622E-002   5.9477273622446925E-003   5.5005092835064898E-002
  -3.0855548715646774E-002   8.9030346240963620E-003   5.0377304148811808E-002
  -2.8988283043625662E-002   8.2601772076950075E-003   5.0454107524289193E-002
  -2.7121017371604550E-002   7.7172374204610983E-003   5.0946607915057229E-002
  -2.5253751699583472E-002   7.2742152623953421E-003   5.1854805321115832E-002
  -2.3386486027562325E-002   6.9311107334970590E-003   5.3178699742465252E-002
  -5.7154092719988669E-002   0.0000000000000000        3.4692678020286298E-002
  -5.7944022328654039E-002   2.0858658037247475E-003   3.8345082501297083E-002
  -5.8733951937319409E-002   4.1406436068473496E-003   4.2211308079897862E-002
  -5.9523881545984793E-002   6.1643334093678080E-003   4.6291354756088622E-002
  -6.0313811154650177E-002   8.1569352112861211E-003   5.0585222529869384E-002
  -6.5821722988634465E-002   0.0000000000000000        3.7215694493295641E-002
  -6.6627001838715130E-002   2.9157241984723069E-003   4.0838749982926997E-002
  -6.7432280688795823E-002   5.7736505099034970E-003   4.4217285892137762E-002
  -6.8237559538876488E-002   8.5737789342935598E-003   4.7351302220927927E-002
  -6.9042838388957167E-002   1.1316109471642508E-002   5.0240798969297493E-002
  -7.4245088965832748E-002   0.0000000000000000        4.0581924304272037E-002
  -7.5524057735339337E-002   3.7455825932198655E-003   4.4148920916084980E-002
  -7.6803026504845884E-002   7.4066574129596340E-003   4.7013057269466751E-002
  -7.8081995274352473E-002   1.0983224459219306E-002   4.9174333364417337E-002
  -7.9360964043859034E-002   1.4475283731998885E-002   5.0632749200936744E-002
  -8.2424190651583559E-002   0.0000000000000000        4.4791367453215471E-002
  -8.4635190018526610E-002   4.5754409879674232E-003   4.8275595300771038E-002
  -8.6846189385469633E-002   9.0396643160157754E-003   5.0598622211884832E-002
  -8.9057188752412683E-002   1.3392669984145053E-002   5.1760448186556868E-002
  -9.1268188119355734E-002   1.7634457992355267E-002   5.1761073224787124E-002
  -9.0359028045886858E-002   0.0000000000000000        4.9844023940125951E-002
  -9.3960398688276964E-002   5.4052993827149835E-003   5.3218773136985156E-002
  -9.7561769330667070E-002   1.0672671219071918E-002   5.4973980719392017E-002
 -0.10116313997305719        1.5802115509070805E-002   5.5109646687346525E-002
 -0.10476451061544725        2.0793632252711650E-002   5.3625771040848674E-002
  -6.0313811154650177E-002   8.1569352112861211E-003   5.0585222529869384E-002
  -6.0618444192749657E-002   1.0037885072690402E-002   5.1524342662066014E-002
  -6.0923077230849151E-002   1.1726619053668796E-002   5.2251309700010941E-002
  -6.1227710268948660E-002   1.3223137154221232E-002   5.2766123643704206E-002
  -6.1532343307048147E-002   1.4527439374347792E-002   5.3068784493145796E-002
  -6.9042838388957167E-002   1.1316109471642508E-002   5.0240798969297493E-002
  -6.9321528303008265E-002   1.3762220811922040E-002   4.9465488705437585E-002
  -6.9600218217059334E-002   1.5673691645103911E-002   4.8954217783926168E-002
  -6.9878908131110404E-002   1.7050521971188119E-002   4.8706986204763270E-002
  -7.0157598045161487E-002   1.7892711790174640E-002   4.8723793967948910E-002
  -7.9360964043859034E-002   1.4475283731998885E-002   5.0632749200936744E-002
  -7.9137518397261492E-002   1.7486556551153686E-002   4.7800583914348507E-002
  -7.8914072750663977E-002   1.9620764236539058E-002   4.5708650406708989E-002
  -7.8690627104066435E-002   2.0877906788154967E-002   4.4356948678018170E-002
  -7.8467181457468893E-002   2.1257984206001453E-002   4.3745478728276069E-002
  -9.1268188119355734E-002   1.7634457992355267E-002   5.1761073224787124E-002
  -9.0066414475509393E-002   2.1210892290385312E-002   4.6529628288798856E-002
  -8.8864640831663039E-002   2.3567836827974181E-002   4.2514607568359446E-002
  -8.7662867187816712E-002   2.4705291605121842E-002   3.9716011063468941E-002
  -8.6461093543970399E-002   2.4623256621828276E-002   3.8133838774127342E-002
 -0.10476451061544725        2.0793632252711650E-002   5.3625771040848674E-002
 -0.10210821653775193        2.4935228029616969E-002   4.5652621828788542E-002
  -9.9451922460056616E-002   2.7514909419409334E-002   3.9372089268877489E-002
  -9.6795628382361290E-002   2.8532676422088715E-002   3.4784173361115528E-002
  -9.4139334304665950E-002   2.7988529037655113E-002   3.1888874105502674E-002
  -6.1532343307048147E-002   1.4527439374347792E-002   5.3068784493145796E-002
  -6.0211347818470200E-002   1.5537129051440370E-002   5.1647401325124700E-002
  -5.8890352329892273E-002   1.6149809522890805E-002   5.0672105325412699E-002
  -5.7569356841314340E-002   1.6365480788699205E-002   5.0142896494009687E-002
  -5.6248361352736392E-002   1.6184142848865463E-002   5.0059774830915810E-002
  -7.0157598045161487E-002   1.7892711790174640E-002   4.8723793967948910E-002
  -6.8436302993039780E-002   1.8353968056139723E-002   4.7260176618674814E-002
  -6.6715007940918072E-002   1.8587997723159545E-002   4.6151071228179200E-002
  -6.4993712888796365E-002   1.8594800791234226E-002   4.5396477796462026E-002
  -6.3272417836674671E-002   1.8374377260363672E-002   4.4996396323523376E-002
  -7.8467181457468893E-002   2.1257984206001453E-002   4.3745478728276069E-002
  -7.6437162051334023E-002   2.1170807060839059E-002   4.2409409804445838E-002
  -7.4407142645199126E-002   2.1026185923428281E-002   4.1336277629863513E-002
  -7.2377123239064256E-002   2.0824120793769219E-002   4.0526082204529072E-002
  -7.0347103832929372E-002   2.0564611671861785E-002   3.9978823528442516E-002
  -8.6461093543970399E-002   2.4623256621828276E-002   3.8133838774127342E-002
  -8.4213924993352895E-002   2.3987646065538368E-002   3.7095100882437837E-002
  -8.1966756442735406E-002   2.3464374123697021E-002   3.6227724530465681E-002
  -7.9719587892117902E-002   2.3053440796304198E-002   3.5531709718210853E-002
  -7.7472419341500412E-002   2.2754846083359918E-002   3.5007056445673271E-002
  -9.4139334304665950E-002   2.7988529037655113E-002   3.1888874105502674E-002
  -9.1766591819096410E-002   2.6804485070237749E-002   3.1317249852650775E-002
  -8.9393849333526926E-002   2.5902562323965761E-002   3.0825411929985669E-002
  -8.7021106847957400E-002   2.5282760798839204E-002   3.0413360337507252E-002
  -8.4648364362387887E-002   2.4945080494858080E-002   3.0081095075215558E-002
  -5.6248361352736392E-002   1.6184142848865463E-002   5.0059774830915810E-002
  -5.4729804305459095E-002   1.5812928415830436E-002   4.9761609648588584E-002
  -5.3211247258181806E-002   1.5458970202034662E-002   4.9654278537811611E-002
  -5.1692690210904516E-002   1.5122268207478135E-002   4.9737781498584994E-002
  -5.0174133163627205E-002   1.4802822432160856E-002   5.0012118530908617E-002
  -6.3272417836674671E-002   1.8374377260363672E-002   4.4996396323523376E-002
  -6.1560191505003123E-002   1.8024315912086177E-002   4.4643040433409116E-002
  -5.9847965173331616E-002   1.7642205527940227E-002   4.4486189040532975E-002
  -5.8135738841660074E-002   1.7228046107925676E-002   4.4525842144895057E-002
  -5.6423512509988553E-002   1.6781837652042608E-002   4.4761999746495376E-002
  -7.0347103832929372E-002   2.0564611671861785E-002   3.9978823528442516E-002
  -6.8435537791175671E-002   2.0235703408341996E-002   3.9520971675433364E-002
  -6.6523971749421970E-002   1.9825440853845844E-002   3.9265294745350246E-002
  -6.4612405707668297E-002   1.9333824008373270E-002   3.9211792738193280E-002
  -6.2700839665914582E-002   1.8760852871924333E-002   3.9360465653962409E-002
  -7.7472419341500412E-002   2.2754846083359918E-002   3.5007056445673271E-002
  -7.5355843163976685E-002   2.2447090904597788E-002   3.4395403374661335E-002
  -7.3239266986452931E-002   2.2008676179751392E-002   3.3991595652263375E-002
  -7.1122690808929176E-002   2.1439601908820868E-002   3.3795633278479453E-002
  -6.9006114631405435E-002   2.0739868091806016E-002   3.3807516253309619E-002
  -8.4648364362387887E-002   2.4945080494858080E-002   3.0081095075215558E-002
  -8.2321107623406178E-002   2.4658478400853584E-002   2.9266335531093077E-002
  -7.9993850884424456E-002   2.4191911505657054E-002   2.8665091761272438E-002
  -7.7666594145442719E-002   2.3545379809268428E-002   2.8277363765753814E-002
  -7.5339337406461010E-002   2.2718883311687782E-002   2.8103151544537047E-002
  -5.0174133163627205E-002   1.4802822432160856E-002   5.0012118530908617E-002
  -4.8593820945158094E-002   1.4461860931239287E-002   4.9693241758498957E-002
  -4.7013508726688968E-002   1.4060611759869626E-002   4.9583785743632092E-002
  -4.5433196508219843E-002   1.3599074918051863E-002   4.9683750486308020E-002
  -4.3852884289750718E-002   1.3077250405786056E-002   4.9993135986526771E-002
  -5.6423512509988553E-002   1.6781837652042608E-002   4.4761999746495376E-002
  -5.4635079854923468E-002   1.6309113581762444E-002   4.4373239911887297E-002
  -5.2846647199858390E-002   1.5815407318556685E-002   4.4191300192928294E-002
  -5.1058214544793278E-002   1.5300718862425289E-002   4.4216180589618431E-002
  -4.9269781889728186E-002   1.4765048213368215E-002   4.4447881101957631E-002
  -6.2700839665914582E-002   1.8760852871924333E-002   3.9360465653962409E-002
  -6.0706887216147240E-002   1.8156366232285663E-002   3.8941128234678324E-002
  -5.8712934766379912E-002   1.7570202877243764E-002   3.8726010289149661E-002
  -5.6718982316612591E-002   1.7002362806798711E-002   3.8715111817376399E-002
  -5.4725029866845257E-002   1.6452846020950512E-002   3.8908432819358518E-002
  -6.9006114631405435E-002   2.0739868091806016E-002   3.3807516253309619E-002
  -6.6809243028829540E-002   2.0003618882808768E-002   3.3396906726872067E-002
  -6.4612371426253618E-002   1.9324998435930791E-002   3.3187916032296101E-002
  -6.2415499823677667E-002   1.8704006751172137E-002   3.3180544169581973E-002
  -6.0218628221101828E-002   1.8140643828532796E-002   3.3374791138729550E-002
  -7.5339337406461010E-002   2.2718883311687782E-002   2.8103151544537047E-002
  -7.2942147292970216E-002   2.1850871533331997E-002   2.7740575388468386E-002
  -7.0544957179479451E-002   2.1079793994617894E-002   2.7577017422367775E-002
  -6.8147767065988657E-002   2.0405650695545591E-002   2.7612477646235138E-002
  -6.5750576952497863E-002   1.9828441636115024E-002   2.7846956060070593E-002
  -4.3852884289750718E-002   1.3077250405786056E-002   4.9993135986526771E-002
  -4.2255505067800639E-002   1.2541632894709331E-002   4.9777284096084173E-002
  -4.0658125845850566E-002   1.2038717056458648E-002   4.9740309227388285E-002
  -3.9060746623900480E-002   1.1568502891034615E-002   4.9882211380438982E-002
  -3.7463367401950415E-002   1.1130990398436735E-002   5.0202990555236471E-002
  -4.9269781889728186E-002   1.4765048213368215E-002   4.4447881101957631E-002
  -4.7492877543750776E-002   1.4219071211108797E-002   4.4210862516329719E-002
  -4.5715973197773374E-002   1.3673463695370036E-002   4.4154017157009742E-002
  -4.3939068851795916E-002   1.3128225666151988E-002   4.4277345023997869E-002
  -4.2162164505818500E-002   1.2583357123454653E-002   4.4580846117293987E-002
  -5.4725029866845257E-002   1.6452846020950512E-002   3.8908432819358518E-002
  -5.2767304192279110E-002   1.5896509527508373E-002   3.8617915352239657E-002
  -5.0809578517712950E-002   1.5308210334281203E-002   3.8508867315990111E-002
  -4.8851852843146838E-002   1.4687948441269416E-002   3.8581288710610034E-002
  -4.6894127168580699E-002   1.4035723848472487E-002   3.8835179536099260E-002
  -6.0218628221101828E-002   1.8140643828532796E-002   3.3374791138729550E-002
  -5.8078785013385585E-002   1.7573947843907867E-002   3.2998442603814120E-002
  -5.5938941805669419E-002   1.6942956973192591E-002   3.2804859704329434E-002
  -5.3799098597953211E-002   1.6247671216386678E-002   3.2794042440275457E-002
  -5.1659255390237011E-002   1.5488090573490335E-002   3.2965990811652274E-002
  -6.5750576952497863E-002   1.9828441636115024E-002   2.7846956060070593E-002
  -6.3427320007070298E-002   1.9251386160307471E-002   2.7352444271053045E-002
  -6.1104063061642649E-002   1.8577703612103758E-002   2.7041994322027668E-002
  -5.8780806116215042E-002   1.7807393991504272E-002   2.6915606212994228E-002
  -5.6457549170787436E-002   1.6940457298508238E-002   2.6973279943952988E-002
  -3.7463367401950415E-002   1.1130990398436735E-002   5.0202990555236471E-002
  -3.5811412730374484E-002   1.0675871920401897E-002   4.9899378109220738E-002
  -3.4159458058798595E-002   1.0152839798666921E-002   4.9827226226144689E-002
  -3.2507503387222664E-002   9.5618940332316653E-003   4.9986534906008392E-002
  -3.0855548715646774E-002   8.9030346240963620E-003   5.0377304148811808E-002
  -4.2162164505818500E-002   1.2583357123454653E-002   4.4580846117293987E-002
  -4.0298514630172297E-002   1.2027814838889678E-002   4.4179487446536742E-002
  -3.8434864754526031E-002   1.1450555584069128E-002   4.3970058620980565E-002
  -3.6571214878879793E-002   1.0851579358992856E-002   4.3952559640625326E-002
  -3.4707565003233562E-002   1.0230886163660802E-002   4.4126990505470864E-002
  -4.6894127168580699E-002   1.4035723848472487E-002   3.8835179536099260E-002
  -4.4858312806602921E-002   1.3379757757377611E-002   3.8382271314045036E-002
  -4.2822498444625094E-002   1.2748271369471396E-002   3.8081762219453023E-002
  -4.0786684082647337E-002   1.2141264684753883E-002   3.7933652252323188E-002
  -3.8750869720669552E-002   1.1558737703225130E-002   3.7937941412655524E-002
  -5.1659255390237011E-002   1.5488090573490335E-002   3.2965990811652274E-002
  -4.9490807259666446E-002   1.4731700675865357E-002   3.2507729711745474E-002
  -4.7322359129095867E-002   1.4045987154873773E-002   3.2162337021562133E-002
  -4.5153910998525233E-002   1.3430950010514881E-002   3.1929812741102258E-002
  -4.2985462867954669E-002   1.2886589242789348E-002   3.1810156870365647E-002
  -5.6457549170787436E-002   1.6940457298508238E-002   2.6973279943952988E-002
  -5.4195997989362865E-002   1.6083643594353353E-002   2.6555862639638106E-002
  -5.1934446807938225E-002   1.5343702940275886E-002   2.6211783027307811E-002
  -4.9672895626513593E-002   1.4720635336276103E-002   2.5941041106962284E-002
  -4.7411344445089015E-002   1.4214440782353843E-002   2.5743636878601428E-002
  -3.0855548715646774E-002   8.9030346240963620E-003   5.0377304148811808E-002
  -2.8988283043625662E-002   8.2601772076950075E-003   5.0454107524289193E-002
  -2.7121017371604550E-002   7.7172374204610983E-003   5.0946607915057229E-002
  -2.5253751699583472E-002   7.2742152623953421E-003   5.1854805321115832E-002
  -2.3386486027562325E-002   6.9311107334970590E-003   5.3178699742465252E-002
  -3.4707565003233562E-002   1.0230886163660802E-002   4.4126990505470864E-002
  -3.2536133380176573E-002   9.6050831548302740E-003   4.3956681873057624E-002
  -3.0364701757119590E-002   8.9907774892582087E-003   4.3979008127425584E-002
  -2.8193270134062611E-002   8.3879691669451369E-003   4.4193969268574454E-002
  -2.6021838511005618E-002   7.7966581878907704E-003   4.4601565296504830E-002
  -3.8750869720669552E-002   1.1558737703225130E-002   3.7937941412655524E-002
  -3.6498334275086246E-002   1.0949989101965485E-002   3.7432100486442507E-002
  -3.4245798829502933E-002   1.0264317558055375E-002   3.6895832318501215E-002
  -3.1993263383919633E-002   9.5017230714951537E-003   3.6329136908831106E-002
  -2.9740727938336403E-002   8.6622056422842597E-003   3.5732014257433109E-002
  -4.2985462867954669E-002   1.2886589242789348E-002   3.1810156870365647E-002
  -4.0874885728354578E-002   1.2294895049100779E-002   3.0880363364443875E-002
  -3.8764308588754438E-002   1.1537857626852568E-002   2.9697080488284046E-002
  -3.6653731449154354E-002   1.0615476976044948E-002   2.8260308241886047E-002
  -3.4543154309554097E-002   9.5277530966778046E-003   2.6570046625250754E-002
  -4.7411344445089015E-002   1.4214440782353843E-002   2.5743636878601428E-002
  -4.5665787739981561E-002   1.3639800996236018E-002   2.4301470507061551E-002
  -4.3920231034874205E-002   1.2811397695649610E-002   2.2382752636774167E-002
  -4.2174674329766855E-002   1.1729230880595066E-002   1.9987483267739289E-002
  -4.0429117624659450E-002   1.0393300551071460E-002   1.7115662399957099E-002
  -9.0359028045886858E-002   0.0000000000000000        4.9844023940125951E-002
  -9.3960398688276964E-002   5.4052993827149835E-003   5.3218773136985156E-002
  -9.7561769330667070E-002   1.0672671219071918E-002   5.4973980719392017E-002
 -0.10116313997305719        1.5802115509070805E-002   5.5109646687346525E-002
 -0.10476451061544725        2.0793632252711650E-002   5.3625771040848674E-002
 -0.10328937885245448        0.0000000000000000        5.8672273608602742E-002
 -0.10682824952213686        1.0884204237502377E-002   5.2126777559909701E-002
 -0.11036712019181924        1.9172344587890373E-002   4.7325823071084461E-002
 -0.11390599086150162        2.4864421051163977E-002   4.4269410142127000E-002
 -0.11744486153118402        2.7960433627323224E-002   4.2957538773037339E-002
 -0.12645502077499818        0.0000000000000000        7.4208496302245103E-002
 -0.12656730829765273        1.6363109092289770E-002   5.5284618667243469E-002
 -0.12667959582030724        2.7672017956708816E-002   4.1469365766429775E-002
 -0.12679188334296176        3.3926726593257170E-002   3.2762737599804033E-002
 -0.12690417086561628        3.5127235001934799E-002   2.9164734167366219E-002
 -0.15985595381351803        0.0000000000000000        9.6452692021052999E-002
 -0.15317757501482451        2.1842013947077167E-002   6.2692296458986455E-002
 -0.14649919621613106        3.6171691325527278E-002   3.7404608805427994E-002
 -0.13982081741743757        4.2989032135350366E-002   2.0589629060377632E-002
 -0.13314243861874409        4.2294036376546357E-002   1.2247357223835263E-002
 -0.20349217796801394        0.0000000000000000       0.12540486076502647     
 -0.18665904967365232        2.7320918801864560E-002   7.4349810935138677E-002
 -0.16982592137929070        4.4671364694345725E-002   3.5131552188079111E-002
 -0.15299279308492908        5.2051337677443521E-002   7.7500845238477611E-003
 -0.13615966479056743        4.9460837751157963E-002  -7.7945920575553523E-003
 -0.10476451061544725        2.0793632252711650E-002   5.3625771040848674E-002
 -0.10210821653775193        2.4935228029616969E-002   4.5652621828788542E-002
  -9.9451922460056616E-002   2.7514909419409334E-002   3.9372089268877489E-002
  -9.6795628382361290E-002   2.8532676422088715E-002   3.4784173361115528E-002
  -9.4139334304665950E-002   2.7988529037655113E-002   3.1888874105502674E-002
 -0.11744486153118402        2.7960433627323224E-002   4.2957538773037339E-002
 -0.11348491073856834        2.9434002303294453E-002   3.6711102054865587E-002
 -0.10952495994595268        3.0258747066004101E-002   3.1379362114385398E-002
 -0.10556500915333704        3.0434667915452178E-002   2.6962318951596856E-002
 -0.10160505836072137        2.9961764851638650E-002   2.3459972566499739E-002
 -0.12690417086561628        3.5127235001934799E-002   2.9164734167366219E-002
 -0.12241848323253783        3.3932776576971933E-002   2.5558100416934272E-002
 -0.11793279559945938        3.3002584712598891E-002   2.2088243569736349E-002
 -0.11344710796638093        3.2336659408815645E-002   1.8755163625772463E-002
 -0.10896142033330250        3.1935000665622160E-002   1.5558860585042630E-002
 -0.13314243861874409        4.2294036376546357E-002   1.2247357223835263E-002
 -0.12890893401966039        3.8431550850649455E-002   1.2193616914994479E-002
 -0.12467542942057669        3.5746422359193723E-002   1.1498733634930265E-002
 -0.12044192482149296        3.4238650902179070E-002   1.0162707383642446E-002
 -0.11620842022240925        3.3908236479605697E-002   8.1855381611311475E-003
 -0.13615966479056743        4.9460837751157963E-002  -7.7945920575553523E-003
 -0.13295626309993600        4.2930325124326922E-002  -3.3823484509535456E-003
 -0.12975286140930459        3.8490260005788424E-002  -3.8916769003285653E-004
 -0.12654945971867318        3.6140642395542613E-002   1.1849502252068512E-003
 -0.12334605802804172        3.5881472293589234E-002   1.3400052947655505E-003
  -9.4139334304665950E-002   2.7988529037655113E-002   3.1888874105502674E-002
  -9.1766591819096410E-002   2.6804485070237749E-002   3.1317249852650775E-002
  -8.9393849333526926E-002   2.5902562323965761E-002   3.0825411929985669E-002
  -8.7021106847957400E-002   2.5282760798839204E-002   3.0413360337507252E-002
  -8.4648364362387887E-002   2.4945080494858080E-002   3.0081095075215558E-002
 -0.10160505836072137        2.9961764851638650E-002   2.3459972566499739E-002
  -9.9135095052148597E-002   2.9195295512163981E-002   2.3187051181481094E-002
  -9.6665131743575800E-002   2.8490517534628723E-002   2.3028785112282318E-002
  -9.4195168435002988E-002   2.7847430919032710E-002   2.2985174358903310E-002
  -9.1725205126430176E-002   2.7266035665376054E-002   2.3056218921344157E-002
 -0.10896142033330250        3.1935000665622160E-002   1.5558860585042630E-002
 -0.10635936721609332        3.1586105954090185E-002   1.5364212208651157E-002
 -0.10375731409888417        3.1078472745291574E-002   1.5319088133712598E-002
 -0.10115526098167500        3.0412101039226216E-002   1.5423488360226927E-002
  -9.8553207864465892E-002   2.9586990835894042E-002   1.5677412888194270E-002
 -0.11620842022240925        3.3908236479605697E-002   8.1855381611311475E-003
 -0.11343940831093065        3.3976916396016459E-002   7.8487329341608760E-003
 -0.11067039639945209        3.3666427955954398E-002   7.6963209942764767E-003
 -0.10790138448797347        3.2976771159419625E-002   7.7283023414781490E-003
 -0.10513237257649488        3.1907946006412023E-002   7.9446769757656934E-003
 -0.12334605802804172        3.5881472293589234E-002   1.3400052947655505E-003
 -0.12037521833666059        3.6367726837942677E-002   6.4061335801032793E-004
 -0.11740437864527944        3.6254383166617443E-002   1.6048369397404089E-004
 -0.11443353895389834        3.5541441279613145E-002  -1.0038369734314927E-004
 -0.11146269926251717        3.4228901176930004E-002  -1.4198881594118529E-004
  -8.4648364362387887E-002   2.4945080494858080E-002   3.0081095075215558E-002
  -8.2321107623406178E-002   2.4658478400853584E-002   2.9266335531093077E-002
  -7.9993850884424456E-002   2.4191911505657054E-002   2.8665091761272438E-002
  -7.7666594145442719E-002   2.3545379809268428E-002   2.8277363765753814E-002
  -7.5339337406461010E-002   2.2718883311687782E-002   2.8103151544537047E-002
  -9.1725205126430176E-002   2.7266035665376054E-002   2.3056218921344157E-002
  -8.9177101741643491E-002   2.6672982820146962E-002   2.2365142601593280E-002
  -8.6628998356856723E-002   2.5994923429833817E-002   2.1902243799150484E-002
  -8.4080894972070053E-002   2.5231857494436447E-002   2.1667522514015818E-002
  -8.1532791587283243E-002   2.4383785013954912E-002   2.1660978746189288E-002
  -9.8553207864465892E-002   2.9586990835894042E-002   1.5677412888194270E-002
  -9.5769596090867923E-002   2.8687487239440437E-002   1.5204978048922881E-002
  -9.2985984317269982E-002   2.7797935354010553E-002   1.4975382469965826E-002
  -9.0202372543672082E-002   2.6918335179604441E-002   1.4988626151323035E-002
  -8.7418760770074100E-002   2.6048686716222055E-002   1.5244709092994628E-002
 -0.10513237257649488        3.1907946006412023E-002   7.9446769757656934E-003
 -0.10209859067107957        3.0701991658733836E-002   7.7858418730819157E-003
  -9.9064808765664231E-002   2.9600947278187344E-002   7.8845077737183418E-003
  -9.6031026860248891E-002   2.8604812864772504E-002   8.2406746776754539E-003
  -9.2997244954833636E-002   2.7713588418489081E-002   8.8543425849529327E-003
 -0.11146269926251717        3.4228901176930004E-002  -1.4198881594118529E-004
 -0.10816408548227829        3.2716496078027346E-002   1.0773407407027591E-004
 -0.10486547170203941        3.1403959202364010E-002   6.2961971040825793E-004
 -0.10156685792180056        3.0291290549940526E-002   1.4236680930731632E-003
  -9.8268244141561656E-002   2.9378490120756384E-002   2.4898792220645061E-003
  -7.5339337406461010E-002   2.2718883311687782E-002   2.8103151544537047E-002
  -7.2942147292970216E-002   2.1850871533331997E-002   2.7740575388468386E-002
  -7.0544957179479451E-002   2.1079793994617894E-002   2.7577017422367775E-002
  -6.8147767065988657E-002   2.0405650695545591E-002   2.7612477646235138E-002
  -6.5750576952497863E-002   1.9828441636115024E-002   2.7846956060070593E-002
  -8.1532791587283243E-002   2.4383785013954912E-002   2.1660978746189288E-002
  -7.8962822842324684E-002   2.3527715083915088E-002   2.1662620972456414E-002
  -7.6392854097366195E-002   2.2740656799842517E-002   2.1810802271690945E-002
  -7.3822885352407663E-002   2.2022610161737670E-002   2.2105522643892987E-002
  -7.1252916607449104E-002   2.1373575169600201E-002   2.2546782089062550E-002
  -8.7418760770074100E-002   2.6048686716222055E-002   1.5244709092994628E-002
  -8.4728492510648401E-002   2.5204558634498060E-002   1.5582647107923030E-002
  -8.2038224251222633E-002   2.4401519605067198E-002   1.6014645078818595E-002
  -7.9347955991796920E-002   2.3639569627929638E-002   1.6540703005680925E-002
  -7.6657687732371166E-002   2.2918708703085239E-002   1.7160820888510342E-002
  -9.2997244954833636E-002   2.7713588418489081E-002   8.8543425849529327E-003
  -9.0239156297941187E-002   2.6881402185081091E-002   9.5006537948685351E-003
  -8.7481067641048779E-002   2.6062382410291823E-002   1.0188545843750792E-002
  -8.4722978984156358E-002   2.5256529094121551E-002   1.0918018731599191E-002
  -8.1964890327263909E-002   2.4463842236570235E-002   1.1689072458413944E-002
  -9.8268244141561656E-002   2.9378490120756384E-002   2.4898792220645061E-003
  -9.5494814204203138E-002   2.8558245735664234E-002   3.4166410332928665E-003
  -9.2721384266844620E-002   2.7723245215516598E-002   4.3325045664873163E-003
  -8.9947954329486129E-002   2.6873488560313710E-002   5.2374698216473975E-003
  -8.7174524392127584E-002   2.6008975770055343E-002   6.1315367987735958E-003
  -6.5750576952497863E-002   1.9828441636115024E-002   2.7846956060070593E-002
  -6.3427320007070298E-002   1.9251386160307471E-002   2.7352444271053045E-002
  -6.1104063061642649E-002   1.8577703612103758E-002   2.7041994322027668E-002
  -5.8780806116215042E-002   1.7807393991504272E-002   2.6915606212994228E-002
  -5.6457549170787436E-002   1.6940457298508238E-002   2.6973279943952988E-002
  -7.1252916607449104E-002   2.1373575169600201E-002   2.2546782089062550E-002
  -6.8734128734200581E-002   2.0720093008820564E-002   2.2074041390079305E-002
  -6.6215340860952071E-002   1.9988704864789542E-002   2.1808300706745651E-002
  -6.3696552987703520E-002   1.9179410737506911E-002   2.1749560039061991E-002
  -6.1177765114454982E-002   1.8292210626973004E-002   2.1897819387027895E-002
  -7.6657687732371166E-002   2.2918708703085239E-002   1.7160820888510342E-002
  -7.3920430755644015E-002   2.2188799857333713E-002   1.6728572368705744E-002
  -7.1183173778916892E-002   2.1399706117475437E-002   1.6526262040208739E-002
  -6.8445916802189727E-002   2.0551427483509827E-002   1.6553889903019092E-002
  -6.5708659825462618E-002   1.9643963955437549E-002   1.6811455957136845E-002
  -8.1964890327263909E-002   2.4463842236570235E-002   1.1689072458413944E-002
  -7.8986226071400600E-002   2.3657506705847028E-002   1.1316037206932868E-002
  -7.6007561815537139E-002   2.2810707370161082E-002   1.1195878322416732E-002
  -7.3028897559673789E-002   2.1923444229513103E-002   1.1328595804865720E-002
  -7.0050233303810369E-002   2.0995717283902232E-002   1.1714189654279717E-002
  -8.7174524392127584E-002   2.6008975770055343E-002   6.1315367987735958E-003
  -8.3931514681470198E-002   2.5126213554359844E-002   5.8364359047602954E-003
  -8.0688504970812924E-002   2.4221708622847143E-002   5.8171495533694134E-003
  -7.7445495260155567E-002   2.3295460975515443E-002   6.0736777446018762E-003
  -7.4202485549498265E-002   2.2347470612366860E-002   6.6060204784565979E-003
  -5.6457549170787436E-002   1.6940457298508238E-002   2.6973279943952988E-002
  -5.4195997989362865E-002   1.6083643594353353E-002   2.6555862639638106E-002
  -5.1934446807938225E-002   1.5343702940275886E-002   2.6211783027307811E-002
  -4.9672895626513593E-002   1.4720635336276103E-002   2.5941041106962284E-002
  -4.7411344445089015E-002   1.4214440782353843E-002   2.5743636878601428E-002
  -6.1177765114454982E-002   1.8292210626973004E-002   2.1897819387027895E-002
  -5.8794928543442815E-002   1.7413197805143998E-002   2.1823247818345659E-002
  -5.6412091972430682E-002   1.6628465543977247E-002   2.1917909336853850E-002
  -5.4029255401418480E-002   1.5938013843472629E-002   2.2181803942552487E-002
  -5.1646418830406327E-002   1.5341842703630260E-002   2.2614931635441482E-002
  -6.5708659825462618E-002   1.9643963955437549E-002   1.6811455957136845E-002
  -6.3108642469657084E-002   1.8742752015934852E-002   1.7057137634671676E-002
  -6.0508625113851647E-002   1.7913228147678990E-002   1.7567947794602891E-002
  -5.7908607758046161E-002   1.7155392350669207E-002   1.8343886436930159E-002
  -5.5308590402240683E-002   1.6469244624906704E-002   1.9384953561653498E-002
  -7.0050233303810369E-002   2.0995717283902232E-002   1.1714189654279717E-002
  -6.7137139768005755E-002   2.0072306226725879E-002   1.2257532088616133E-002
  -6.4224046232201196E-002   1.9197990751380432E-002   1.3161898400554756E-002
  -6.1310952696396574E-002   1.8372770857866427E-002   1.4427288590095233E-002
  -5.8397859160592036E-002   1.7596646546182967E-002   1.6053702657237764E-002
  -7.4202485549498265E-002   2.2347470612366860E-002   6.6060204784565979E-003
  -7.0880420438488745E-002   2.1401860437516462E-002   7.4244311801791030E-003
  -6.7558355327479225E-002   2.0482753355082040E-002   8.6997611547099118E-003
  -6.4236290216469732E-002   1.9590149365062551E-002   1.0432010402047824E-002
  -6.0914225105460185E-002   1.8724048467459675E-002   1.2621178922193721E-002
  -4.7411344445089015E-002   1.4214440782353843E-002   2.5743636878601428E-002
  -4.5665787739981561E-002   1.3639800996236018E-002   2.4301470507061551E-002
  -4.3920231034874205E-002   1.2811397695649610E-002   2.2382752636774167E-002
  -4.2174674329766855E-002   1.1729230880595066E-002   1.9987483267739289E-002
  -4.0429117624659450E-002   1.0393300551071460E-002   1.7115662399957099E-002
  -5.1646418830406327E-002   1.5341842703630260E-002   2.2614931635441482E-002
  -4.9998663499349200E-002   1.4692351212651861E-002   2.1897075813380712E-002
  -4.8350908168292073E-002   1.3841938458739517E-002   2.1460168741967045E-002
  -4.6703152837234925E-002   1.2790604441893484E-002   2.1304210421200037E-002
  -4.5055397506177819E-002   1.1538349162113493E-002   2.1429200851080465E-002
  -5.5308590402240683E-002   1.6469244624906704E-002   1.9384953561653498E-002
  -5.3001136195839411E-002   1.5744901429067620E-002   1.9444250540606611E-002
  -5.0693681989438050E-002   1.4872479221829195E-002   2.0541996519601223E-002
  -4.8386227783036737E-002   1.3851978003191873E-002   2.2678191498637073E-002
  -4.6078773576635493E-002   1.2683397773155414E-002   2.5852835477714164E-002
  -5.8397859160592036E-002   1.7596646546182967E-002   1.6053702657237764E-002
  -5.4673205829452065E-002   1.6797451645483311E-002   1.6942994688739214E-002
  -5.0948552498312205E-002   1.5903019984918932E-002   1.9628235969676590E-002
  -4.7223899167172248E-002   1.4913351564490442E-002   2.4109426500049911E-002
  -4.3499245836032319E-002   1.3828446384197335E-002   3.0386566279858723E-002
  -6.0914225105460185E-002   1.8724048467459675E-002   1.2621178922193721E-002
  -5.5014872400187320E-002   1.7850001861899112E-002   1.4393308257778514E-002
  -4.9115519694914345E-002   1.6933560748008475E-002   1.8718887092193520E-002
  -4.3216166989641508E-002   1.5974725125788992E-002   2.5597915425438829E-002
  -3.7316814284368505E-002   1.4973494995239367E-002   3.5030393257514225E-002
 </DataArray>
 </PointData>
 </Piece>
 <Piece  NumberOfPoints="          1600 "  NumberOfCells="         1024 ">
 <Points>
 <DataArray  type="Float64" NumberOfComponents="3"  format="ascii" >
  0.50000000000000000        0.0000000000000000        0.0000000000000000     
  0.53125000000000000        0.0000000000000000        0.0000000000000000     
  0.56250000000000000        0.0000000000000000        0.0000000000000000     
  0.59375000000000000        0.0000000000000000        0.0000000000000000     
  0.62500000000000000        0.0000000000000000        0.0000000000000000     
  0.50000000000000000        3.1250000000000000E-002   0.0000000000000000     
  0.53125000000000000        3.1250000000000000E-002   0.0000000000000000     
  0.56250000000000000        3.1250000000000000E-002   0.0000000000000000     
  0.59375000000000000        3.1250000000000000E-002   0.0000000000000000     
  0.62500000000000000        3.1250000000000000E-002   0.0000000000000000     
  0.50000000000000000        6.2500000000000000E-002   0.0000000000000000     
  0.53125000000000000        6.2500000000000000E-002   0.0000000000000000     
  0.56250000000000000        6.2500000000000000E-002   0.0000000000000000     
  0.59375000000000000        6.2500000000000000E-002   0.0000000000000000     
  0.62500000000000000        6.2500000000000000E-002   0.0000000000000000     
  0.50000000000000000        9.3750000000000000E-002   0.0000000000000000     
  0.53125000000000000        9.3750000000000000E-002   0.0000000000000000     
  0.56250000000000000        9.3750000000000000E-002   0.0000000000000000     
  0.59375000000000000        9.3750000000000000E-002   0.0000000000000000     
  0.62500000000000000        9.3750000000000000E-002   0.0000000000000000     
  0.50000000000000000       0.12500000000000000        0.0000000000000000     
  0.53125000000000000       0.12500000000000000        0.0000000000000000     
  0.56250000000000000       0.12500000000000000        0.0000000000000000     
  0.59375000000000000       0.12500000000000000        0.0000000000000000     
  0.62500000000000000       0.12500000000000000        0.0000000000000000     
  0.62500000000000000        0.0000000000000000        0.0000000000000000     
  0.65625000000000000        0.0000000000000000        0.0000000000000000     
  0.68750000000000000        0.0000000000000000        0.0000000000000000     
  0.71875000000000000        0.0000000000000000        0.0000000000000000     
  0.75000000000000000        0.0000000000000000        0.0000000000000000     
  0.62500000000000000        3.1250000000000000E-002   0.0000000000000000     
  0.65625000000000000        3.1250000000000000E-002   0.0000000000000000     
  0.68750000000000000        3.1250000000000000E-002   0.0000000000000000     
  0.71875000000000000        3.1250000000000000E-002   0.0000000000000000     
  0.75000000000000000        3.1250000000000000E-002   0.0000000000000000     
  0.62500000000000000        6.2500000000000000E-002   0.0000000000000000     
  0.65625000000000000        6.2500000000000000E-002   0.0000000000000000     
  0.68750000000000000        6.2500000000000000E-002   0.0000000000000000     
  0.71875000000000000        6.2500000000000000E-002   0.0000000000000000     
  0.75000000000000000        6.2500000000000000E-002   0.0000000000000000     
  0.62500000000000000        9.3750000000000000E-002   0.0000000000000000     
  0.65625000000000000        9.3750000000000000E-002   0.0000000000000000     
  0.68750000000000000        9.3750000000000000E-002   0.0000000000000000     
  0.71875000000000000        9.3750000000000000E-002   0.0000000000000000     
  0.75000000000000000        9.3750000000000000E-002   0.0000000000000000     
  0.62500000000000000       0.12500000000000000        0.0000000000000000     
  0.65625000000000000       0.12500000000000000        0.0000000000000000     
  0.68750000000000000       0.12500000000000000        0.0000000000000000     
  0.71875000000000000       0.12500000000000000        0.0000000000000000     
  0.75000000000000000       0.12500000000000000        0.0000000000000000     
  0.75000000000000000        0.0000000000000000        0.0000000000000000     
  0.78125000000000000        0.0000000000000000        0.0000000000000000     
  0.81250000000000000        0.0000000000000000        0.0000000000000000     
  0.84375000000000000        0.0000000000000000        0.0000000000000000     
  0.87500000000000000        0.0000000000000000        0.0000000000000000     
  0.75000000000000000        3.1250000000000000E-002   0.0000000000000000     
  0.78125000000000000        3.1250000000000000E-002   0.0000000000000000     
  0.81250000000000000        3.1250000000000000E-002   0.0000000000000000     
  0.84375000000000000        3.1250000000000000E-002   0.0000000000000000     
  0.87500000000000000        3.1250000000000000E-002   0.0000000000000000     
  0.75000000000000000        6.2500000000000000E-002   0.0000000000000000     
  0.78125000000000000        6.2500000000000000E-002   0.0000000000000000     
  0.81250000000000000        6.2500000000000000E-002   0.0000000000000000     
  0.84375000000000000        6.2500000000000000E-002   0.0000000000000000     
  0.87500000000000000        6.2500000000000000E-002   0.0000000000000000     
  0.75000000000000000        9.3750000000000000E-002   0.0000000000000000     
  0.78125000000000000        9.3750000000000000E-002   0.0000000000000000     
  0.81250000000000000        9.3750000000000000E-002   0.0000000000000000     
  0.84375000000000000        9.3750000000000000E-002   0.0000000000000000     
  0.87500000000000000        9.3750000000000000E-002   0.0000000000000000     
  0.75000000000000000       0.12500000000000000        0.0000000000000000     
  0.78125000000000000       0.12500000000000000        0.0000000000000000     
  0.81250000000000000       0.12500000000000000        0.0000000000000000     
  0.84375000000000000       0.12500000000000000        0.0000000000000000     
  0.87500000000000000       0.12500000000000000        0.0000000000000000     
  0.87500000000000000        0.0000000000000000        0.0000000000000000     
  0.90625000000000000        0.0000000000000000        0.0000000000000000     
  0.93750000000000000        0.0000000000000000        0.0000000000000000     
  0.96875000000000000        0.0000000000000000        0.0000000000000000     
   1.0000000000000000        0.0000000000000000        0.0000000000000000     
  0.87500000000000000        3.1250000000000000E-002   0.0000000000000000     
  0.90625000000000000        3.1250000000000000E-002   0.0000000000000000     
  0.93750000000000000        3.1250000000000000E-002   0.0000000000000000     
  0.96875000000000000        3.1250000000000000E-002   0.0000000000000000     
   1.0000000000000000        3.1250000000000000E-002   0.0000000000000000     
  0.87500000000000000        6.2500000000000000E-002   0.0000000000000000     
  0.90625000000000000        6.2500000000000000E-002   0.0000000000000000     
  0.93750000000000000        6.2500000000000000E-002   0.0000000000000000     
  0.96875000000000000        6.2500000000000000E-002   0.0000000000000000     
   1.0000000000000000        6.2500000000000000E-002   0.0000000000000000     
  0.87500000000000000        9.3750000000000000E-002   0.0000000000000000     
  0.90625000000000000        9.3750000000000000E-002   0.0000000000000000     
  0.93750000000000000        9.3750000000000000E-002   0.0000000000000000     
  0.96875000000000000        9.3750000000000000E-002   0.0000000000000000     
   1.0000000000000000        9.3750000000000000E-002   0.0000000000000000     
  0.87500000000000000       0.12500000000000000        0.0000000000000000     
  0.90625000000000000       0.12500000000000000        0.0000000000000000     
  0.93750000000000000       0.12500000000000000        0.0000000000000000     
  0.96875000000000000       0.12500000000000000        0.0000000000000000     
   1.0000000000000000       0.12500000000000000        0.0000000000000000     
   1.0000000000000000        0.0000000000000000        0.0000000000000000     
   1.0312500000000000        0.0000000000000000        0.0000000000000000     
   1.0625000000000000        0.0000000000000000        0.0000000000000000     
   1.0937500000000000        0.0000000000000000        0.0000000000000000     
   1.1250000000000000        0.0000000000000000        0.0000000000000000     
   1.0000000000000000        3.1250000000000000E-002   0.0000000000000000     
   1.0312500000000000        3.1250000000000000E-002   0.0000000000000000     
   1.0625000000000000        3.1250000000000000E-002   0.0000000000000000     
   1.0937500000000000        3.1250000000000000E-002   0.0000000000000000     
   1.1250000000000000        3.1250000000000000E-002   0.0000000000000000     
   1.0000000000000000        6.2500000000000000E-002   0.0000000000000000     
   1.0312500000000000        6.2500000000000000E-002   0.0000000000000000     
   1.0625000000000000        6.2500000000000000E-002   0.0000000000000000     
   1.0937500000000000        6.2500000000000000E-002   0.0000000000000000     
   1.1250000000000000        6.2500000000000000E-002   0.0000000000000000     
   1.0000000000000000        9.3750000000000000E-002   0.0000000000000000     
   1.0312500000000000        9.3750000000000000E-002   0.0000000000000000     
   1.0625000000000000        9.3750000000000000E-002   0.0000000000000000     
   1.0937500000000000        9.3750000000000000E-002   0.0000000000000000     
   1.1250000000000000        9.3750000000000000E-002   0.0000000000000000     
   1.0000000000000000       0.12500000000000000        0.0000000000000000     
   1.0312500000000000       0.12500000000000000        0.0000000000000000     
   1.0625000000000000       0.12500000000000000        0.0000000000000000     
   1.0937500000000000       0.12500000000000000        0.0000000000000000     
   1.1250000000000000       0.12500000000000000        0.0000000000000000     
   1.1250000000000000        0.0000000000000000        0.0000000000000000     
   1.1562500000000000        0.0000000000000000        0.0000000000000000     
   1.1875000000000000        0.0000000000000000        0.0000000000000000     
   1.2187500000000000        0.0000000000000000        0.0000000000000000     
   1.2500000000000000        0.0000000000000000        0.0000000000000000     
   1.1250000000000000        3.1250000000000000E-002   0.0000000000000000     
   1.1562500000000000        3.1250000000000000E-002   0.0000000000000000     
   1.1875000000000000        3.1250000000000000E-002   0.0000000000000000     
   1.2187500000000000        3.1250000000000000E-002   0.0000000000000000     
   1.2500000000000000        3.1250000000000000E-002   0.0000000000000000     
   1.1250000000000000        6.2500000000000000E-002   0.0000000000000000     
   1.1562500000000000        6.2500000000000000E-002   0.0000000000000000     
   1.1875000000000000        6.2500000000000000E-002   0.0000000000000000     
   1.2187500000000000        6.2500000000000000E-002   0.0000000000000000     
   1.2500000000000000        6.2500000000000000E-002   0.0000000000000000     
   1.1250000000000000        9.3750000000000000E-002   0.0000000000000000     
   1.1562500000000000        9.3750000000000000E-002   0.0000000000000000     
   1.1875000000000000        9.3750000000000000E-002   0.0000000000000000     
   1.2187500000000000        9.3750000000000000E-002   0.0000000000000000     
   1.2500000000000000        9.3750000000000000E-002   0.0000000000000000     
   1.1250000000000000       0.12500000000000000        0.0000000000000000     
   1.1562500000000000       0.12500000000000000        0.0000000000000000     
   1.1875000000000000       0.12500000000000000        0.0000000000000000     
   1.2187500000000000       0.12500000000000000        0.0000000000000000     
   1.2500000000000000       0.12500000000000000        0.0000000000000000     
   1.2500000000000000        0.0000000000000000        0.0000000000000000     
   1.2812500000000000        0.0000000000000000        0.0000000000000000     
   1.3125000000000000        0.0000000000000000        0.0000000000000000     
   1.3437500000000000        0.0000000000000000        0.0000000000000000     
   1.3750000000000000        0.0000000000000000        0.0000000000000000     
   1.2500000000000000        3.1250000000000000E-002   0.0000000000000000     
   1.2812500000000000        3.1250000000000000E-002   0.0000000000000000     
   1.3125000000000000        3.1250000000000000E-002   0.0000000000000000     
   1.3437500000000000        3.1250000000000000E-002   0.0000000000000000     
   1.3750000000000000        3.1250000000000000E-002   0.0000000000000000     
   1.2500000000000000        6.2500000000000000E-002   0.0000000000000000     
   1.2812500000000000        6.2500000000000000E-002   0.0000000000000000     
   1.3125000000000000        6.2500000000000000E-002   0.0000000000000000     
   1.3437500000000000        6.2500000000000000E-002   0.0000000000000000     
   1.3750000000000000        6.2500000000000000E-002   0.0000000000000000     
   1.2500000000000000        9.3750000000000000E-002   0.0000000000000000     
   1.2812500000000000        9.3750000000000000E-002   0.0000000000000000     
   1.3125000000000000        9.3750000000000000E-002   0.0000000000000000     
   1.3437500000000000        9.3750000000000000E-002   0.0000000000000000     
   1.3750000000000000        9.3750000000000000E-002   0.0000000000000000     
   1.2500000000000000       0.12500000000000000        0.0000000000000000     
   1.2812500000000000       0.12500000000000000        0.0000000000000000     
   1.3125000000000000       0.12500000000000000        0.0000000000000000     
   1.3437500000000000       0.12500000000000000        0.0000000000000000     
   1.3750000000000000       0.12500000000000000        0.0000000000000000     
   1.3750000000000000        0.0000000000000000        0.0000000000000000     
   1.4062500000000000        0.0000000000000000        0.0000000000000000     
   1.4375000000000000        0.0000000000000000        0.0000000000000000     
   1.4687500000000000        0.0000000000000000        0.0000000000000000     
   1.5000000000000000        0.0000000000000000        0.0000000000000000     
   1.3750000000000000        3.1250000000000000E-002   0.0000000000000000     
   1.4062500000000000        3.1250000000000000E-002   0.0000000000000000     
   1.4375000000000000        3.1250000000000000E-002   0.0000000000000000     
   1.4687500000000000        3.1250000000000000E-002   0.0000000000000000     
   1.5000000000000000        3.1250000000000000E-002   0.0000000000000000     
   1.3750000000000000        6.2500000000000000E-002   0.0000000000000000     
   1.4062500000000000        6.2500000000000000E-002   0.0000000000000000     
   1.4375000000000000        6.2500000000000000E-002   0.0000000000000000     
   1.4687500000000000        6.2500000000000000E-002   0.0000000000000000     
   1.5000000000000000        6.2500000000000000E-002   0.0000000000000000     
   1.3750000000000000        9.3750000000000000E-002   0.0000000000000000     
   1.4062500000000000        9.3750000000000000E-002   0.0000000000000000     
   1.4375000000000000        9.3750000000000000E-002   0.0000000000000000     
   1.4687500000000000        9.3750000000000000E-002   0.0000000000000000     
   1.5000000000000000        9.3750000000000000E-002   0.0000000000000000     
   1.3750000000000000       0.12500000000000000        0.0000000000000000     
   1.4062500000000000       0.12500000000000000        0.0000000000000000     
   1.4375000000000000       0.12500000000000000        0.0000000000000000     
   1.4687500000000000       0.12500000000000000        0.0000000000000000     
   1.5000000000000000       0.12500000000000000        0.0000000000000000     
  0.50000000000000000       0.12500000000000000        0.0000000000000000     
  0.53125000000000000       0.12500000000000000        0.0000000000000000     
  0.56250000000000000       0.12500000000000000        0.0000000000000000     
  0.59375000000000000       0.12500000000000000        0.0000000000000000     
  0.62500000000000000       0.12500000000000000        0.0000000000000000     
  0.50000000000000000       0.15625000000000000        0.0000000000000000     
  0.53125000000000000       0.15625000000000000        0.0000000000000000     
  0.56250000000000000       0.15625000000000000        0.0000000000000000     
  0.59375000000000000       0.15625000000000000        0.0000000000000000     
  0.62500000000000000       0.15625000000000000        0.0000000000000000     
  0.50000000000000000       0.18750000000000000        0.0000000000000000     
  0.53125000000000000       0.18750000000000000        0.0000000000000000     
  0.56250000000000000       0.18750000000000000        0.0000000000000000     
  0.59375000000000000       0.18750000000000000        0.0000000000000000     
  0.62500000000000000       0.18750000000000000        0.0000000000000000     
  0.50000000000000000       0.21875000000000000        0.0000000000000000     
  0.53125000000000000       0.21875000000000000        0.0000000000000000     
  0.56250000000000000       0.21875000000000000        0.0000000000000000     
  0.59375000000000000       0.21875000000000000        0.0000000000000000     
  0.62500000000000000       0.21875000000000000        0.0000000000000000     
  0.50000000000000000       0.25000000000000000        0.0000000000000000     
  0.53125000000000000       0.25000000000000000        0.0000000000000000     
  0.56250000000000000       0.25000000000000000        0.0000000000000000     
  0.59375000000000000       0.25000000000000000        0.0000000000000000     
  0.62500000000000000       0.25000000000000000        0.0000000000000000     
  0.62500000000000000       0.12500000000000000        0.0000000000000000     
  0.65625000000000000       0.12500000000000000        0.0000000000000000     
  0.68750000000000000       0.12500000000000000        0.0000000000000000     
  0.71875000000000000       0.12500000000000000        0.0000000000000000     
  0.75000000000000000       0.12500000000000000        0.0000000000000000     
  0.62500000000000000       0.15625000000000000        0.0000000000000000     
  0.65625000000000000       0.15625000000000000        0.0000000000000000     
  0.68750000000000000       0.15625000000000000        0.0000000000000000     
  0.71875000000000000       0.15625000000000000        0.0000000000000000     
  0.75000000000000000       0.15625000000000000        0.0000000000000000     
  0.62500000000000000       0.18750000000000000        0.0000000000000000     
  0.65625000000000000       0.18750000000000000        0.0000000000000000     
  0.68750000000000000       0.18750000000000000        0.0000000000000000     
  0.71875000000000000       0.18750000000000000        0.0000000000000000     
  0.75000000000000000       0.18750000000000000        0.0000000000000000     
  0.62500000000000000       0.21875000000000000        0.0000000000000000     
  0.65625000000000000       0.21875000000000000        0.0000000000000000     
  0.68750000000000000       0.21875000000000000        0.0000000000000000     
  0.71875000000000000       0.21875000000000000        0.0000000000000000     
  0.75000000000000000       0.21875000000000000        0.0000000000000000     
  0.62500000000000000       0.25000000000000000        0.0000000000000000     
  0.65625000000000000       0.25000000000000000        0.0000000000000000     
  0.68750000000000000       0.25000000000000000        0.0000000000000000     
  0.71875000000000000       0.25000000000000000        0.0000000000000000     
  0.75000000000000000       0.25000000000000000        0.0000000000000000     
  0.75000000000000000       0.12500000000000000        0.0000000000000000     
  0.78125000000000000       0.12500000000000000        0.0000000000000000     
  0.81250000000000000       0.12500000000000000        0.0000000000000000     
  0.84375000000000000       0.12500000000000000        0.0000000000000000     
  0.87500000000000000       0.12500000000000000        0.0000000000000000     
  0.75000000000000000       0.15625000000000000        0.0000000000000000     
  0.78125000000000000       0.15625000000000000        0.0000000000000000     
  0.81250000000000000       0.15625000000000000        0.0000000000000000     
  0.84375000000000000       0.15625000000000000        0.0000000000000000     
  0.87500000000000000       0.15625000000000000        0.0000000000000000     
  0.75000000000000000       0.18750000000000000        0.0000000000000000     
  0.78125000000000000       0.18750000000000000        0.0000000000000000     
  0.81250000000000000       0.18750000000000000        0.0000000000000000     
  0.84375000000000000       0.18750000000000000        0.0000000000000000     
  0.87500000000000000       0.18750000000000000        0.0000000000000000     
  0.75000000000000000       0.21875000000000000        0.0000000000000000     
  0.78125000000000000       0.21875000000000000        0.0000000000000000     
  0.81250000000000000       0.21875000000000000        0.0000000000000000     
  0.84375000000000000       0.21875000000000000        0.0000000000000000     
  0.87500000000000000       0.21875000000000000        0.0000000000000000     
  0.75000000000000000       0.25000000000000000        0.0000000000000000     
  0.78125000000000000       0.25000000000000000        0.0000000000000000     
  0.81250000000000000       0.25000000000000000        0.0000000000000000     
  0.84375000000000000       0.25000000000000000        0.0000000000000000     
  0.87500000000000000       0.25000000000000000        0.0000000000000000     
  0.87500000000000000       0.12500000000000000        0.0000000000000000     
  0.90625000000000000       0.12500000000000000        0.0000000000000000     
  0.93750000000000000       0.12500000000000000        0.0000000000000000     
  0.96875000000000000       0.12500000000000000        0.0000000000000000     
   1.0000000000000000       0.12500000000000000        0.0000000000000000     
  0.87500000000000000       0.15625000000000000        0.0000000000000000     
  0.90625000000000000       0.15625000000000000        0.0000000000000000     
  0.93750000000000000       0.15625000000000000        0.0000000000000000     
  0.96875000000000000       0.15625000000000000        0.0000000000000000     
   1.0000000000000000       0.15625000000000000        0.0000000000000000     
  0.87500000000000000       0.18750000000000000        0.0000000000000000     
  0.90625000000000000       0.18750000000000000        0.0000000000000000     
  0.93750000000000000       0.18750000000000000        0.0000000000000000     
  0.96875000000000000       0.18750000000000000        0.0000000000000000     
   1.0000000000000000       0.18750000000000000        0.0000000000000000     
  0.87500000000000000       0.21875000000000000        0.0000000000000000     
  0.90625000000000000       0.21875000000000000        0.0000000000000000     
  0.93750000000000000       0.21875000000000000        0.0000000000000000     
  0.96875000000000000       0.21875000000000000        0.0000000000000000     
   1.0000000000000000       0.21875000000000000        0.0000000000000000     
  0.87500000000000000       0.25000000000000000        0.0000000000000000     
  0.90625000000000000       0.25000000000000000        0.0000000000000000     
  0.93750000000000000       0.25000000000000000        0.0000000000000000     
  0.96875000000000000       0.25000000000000000        0.0000000000000000     
   1.0000000000000000       0.25000000000000000        0.0000000000000000     
   1.0000000000000000       0.12500000000000000        0.0000000000000000     
   1.0312500000000000       0.12500000000000000        0.0000000000000000     
   1.0625000000000000       0.12500000000000000        0.0000000000000000     
   1.0937500000000000       0.12500000000000000        0.0000000000000000     
   1.1250000000000000       0.12500000000000000        0.0000000000000000     
   1.0000000000000000       0.15625000000000000        0.0000000000000000     
   1.0312500000000000       0.15625000000000000        0.0000000000000000     
   1.0625000000000000       0.15625000000000000        0.0000000000000000     
   1.0937500000000000       0.15625000000000000        0.0000000000000000     
   1.1250000000000000       0.15625000000000000        0.0000000000000000     
   1.0000000000000000       0.18750000000000000        0.0000000000000000     
   1.0312500000000000       0.18750000000000000        0.0000000000000000     
   1.0625000000000000       0.18750000000000000        0.0000000000000000     
   1.0937500000000000       0.18750000000000000        0.0000000000000000     
   1.1250000000000000       0.18750000000000000        0.0000000000000000     
   1.0000000000000000       0.21875000000000000        0.0000000000000000     
   1.0312500000000000       0.21875000000000000        0.0000000000000000     
   1.0625000000000000       0.21875000000000000        0.0000000000000000     
   1.0937500000000000       0.21875000000000000        0.0000000000000000     
   1.1250000000000000       0.21875000000000000        0.0000000000000000     
   1.0000000000000000       0.25000000000000000        0.0000000000000000     
   1.0312500000000000       0.25000000000000000        0.0000000000000000     
   1.0625000000000000       0.25000000000000000        0.0000000000000000     
   1.0937500000000000       0.25000000000000000        0.0000000000000000     
   1.1250000000000000       0.25000000000000000        0.0000000000000000     
   1.1250000000000000       0.12500000000000000        0.0000000000000000     
   1.1562500000000000       0.12500000000000000        0.0000000000000000     
   1.1875000000000000       0.12500000000000000        0.0000000000000000     
   1.2187500000000000       0.12500000000000000        0.0000000000000000     
   1.2500000000000000       0.12500000000000000        0.0000000000000000     
   1.1250000000000000       0.15625000000000000        0.0000000000000000     
   1.1562500000000000       0.15625000000000000        0.0000000000000000     
   1.1875000000000000       0.15625000000000000        0.0000000000000000     
   1.2187500000000000       0.15625000000000000        0.0000000000000000     
   1.2500000000000000       0.15625000000000000        0.0000000000000000     
   1.1250000000000000       0.18750000000000000        0.0000000000000000     
   1.1562500000000000       0.18750000000000000        0.0000000000000000     
   1.1875000000000000       0.18750000000000000        0.0000000000000000     
   1.2187500000000000       0.18750000000000000        0.0000000000000000     
   1.2500000000000000       0.18750000000000000        0.0000000000000000     
   1.1250000000000000       0.21875000000000000        0.0000000000000000     
   1.1562500000000000       0.21875000000000000        0.0000000000000000     
   1.1875000000000000       0.21875000000000000        0.0000000000000000     
   1.2187500000000000       0.21875000000000000        0.0000000000000000     
   1.2500000000000000       0.21875000000000000        0.0000000000000000     
   1.1250000000000000       0.25000000000000000        0.0000000000000000     
   1.1562500000000000       0.25000000000000000        0.0000000000000000     
   1.1875000000000000       0.25000000000000000        0.0000000000000000     
   1.2187500000000000       0.25000000000000000        0.0000000000000000     
   1.2500000000000000       0.25000000000000000        0.0000000000000000     
   1.2500000000000000       0.12500000000000000        0.0000000000000000     
   1.2812500000000000       0.12500000000000000        0.0000000000000000     
   1.3125000000000000       0.12500000000000000        0.0000000000000000     
   1.3437500000000000       0.12500000000000000        0.0000000000000000     
   1.3750000000000000       0.12500000000000000        0.0000000000000000     
   1.2500000000000000       0.15625000000000000        0.0000000000000000     
   1.2812500000000000       0.15625000000000000        0.0000000000000000     
   1.3125000000000000       0.15625000000000000        0.0000000000000000     
   1.3437500000000000       0.15625000000000000        0.0000000000000000     
   1.3750000000000000       0.15625000000000000        0.0000000000000000     
   1.2500000000000000       0.18750000000000000        0.0000000000000000     
   1.2812500000000000       0.18750000000000000        0.0000000000000000     
   1.3125000000000000       0.18750000000000000        0.0000000000000000     
   1.3437500000000000       0.18750000000000000        0.0000000000000000     
   1.3750000000000000       0.18750000000000000        0.0000000000000000     
   1.2500000000000000       0.21875000000000000        0.0000000000000000     
   1.2812500000000000       0.21875000000000000        0.0000000000000000     
   1.3125000000000000       0.21875000000000000        0.0000000000000000     
   1.3437500000000000       0.21875000000000000        0.0000000000000000     
   1.3750000000000000       0.21875000000000000        0.0000000000000000     
   1.2500000000000000       0.25000000000000000        0.0000000000000000     
   1.2812500000000000       0.25000000000000000        0.0000000000000000     
   1.3125000000000000       0.25000000000000000        0.0000000000000000     
   1.3437500000000000       0.25000000000000000        0.0000000000000000     
   1.3750000000000000       0.25000000000000000        0.0000000000000000     
   1.3750000000000000       0.12500000000000000        0.0000000000000000     
   1.4062500000000000       0.12500000000000000        0.0000000000000000     
   1.4375000000000000       0.12500000000000000        0.0000000000000000     
   1.4687500000000000       0.12500000000000000        0.0000000000000000     
   1.5000000000000000       0.12500000000000000        0.0000000000000000     
   1.3750000000000000       0.15625000000000000        0.0000000000000000     
   1.4062500000000000       0.15625000000000000        0.0000000000000000     
   1.4375000000000000       0.15625000000000000        0.0000000000000000     
   1.4687500000000000       0.15625000000000000        0.0000000000000000     
   1.5000000000000000       0.15625000000000000        0.0000000000000000     
   1.3750000000000000       0.18750000000000000        0.0000000000000000     
   1.4062500000000000       0.18750000000000000        0.0000000000000000     
   1.4375000000000000       0.18750000000000000        0.0000000000000000     
   1.4687500000000000       0.18750000000000000        0.0000000000000000     
   1.5000000000000000       0.18750000000000000        0.0000000000000000     
   1.3750000000000000       0.21875000000000000        0.0000000000000000     
   1.4062500000000000       0.21875000000000000        0.0000000000000000     
   1.4375000000000000       0.21875000000000000        0.0000000000000000     
   1.4687500000000000       0.21875000000000000        0.0000000000000000     
   1.5000000000000000       0.21875000000000000        0.0000000000000000     
   1.3750000000000000       0.25000000000000000        0.0000000000000000     
   1.4062500000000000       0.25000000000000000        0.0000000000000000     
   1.4375000000000000       0.25000000000000000        0.0000000000000000     
   1.4687500000000000       0.25000000000000000        0.0000000000000000     
   1.5000000000000000       0.25000000000000000        0.0000000000000000     
  0.50000000000000000       0.25000000000000000        0.0000000000000000     
  0.53125000000000000       0.25000000000000000        0.0000000000000000     
  0.56250000000000000       0.25000000000000000        0.0000000000000000     
  0.59375000000000000       0.25000000000000000        0.0000000000000000     
  0.62500000000000000       0.25000000000000000        0.0000000000000000     
  0.50000000000000000       0.28125000000000000        0.0000000000000000     
  0.53125000000000000       0.28125000000000000        0.0000000000000000     
  0.56250000000000000       0.28125000000000000        0.0000000000000000     
  0.59375000000000000       0.28125000000000000        0.0000000000000000     
  0.62500000000000000       0.28125000000000000        0.0000000000000000     
  0.50000000000000000       0.31250000000000000        0.0000000000000000     
  0.53125000000000000       0.31250000000000000        0.0000000000000000     
  0.56250000000000000       0.31250000000000000        0.0000000000000000     
  0.59375000000000000       0.31250000000000000        0.0000000000000000     
  0.62500000000000000       0.31250000000000000        0.0000000000000000     
  0.50000000000000000       0.34375000000000000        0.0000000000000000     
  0.53125000000000000       0.34375000000000000        0.0000000000000000     
  0.56250000000000000       0.34375000000000000        0.0000000000000000     
  0.59375000000000000       0.34375000000000000        0.0000000000000000     
  0.62500000000000000       0.34375000000000000        0.0000000000000000     
  0.50000000000000000       0.37500000000000000        0.0000000000000000     
  0.53125000000000000       0.37500000000000000        0.0000000000000000     
  0.56250000000000000       0.37500000000000000        0.0000000000000000     
  0.59375000000000000       0.37500000000000000        0.0000000000000000     
  0.62500000000000000       0.37500000000000000        0.0000000000000000     
  0.62500000000000000       0.25000000000000000        0.0000000000000000     
  0.65625000000000000       0.25000000000000000        0.0000000000000000     
  0.68750000000000000       0.25000000000000000        0.0000000000000000     
  0.71875000000000000       0.25000000000000000        0.0000000000000000     
  0.75000000000000000       0.25000000000000000        0.0000000000000000     
  0.62500000000000000       0.28125000000000000        0.0000000000000000     
  0.65625000000000000       0.28125000000000000        0.0000000000000000     
  0.68750000000000000       0.28125000000000000        0.0000000000000000     
  0.71875000000000000       0.28125000000000000        0.0000000000000000     
  0.75000000000000000       0.28125000000000000        0.0000000000000000     
  0.62500000000000000       0.31250000000000000        0.0000000000000000     
  0.65625000000000000       0.31250000000000000        0.0000000000000000     
  0.68750000000000000       0.31250000000000000        0.0000000000000000     
  0.71875000000000000       0.31250000000000000        0.0000000000000000     
  0.75000000000000000       0.31250000000000000        0.0000000000000000     
  0.62500000000000000       0.34375000000000000        0.0000000000000000     
  0.65625000000000000       0.34375000000000000        0.0000000000000000     
  0.68750000000000000       0.34375000000000000        0.0000000000000000     
  0.71875000000000000       0.34375000000000000        0.0000000000000000     
  0.75000000000000000       0.34375000000000000        0.0000000000000000     
  0.62500000000000000       0.37500000000000000        0.0000000000000000     
  0.65625000000000000       0.37500000000000000        0.0000000000000000     
  0.68750000000000000       0.37500000000000000        0.0000000000000000     
  0.71875000000000000       0.37500000000000000        0.0000000000000000     
  0.75000000000000000       0.37500000000000000        0.0000000000000000     
  0.75000000000000000       0.25000000000000000        0.0000000000000000     
  0.78125000000000000       0.25000000000000000        0.0000000000000000     
  0.81250000000000000       0.25000000000000000        0.0000000000000000     
  0.84375000000000000       0.25000000000000000        0.0000000000000000     
  0.87500000000000000       0.25000000000000000        0.0000000000000000     
  0.75000000000000000       0.28125000000000000        0.0000000000000000     
  0.78125000000000000       0.28125000000000000        0.0000000000000000     
  0.81250000000000000       0.28125000000000000        0.0000000000000000     
  0.84375000000000000       0.28125000000000000        0.0000000000000000     
  0.87500000000000000       0.28125000000000000        0.0000000000000000     
  0.75000000000000000       0.31250000000000000        0.0000000000000000     
  0.78125000000000000       0.31250000000000000        0.0000000000000000     
  0.81250000000000000       0.31250000000000000        0.0000000000000000     
  0.84375000000000000       0.31250000000000000        0.0000000000000000     
  0.87500000000000000       0.31250000000000000        0.0000000000000000     
  0.75000000000000000       0.34375000000000000        0.0000000000000000     
  0.78125000000000000       0.34375000000000000        0.0000000000000000     
  0.81250000000000000       0.34375000000000000        0.0000000000000000     
  0.84375000000000000       0.34375000000000000        0.0000000000000000     
  0.87500000000000000       0.34375000000000000        0.0000000000000000     
  0.75000000000000000       0.37500000000000000        0.0000000000000000     
  0.78125000000000000       0.37500000000000000        0.0000000000000000     
  0.81250000000000000       0.37500000000000000        0.0000000000000000     
  0.84375000000000000       0.37500000000000000        0.0000000000000000     
  0.87500000000000000       0.37500000000000000        0.0000000000000000     
  0.87500000000000000       0.25000000000000000        0.0000000000000000     
  0.90625000000000000       0.25000000000000000        0.0000000000000000     
  0.93750000000000000       0.25000000000000000        0.0000000000000000     
  0.96875000000000000       0.25000000000000000        0.0000000000000000     
   1.0000000000000000       0.25000000000000000        0.0000000000000000     
  0.87500000000000000       0.28125000000000000        0.0000000000000000     
  0.90625000000000000       0.28125000000000000        0.0000000000000000     
  0.93750000000000000       0.28125000000000000        0.0000000000000000     
  0.96875000000000000       0.28125000000000000        0.0000000000000000     
   1.0000000000000000       0.28125000000000000        0.0000000000000000     
  0.87500000000000000       0.31250000000000000        0.0000000000000000     
  0.90625000000000000       0.31250000000000000        0.0000000000000000     
  0.93750000000000000       0.31250000000000000        0.0000000000000000     
  0.96875000000000000       0.31250000000000000        0.0000000000000000     
   1.0000000000000000       0.31250000000000000        0.0000000000000000     
  0.87500000000000000       0.34375000000000000        0.0000000000000000     
  0.90625000000000000       0.34375000000000000        0.0000000000000000     
  0.93750000000000000       0.34375000000000000        0.0000000000000000     
  0.96875000000000000       0.34375000000000000        0.0000000000000000     
   1.0000000000000000       0.34375000000000000        0.0000000000000000     
  0.87500000000000000       0.37500000000000000        0.0000000000000000     
  0.90625000000000000       0.37500000000000000        0.0000000000000000     
  0.93750000000000000       0.37500000000000000        0.0000000000000000     
  0.96875000000000000       0.37500000000000000        0.0000000000000000     
   1.0000000000000000       0.37500000000000000        0.0000000000000000     
   1.0000000000000000       0.25000000000000000        0.0000000000000000     
   1.0312500000000000       0.25000000000000000        0.0000000000000000     
   1.0625000000000000       0.25000000000000000        0.0000000000000000     
   1.0937500000000000       0.25000000000000000        0.0000000000000000     
   1.1250000000000000       0.25000000000000000        0.0000000000000000     
   1.0000000000000000       0.28125000000000000        0.0000000000000000     
   1.0312500000000000       0.28125000000000000        0.0000000000000000     
   1.0625000000000000       0.28125000000000000        0.0000000000000000     
   1.0937500000000000       0.28125000000000000        0.0000000000000000     
   1.1250000000000000       0.28125000000000000        0.0000000000000000     
   1.0000000000000000       0.31250000000000000        0.0000000000000000     
   1.0312500000000000       0.31250000000000000        0.0000000000000000     
   1.0625000000000000       0.31250000000000000        0.0000000000000000     
   1.0937500000000000       0.31250000000000000        0.0000000000000000     
   1.1250000000000000       0.31250000000000000        0.0000000000000000     
   1.0000000000000000       0.34375000000000000        0.0000000000000000     
   1.0312500000000000       0.34375000000000000        0.0000000000000000     
   1.0625000000000000       0.34375000000000000        0.0000000000000000     
   1.0937500000000000       0.34375000000000000        0.0000000000000000     
   1.1250000000000000       0.34375000000000000        0.0000000000000000     
   1.0000000000000000       0.37500000000000000        0.0000000000000000     
   1.0312500000000000       0.37500000000000000        0.0000000000000000     
   1.0625000000000000       0.37500000000000000        0.0000000000000000     
   1.0937500000000000       0.37500000000000000        0.0000000000000000     
   1.1250000000000000       0.37500000000000000        0.0000000000000000     
   1.1250000000000000       0.25000000000000000        0.0000000000000000     
   1.1562500000000000       0.25000000000000000        0.0000000000000000     
   1.1875000000000000       0.25000000000000000        0.0000000000000000     
   1.2187500000000000       0.25000000000000000        0.0000000000000000     
   1.2500000000000000       0.25000000000000000        0.0000000000000000     
   1.1250000000000000       0.28125000000000000        0.0000000000000000     
   1.1562500000000000       0.28125000000000000        0.0000000000000000     
   1.1875000000000000       0.28125000000000000        0.0000000000000000     
   1.2187500000000000       0.28125000000000000        0.0000000000000000     
   1.2500000000000000       0.28125000000000000        0.0000000000000000     
   1.1250000000000000       0.31250000000000000        0.0000000000000000     
   1.1562500000000000       0.31250000000000000        0.0000000000000000     
   1.1875000000000000       0.31250000000000000        0.0000000000000000     
   1.2187500000000000       0.31250000000000000        0.0000000000000000     
   1.2500000000000000       0.31250000000000000        0.0000000000000000     
   1.1250000000000000       0.34375000000000000        0.0000000000000000     
   1.1562500000000000       0.34375000000000000        0.0000000000000000     
   1.1875000000000000       0.34375000000000000        0.0000000000000000     
   1.2187500000000000       0.34375000000000000        0.0000000000000000     
   1.2500000000000000       0.34375000000000000        0.0000000000000000     
   1.1250000000000000       0.37500000000000000        0.0000000000000000     
   1.1562500000000000       0.37500000000000000        0.0000000000000000     
   1.1875000000000000       0.37500000000000000        0.0000000000000000     
   1.2187500000000000       0.37500000000000000        0.0000000000000000     
   1.2500000000000000       0.37500000000000000        0.0000000000000000     
   1.2500000000000000       0.25000000000000000        0.0000000000000000     
   1.2812500000000000       0.25000000000000000        0.0000000000000000     
   1.3125000000000000       0.25000000000000000        0.0000000000000000     
   1.3437500000000000       0.25000000000000000        0.0000000000000000     
   1.3750000000000000       0.25000000000000000        0.0000000000000000     
   1.2500000000000000       0.28125000000000000        0.0000000000000000     
   1.2812500000000000       0.28125000000000000        0.0000000000000000     
   1.3125000000000000       0.28125000000000000        0.0000000000000000     
   1.3437500000000000       0.28125000000000000        0.0000000000000000     
   1.3750000000000000       0.28125000000000000        0.0000000000000000     
   1.2500000000000000       0.31250000000000000        0.0000000000000000     
   1.2812500000000000       0.31250000000000000        0.0000000000000000     
   1.3125000000000000       0.31250000000000000        0.0000000000000000     
   1.3437500000000000       0.31250000000000000        0.0000000000000000     
   1.3750000000000000       0.31250000000000000        0.0000000000000000     
   1.2500000000000000       0.34375000000000000        0.0000000000000000     
   1.2812500000000000       0.34375000000000000        0.0000000000000000     
   1.3125000000000000       0.34375000000000000        0.0000000000000000     
   1.3437500000000000       0.34375000000000000        0.0000000000000000     
   1.3750000000000000       0.34375000000000000        0.0000000000000000     
   1.2500000000000000       0.37500000000000000        0.0000000000000000     
   1.2812500000000000       0.37500000000000000        0.0000000000000000     
   1.3125000000000000       0.37500000000000000        0.0000000000000000     
   1.3437500000000000       0.37500000000000000        0.0000000000000000     
   1.3750000000000000       0.37500000000000000        0.0000000000000000     
   1.3750000000000000       0.25000000000000000        0.0000000000000000     
   1.4062500000000000       0.25000000000000000        0.0000000000000000     
   1.4375000000000000       0.25000000000000000        0.0000000000000000     
   1.4687500000000000       0.25000000000000000        0.0000000000000000     
   1.5000000000000000       0.25000000000000000        0.0000000000000000     
   1.3750000000000000       0.28125000000000000        0.0000000000000000     
   1.4062500000000000       0.28125000000000000        0.0000000000000000     
   1.4375000000000000       0.28125000000000000        0.0000000000000000     
   1.4687500000000000       0.28125000000000000        0.0000000000000000     
   1.5000000000000000       0.28125000000000000        0.0000000000000000     
   1.3750000000000000       0.31250000000000000        0.0000000000000000     
   1.4062500000000000       0.31250000000000000        0.0000000000000000     
   1.4375000000000000       0.31250000000000000        0.0000000000000000     
   1.4687500000000000       0.31250000000000000        0.0000000000000000     
   1.5000000000000000       0.31250000000000000        0.0000000000000000     
   1.3750000000000000       0.34375000000000000        0.0000000000000000     
   1.4062500000000000       0.34375000000000000        0.0000000000000000     
   1.4375000000000000       0.34375000000000000        0.0000000000000000     
   1.4687500000000000       0.34375000000000000        0.0000000000000000     
   1.5000000000000000       0.34375000000000000        0.0000000000000000     
   1.3750000000000000       0.37500000000000000        0.0000000000000000     
   1.4062500000000000       0.37500000000000000        0.0000000000000000     
   1.4375000000000000       0.37500000000000000        0.0000000000000000     
   1.4687500000000000       0.37500000000000000        0.0000000000000000     
   1.5000000000000000       0.37500000000000000        0.0000000000000000     
  0.50000000000000000       0.37500000000000000        0.0000000000000000     
  0.53125000000000000       0.37500000000000000        0.0000000000000000     
  0.56250000000000000       0.37500000000000000        0.0000000000000000     
  0.59375000000000000       0.37500000000000000        0.0000000000000000     
  0.62500000000000000       0.37500000000000000        0.0000000000000000     
  0.50000000000000000       0.40625000000000000        0.0000000000000000     
  0.53125000000000000       0.40625000000000000        0.0000000000000000     
  0.56250000000000000       0.40625000000000000        0.0000000000000000     
  0.59375000000000000       0.40625000000000000        0.0000000000000000     
  0.62500000000000000       0.40625000000000000        0.0000000000000000     
  0.50000000000000000       0.43750000000000000        0.0000000000000000     
  0.53125000000000000       0.43750000000000000        0.0000000000000000     
  0.56250000000000000       0.43750000000000000        0.0000000000000000     
  0.59375000000000000       0.43750000000000000        0.0000000000000000     
  0.62500000000000000       0.43750000000000000        0.0000000000000000     
  0.50000000000000000       0.46875000000000000        0.0000000000000000     
  0.53125000000000000       0.46875000000000000        0.0000000000000000     
  0.56250000000000000       0.46875000000000000        0.0000000000000000     
  0.59375000000000000       0.46875000000000000        0.0000000000000000     
  0.62500000000000000       0.46875000000000000        0.0000000000000000     
  0.50000000000000000       0.50000000000000000        0.0000000000000000     
  0.53125000000000000       0.50000000000000000        0.0000000000000000     
  0.56250000000000000       0.50000000000000000        0.0000000000000000     
  0.59375000000000000       0.50000000000000000        0.0000000000000000     
  0.62500000000000000       0.50000000000000000        0.0000000000000000     
  0.62500000000000000       0.37500000000000000        0.0000000000000000     
  0.65625000000000000       0.37500000000000000        0.0000000000000000     
  0.68750000000000000       0.37500000000000000        0.0000000000000000     
  0.71875000000000000       0.37500000000000000        0.0000000000000000     
  0.75000000000000000       0.37500000000000000        0.0000000000000000     
  0.62500000000000000       0.40625000000000000        0.0000000000000000     
  0.65625000000000000       0.40625000000000000        0.0000000000000000     
  0.68750000000000000       0.40625000000000000        0.0000000000000000     
  0.71875000000000000       0.40625000000000000        0.0000000000000000     
  0.75000000000000000       0.40625000000000000        0.0000000000000000     
  0.62500000000000000       0.43750000000000000        0.0000000000000000     
  0.65625000000000000       0.43750000000000000        0.0000000000000000     
  0.68750000000000000       0.43750000000000000        0.0000000000000000     
  0.71875000000000000       0.43750000000000000        0.0000000000000000     
  0.75000000000000000       0.43750000000000000        0.0000000000000000     
  0.62500000000000000       0.46875000000000000        0.0000000000000000     
  0.65625000000000000       0.46875000000000000        0.0000000000000000     
  0.68750000000000000       0.46875000000000000        0.0000000000000000     
  0.71875000000000000       0.46875000000000000        0.0000000000000000     
  0.75000000000000000       0.46875000000000000        0.0000000000000000     
  0.62500000000000000       0.50000000000000000        0.0000000000000000     
  0.65625000000000000       0.50000000000000000        0.0000000000000000     
  0.68750000000000000       0.50000000000000000        0.0000000000000000     
  0.71875000000000000       0.50000000000000000        0.0000000000000000     
  0.75000000000000000       0.50000000000000000        0.0000000000000000     
  0.75000000000000000       0.37500000000000000        0.0000000000000000     
  0.78125000000000000       0.37500000000000000        0.0000000000000000     
  0.81250000000000000       0.37500000000000000        0.0000000000000000     
  0.84375000000000000       0.37500000000000000        0.0000000000000000     
  0.87500000000000000       0.37500000000000000        0.0000000000000000     
  0.75000000000000000       0.40625000000000000        0.0000000000000000     
  0.78125000000000000       0.40625000000000000        0.0000000000000000     
  0.81250000000000000       0.40625000000000000        0.0000000000000000     
  0.84375000000000000       0.40625000000000000        0.0000000000000000     
  0.87500000000000000       0.40625000000000000        0.0000000000000000     
  0.75000000000000000       0.43750000000000000        0.0000000000000000     
  0.78125000000000000       0.43750000000000000        0.0000000000000000     
  0.81250000000000000       0.43750000000000000        0.0000000000000000     
  0.84375000000000000       0.43750000000000000        0.0000000000000000     
  0.87500000000000000       0.43750000000000000        0.0000000000000000     
  0.75000000000000000       0.46875000000000000        0.0000000000000000     
  0.78125000000000000       0.46875000000000000        0.0000000000000000     
  0.81250000000000000       0.46875000000000000        0.0000000000000000     
  0.84375000000000000       0.46875000000000000        0.0000000000000000     
  0.87500000000000000       0.46875000000000000        0.0000000000000000     
  0.75000000000000000       0.50000000000000000        0.0000000000000000     
  0.78125000000000000       0.50000000000000000        0.0000000000000000     
  0.81250000000000000       0.50000000000000000        0.0000000000000000     
  0.84375000000000000       0.50000000000000000        0.0000000000000000     
  0.87500000000000000       0.50000000000000000        0.0000000000000000     
  0.87500000000000000       0.37500000000000000        0.0000000000000000     
  0.90625000000000000       0.37500000000000000        0.0000000000000000     
  0.93750000000000000       0.37500000000000000        0.0000000000000000     
  0.96875000000000000       0.37500000000000000        0.0000000000000000     
   1.0000000000000000       0.37500000000000000        0.0000000000000000     
  0.87500000000000000       0.40625000000000000        0.0000000000000000     
  0.90625000000000000       0.40625000000000000        0.0000000000000000     
  0.93750000000000000       0.40625000000000000        0.0000000000000000     
  0.96875000000000000       0.40625000000000000        0.0000000000000000     
   1.0000000000000000       0.40625000000000000        0.0000000000000000     
  0.87500000000000000       0.43750000000000000        0.0000000000000000     
  0.90625000000000000       0.43750000000000000        0.0000000000000000     
  0.93750000000000000       0.43750000000000000        0.0000000000000000     
  0.96875000000000000       0.43750000000000000        0.0000000000000000     
   1.0000000000000000       0.43750000000000000        0.0000000000000000     
  0.87500000000000000       0.46875000000000000        0.0000000000000000     
  0.90625000000000000       0.46875000000000000        0.0000000000000000     
  0.93750000000000000       0.46875000000000000        0.0000000000000000     
  0.96875000000000000       0.46875000000000000        0.0000000000000000     
   1.0000000000000000       0.46875000000000000        0.0000000000000000     
  0.87500000000000000       0.50000000000000000        0.0000000000000000     
  0.90625000000000000       0.50000000000000000        0.0000000000000000     
  0.93750000000000000       0.50000000000000000        0.0000000000000000     
  0.96875000000000000       0.50000000000000000        0.0000000000000000     
   1.0000000000000000       0.50000000000000000        0.0000000000000000     
   1.0000000000000000       0.37500000000000000        0.0000000000000000     
   1.0312500000000000       0.37500000000000000        0.0000000000000000     
   1.0625000000000000       0.37500000000000000        0.0000000000000000     
   1.0937500000000000       0.37500000000000000        0.0000000000000000     
   1.1250000000000000       0.37500000000000000        0.0000000000000000     
   1.0000000000000000       0.40625000000000000        0.0000000000000000     
   1.0312500000000000       0.40625000000000000        0.0000000000000000     
   1.0625000000000000       0.40625000000000000        0.0000000000000000     
   1.0937500000000000       0.40625000000000000        0.0000000000000000     
   1.1250000000000000       0.40625000000000000        0.0000000000000000     
   1.0000000000000000       0.43750000000000000        0.0000000000000000     
   1.0312500000000000       0.43750000000000000        0.0000000000000000     
   1.0625000000000000       0.43750000000000000        0.0000000000000000     
   1.0937500000000000       0.43750000000000000        0.0000000000000000     
   1.1250000000000000       0.43750000000000000        0.0000000000000000     
   1.0000000000000000       0.46875000000000000        0.0000000000000000     
   1.0312500000000000       0.46875000000000000        0.0000000000000000     
   1.0625000000000000       0.46875000000000000        0.0000000000000000     
   1.0937500000000000       0.46875000000000000        0.0000000000000000     
   1.1250000000000000       0.46875000000000000        0.0000000000000000     
   1.0000000000000000       0.50000000000000000        0.0000000000000000     
   1.0312500000000000       0.50000000000000000        0.0000000000000000     
   1.0625000000000000       0.50000000000000000        0.0000000000000000     
   1.0937500000000000       0.50000000000000000        0.0000000000000000     
   1.1250000000000000       0.50000000000000000        0.0000000000000000     
   1.1250000000000000       0.37500000000000000        0.0000000000000000     
   1.1562500000000000       0.37500000000000000        0.0000000000000000     
   1.1875000000000000       0.37500000000000000        0.0000000000000000     
   1.2187500000000000       0.37500000000000000        0.0000000000000000     
   1.2500000000000000       0.37500000000000000        0.0000000000000000     
   1.1250000000000000       0.40625000000000000        0.0000000000000000     
   1.1562500000000000       0.40625000000000000        0.0000000000000000     
   1.1875000000000000       0.40625000000000000        0.0000000000000000     
   1.2187500000000000       0.40625000000000000        0.0000000000000000     
   1.2500000000000000       0.40625000000000000        0.0000000000000000     
   1.1250000000000000       0.43750000000000000        0.0000000000000000     
   1.1562500000000000       0.43750000000000000        0.0000000000000000     
   1.1875000000000000       0.43750000000000000        0.0000000000000000     
   1.2187500000000000       0.43750000000000000        0.0000000000000000     
   1.2500000000000000       0.43750000000000000        0.0000000000000000     
   1.1250000000000000       0.46875000000000000        0.0000000000000000     
   1.1562500000000000       0.46875000000000000        0.0000000000000000     
   1.1875000000000000       0.46875000000000000        0.0000000000000000     
   1.2187500000000000       0.46875000000000000        0.0000000000000000     
   1.2500000000000000       0.46875000000000000        0.0000000000000000     
   1.1250000000000000       0.50000000000000000        0.0000000000000000     
   1.1562500000000000       0.50000000000000000        0.0000000000000000     
   1.1875000000000000       0.50000000000000000        0.0000000000000000     
   1.2187500000000000       0.50000000000000000        0.0000000000000000     
   1.2500000000000000       0.50000000000000000        0.0000000000000000     
   1.2500000000000000       0.37500000000000000        0.0000000000000000     
   1.2812500000000000       0.37500000000000000        0.0000000000000000     
   1.3125000000000000       0.37500000000000000        0.0000000000000000     
   1.3437500000000000       0.37500000000000000        0.0000000000000000     
   1.3750000000000000       0.37500000000000000        0.0000000000000000     
   1.2500000000000000       0.40625000000000000        0.0000000000000000     
   1.2812500000000000       0.40625000000000000        0.0000000000000000     
   1.3125000000000000       0.40625000000000000        0.0000000000000000     
   1.3437500000000000       0.40625000000000000        0.0000000000000000     
   1.3750000000000000       0.40625000000000000        0.0000000000000000     
   1.2500000000000000       0.43750000000000000        0.0000000000000000     
   1.2812500000000000       0.43750000000000000        0.0000000000000000     
   1.3125000000000000       0.43750000000000000        0.0000000000000000     
   1.3437500000000000       0.43750000000000000        0.0000000000000000     
   1.3750000000000000       0.43750000000000000        0.0000000000000000     
   1.2500000000000000       0.46875000000000000        0.0000000000000000     
   1.2812500000000000       0.46875000000000000        0.0000000000000000     
   1.3125000000000000       0.46875000000000000        0.0000000000000000     
   1.3437500000000000       0.46875000000000000        0.0000000000000000     
   1.3750000000000000       0.46875000000000000        0.0000000000000000     
   1.2500000000000000       0.50000000000000000        0.0000000000000000     
   1.2812500000000000       0.50000000000000000        0.0000000000000000     
   1.3125000000000000       0.50000000000000000        0.0000000000000000     
   1.3437500000000000       0.50000000000000000        0.0000000000000000     
   1.3750000000000000       0.50000000000000000        0.0000000000000000     
   1.3750000000000000       0.37500000000000000        0.0000000000000000     
   1.4062500000000000       0.37500000000000000        0.0000000000000000     
   1.4375000000000000       0.37500000000000000        0.0000000000000000     
   1.4687500000000000       0.37500000000000000        0.0000000000000000     
   1.5000000000000000       0.37500000000000000        0.0000000000000000     
   1.3750000000000000       0.40625000000000000        0.0000000000000000     
   1.4062500000000000       0.40625000000000000        0.0000000000000000     
   1.4375000000000000       0.40625000000000000        0.0000000000000000     
   1.4687500000000000       0.40625000000000000        0.0000000000000000     
   1.5000000000000000       0.40625000000000000        0.0000000000000000     
   1.3750000000000000       0.43750000000000000        0.0000000000000000     
   1.4062500000000000       0.43750000000000000        0.0000000000000000     
   1.4375000000000000       0.43750000000000000        0.0000000000000000     
   1.4687500000000000       0.43750000000000000        0.0000000000000000     
   1.5000000000000000       0.43750000000000000        0.0000000000000000     
   1.3750000000000000       0.46875000000000000        0.0000000000000000     
   1.4062500000000000       0.46875000000000000        0.0000000000000000     
   1.4375000000000000       0.46875000000000000        0.0000000000000000     
   1.4687500000000000       0.46875000000000000        0.0000000000000000     
   1.5000000000000000       0.46875000000000000        0.0000000000000000     
   1.3750000000000000       0.50000000000000000        0.0000000000000000     
   1.4062500000000000       0.50000000000000000        0.0000000000000000     
   1.4375000000000000       0.50000000000000000        0.0000000000000000     
   1.4687500000000000       0.50000000000000000        0.0000000000000000     
   1.5000000000000000       0.50000000000000000        0.0000000000000000     
  0.50000000000000000       0.50000000000000000        0.0000000000000000     
  0.53125000000000000       0.50000000000000000        0.0000000000000000     
  0.56250000000000000       0.50000000000000000        0.0000000000000000     
  0.59375000000000000       0.50000000000000000        0.0000000000000000     
  0.62500000000000000       0.50000000000000000        0.0000000000000000     
  0.50000000000000000       0.53125000000000000        0.0000000000000000     
  0.53125000000000000       0.53125000000000000        0.0000000000000000     
  0.56250000000000000       0.53125000000000000        0.0000000000000000     
  0.59375000000000000       0.53125000000000000        0.0000000000000000     
  0.62500000000000000       0.53125000000000000        0.0000000000000000     
  0.50000000000000000       0.56250000000000000        0.0000000000000000     
  0.53125000000000000       0.56250000000000000        0.0000000000000000     
  0.56250000000000000       0.56250000000000000        0.0000000000000000     
  0.59375000000000000       0.56250000000000000        0.0000000000000000     
  0.62500000000000000       0.56250000000000000        0.0000000000000000     
  0.50000000000000000       0.59375000000000000        0.0000000000000000     
  0.53125000000000000       0.59375000000000000        0.0000000000000000     
  0.56250000000000000       0.59375000000000000        0.0000000000000000     
  0.59375000000000000       0.59375000000000000        0.0000000000000000     
  0.62500000000000000       0.59375000000000000        0.0000000000000000     
  0.50000000000000000       0.62500000000000000        0.0000000000000000     
  0.53125000000000000       0.62500000000000000        0.0000000000000000     
  0.56250000000000000       0.62500000000000000        0.0000000000000000     
  0.59375000000000000       0.62500000000000000        0.0000000000000000     
  0.62500000000000000       0.62500000000000000        0.0000000000000000     
  0.62500000000000000       0.50000000000000000        0.0000000000000000     
  0.65625000000000000       0.50000000000000000        0.0000000000000000     
  0.68750000000000000       0.50000000000000000        0.0000000000000000     
  0.71875000000000000       0.50000000000000000        0.0000000000000000     
  0.75000000000000000       0.50000000000000000        0.0000000000000000     
  0.62500000000000000       0.53125000000000000        0.0000000000000000     
  0.65625000000000000       0.53125000000000000        0.0000000000000000     
  0.68750000000000000       0.53125000000000000        0.0000000000000000     
  0.71875000000000000       0.53125000000000000        0.0000000000000000     
  0.75000000000000000       0.53125000000000000        0.0000000000000000     
  0.62500000000000000       0.56250000000000000        0.0000000000000000     
  0.65625000000000000       0.56250000000000000        0.0000000000000000     
  0.68750000000000000       0.56250000000000000        0.0000000000000000     
  0.71875000000000000       0.56250000000000000        0.0000000000000000     
  0.75000000000000000       0.56250000000000000        0.0000000000000000     
  0.62500000000000000       0.59375000000000000        0.0000000000000000     
  0.65625000000000000       0.59375000000000000        0.0000000000000000     
  0.68750000000000000       0.59375000000000000        0.0000000000000000     
  0.71875000000000000       0.59375000000000000        0.0000000000000000     
  0.75000000000000000       0.59375000000000000        0.0000000000000000     
  0.62500000000000000       0.62500000000000000        0.0000000000000000     
  0.65625000000000000       0.62500000000000000        0.0000000000000000     
  0.68750000000000000       0.62500000000000000        0.0000000000000000     
  0.71875000000000000       0.62500000000000000        0.0000000000000000     
  0.75000000000000000       0.62500000000000000        0.0000000000000000     
  0.75000000000000000       0.50000000000000000        0.0000000000000000     
  0.78125000000000000       0.50000000000000000        0.0000000000000000     
  0.81250000000000000       0.50000000000000000        0.0000000000000000     
  0.84375000000000000       0.50000000000000000        0.0000000000000000     
  0.87500000000000000       0.50000000000000000        0.0000000000000000     
  0.75000000000000000       0.53125000000000000        0.0000000000000000     
  0.78125000000000000       0.53125000000000000        0.0000000000000000     
  0.81250000000000000       0.53125000000000000        0.0000000000000000     
  0.84375000000000000       0.53125000000000000        0.0000000000000000     
  0.87500000000000000       0.53125000000000000        0.0000000000000000     
  0.75000000000000000       0.56250000000000000        0.0000000000000000     
  0.78125000000000000       0.56250000000000000        0.0000000000000000     
  0.81250000000000000       0.56250000000000000        0.0000000000000000     
  0.84375000000000000       0.56250000000000000        0.0000000000000000     
  0.87500000000000000       0.56250000000000000        0.0000000000000000     
  0.75000000000000000       0.59375000000000000        0.0000000000000000     
  0.78125000000000000       0.59375000000000000        0.0000000000000000     
  0.81250000000000000       0.59375000000000000        0.0000000000000000     
  0.84375000000000000       0.59375000000000000        0.0000000000000000     
  0.87500000000000000       0.59375000000000000        0.0000000000000000     
  0.75000000000000000       0.62500000000000000        0.0000000000000000     
  0.78125000000000000       0.62500000000000000        0.0000000000000000     
  0.81250000000000000       0.62500000000000000        0.0000000000000000     
  0.84375000000000000       0.62500000000000000        0.0000000000000000     
  0.87500000000000000       0.62500000000000000        0.0000000000000000     
  0.87500000000000000       0.50000000000000000        0.0000000000000000     
  0.90625000000000000       0.50000000000000000        0.0000000000000000     
  0.93750000000000000       0.50000000000000000        0.0000000000000000     
  0.96875000000000000       0.50000000000000000        0.0000000000000000     
   1.0000000000000000       0.50000000000000000        0.0000000000000000     
  0.87500000000000000       0.53125000000000000        0.0000000000000000     
  0.90625000000000000       0.53125000000000000        0.0000000000000000     
  0.93750000000000000       0.53125000000000000        0.0000000000000000     
  0.96875000000000000       0.53125000000000000        0.0000000000000000     
   1.0000000000000000       0.53125000000000000        0.0000000000000000     
  0.87500000000000000       0.56250000000000000        0.0000000000000000     
  0.90625000000000000       0.56250000000000000        0.0000000000000000     
  0.93750000000000000       0.56250000000000000        0.0000000000000000     
  0.96875000000000000       0.56250000000000000        0.0000000000000000     
   1.0000000000000000       0.56250000000000000        0.0000000000000000     
  0.87500000000000000       0.59375000000000000        0.0000000000000000     
  0.90625000000000000       0.59375000000000000        0.0000000000000000     
  0.93750000000000000       0.59375000000000000        0.0000000000000000     
  0.96875000000000000       0.59375000000000000        0.0000000000000000     
   1.0000000000000000       0.59375000000000000        0.0000000000000000     
  0.87500000000000000       0.62500000000000000        0.0000000000000000     
  0.90625000000000000       0.62500000000000000        0.0000000000000000     
  0.93750000000000000       0.62500000000000000        0.0000000000000000     
  0.96875000000000000       0.62500000000000000        0.0000000000000000     
   1.0000000000000000       0.62500000000000000        0.0000000000000000     
   1.0000000000000000       0.50000000000000000        0.0000000000000000     
   1.0312500000000000       0.50000000000000000        0.0000000000000000     
   1.0625000000000000       0.50000000000000000        0.0000000000000000     
   1.0937500000000000       0.50000000000000000        0.0000000000000000     
   1.1250000000000000       0.50000000000000000        0.0000000000000000     
   1.0000000000000000       0.53125000000000000        0.0000000000000000     
   1.0312500000000000       0.53125000000000000        0.0000000000000000     
   1.0625000000000000       0.53125000000000000        0.0000000000000000     
   1.0937500000000000       0.53125000000000000        0.0000000000000000     
   1.1250000000000000       0.53125000000000000        0.0000000000000000     
   1.0000000000000000       0.56250000000000000        0.0000000000000000     
   1.0312500000000000       0.56250000000000000        0.0000000000000000     
   1.0625000000000000       0.56250000000000000        0.0000000000000000     
   1.0937500000000000       0.56250000000000000        0.0000000000000000     
   1.1250000000000000       0.56250000000000000        0.0000000000000000     
   1.0000000000000000       0.59375000000000000        0.0000000000000000     
   1.0312500000000000       0.59375000000000000        0.0000000000000000     
   1.0625000000000000       0.59375000000000000        0.0000000000000000     
   1.0937500000000000       0.59375000000000000        0.0000000000000000     
   1.1250000000000000       0.59375000000000000        0.0000000000000000     
   1.0000000000000000       0.62500000000000000        0.0000000000000000     
   1.0312500000000000       0.62500000000000000        0.0000000000000000     
   1.0625000000000000       0.62500000000000000        0.0000000000000000     
   1.0937500000000000       0.62500000000000000        0.0000000000000000     
   1.1250000000000000       0.62500000000000000        0.0000000000000000     
   1.1250000000000000       0.50000000000000000        0.0000000000000000     
   1.1562500000000000       0.50000000000000000        0.0000000000000000     
   1.1875000000000000       0.50000000000000000        0.0000000000000000     
   1.2187500000000000       0.50000000000000000        0.0000000000000000     
   1.2500000000000000       0.50000000000000000        0.0000000000000000     
   1.1250000000000000       0.53125000000000000        0.0000000000000000     
   1.1562500000000000       0.53125000000000000        0.0000000000000000     
   1.1875000000000000       0.53125000000000000        0.0000000000000000     
   1.2187500000000000       0.53125000000000000        0.0000000000000000     
   1.2500000000000000       0.53125000000000000        0.0000000000000000     
   1.1250000000000000       0.56250000000000000        0.0000000000000000     
   1.1562500000000000       0.56250000000000000        0.0000000000000000     
   1.1875000000000000       0.56250000000000000        0.0000000000000000     
   1.2187500000000000       0.56250000000000000        0.0000000000000000     
   1.2500000000000000       0.56250000000000000        0.0000000000000000     
   1.1250000000000000       0.59375000000000000        0.0000000000000000     
   1.1562500000000000       0.59375000000000000        0.0000000000000000     
   1.1875000000000000       0.59375000000000000        0.0000000000000000     
   1.2187500000000000       0.59375000000000000        0.0000000000000000     
   1.2500000000000000       0.59375000000000000        0.0000000000000000     
   1.1250000000000000       0.62500000000000000        0.0000000000000000     
   1.1562500000000000       0.62500000000000000        0.0000000000000000     
   1.1875000000000000       0.62500000000000000        0.0000000000000000     
   1.2187500000000000       0.62500000000000000        0.0000000000000000     
   1.2500000000000000       0.62500000000000000        0.0000000000000000     
   1.2500000000000000       0.50000000000000000        0.0000000000000000     
   1.2812500000000000       0.50000000000000000        0.0000000000000000     
   1.3125000000000000       0.50000000000000000        0.0000000000000000     
   1.3437500000000000       0.50000000000000000        0.0000000000000000     
   1.3750000000000000       0.50000000000000000        0.0000000000000000     
   1.2500000000000000       0.53125000000000000        0.0000000000000000     
   1.2812500000000000       0.53125000000000000        0.0000000000000000     
   1.3125000000000000       0.53125000000000000        0.0000000000000000     
   1.3437500000000000       0.53125000000000000        0.0000000000000000     
   1.3750000000000000       0.53125000000000000        0.0000000000000000     
   1.2500000000000000       0.56250000000000000        0.0000000000000000     
   1.2812500000000000       0.56250000000000000        0.0000000000000000     
   1.3125000000000000       0.56250000000000000        0.0000000000000000     
   1.3437500000000000       0.56250000000000000        0.0000000000000000     
   1.3750000000000000       0.56250000000000000        0.0000000000000000     
   1.2500000000000000       0.59375000000000000        0.0000000000000000     
   1.2812500000000000       0.59375000000000000        0.0000000000000000     
   1.3125000000000000       0.59375000000000000        0.0000000000000000     
   1.3437500000000000       0.59375000000000000        0.0000000000000000     
   1.3750000000000000       0.59375000000000000        0.0000000000000000     
   1.2500000000000000       0.62500000000000000        0.0000000000000000     
   1.2812500000000000       0.62500000000000000        0.0000000000000000     
   1.3125000000000000       0.62500000000000000        0.0000000000000000     
   1.3437500000000000       0.62500000000000000        0.0000000000000000     
   1.3750000000000000       0.62500000000000000        0.0000000000000000     
   1.3750000000000000       0.50000000000000000        0.0000000000000000     
   1.4062500000000000       0.50000000000000000        0.0000000000000000     
   1.4375000000000000       0.50000000000000000        0.0000000000000000     
   1.4687500000000000       0.50000000000000000        0.0000000000000000     
   1.5000000000000000       0.50000000000000000        0.0000000000000000     
   1.3750000000000000       0.53125000000000000        0.0000000000000000     
   1.4062500000000000       0.53125000000000000        0.0000000000000000     
   1.4375000000000000       0.53125000000000000        0.0000000000000000     
   1.4687500000000000       0.53125000000000000        0.0000000000000000     
   1.5000000000000000       0.53125000000000000        0.0000000000000000     
   1.3750000000000000       0.56250000000000000        0.0000000000000000     
   1.4062500000000000       0.56250000000000000        0.0000000000000000     
   1.4375000000000000       0.56250000000000000        0.0000000000000000     
   1.4687500000000000       0.56250000000000000        0.0000000000000000     
   1.5000000000000000       0.56250000000000000        0.0000000000000000     
   1.3750000000000000       0.59375000000000000        0.0000000000000000     
   1.4062500000000000       0.59375000000000000        0.0000000000000000     
   1.4375000000000000       0.59375000000000000        0.0000000000000000     
   1.4687500000000000       0.59375000000000000        0.0000000000000000     
   1.5000000000000000       0.59375000000000000        0.0000000000000000     
   1.3750000000000000       0.62500000000000000        0.0000000000000000     
   1.4062500000000000       0.62500000000000000        0.0000000000000000     
   1.4375000000000000       0.62500000000000000        0.0000000000000000     
   1.4687500000000000       0.62500000000000000        0.0000000000000000     
   1.5000000000000000       0.62500000000000000        0.0000000000000000     
  0.50000000000000000       0.62500000000000000        0.0000000000000000     
  0.53125000000000000       0.62500000000000000        0.0000000000000000     
  0.56250000000000000       0.62500000000000000        0.0000000000000000     
  0.59375000000000000       0.62500000000000000        0.0000000000000000     
  0.62500000000000000       0.62500000000000000        0.0000000000000000     
  0.50000000000000000       0.65625000000000000        0.0000000000000000     
  0.53125000000000000       0.65625000000000000        0.0000000000000000     
  0.56250000000000000       0.65625000000000000        0.0000000000000000     
  0.59375000000000000       0.65625000000000000        0.0000000000000000     
  0.62500000000000000       0.65625000000000000        0.0000000000000000     
  0.50000000000000000       0.68750000000000000        0.0000000000000000     
  0.53125000000000000       0.68750000000000000        0.0000000000000000     
  0.56250000000000000       0.68750000000000000        0.0000000000000000     
  0.59375000000000000       0.68750000000000000        0.0000000000000000     
  0.62500000000000000       0.68750000000000000        0.0000000000000000     
  0.50000000000000000       0.71875000000000000        0.0000000000000000     
  0.53125000000000000       0.71875000000000000        0.0000000000000000     
  0.56250000000000000       0.71875000000000000        0.0000000000000000     
  0.59375000000000000       0.71875000000000000        0.0000000000000000     
  0.62500000000000000       0.71875000000000000        0.0000000000000000     
  0.50000000000000000       0.75000000000000000        0.0000000000000000     
  0.53125000000000000       0.75000000000000000        0.0000000000000000     
  0.56250000000000000       0.75000000000000000        0.0000000000000000     
  0.59375000000000000       0.75000000000000000        0.0000000000000000     
  0.62500000000000000       0.75000000000000000        0.0000000000000000     
  0.62500000000000000       0.62500000000000000        0.0000000000000000     
  0.65625000000000000       0.62500000000000000        0.0000000000000000     
  0.68750000000000000       0.62500000000000000        0.0000000000000000     
  0.71875000000000000       0.62500000000000000        0.0000000000000000     
  0.75000000000000000       0.62500000000000000        0.0000000000000000     
  0.62500000000000000       0.65625000000000000        0.0000000000000000     
  0.65625000000000000       0.65625000000000000        0.0000000000000000     
  0.68750000000000000       0.65625000000000000        0.0000000000000000     
  0.71875000000000000       0.65625000000000000        0.0000000000000000     
  0.75000000000000000       0.65625000000000000        0.0000000000000000     
  0.62500000000000000       0.68750000000000000        0.0000000000000000     
  0.65625000000000000       0.68750000000000000        0.0000000000000000     
  0.68750000000000000       0.68750000000000000        0.0000000000000000     
  0.71875000000000000       0.68750000000000000        0.0000000000000000     
  0.75000000000000000       0.68750000000000000        0.0000000000000000     
  0.62500000000000000       0.71875000000000000        0.0000000000000000     
  0.65625000000000000       0.71875000000000000        0.0000000000000000     
  0.68750000000000000       0.71875000000000000        0.0000000000000000     
  0.71875000000000000       0.71875000000000000        0.0000000000000000     
  0.75000000000000000       0.71875000000000000        0.0000000000000000     
  0.62500000000000000       0.75000000000000000        0.0000000000000000     
  0.65625000000000000       0.75000000000000000        0.0000000000000000     
  0.68750000000000000       0.75000000000000000        0.0000000000000000     
  0.71875000000000000       0.75000000000000000        0.0000000000000000     
  0.75000000000000000       0.75000000000000000        0.0000000000000000     
  0.75000000000000000       0.62500000000000000        0.0000000000000000     
  0.78125000000000000       0.62500000000000000        0.0000000000000000     
  0.81250000000000000       0.62500000000000000        0.0000000000000000     
  0.84375000000000000       0.62500000000000000        0.0000000000000000     
  0.87500000000000000       0.62500000000000000        0.0000000000000000     
  0.75000000000000000       0.65625000000000000        0.0000000000000000     
  0.78125000000000000       0.65625000000000000        0.0000000000000000     
  0.81250000000000000       0.65625000000000000        0.0000000000000000     
  0.84375000000000000       0.65625000000000000        0.0000000000000000     
  0.87500000000000000       0.65625000000000000        0.0000000000000000     
  0.75000000000000000       0.68750000000000000        0.0000000000000000     
  0.78125000000000000       0.68750000000000000        0.0000000000000000     
  0.81250000000000000       0.68750000000000000        0.0000000000000000     
  0.84375000000000000       0.68750000000000000        0.0000000000000000     
  0.87500000000000000       0.68750000000000000        0.0000000000000000     
  0.75000000000000000       0.71875000000000000        0.0000000000000000     
  0.78125000000000000       0.71875000000000000        0.0000000000000000     
  0.81250000000000000       0.71875000000000000        0.0000000000000000     
  0.84375000000000000       0.71875000000000000        0.0000000000000000     
  0.87500000000000000       0.71875000000000000        0.0000000000000000     
  0.75000000000000000       0.75000000000000000        0.0000000000000000     
  0.78125000000000000       0.75000000000000000        0.0000000000000000     
  0.81250000000000000       0.75000000000000000        0.0000000000000000     
  0.84375000000000000       0.75000000000000000        0.0000000000000000     
  0.87500000000000000       0.75000000000000000        0.0000000000000000     
  0.87500000000000000       0.62500000000000000        0.0000000000000000     
  0.90625000000000000       0.62500000000000000        0.0000000000000000     
  0.93750000000000000       0.62500000000000000        0.0000000000000000     
  0.96875000000000000       0.62500000000000000        0.0000000000000000     
   1.0000000000000000       0.62500000000000000        0.0000000000000000     
  0.87500000000000000       0.65625000000000000        0.0000000000000000     
  0.90625000000000000       0.65625000000000000        0.0000000000000000     
  0.93750000000000000       0.65625000000000000        0.0000000000000000     
  0.96875000000000000       0.65625000000000000        0.0000000000000000     
   1.0000000000000000       0.65625000000000000        0.0000000000000000     
  0.87500000000000000       0.68750000000000000        0.0000000000000000     
  0.90625000000000000       0.68750000000000000        0.0000000000000000     
  0.93750000000000000       0.68750000000000000        0.0000000000000000     
  0.96875000000000000       0.68750000000000000        0.0000000000000000     
   1.0000000000000000       0.68750000000000000        0.0000000000000000     
  0.87500000000000000       0.71875000000000000        0.0000000000000000     
  0.90625000000000000       0.71875000000000000        0.0000000000000000     
  0.93750000000000000       0.71875000000000000        0.0000000000000000     
  0.96875000000000000       0.71875000000000000        0.0000000000000000     
   1.0000000000000000       0.71875000000000000        0.0000000000000000     
  0.87500000000000000       0.75000000000000000        0.0000000000000000     
  0.90625000000000000       0.75000000000000000        0.0000000000000000     
  0.93750000000000000       0.75000000000000000        0.0000000000000000     
  0.96875000000000000       0.75000000000000000        0.0000000000000000     
   1.0000000000000000       0.75000000000000000        0.0000000000000000     
   1.0000000000000000       0.62500000000000000        0.0000000000000000     
   1.0312500000000000       0.62500000000000000        0.0000000000000000     
   1.0625000000000000       0.62500000000000000        0.0000000000000000     
   1.0937500000000000       0.62500000000000000        0.0000000000000000     
   1.1250000000000000       0.62500000000000000        0.0000000000000000     
   1.0000000000000000       0.65625000000000000        0.0000000000000000     
   1.0312500000000000       0.65625000000000000        0.0000000000000000     
   1.0625000000000000       0.65625000000000000        0.0000000000000000     
   1.0937500000000000       0.65625000000000000        0.0000000000000000     
   1.1250000000000000       0.65625000000000000        0.0000000000000000     
   1.0000000000000000       0.68750000000000000        0.0000000000000000     
   1.0312500000000000       0.68750000000000000        0.0000000000000000     
   1.0625000000000000       0.68750000000000000        0.0000000000000000     
   1.0937500000000000       0.68750000000000000        0.0000000000000000     
   1.1250000000000000       0.68750000000000000        0.0000000000000000     
   1.0000000000000000       0.71875000000000000        0.0000000000000000     
   1.0312500000000000       0.71875000000000000        0.0000000000000000     
   1.0625000000000000       0.71875000000000000        0.0000000000000000     
   1.0937500000000000       0.71875000000000000        0.0000000000000000     
   1.1250000000000000       0.71875000000000000        0.0000000000000000     
   1.0000000000000000       0.75000000000000000        0.0000000000000000     
   1.0312500000000000       0.75000000000000000        0.0000000000000000     
   1.0625000000000000       0.75000000000000000        0.0000000000000000     
   1.0937500000000000       0.75000000000000000        0.0000000000000000     
   1.1250000000000000       0.75000000000000000        0.0000000000000000     
   1.1250000000000000       0.62500000000000000        0.0000000000000000     
   1.1562500000000000       0.62500000000000000        0.0000000000000000     
   1.1875000000000000       0.62500000000000000        0.0000000000000000     
   1.2187500000000000       0.62500000000000000        0.0000000000000000     
   1.2500000000000000       0.62500000000000000        0.0000000000000000     
   1.1250000000000000       0.65625000000000000        0.0000000000000000     
   1.1562500000000000       0.65625000000000000        0.0000000000000000     
   1.1875000000000000       0.65625000000000000        0.0000000000000000     
   1.2187500000000000       0.65625000000000000        0.0000000000000000     
   1.2500000000000000       0.65625000000000000        0.0000000000000000     
   1.1250000000000000       0.68750000000000000        0.0000000000000000     
   1.1562500000000000       0.68750000000000000        0.0000000000000000     
   1.1875000000000000       0.68750000000000000        0.0000000000000000     
   1.2187500000000000       0.68750000000000000        0.0000000000000000     
   1.2500000000000000       0.68750000000000000        0.0000000000000000     
   1.1250000000000000       0.71875000000000000        0.0000000000000000     
   1.1562500000000000       0.71875000000000000        0.0000000000000000     
   1.1875000000000000       0.71875000000000000        0.0000000000000000     
   1.2187500000000000       0.71875000000000000        0.0000000000000000     
   1.2500000000000000       0.71875000000000000        0.0000000000000000     
   1.1250000000000000       0.75000000000000000        0.0000000000000000     
   1.1562500000000000       0.75000000000000000        0.0000000000000000     
   1.1875000000000000       0.75000000000000000        0.0000000000000000     
   1.2187500000000000       0.75000000000000000        0.0000000000000000     
   1.2500000000000000       0.75000000000000000        0.0000000000000000     
   1.2500000000000000       0.62500000000000000        0.0000000000000000     
   1.2812500000000000       0.62500000000000000        0.0000000000000000     
   1.3125000000000000       0.62500000000000000        0.0000000000000000     
   1.3437500000000000       0.62500000000000000        0.0000000000000000     
   1.3750000000000000       0.62500000000000000        0.0000000000000000     
   1.2500000000000000       0.65625000000000000        0.0000000000000000     
   1.2812500000000000       0.65625000000000000        0.0000000000000000     
   1.3125000000000000       0.65625000000000000        0.0000000000000000     
   1.3437500000000000       0.65625000000000000        0.0000000000000000     
   1.3750000000000000       0.65625000000000000        0.0000000000000000     
   1.2500000000000000       0.68750000000000000        0.0000000000000000     
   1.2812500000000000       0.68750000000000000        0.0000000000000000     
   1.3125000000000000       0.68750000000000000        0.0000000000000000     
   1.3437500000000000       0.68750000000000000        0.0000000000000000     
   1.3750000000000000       0.68750000000000000        0.0000000000000000     
   1.2500000000000000       0.71875000000000000        0.0000000000000000     
   1.2812500000000000       0.71875000000000000        0.0000000000000000     
   1.3125000000000000       0.71875000000000000        0.0000000000000000     
   1.3437500000000000       0.71875000000000000        0.0000000000000000     
   1.3750000000000000       0.71875000000000000        0.0000000000000000     
   1.2500000000000000       0.75000000000000000        0.0000000000000000     
   1.2812500000000000       0.75000000000000000        0.0000000000000000     
   1.3125000000000000       0.75000000000000000        0.0000000000000000     
   1.3437500000000000       0.75000000000000000        0.0000000000000000     
   1.3750000000000000       0.75000000000000000        0.0000000000000000     
   1.3750000000000000       0.62500000000000000        0.0000000000000000     
   1.4062500000000000       0.62500000000000000        0.0000000000000000     
   1.4375000000000000       0.62500000000000000        0.0000000000000000     
   1.4687500000000000       0.62500000000000000        0.0000000000000000     
   1.5000000000000000       0.62500000000000000        0.0000000000000000     
   1.3750000000000000       0.65625000000000000        0.0000000000000000     
   1.4062500000000000       0.65625000000000000        0.0000000000000000     
   1.4375000000000000       0.65625000000000000        0.0000000000000000     
   1.4687500000000000       0.65625000000000000        0.0000000000000000     
   1.5000000000000000       0.65625000000000000        0.0000000000000000     
   1.3750000000000000       0.68750000000000000        0.0000000000000000     
   1.4062500000000000       0.68750000000000000        0.0000000000000000     
   1.4375000000000000       0.68750000000000000        0.0000000000000000     
   1.4687500000000000       0.68750000000000000        0.0000000000000000     
   1.5000000000000000       0.68750000000000000        0.0000000000000000     
   1.3750000000000000       0.71875000000000000        0.0000000000000000     
   1.4062500000000000       0.71875000000000000        0.0000000000000000     
   1.4375000000000000       0.71875000000000000        0.0000000000000000     
   1.4687500000000000       0.71875000000000000        0.0000000000000000     
   1.5000000000000000       0.71875000000000000        0.0000000000000000     
   1.3750000000000000       0.75000000000000000        0.0000000000000000     
   1.4062500000000000       0.75000000000000000        0.0000000000000000     
   1.4375000000000000       0.75000000000000000        0.0000000000000000     
   1.4687500000000000       0.75000000000000000        0.0000000000000000     
   1.5000000000000000       0.75000000000000000        0.0000000000000000     
  0.50000000000000000       0.75000000000000000        0.0000000000000000     
  0.53125000000000000       0.75000000000000000        0.0000000000000000     
  0.56250000000000000       0.75000000000000000        0.0000000000000000     
  0.59375000000000000       0.75000000000000000        0.0000000000000000     
  0.62500000000000000       0.75000000000000000        0.0000000000000000     
  0.50000000000000000       0.78125000000000000        0.0000000000000000     
  0.53125000000000000       0.78125000000000000        0.0000000000000000     
  0.56250000000000000       0.78125000000000000        0.0000000000000000     
  0.59375000000000000       0.78125000000000000        0.0000000000000000     
  0.62500000000000000       0.78125000000000000        0.0000000000000000     
  0.50000000000000000       0.81250000000000000        0.0000000000000000     
  0.53125000000000000       0.81250000000000000        0.0000000000000000     
  0.56250000000000000       0.81250000000000000        0.0000000000000000     
  0.59375000000000000       0.81250000000000000        0.0000000000000000     
  0.62500000000000000       0.81250000000000000        0.0000000000000000     
  0.50000000000000000       0.84375000000000000        0.0000000000000000     
  0.53125000000000000       0.84375000000000000        0.0000000000000000     
  0.56250000000000000       0.84375000000000000        0.0000000000000000     
  0.59375000000000000       0.84375000000000000        0.0000000000000000     
  0.62500000000000000       0.84375000000000000        0.0000000000000000     
  0.50000000000000000       0.87500000000000000        0.0000000000000000     
  0.53125000000000000       0.87500000000000000        0.0000000000000000     
  0.56250000000000000       0.87500000000000000        0.0000000000000000     
  0.59375000000000000       0.87500000000000000        0.0000000000000000     
  0.62500000000000000       0.87500000000000000        0.0000000000000000     
  0.62500000000000000       0.75000000000000000        0.0000000000000000     
  0.65625000000000000       0.75000000000000000        0.0000000000000000     
  0.68750000000000000       0.75000000000000000        0.0000000000000000     
  0.71875000000000000       0.75000000000000000        0.0000000000000000     
  0.75000000000000000       0.75000000000000000        0.0000000000000000     
  0.62500000000000000       0.78125000000000000        0.0000000000000000     
  0.65625000000000000       0.78125000000000000        0.0000000000000000     
  0.68750000000000000       0.78125000000000000        0.0000000000000000     
  0.71875000000000000       0.78125000000000000        0.0000000000000000     
  0.75000000000000000       0.78125000000000000        0.0000000000000000     
  0.62500000000000000       0.81250000000000000        0.0000000000000000     
  0.65625000000000000       0.81250000000000000        0.0000000000000000     
  0.68750000000000000       0.81250000000000000        0.0000000000000000     
  0.71875000000000000       0.81250000000000000        0.0000000000000000     
  0.75000000000000000       0.81250000000000000        0.0000000000000000     
  0.62500000000000000       0.84375000000000000        0.0000000000000000     
  0.65625000000000000       0.84375000000000000        0.0000000000000000     
  0.68750000000000000       0.84375000000000000        0.0000000000000000     
  0.71875000000000000       0.84375000000000000        0.0000000000000000     
  0.75000000000000000       0.84375000000000000        0.0000000000000000     
  0.62500000000000000       0.87500000000000000        0.0000000000000000     
  0.65625000000000000       0.87500000000000000        0.0000000000000000     
  0.68750000000000000       0.87500000000000000        0.0000000000000000     
  0.71875000000000000       0.87500000000000000        0.0000000000000000     
  0.75000000000000000       0.87500000000000000        0.0000000000000000     
  0.75000000000000000       0.75000000000000000        0.0000000000000000     
  0.78125000000000000       0.75000000000000000        0.0000000000000000     
  0.81250000000000000       0.75000000000000000        0.0000000000000000     
  0.84375000000000000       0.75000000000000000        0.0000000000000000     
  0.87500000000000000       0.75000000000000000        0.0000000000000000     
  0.75000000000000000       0.78125000000000000        0.0000000000000000     
  0.78125000000000000       0.78125000000000000        0.0000000000000000     
  0.81250000000000000       0.78125000000000000        0.0000000000000000     
  0.84375000000000000       0.78125000000000000        0.0000000000000000     
  0.87500000000000000       0.78125000000000000        0.0000000000000000     
  0.75000000000000000       0.81250000000000000        0.0000000000000000     
  0.78125000000000000       0.81250000000000000        0.0000000000000000     
  0.81250000000000000       0.81250000000000000        0.0000000000000000     
  0.84375000000000000       0.81250000000000000        0.0000000000000000     
  0.87500000000000000       0.81250000000000000        0.0000000000000000     
  0.75000000000000000       0.84375000000000000        0.0000000000000000     
  0.78125000000000000       0.84375000000000000        0.0000000000000000     
  0.81250000000000000       0.84375000000000000        0.0000000000000000     
  0.84375000000000000       0.84375000000000000        0.0000000000000000     
  0.87500000000000000       0.84375000000000000        0.0000000000000000     
  0.75000000000000000       0.87500000000000000        0.0000000000000000     
  0.78125000000000000       0.87500000000000000        0.0000000000000000     
  0.81250000000000000       0.87500000000000000        0.0000000000000000     
  0.84375000000000000       0.87500000000000000        0.0000000000000000     
  0.87500000000000000       0.87500000000000000        0.0000000000000000     
  0.87500000000000000       0.75000000000000000        0.0000000000000000     
  0.90625000000000000       0.75000000000000000        0.0000000000000000     
  0.93750000000000000       0.75000000000000000        0.0000000000000000     
  0.96875000000000000       0.75000000000000000        0.0000000000000000     
   1.0000000000000000       0.75000000000000000        0.0000000000000000     
  0.87500000000000000       0.78125000000000000        0.0000000000000000     
  0.90625000000000000       0.78125000000000000        0.0000000000000000     
  0.93750000000000000       0.78125000000000000        0.0000000000000000     
  0.96875000000000000       0.78125000000000000        0.0000000000000000     
   1.0000000000000000       0.78125000000000000        0.0000000000000000     
  0.87500000000000000       0.81250000000000000        0.0000000000000000     
  0.90625000000000000       0.81250000000000000        0.0000000000000000     
  0.93750000000000000       0.81250000000000000        0.0000000000000000     
  0.96875000000000000       0.81250000000000000        0.0000000000000000     
   1.0000000000000000       0.81250000000000000        0.0000000000000000     
  0.87500000000000000       0.84375000000000000        0.0000000000000000     
  0.90625000000000000       0.84375000000000000        0.0000000000000000     
  0.93750000000000000       0.84375000000000000        0.0000000000000000     
  0.96875000000000000       0.84375000000000000        0.0000000000000000     
   1.0000000000000000       0.84375000000000000        0.0000000000000000     
  0.87500000000000000       0.87500000000000000        0.0000000000000000     
  0.90625000000000000       0.87500000000000000        0.0000000000000000     
  0.93750000000000000       0.87500000000000000        0.0000000000000000     
  0.96875000000000000       0.87500000000000000        0.0000000000000000     
   1.0000000000000000       0.87500000000000000        0.0000000000000000     
   1.0000000000000000       0.75000000000000000        0.0000000000000000     
   1.0312500000000000       0.75000000000000000        0.0000000000000000     
   1.0625000000000000       0.75000000000000000        0.0000000000000000     
   1.0937500000000000       0.75000000000000000        0.0000000000000000     
   1.1250000000000000       0.75000000000000000        0.0000000000000000     
   1.0000000000000000       0.78125000000000000        0.0000000000000000     
   1.0312500000000000       0.78125000000000000        0.0000000000000000     
   1.0625000000000000       0.78125000000000000        0.0000000000000000     
   1.0937500000000000       0.78125000000000000        0.0000000000000000     
   1.1250000000000000       0.78125000000000000        0.0000000000000000     
   1.0000000000000000       0.81250000000000000        0.0000000000000000     
   1.0312500000000000       0.81250000000000000        0.0000000000000000     
   1.0625000000000000       0.81250000000000000        0.0000000000000000     
   1.0937500000000000       0.81250000000000000        0.0000000000000000     
   1.1250000000000000       0.81250000000000000        0.0000000000000000     
   1.0000000000000000       0.84375000000000000        0.0000000000000000     
   1.0312500000000000       0.84375000000000000        0.0000000000000000     
   1.0625000000000000       0.84375000000000000        0.0000000000000000     
   1.0937500000000000       0.84375000000000000        0.0000000000000000     
   1.1250000000000000       0.84375000000000000        0.0000000000000000     
   1.0000000000000000       0.87500000000000000        0.0000000000000000     
   1.0312500000000000       0.87500000000000000        0.0000000000000000     
   1.0625000000000000       0.87500000000000000        0.0000000000000000     
   1.0937500000000000       0.87500000000000000        0.0000000000000000     
   1.1250000000000000       0.87500000000000000        0.0000000000000000     
   1.1250000000000000       0.75000000000000000        0.0000000000000000     
   1.1562500000000000       0.75000000000000000        0.0000000000000000     
   1.1875000000000000       0.75000000000000000        0.0000000000000000     
   1.2187500000000000       0.75000000000000000        0.0000000000000000     
   1.2500000000000000       0.75000000000000000        0.0000000000000000     
   1.1250000000000000       0.78125000000000000        0.0000000000000000     
   1.1562500000000000       0.78125000000000000        0.0000000000000000     
   1.1875000000000000       0.78125000000000000        0.0000000000000000     
   1.2187500000000000       0.78125000000000000        0.0000000000000000     
   1.2500000000000000       0.78125000000000000        0.0000000000000000     
   1.1250000000000000       0.81250000000000000        0.0000000000000000     
   1.1562500000000000       0.81250000000000000        0.0000000000000000     
   1.1875000000000000       0.81250000000000000        0.0000000000000000     
   1.2187500000000000       0.81250000000000000        0.0000000000000000     
   1.2500000000000000       0.81250000000000000        0.0000000000000000     
   1.1250000000000000       0.84375000000000000        0.0000000000000000     
   1.1562500000000000       0.84375000000000000        0.0000000000000000     
   1.1875000000000000       0.84375000000000000        0.0000000000000000     
   1.2187500000000000       0.84375000000000000        0.0000000000000000     
   1.2500000000000000       0.84375000000000000        0.0000000000000000     
   1.1250000000000000       0.87500000000000000        0.0000000000000000     
   1.1562500000000000       0.87500000000000000        0.0000000000000000     
   1.1875000000000000       0.87500000000000000        0.0000000000000000     
   1.2187500000000000       0.87500000000000000        0.0000000000000000     
   1.2500000000000000       0.87500000000000000        0.0000000000000000     
   1.2500000000000000       0.75000000000000000        0.0000000000000000     
   1.2812500000000000       0.75000000000000000        0.0000000000000000     
   1.3125000000000000       0.75000000000000000        0.0000000000000000     
   1.3437500000000000       0.75000000000000000        0.0000000000000000     
   1.3750000000000000       0.75000000000000000        0.0000000000000000     
   1.2500000000000000       0.78125000000000000        0.0000000000000000     
   1.2812500000000000       0.78125000000000000        0.0000000000000000     
   1.3125000000000000       0.78125000000000000        0.0000000000000000     
   1.3437500000000000       0.78125000000000000        0.0000000000000000     
   1.3750000000000000       0.78125000000000000        0.0000000000000000     
   1.2500000000000000       0.81250000000000000        0.0000000000000000     
   1.2812500000000000       0.81250000000000000        0.0000000000000000     
   1.3125000000000000       0.81250000000000000        0.0000000000000000     
   1.3437500000000000       0.81250000000000000        0.0000000000000000     
   1.3750000000000000       0.81250000000000000        0.0000000000000000     
   1.2500000000000000       0.84375000000000000        0.0000000000000000     
   1.2812500000000000       0.84375000000000000        0.0000000000000000     
   1.3125000000000000       0.84375000000000000        0.0000000000000000     
   1.3437500000000000       0.84375000000000000        0.0000000000000000     
   1.3750000000000000       0.84375000000000000        0.0000000000000000     
   1.2500000000000000       0.87500000000000000        0.0000000000000000     
   1.2812500000000000       0.87500000000000000        0.0000000000000000     
   1.3125000000000000       0.87500000000000000        0.0000000000000000     
   1.3437500000000000       0.87500000000000000        0.0000000000000000     
   1.3750000000000000       0.87500000000000000        0.0000000000000000     
   1.3750000000000000       0.75000000000000000        0.0000000000000000     
   1.4062500000000000       0.75000000000000000        0.0000000000000000     
   1.4375000000000000       0.75000000000000000        0.0000000000000000     
   1.4687500000000000       0.75000000000000000        0.0000000000000000     
   1.5000000000000000       0.75000000000000000        0.0000000000000000     
   1.3750000000000000       0.78125000000000000        0.0000000000000000     
   1.4062500000000000       0.78125000000000000        0.0000000000000000     
   1.4375000000000000       0.78125000000000000        0.0000000000000000     
   1.4687500000000000       0.78125000000000000        0.0000000000000000     
   1.5000000000000000       0.78125000000000000        0.0000000000000000     
   1.3750000000000000       0.81250000000000000        0.0000000000000000     
   1.4062500000000000       0.81250000000000000        0.0000000000000000     
   1.4375000000000000       0.81250000000000000        0.0000000000000000     
   1.4687500000000000       0.81250000000000000        0.0000000000000000     
   1.5000000000000000       0.81250000000000000        0.0000000000000000     
   1.3750000000000000       0.84375000000000000        0.0000000000000000     
   1.4062500000000000       0.84375000000000000        0.0000000000000000     
   1.4375000000000000       0.84375000000000000        0.0000000000000000     
   1.4687500000000000       0.84375000000000000        0.0000000000000000     
   1.5000000000000000       0.84375000000000000        0.0000000000000000     
   1.3750000000000000       0.87500000000000000        0.0000000000000000     
   1.4062500000000000       0.87500000000000000        0.0000000000000000     
   1.4375000000000000       0.87500000000000000        0.0000000000000000     
   1.4687500000000000       0.87500000000000000        0.0000000000000000     
   1.5000000000000000       0.87500000000000000        0.0000000000000000     
  0.50000000000000000       0.87500000000000000        0.0000000000000000     
  0.53125000000000000       0.87500000000000000        0.0000000000000000     
  0.56250000000000000       0.87500000000000000        0.0000000000000000     
  0.59375000000000000       0.87500000000000000        0.0000000000000000     
  0.62500000000000000       0.87500000000000000        0.0000000000000000     
  0.50000000000000000       0.90625000000000000        0.0000000000000000     
  0.53125000000000000       0.90625000000000000        0.0000000000000000     
  0.56250000000000000       0.90625000000000000        0.0000000000000000     
  0.59375000000000000       0.90625000000000000        0.0000000000000000     
  0.62500000000000000       0.90625000000000000        0.0000000000000000     
  0.50000000000000000       0.93750000000000000        0.0000000000000000     
  0.53125000000000000       0.93750000000000000        0.0000000000000000     
  0.56250000000000000       0.93750000000000000        0.0000000000000000     
  0.59375000000000000       0.93750000000000000        0.0000000000000000     
  0.62500000000000000       0.93750000000000000        0.0000000000000000     
  0.50000000000000000       0.96875000000000000        0.0000000000000000     
  0.53125000000000000       0.96875000000000000        0.0000000000000000     
  0.56250000000000000       0.96875000000000000        0.0000000000000000     
  0.59375000000000000       0.96875000000000000        0.0000000000000000     
  0.62500000000000000       0.96875000000000000        0.0000000000000000     
  0.50000000000000000        1.0000000000000000        0.0000000000000000     
  0.53125000000000000        1.0000000000000000        0.0000000000000000     
  0.56250000000000000        1.0000000000000000        0.0000000000000000     
  0.59375000000000000        1.0000000000000000        0.0000000000000000     
  0.62500000000000000        1.0000000000000000        0.0000000000000000     
  0.62500000000000000       0.87500000000000000        0.0000000000000000     
  0.65625000000000000       0.87500000000000000        0.0000000000000000     
  0.68750000000000000       0.87500000000000000        0.0000000000000000     
  0.71875000000000000       0.87500000000000000        0.0000000000000000     
  0.75000000000000000       0.87500000000000000        0.0000000000000000     
  0.62500000000000000       0.90625000000000000        0.0000000000000000     
  0.65625000000000000       0.90625000000000000        0.0000000000000000     
  0.68750000000000000       0.90625000000000000        0.0000000000000000     
  0.71875000000000000       0.90625000000000000        0.0000000000000000     
  0.75000000000000000       0.90625000000000000        0.0000000000000000     
  0.62500000000000000       0.93750000000000000        0.0000000000000000     
  0.65625000000000000       0.93750000000000000        0.0000000000000000     
  0.68750000000000000       0.93750000000000000        0.0000000000000000     
  0.71875000000000000       0.93750000000000000        0.0000000000000000     
  0.75000000000000000       0.93750000000000000        0.0000000000000000     
  0.62500000000000000       0.96875000000000000        0.0000000000000000     
  0.65625000000000000       0.96875000000000000        0.0000000000000000     
  0.68750000000000000       0.96875000000000000        0.0000000000000000     
  0.71875000000000000       0.96875000000000000        0.0000000000000000     
  0.75000000000000000       0.96875000000000000        0.0000000000000000     
  0.62500000000000000        1.0000000000000000        0.0000000000000000     
  0.65625000000000000        1.0000000000000000        0.0000000000000000     
  0.68750000000000000        1.0000000000000000        0.0000000000000000     
  0.71875000000000000        1.0000000000000000        0.0000000000000000     
  0.75000000000000000        1.0000000000000000        0.0000000000000000     
  0.75000000000000000       0.87500000000000000        0.0000000000000000     
  0.78125000000000000       0.87500000000000000        0.0000000000000000     
  0.81250000000000000       0.87500000000000000        0.0000000000000000     
  0.84375000000000000       0.87500000000000000        0.0000000000000000     
  0.87500000000000000       0.87500000000000000        0.0000000000000000     
  0.75000000000000000       0.90625000000000000        0.0000000000000000     
  0.78125000000000000       0.90625000000000000        0.0000000000000000     
  0.81250000000000000       0.90625000000000000        0.0000000000000000     
  0.84375000000000000       0.90625000000000000        0.0000000000000000     
  0.87500000000000000       0.90625000000000000        0.0000000000000000     
  0.75000000000000000       0.93750000000000000        0.0000000000000000     
  0.78125000000000000       0.93750000000000000        0.0000000000000000     
  0.81250000000000000       0.93750000000000000        0.0000000000000000     
  0.84375000000000000       0.93750000000000000        0.0000000000000000     
  0.87500000000000000       0.93750000000000000        0.0000000000000000     
  0.75000000000000000       0.96875000000000000        0.0000000000000000     
  0.78125000000000000       0.96875000000000000        0.0000000000000000     
  0.81250000000000000       0.96875000000000000        0.0000000000000000     
  0.84375000000000000       0.96875000000000000        0.0000000000000000     
  0.87500000000000000       0.96875000000000000        0.0000000000000000     
  0.75000000000000000        1.0000000000000000        0.0000000000000000     
  0.78125000000000000        1.0000000000000000        0.0000000000000000     
  0.81250000000000000        1.0000000000000000        0.0000000000000000     
  0.84375000000000000        1.0000000000000000        0.0000000000000000     
  0.87500000000000000        1.0000000000000000        0.0000000000000000     
  0.87500000000000000       0.87500000000000000        0.0000000000000000     
  0.90625000000000000       0.87500000000000000        0.0000000000000000     
  0.93750000000000000       0.87500000000000000        0.0000000000000000     
  0.96875000000000000       0.87500000000000000        0.0000000000000000     
   1.0000000000000000       0.87500000000000000        0.0000000000000000     
  0.87500000000000000       0.90625000000000000        0.0000000000000000     
  0.90625000000000000       0.90625000000000000        0.0000000000000000     
  0.93750000000000000       0.90625000000000000        0.0000000000000000     
  0.96875000000000000       0.90625000000000000        0.0000000000000000     
   1.0000000000000000       0.90625000000000000        0.0000000000000000     
  0.87500000000000000       0.93750000000000000        0.0000000000000000     
  0.90625000000000000       0.93750000000000000        0.0000000000000000     
  0.93750000000000000       0.93750000000000000        0.0000000000000000     
  0.96875000000000000       0.93750000000000000        0.0000000000000000     
   1.0000000000000000       0.93750000000000000        0.0000000000000000     
  0.87500000000000000       0.96875000000000000        0.0000000000000000     
  0.90625000000000000       0.96875000000000000        0.0000000000000000     
  0.93750000000000000       0.96875000000000000        0.0000000000000000     
  0.96875000000000000       0.96875000000000000        0.0000000000000000     
   1.0000000000000000       0.96875000000000000        0.0000000000000000     
  0.87500000000000000        1.0000000000000000        0.0000000000000000     
  0.90625000000000000        1.0000000000000000        0.0000000000000000     
  0.93750000000000000        1.0000000000000000        0.0000000000000000     
  0.96875000000000000        1.0000000000000000        0.0000000000000000     
   1.0000000000000000        1.0000000000000000        0.0000000000000000     
   1.0000000000000000       0.87500000000000000        0.0000000000000000     
   1.0312500000000000       0.87500000000000000        0.0000000000000000     
   1.0625000000000000       0.87500000000000000        0.0000000000000000     
   1.0937500000000000       0.87500000000000000        0.0000000000000000     
   1.1250000000000000       0.87500000000000000        0.0000000000000000     
   1.0000000000000000       0.90625000000000000        0.0000000000000000     
   1.0312500000000000       0.90625000000000000        0.0000000000000000     
   1.0625000000000000       0.90625000000000000        0.0000000000000000     
   1.0937500000000000       0.90625000000000000        0.0000000000000000     
   1.1250000000000000       0.90625000000000000        0.0000000000000000     
   1.0000000000000000       0.93750000000000000        0.0000000000000000     
   1.0312500000000000       0.93750000000000000        0.0000000000000000     
   1.0625000000000000       0.93750000000000000        0.0000000000000000     
   1.0937500000000000       0.93750000000000000        0.0000000000000000     
   1.1250000000000000       0.93750000000000000        0.0000000000000000     
   1.0000000000000000       0.96875000000000000        0.0000000000000000     
   1.0312500000000000       0.96875000000000000        0.0000000000000000     
   1.0625000000000000       0.96875000000000000        0.0000000000000000     
   1.0937500000000000       0.96875000000000000        0.0000000000000000     
   1.1250000000000000       0.96875000000000000        0.0000000000000000     
   1.0000000000000000        1.0000000000000000        0.0000000000000000     
   1.0312500000000000        1.0000000000000000        0.0000000000000000     
   1.0625000000000000        1.0000000000000000        0.0000000000000000     
   1.0937500000000000        1.0000000000000000        0.0000000000000000     
   1.1250000000000000        1.0000000000000000        0.0000000000000000     
   1.1250000000000000       0.87500000000000000        0.0000000000000000     
   1.1562500000000000       0.87500000000000000        0.0000000000000000     
   1.1875000000000000       0.87500000000000000        0.0000000000000000     
   1.2187500000000000       0.87500000000000000        0.0000000000000000     
   1.2500000000000000       0.87500000000000000        0.0000000000000000     
   1.1250000000000000       0.90625000000000000        0.0000000000000000     
   1.1562500000000000       0.90625000000000000        0.0000000000000000     
   1.1875000000000000       0.90625000000000000        0.0000000000000000     
   1.2187500000000000       0.90625000000000000        0.0000000000000000     
   1.2500000000000000       0.90625000000000000        0.0000000000000000     
   1.1250000000000000       0.93750000000000000        0.0000000000000000     
   1.1562500000000000       0.93750000000000000        0.0000000000000000     
   1.1875000000000000       0.93750000000000000        0.0000000000000000     
   1.2187500000000000       0.93750000000000000        0.0000000000000000     
   1.2500000000000000       0.93750000000000000        0.0000000000000000     
   1.1250000000000000       0.96875000000000000        0.0000000000000000     
   1.1562500000000000       0.96875000000000000        0.0000000000000000     
   1.1875000000000000       0.96875000000000000        0.0000000000000000     
   1.2187500000000000       0.96875000000000000        0.0000000000000000     
   1.2500000000000000       0.96875000000000000        0.0000000000000000     
   1.1250000000000000        1.0000000000000000        0.0000000000000000     
   1.1562500000000000        1.0000000000000000        0.0000000000000000     
   1.1875000000000000        1.0000000000000000        0.0000000000000000     
   1.2187500000000000        1.0000000000000000        0.0000000000000000     
   1.2500000000000000        1.0000000000000000        0.0000000000000000     
   1.2500000000000000       0.87500000000000000        0.0000000000000000     
   1.2812500000000000       0.87500000000000000        0.0000000000000000     
   1.3125000000000000       0.87500000000000000        0.0000000000000000     
   1.3437500000000000       0.87500000000000000        0.0000000000000000     
   1.3750000000000000       0.87500000000000000        0.0000000000000000     
   1.2500000000000000       0.90625000000000000        0.0000000000000000     
   1.2812500000000000       0.90625000000000000        0.0000000000000000     
   1.3125000000000000       0.90625000000000000        0.0000000000000000     
   1.3437500000000000       0.90625000000000000        0.0000000000000000     
   1.3750000000000000       0.90625000000000000        0.0000000000000000     
   1.2500000000000000       0.93750000000000000        0.0000000000000000     
   1.2812500000000000       0.93750000000000000        0.0000000000000000     
   1.3125000000000000       0.93750000000000000        0.0000000000000000     
   1.3437500000000000       0.93750000000000000        0.0000000000000000     
   1.3750000000000000       0.93750000000000000        0.0000000000000000     
   1.2500000000000000       0.96875000000000000        0.0000000000000000     
   1.2812500000000000       0.96875000000000000        0.0000000000000000     
   1.3125000000000000       0.96875000000000000        0.0000000000000000     
   1.3437500000000000       0.96875000000000000        0.0000000000000000     
   1.3750000000000000       0.96875000000000000        0.0000000000000000     
   1.2500000000000000        1.0000000000000000        0.0000000000000000     
   1.2812500000000000        1.0000000000000000        0.0000000000000000     
   1.3125000000000000        1.0000000000000000        0.0000000000000000     
   1.3437500000000000        1.0000000000000000        0.0000000000000000     
   1.3750000000000000        1.0000000000000000        0.0000000000000000     
   1.3750000000000000       0.87500000000000000        0.0000000000000000     
   1.4062500000000000       0.87500000000000000        0.0000000000000000     
   1.4375000000000000       0.87500000000000000        0.0000000000000000     
   1.4687500000000000       0.87500000000000000        0.0000000000000000     
   1.5000000000000000       0.87500000000000000        0.0000000000000000     
   1.3750000000000000       0.90625000000000000        0.0000000000000000     
   1.4062500000000000       0.90625000000000000        0.0000000000000000     
   1.4375000000000000       0.90625000000000000        0.0000000000000000     
   1.4687500000000000       0.90625000000000000        0.0000000000000000     
   1.5000000000000000       0.90625000000000000        0.0000000000000000     
   1.3750000000000000       0.93750000000000000        0.0000000000000000     
   1.4062500000000000       0.93750000000000000        0.0000000000000000     
   1.4375000000000000       0.93750000000000000        0.0000000000000000     
   1.4687500000000000       0.93750000000000000        0.0000000000000000     
   1.5000000000000000       0.93750000000000000        0.0000000000000000     
   1.3750000000000000       0.96875000000000000        0.0000000000000000     
   1.4062500000000000       0.96875000000000000        0.0000000000000000     
   1.4375000000000000       0.96875000000000000        0.0000000000000000     
   1.4687500000000000       0.96875000000000000        0.0000000000000000     
   1.5000000000000000       0.96875000000000000        0.0000000000000000     
   1.3750000000000000        1.0000000000000000        0.0000000000000000     
   1.4062500000000000        1.0000000000000000        0.0000000000000000     
   1.4375000000000000        1.0000000000000000        0.0000000000000000     
   1.4687500000000000        1.0000000000000000        0.0000000000000000     
   1.5000000000000000        1.0000000000000000        0.0000000000000000     
 </DataArray>
 </Points>
 <Cells>
 <DataArray  type="Int32"  Name="connectivity"  format="ascii">
           0           1           6           5
           1           2           7           6
           2           3           8           7
           3           4           9           8
           5           6          11          10
           6           7          12          11
           7           8          13          12
           8           9          14          13
          10          11          16          15
          11          12          17          16
          12          13          18          17
          13          14          19          18
          15          16          21          20
          16          17          22          21
          17          18          23          22
          18          19          24          23
          25          26          31          30
          26          27          32          31
          27          28          33          32
          28          29          34          33
          30          31          36          35
          31          32          37          36
          32          33          38          37
          33          34          39          38
          35          36          41          40
          36          37          42          41
          37          38          43          42
          38          39          44          43
          40          41          46          45
          41          42          47          46
          42          43          48          47
          43          44          49          48
          50          51          56          55
          51          52          57          56
          52          53          58          57
          53          54          59          58
          55          56          61          60
          56          57          62          61
          57          58          63          62
          58          59          64          63
          60          61          66          65
          61          62          67          66
          62          63          68          67
          63          64          69          68
          65          66          71          70
          66          67          72          71
          67          68          73          72
          68          69          74          73
          75          76          81          80
          76          77          82          81
          77          78          83          82
          78          79          84          83
          80          81          86          85
          81          82          87          86
          82          83          88          87
          83          84          89          88
          85          86          91          90
          86          87          92          91
          87          88          93          92
          88          89          94          93
          90          91          96          95
          91          92          97          96
          92          93          98          97
          93          94          99          98
         100         101         106         105
         101         102         107         106
         102         103         108         107
         103         104         109         108
         105         106         111         110
         106         107         112         111
         107         108         113         112
         108         109         114         113
         110         111         116         115
         111         112         117         116
         112         113         118         117
         113         114         119         118
         115         116         121         120
         116         117         122         121
         117         118         123         122
         118         119         124         123
         125         126         131         130
         126         127         132         131
         127         128         133         132
         128         129         134         133
         130         131         136         135
         131         132         137         136
         132         133         138         137
         133         134         139         138
         135         136         141         140
         136         137         142         141
         137         138         143         142
         138         139         144         143
         140         141         146         145
         141         142         147         146
         142         143         148         147
         143         144         149         148
         150         151         156         155
         151         152         157         156
         152         153         158         157
         153         154         159         158
         155         156         161         160
         156         157         162         161
         157         158         163         162
         158         159         164         163
         160         161         166         165
         161         162         167         166
         162         163         168         167
         163         164         169         168
         165         166         171         170
         166         167         172         171
         167         168         173         172
         168         169         174         173
         175         176         181         180
         176         177         182         181
         177         178         183         182
         178         179         184         183
         180         181         186         185
         181         182         187         186
         182         183         188         187
         183         184         189         188
         185         186         191         190
         186         187         192         191
         187         188         193         192
         188         189         194         193
         190         191         196         195
         191         192         197         196
         192         193         198         197
         193         194         199         198
         200         201         206         205
         201         202         207         206
         202         203         208         207
         203         204         209         208
         205         206         211         210
         206         207         212         211
         207         208         213         212
         208         209         214         213
         210         211         216         215
         211         212         217         216
         212         213         218         217
         213         214         219         218
         215         216         221         220
         216         217         222         221
         217         218         223         222
         218         219         224         223
         225         226         231         230
         226         227         232         231
         227         228         233         232
         228         229         234         233
         230         231         236         235
         231         232         237         236
         232         233         238         237
         233         234         239         238
         235         236         241         240
         236         237         242         241
         237         238         243         242
         238         239         244         243
         240         241         246         245
         241         242         247         246
         242         243         248         247
         243         244         249         248
         250         251         256         255
         251         252         257         256
         252         253         258         257
         253         254         259         258
         255         256         261         260
         256         257         262         261
         257         258         263         262
         258         259         264         263
         260         261         266         265
         261         262         267         266
         262         263         268         267
         263         264         269         268
         265         266         271         270
         266         267         272         271
         267         268         273         272
         268         269         274         273
         275         276         281         280
         276         277         282         281
         277         278         283         282
         278         279         284         283
         280         281         286         285
         281         282         287         286
         282         283         288         287
         283         284         289         288
         285         286         291         290
         286         287         292         291
         287         288         293         292
         288         289         294         293
         290         291         296         295
         291         292         297         296
         292         293         298         297
         293         294         299         298
         300         301         306         305
         301         302         307         306
         302         303         308         307
         303         304         309         308
         305         306         311         310
         306         307         312         311
         307         308         313         312
         308         309         314         313
         310         311         316         315
         311         312         317         316
         312         313         318         317
         313         314         319         318
         315         316         321         320
         316         317         322         321
         317         318         323         322
         318         319         324         323
         325         326         331         330
         326         327         332         331
         327         328         333         332
         328         329         334         333
         330         331         336         335
         331         332         337         336
         332         333         338         337
         333         334         339         338
         335         336         341         340
         336         337         342         341
         337         338         343         342
         338         339         344         343
         340         341         346         345
         341         342         347         346
         342         343         348         347
         343         344         349         348
         350         351         356         355
         351         352         357         356
         352         353         358         357
         353         354         359         358
         355         356         361         360
         356         357         362         361
         357         358         363         362
         358         359         364         363
         360         361         366         365
         361         362         367         366
         362         363         368         367
         363         364         369         368
         365         366         371         370
         366         367         372         371
         367         368         373         372
         368         369         374         373
         375         376         381         380
         376         377         382         381
         377         378         383         382
         378         379         384         383
         380         381         386         385
         381         382         387         386
         382         383         388         387
         383         384         389         388
         385         386         391         390
         386         387         392         391
         387         388         393         392
         388         389         394         393
         390         391         396         395
         391         392         397         396
         392         393         398         397
         393         394         399         398
         400         401         406         405
         401         402         407         406
         402         403         408         407
         403         404         409         408
         405         406         411         410
         406         407         412         411
         407         408         413         412
         408         409         414         413
         410         411         416         415
         411         412         417         416
         412         413         418         417
         413         414         419         418
         415         416         421         420
         416         417         422         421
         417         418         423         422
         418         419         424         423
         425         426         431         430
         426         427         432         431
         427         428         433         432
         428         429         434         433
         430         431         436         435
         431         432         437         436
         432         433         438         437
         433         434         439         438
         435         436         441         440
         436         437         442         441
         437         438         443         442
         438         439         444         443
         440         441         446         445
         441         442         447         446
         442         443         448         447
         443         444         449         448
         450         451         456         455
         451         452         457         456
         452         453         458         457
         453         454         459         458
         455         456         461         460
         456         457         462         461
         457         458         463         462
         458         459         464         463
         460         461         466         465
         461         462         467         466
         462         463         468         467
         463         464         469         468
         465         466         471         470
         466         467         472         471
         467         468         473         472
         468         469         474         473
         475         476         481         480
         476         477         482         481
         477         478         483         482
         478         479         484         483
         480         481         486         485
         481         482         487         486
         482         483         488         487
         483         484         489         488
         485         486         491         490
         486         487         492         491
         487         488         493         492
         488         489         494         493
         490         491         496         495
         491         492         497         496
         492         493         498         497
         493         494         499         498
         500         501         506         505
         501         502         507         506
         502         503         508         507
         503         504         509         508
         505         506         511         510
         506         507         512         511
         507         508         513         512
         508         509         514         513
         510         511         516         515
         511         512         517         516
         512         513         518         517
         513         514         519         518
         515         516         521         520
         516         517         522         521
         517         518         523         522
         518         519         524         523
         525         526         531         530
         526         527         532         531
         527         528         533         532
         528         529         534         533
         530         531         536         535
         531         532         537         536
         532         533         538         537
         533         534         539         538
         535         536         541         540
         536         537         542         541
         537         538         543         542
         538         539         544         543
         540         541         546         545
         541         542         547         546
         542         543         548         547
         543         544         549         548
         550         551         556         555
         551         552         557         556
         552         553         558         557
         553         554         559         558
         555         556         561         560
         556         557         562         561
         557         558         563         562
         558         559         564         563
         560         561         566         565
         561         562         567         566
         562         563         568         567
         563         564         569         568
         565         566         571         570
         566         567         572         571
         567         568         573         572
         568         569         574         573
         575         576         581         580
         576         577         582         581
         577         578         583         582
         578         579         584         583
         580         581         586         585
         581         582         587         586
         582         583         588         587
         583         584         589         588
         585         586         591         590
         586         587         592         591
         587         588         593         592
         588         589         594         593
         590         591         596         595
         591         592         597         596
         592         593         598         597
         593         594         599         598
         600         601         606         605
         601         602         607         606
         602         603         608         607
         603         604         609         608
         605         606         611         610
         606         607         612         611
         607         608         613         612
         608         609         614         613
         610         611         616         615
         611         612         617         616
         612         613         618         617
         613         614         619         618
         615         616         621         620
         616         617         622         621
         617         618         623         622
         618         619         624         623
         625         626         631         630
         626         627         632         631
         627         628         633         632
         628         629         634         633
         630         631         636         635
         631         632         637         636
         632         633         638         637
         633         634         639         638
         635         636         641         640
         636         637         642         641
         637         638         643         642
         638         639         644         643
         640         641         646         645
         641         642         647         646
         642         643         648         647
         643         644         649         648
         650         651         656         655
         651         652         657         656
         652         653         658         657
         653         654         659         658
         655         656         661         660
         656         657         662         661
         657         658         663         662
         658         659         664         663
         660         661         666         665
         661         662         667         666
         662         663         668         667
         663         664         669         668
         665         666         671         670
         666         667         672         671
         667         668         673         672
         668         669         674         673
         675         676         681         680
         676         677         682         681
         677         678         683         682
         678         679         684         683
         680         681         686         685
         681         682         687         686
         682         683         688         687
         683         684         689         688
         685         686         691         690
         686         687         692         691
         687         688         693         692
         688         689         694         693
         690         691         696         695
         691         692         697         696
         692         693         698         697
         693         694         699         698
         700         701         706         705
         701         702         707         706
         702         703         708         707
         703         704         709         708
         705         706         711         710
         706         707         712         711
         707         708         713         712
         708         709         714         713
         710         711         716         715
         711         712         717         716
         712         713         718         717
         713         714         719         718
         715         716         721         720
         716         717         722         721
         717         718         723         722
         718         719         724         723
         725         726         731         730
         726         727         732         731
         727         728         733         732
         728         729         734         733
         730         731         736         735
         731         732         737         736
         732         733         738         737
         733         734         739         738
         735         736         741         740
         736         737         742         741
         737         738         743         742
         738         739         744         743
         740         741         746         745
         741         742         747         746
         742         743         748         747
         743         744         749         748
         750         751         756         755
         751         752         757         756
         752         753         758         757
         753         754         759         758
         755         756         761         760
         756         757         762         761
         757         758         763         762
         758         759         764         763
         760         761         766         765
         761         762         767         766
         762         763         768         767
         763         764         769         768
         765         766         771         770
         766         767         772         771
         767         768         773         772
         768         769         774         773
         775         776         781         780
         776         777         782         781
         777         778         783         782
         778         779         784         783
         780         781         786         785
         781         782         787         786
         782         783         788         787
         783         784         789         788
         785         786         791         790
         786         787         792         791
         787         788         793         792
         788         789         794         793
         790         791         796         795
         791         792         797         796
         792         793         798         797
         793         794         799         798
         800         801         806         805
         801         802         807         806
         802         803         808         807
         803         804         809         808
         805         806         811         810
         806         807         812         811
         807         808         813         812
         808         809         814         813
         810         811         816         815
         811         812         817         816
         812         813         818         817
         813         814         819         818
         815         816         821         820
         816         817         822         821
         817         818         823         822
         818         819         824         823
         825         826         831         830
         826         827         832         831
         827         828         833         832
         828         829         834         833
         830         831         836         835
         831         832         837         836
         832         833         838         837
         833         834         839         838
         835         836         841         840
         836         837         842         841
         837         838         843         842
         838         839         844         843
         840         841         846         845
         841         842         847         846
         842         843         848         847
         843         844         849         848
         850         851         856         855
         851         852         857         856
         852         853         858         857
         853         854         859         858
         855         856         861         860
         856         857         862         861
         857         858         863         862
         858         859         864         863
         860         861         866         865
         861         862         867         866
         862         863         868         867
         863         864         869         868
         865         866         871         870
         866         867         872         871
         867         868         873         872
         868         869         874         873
         875         876         881         880
         876         877         882         881
         877         878         883         882
         878         879         884         883
         880         881         886         885
         881         882         887         886
         882         883         888         887
         883         884         889         888
         885         886         891         890
         886         887         892         891
         887         888         893         892
         888         889         894         893
         890         891         896         895
         891         892         897         896
         892         893         898         897
         893         894         899         898
         900         901         906         905
         901         902         907         906
         902         903         908         907
         903         904         909         908
         905         906         911         910
         906         907         912         911
         907         908         913         912
         908         909         914         913
         910         911         916         915
         911         912         917         916
         912         913         918         917
         913         914         919         918
         915         916         921         920
         916         917         922         921
         917         918         923         922
         918         919         924         923
         925         926         931         930
         926         927         932         931
         927         928         933         932
         928         929         934         933
         930         931         936         935
         931         932         937         936
         932         933         938         937
         933         934         939         938
         935         936         941         940
         936         937         942         941
         937         938         943         942
         938         939         944         943
         940         941         946         945
         941         942         947         946
         942         943         948         947
         943         944         949         948
         950         951         956         955
         951         952         957         956
         952         953         958         957
         953         954         959         958
         955         956         961         960
         956         957         962         961
         957         958         963         962
         958         959         964         963
         960         961         966         965
         961         962         967         966
         962         963         968         967
         963         964         969         968
         965         966         971         970
         966         967         972         971
         967         968         973         972
         968         969         974         973
         975         976         981         980
         976         977         982         981
         977         978         983         982
         978         979         984         983
         980         981         986         985
         981         982         987         986
         982         983         988         987
         983         984         989         988
         985         986         991         990
         986         987         992         991
         987         988         993         992
         988         989         994         993
         990         991         996         995
         991         992         997         996
         992         993         998         997
         993         994         999         998
        1000        1001        1006        1005
        1001        1002        1007        1006
        1002        1003        1008        1007
        1003        1004        1009        1008
        1005        1006        1011        1010
        1006        1007        1012        1011
        1007        1008        1013        1012
        1008        1009        1014        1013
        1010        1011        1016        1015
        1011        1012        1017        1016
        1012        1013        1018        1017
        1013        1014        1019        1018
        1015        1016        1021        1020
        1016        1017        1022        1021
        1017        1018        1023        1022
        1018        1019        1024        1023
        1025        1026        1031        1030
        1026        1027        1032        1031
        1027        1028        1033        1032
        1028        1029        1034        1033
        1030        1031        1036        1035
        1031        1032        1037        1036
        1032        1033        1038        1037
        1033        1034        1039        1038
        1035        1036        1041        1040
        1036        1037        1042        1041
        1037        1038        1043        1042
        1038        1039        1044        1043
        1040        1041        1046        1045
        1041        1042        1047        1046
        1042        1043        1048        1047
        1043        1044        1049        1048
        1050        1051        1056        1055
        1051        1052        1057        1056
        1052        1053        1058        1057
        1053        1054        1059        1058
        1055        1056        1061        1060
        1056        1057        1062        1061
        1057        1058        1063        1062
        1058        1059        1064        1063
        1060        1061        1066        1065
        1061        1062        1067        1066
        1062        1063        1068        1067
        1063        1064        1069        1068
        1065        1066        1071        1070
        1066        1067        1072        1071
        1067        1068        1073        1072
        1068        1069        1074        1073
        1075        1076        1081        1080
        1076        1077        1082        1081
        1077        1078        1083        1082
        1078        1079        1084        1083
        1080        1081        1086        1085
        1081        1082        1087        1086
        1082        1083        1088        1087
        1083        1084        1089        1088
        1085        1086        1091        1090
        1086        1087        1092        1091
        1087        1088        1093        1092
        1088        1089        1094        1093
        1090        1091        1096        1095
        1091        1092        1097        1096
        1092        1093        1098        1097
        1093        1094        1099        1098
        1100        1101        1106        1105
        1101        1102        1107        1106
        1102        1103        1108        1107
        1103        1104        1109        1108
        1105        1106        1111        1110
        1106        1107        1112        1111
        1107        1108        1113        1112
        1108        1109        1114        1113
        1110        1111        1116        1115
        1111        1112        1117        1116
        1112        1113        1118        1117
        1113        1114        1119        1118
        1115        1116        1121        1120
        1116        1117        1122        1121
        1117        1118        1123        1122
        1118        1119        1124        1123
        1125        1126        1131        1130
        1126        1127        1132        1131
        1127        1128        1133        1132
        1128        1129        1134        1133
        1130        1131        1136        1135
        1131        1132        1137        1136
        1132        1133        1138        1137
        1133        1134        1139        1138
        1135        1136        1141        1140
        1136        1137        1142        1141
        1137        1138        1143        1142
        1138        1139        1144        1143
        1140        1141        1146        1145
        1141        1142        1147        1146
        1142        1143        1148        1147
        1143        1144        1149        1148
        1150        1151        1156        1155
        1151        1152        1157        1156
        1152        1153        1158        1157
        1153        1154        1159        1158
        1155        1156        1161        1160
        1156        1157        1162        1161
        1157        1158        1163        1162
        1158        1159        1164        1163
        1160        1161        1166        1165
        1161        1162        1167        1166
        1162        1163        1168        1167
        1163        1164        1169        1168
        1165        1166        1171        1170
        1166        1167        1172        1171
        1167        1168        1173        1172
        1168        1169        1174        1173
        1175        1176        1181        1180
        1176        1177        1182        1181
        1177        1178        1183        1182
        1178        1179        1184        1183
        1180        1181        1186        1185
        1181        1182        1187        1186
        1182        1183        1188        1187
        1183        1184        1189        1188
        1185        1186        1191        1190
        1186        1187        1192        1191
        1187        1188        1193        1192
        1188        1189        1194        1193
        1190        1191        1196        1195
        1191        1192        1197        1196
        1192        1193        1198        1197
        1193        1194        1199        1198
        1200        1201        1206        1205
        1201        1202        1207        1206
        1202        1203        1208        1207
        1203        1204        1209        1208
        1205        1206        1211        1210
        1206        1207        1212        1211
        1207        1208        1213        1212
        1208        1209        1214        1213
        1210        1211        1216        1215
        1211        1212        1217        1216
        1212        1213        1218        1217
        1213        1214        1219        1218
        1215        1216        1221        1220
        1216        1217        1222        1221
        1217        1218        1223        1222
        1218        1219        1224        1223
        1225        1226        1231        1230
        1226        1227        1232        1231
        1227        1228        1233        1232
        1228        1229        1234        1233
        1230        1231        1236        1235
        1231        1232        1237        1236
        1232        1233        1238        1237
        1233        1234        1239        1238
        1235        1236        1241        1240
        1236        1237        1242        1241
        1237        1238        1243        1242
        1238        1239        1244        1243
        1240        1241        1246        1245
        1241        1242        1247        1246
        1242        1243        1248        1247
        1243        1244        1249        1248
        1250        1251        1256        1255
        1251        1252        1257        1256
        1252        1253        1258        1257
        1253        1254        1259        1258
        1255        1256        1261        1260
        1256        1257        1262        1261
        1257        1258        1263        1262
        1258        1259        1264        1263
        1260        1261        1266        1265
        1261        1262        1267        1266
        1262        1263        1268        1267
        1263        1264        1269        1268
        1265        1266        1271        1270
        1266        1267        1272        1271
        1267        1268        1273        1272
        1268        1269        1274        1273
        1275        1276        1281        1280
        1276        1277        1282        1281
        1277        1278        1283        1282
        1278        1279        1284        1283
        1280        1281        1286        1285
        1281        1282        1287        1286
        1282        1283        1288        1287
        1283        1284        1289        1288
        1285        1286        1291        1290
        1286        1287        1292        1291
        1287        1288        1293        1292
        1288        1289        1294        1293
        1290        1291        1296        1295
        1291        1292        1297        1296
        1292        1293        1298        1297
        1293        1294        1299        1298
        1300        1301        1306        1305
        1301        1302        1307        1306
        1302        1303        1308        1307
        1303        1304        1309        1308
        1305        1306        1311        1310
        1306        1307        1312        1311
        1307        1308        1313        1312
        1308        1309        1314        1313
        1310        1311        1316        1315
        1311        1312        1317        1316
        1312        1313        1318        1317
        1313        1314        1319        1318
        1315        1316        1321        1320
        1316        1317        1322        1321
        1317        1318        1323        1322
        1318        1319        1324        1323
        1325        1326        1331        1330
        1326        1327        1332        1331
        1327        1328        1333        1332
        1328        1329        1334        1333
        1330        1331        1336        1335
        1331        1332        1337        1336
        1332        1333        1338        1337
        1333        1334        1339        1338
        1335        1336        1341        1340
        1336        1337        1342        1341
        1337        1338        1343        1342
        1338        1339        1344        1343
        1340        1341        1346        1345
        1341        1342        1347        1346
        1342        1343        1348        1347
        1343        1344        1349        1348
        1350        1351        1356        1355
        1351        1352        1357        1356
        1352        1353        1358        1357
        1353        1354        1359        1358
        1355        1356        1361        1360
        1356        1357        1362        1361
        1357        1358        1363        1362
        1358        1359        1364        1363
        1360        1361        1366        1365
        1361        1362        1367        1366
        1362        1363        1368        1367
        1363        1364        1369        1368
        1365        1366        1371        1370
        1366        1367        1372        1371
        1367        1368        1373        1372
        1368        1369        1374        1373
        1375        1376        1381        1380
        1376        1377        1382        1381
        1377        1378        1383        1382
        1378        1379        1384        1383
        1380        1381        1386        1385
        1381        1382        1387        1386
        1382        1383        1388        1387
        1383        1384        1389        1388
        1385        1386        1391        1390
        1386        1387        1392        1391
        1387        1388        1393        1392
        1388        1389        1394        1393
        1390        1391        1396        1395
        1391        1392        1397        1396
        1392        1393        1398        1397
        1393        1394        1399        1398
        1400        1401        1406        1405
        1401        1402        1407        1406
        1402        1403        1408        1407
        1403        1404        1409        1408
        1405        1406        1411        1410
        1406        1407        1412        1411
        1407        1408        1413        1412
        1408        1409        1414        1413
        1410        1411        1416        1415
        1411        1412        1417        1416
        1412        1413        1418        1417
        1413        1414        1419        1418
        1415        1416        1421        1420
        1416        1417        1422        1421
        1417        1418        1423        1422
        1418        1419        1424        1423
        1425        1426        1431        1430
        1426        1427        1432        1431
        1427        1428        1433        1432
        1428        1429        1434        1433
        1430        1431        1436        1435
        1431        1432        1437        1436
        1432        1433        1438        1437
        1433        1434        1439        1438
        1435        1436        1441        1440
        1436        1437        1442        1441
        1437        1438        1443        1442
        1438        1439        1444        1443
        1440        1441        1446        1445
        1441        1442        1447        1446
        1442        1443        1448        1447
        1443        1444        1449        1448
        1450        1451        1456        1455
        1451        1452        1457        1456
        1452        1453        1458        1457
        1453        1454        1459        1458
        1455        1456        1461        1460
        1456        1457        1462        1461
        1457        1458        1463        1462
        1458        1459        1464        1463
        1460        1461        1466        1465
        1461        1462        1467        1466
        1462        1463        1468        1467
        1463        1464        1469        1468
        1465        1466        1471        1470
        1466        1467        1472        1471
        1467        1468        1473        1472
        1468        1469        1474        1473
        1475        1476        1481        1480
        1476        1477        1482        1481
        1477        1478        1483        1482
        1478        1479        1484        1483
        1480        1481        1486        1485
        1481        1482        1487        1486
        1482        1483        1488        1487
        1483        1484        1489        1488
        1485        1486        1491        1490
        1486        1487        1492        1491
        1487        1488        1493        1492
        1488        1489        1494        1493
        1490        1491        1496        1495
        1491        1492        1497        1496
        1492        1493        1498        1497
        1493        1494        1499        1498
        1500        1501        1506        1505
        1501        1502        1507        1506
        1502        1503        1508        1507
        1503        1504        1509        1508
        1505        1506        1511        1510
        1506        1507        1512        1511
        1507        1508        1513        1512
        1508        1509        1514        1513
        1510        1511        1516        1515
        1511        1512        1517        1516
        1512        1513        1518        1517
        1513        1514        1519        1518
        1515        1516        1521        1520
        1516        1517        1522        1521
        1517        1518        1523        1522
        1518        1519        1524        1523
        1525        1526        1531        1530
        1526        1527        1532        1531
        1527        1528        1533        1532
        1528        1529        1534        1533
        1530        1531        1536        1535
        1531        1532        1537        1536
        1532        1533        1538        1537
        1533        1534        1539        1538
        1535        1536        1541        1540
        1536        1537        1542        1541
        1537        1538        1543        1542
        1538        1539        1544        1543
        1540        1541        1546        1545
        1541        1542        1547        1546
        1542        1543        1548        1547
        1543        1544        1549        1548
        1550        1551        1556        1555
        1551        1552        1557        1556
        1552        1553        1558        1557
        1553        1554        1559        1558
        1555        1556        1561        1560
        1556        1557        1562        1561
        1557        1558        1563        1562
        1558        1559        1564        1563
        1560        1561        1566        1565
        1561        1562        1567        1566
        1562        1563        1568        1567
        1563        1564        1569        1568
        1565        1566        1571        1570
        1566        1567        1572        1571
        1567        1568        1573        1572
        1568        1569        1574        1573
        1575        1576        1581        1580
        1576        1577        1582        1581
        1577        1578        1583        1582
        1578        1579        1584        1583
        1580        1581        1586        1585
        1581        1582        1587        1586
        1582        1583        1588        1587
        1583        1584        1589        1588
        1585        1586        1591        1590
        1586        1587        1592        1591
        1587        1588        1593        1592
        1588        1589        1594        1593
        1590        1591        1596        1595
        1591        1592        1597        1596
        1592        1593        1598        1597
        1593        1594        1599        1598
 </DataArray>
 <DataArray  type="Int32"  Name="offsets"  format="ascii"> 
           4
           8
          12
          16
          20
          24
          28
          32
          36
          40
          44
          48
          52
          56
          60
          64
          68
          72
          76
          80
          84
          88
          92
          96
         100
         104
         108
         112
         116
         120
         124
         128
         132
         136
         140
         144
         148
         152
         156
         160
         164
         168
         172
         176
         180
         184
         188
         192
         196
         200
         204
         208
         212
         216
         220
         224
         228
         232
         236
         240
         244
         248
         252
         256
         260
         264
         268
         272
         276
         280
         284
         288
         292
         296
         300
         304
         308
         312
         316
         320
         324
         328
         332
         336
         340
         344
         348
         352
         356
         360
         364
         368
         372
         376
         380
         384
         388
         392
         396
         400
         404
         408
         412
         416
         420
         424
         428
         432
         436
         440
         444
         448
         452
         456
         460
         464
         468
         472
         476
         480
         484
         488
         492
         496
         500
         504
         508
         512
         516
         520
         524
         528
         532
         536
         540
         544
         548
         552
         556
         560
         564
         568
         572
         576
         580
         584
         588
         592
         596
         600
         604
         608
         612
         616
         620
         624
         628
         632
         636
         640
         644
         648
         652
         656
         660
         664
         668
         672
         676
         680
         684
         688
         692
         696
         700
         704
         708
         712
         716
         720
         724
         728
         732
         736
         740
         744
         748
         752
         756
         760
         764
         768
         772
         776
         780
         784
         788
         792
         796
         800
         804
         808
         812
         816
         820
         824
         828
         832
         836
         840
         844
         848
         852
         856
         860
         864
         868
         872
         876
         880
         884
         888
         892
         896
         900
         904
         908
         912
         916
         920
         924
         928
         932
         936
         940
         944
         948
         952
         956
         960
         964
         968
         972
         976
         980
         984
         988
         992
         996
        1000
        1004
        1008
        1012
        1016
        1020
        1024
        1028
        1032
        1036
        1040
        1044
        1048
        1052
        1056
        1060
        1064
        1068
        1072
        1076
        1080
        1084
        1088
        1092
        1096
        1100
        1104
        1108
        1112
        1116
        1120
        1124
        1128
        1132
        1136
        1140
        1144
        1148
        1152
        1156
        1160
        1164
        1168
        1172
        1176
        1180
        1184
        1188
        1192
        1196
        1200
        1204
        1208
        1212
        1216
        1220
        1224
        1228
        1232
        1236
        1240
        1244
        1248
        1252
        1256
        1260
        1264
        1268
        1272
        1276
        1280
        1284
        1288
        1292
        1296
        1300
        1304
        1308
        1312
        1316
        1320
        1324
        1328
        1332
        1336
        1340
        1344
        1348
        1352
        1356
        1360
        1364
        1368
        1372
        1376
        1380
        1384
        1388
        1392
        1396
        1400
        1404
        1408
        1412
        1416
        1420
        1424
        1428
        1432
        1436
        1440
        1444
        1448
        1452
        1456
        1460
        1464
        1468
        1472
        1476
        1480
        1484
        1488
        1492
        1496
        1500
        1504
        1508
        1512
        1516
        1520
        1524
        1528
        1532
        1536
        1540
        1544
        1548
        1552
        1556
        1560
        1564
        1568
        1572
        1576
        1580
        1584
        1588
        1592
        1596
        1600
        1604
        1608
        1612
        1616
        1620
        1624
        1628
        1632
        1636
        1640
        1644
        1648
        1652
        1656
        1660
        1664
        1668
        1672
        1676
        1680
        1684
        1688
        1692
        1696
        1700
        1704
        1708
        1712
        1716
        1720
        1724
        1728
        1732
        1736
        1740
        1744
        1748
        1752
        1756
        1760
        1764
        1768
        1772
        1776
        1780
        1784
        1788
        1792
        1796
        1800
        1804
        1808
        1812
        1816
        1820
        1824
        1828
        1832
        1836
        1840
        1844
        1848
        1852
        1856
        1860
        1864
        1868
        1872
        1876
        1880
        1884
        1888
        1892
        1896
        1900
        1904
        1908
        1912
        1916
        1920
        1924
        1928
        1932
        1936
        1940
        1944
        1948
        1952
        1956
        1960
        1964
        1968
        1972
        1976
        1980
        1984
        1988
        1992
        1996
        2000
        2004
        2008
        2012
        2016
        2020
        2024
        2028
        2032
        2036
        2040
        2044
        2048
        2052
        2056
        2060
        2064
        2068
        2072
        2076
        2080
        2084
        2088
        2092
        2096
        2100
        2104
        2108
        2112
        2116
        2120
        2124
        2128
        2132
        2136
        2140
        2144
        2148
        2152
        2156
        2160
        2164
        2168
        2172
        2176
        2180
        2184
        2188
        2192
        2196
        2200
        2204
        2208
        2212
        2216
        2220
        2224
        2228
        2232
        2236
        2240
        2244
        2248
        2252
        2256
        2260
        2264
        2268
        2272
        2276
        2280
        2284
        2288
        2292
        2296
        2300
        2304
        2308
        2312
        2316
        2320
        2324
        2328
        2332
        2336
        2340
        2344
        2348
        2352
        2356
        2360
        2364
        2368
        2372
        2376
        2380
        2384
        2388
        2392
        2396
        2400
        2404
        2408
        2412
        2416
        2420
        2424
        2428
        2432
        2436
        2440
        2444
        2448
        2452
        2456
        2460
        2464
        2468
        2472
        2476
        2480
        2484
        2488
        2492
        2496
        2500
        2504
        2508
        2512
        2516
        2520
        2524
        2528
        2532
        2536
        2540
        2544
        2548
        2552
        2556
        2560
        2564
        2568
        2572
        2576
        2580
        2584
        2588
        2592
        2596
        2600
        2604
        2608
        2612
        2616
        2620
        2624
        2628
        2632
        2636
        2640
        2644
        2648
        2652
        2656
        2660
        2664
        2668
        2672
        2676
        2680
        2684
        2688
        2692
        2696
        2700
        2704
        2708
        2712
        2716
        2720
        2724
        2728
        2732
        2736
        2740
        2744
        2748
        2752
        2756
        2760
        2764
        2768
        2772
        2776
        2780
        2784
        2788
        2792
        2796
        2800
        2804
        2808
        2812
        2816
        2820
        2824
        2828
        2832
        2836
        2840
        2844
        2848
        2852
        2856
        2860
        2864
        2868
        2872
        2876
        2880
        2884
        2888
        2892
        2896
        2900
        2904
        2908
        2912
        2916
        2920
        2924
        2928
        2932
        2936
        2940
        2944
        2948
        2952
        2956
        2960
        2964
        2968
        2972
        2976
        2980
        2984
        2988
        2992
        2996
        3000
        3004
        3008
        3012
        3016
        3020
        3024
        3028
        3032
        3036
        3040
        3044
        3048
        3052
        3056
        3060
        3064
        3068
        3072
        3076
        3080
        3084
        3088
        3092
        3096
        3100
        3104
        3108
        3112
        3116
        3120
        3124
        3128
        3132
        3136
        3140
        3144
        3148
        3152
        3156
        3160
        3164
        3168
        3172
        3176
        3180
        3184
        3188
        3192
        3196
        3200
        3204
        3208
        3212
        3216
        3220
        3224
        3228
        3232
        3236
        3240
        3244
        3248
        3252
        3256
        3260
        3264
        3268
        3272
        3276
        3280
        3284
        3288
        3292
        3296
        3300
        3304
        3308
        3312
        3316
        3320
        3324
        3328
        3332
        3336
        3340
        3344
        3348
        3352
        3356
        3360
        3364
        3368
        3372
        3376
        3380
        3384
        3388
        3392
        3396
        3400
        3404
        3408
        3412
        3416
        3420
        3424
        3428
        3432
        3436
        3440
        3444
        3448
        3452
        3456
        3460
        3464
        3468
        3472
        3476
        3480
        3484
        3488
        3492
        3496
        3500
        3504
        3508
        3512
        3516
        3520
        3524
        3528
        3532
        3536
        3540
        3544
        3548
        3552
        3556
        3560
        3564
        3568
        3572
        3576
        3580
        3584
        3588
        3592
        3596
        3600
        3604
        3608
        3612
        3616
        3620
        3624
        3628
        3632
        3636
        3640
        3644
        3648
        3652
        3656
        3660
        3664
        3668
        3672
        3676
        3680
        3684
        3688
        3692
        3696
        3700
        3704
        3708
        3712
        3716
        3720
        3724
        3728
        3732
        3736
        3740
        3744
        3748
        3752
        3756
        3760
        3764
        3768
        3772
        3776
        3780
        3784
        3788
        3792
        3796
        3800
        3804
        3808
        3812
        3816
        3820
        3824
        3828
        3832
        3836
        3840
        3844
        3848
        3852
        3856
        3860
        3864
        3868
        3872
        3876
        3880
        3884
        3888
        3892
        3896
        3900
        3904
        3908
        3912
        3916
        3920
        3924
        3928
        3932
        3936
        3940
        3944
        3948
        3952
        3956
        3960
        3964
        3968
        3972
        3976
        3980
        3984
        3988
        3992
        3996
        4000
        4004
        4008
        4012
        4016
        4020
        4024
        4028
        4032
        4036
        4040
        4044
        4048
        4052
        4056
        4060
        4064
        4068
        4072
        4076
        4080
        4084
        4088
        4092
        4096
 </DataArray>
 <DataArray  type="UInt8"  Name="types"  format="ascii">
 9
 9
 9
 9
 9
 9
 9
 9
 9
 9
 9
 9
 9
 9
 9
 9
 9
 9
 9
 9
 9
 9
 9
 9
 9
 9
 9
 9
 9
 9
 9
 9
 9
 9
 9
 9
 9
 9
 9
 9
 9
 9
 9
 9
 9
 9
 9
 9
 9
 9
 9
 9
 9
 9
 9
 9
 9
 9
 9
 9
 9
 9
 9
 9
 9
 9
 9
 9
 9
 9
 9
 9
 9
 9
 9
 9
 9
 9
 9
 9
 9
 9
 9
 9
 9
 9
 9
 9
 9
 9
 9
 9
 9
 9
 9
 9
 9
 9
 9
 9
 9
 9
 9
 9
 9
 9
 9
 9
 9
 9
 9
 9
 9
 9
 9
 9
 9
 9
 9
 9
 9
 9
 9
 9
 9
 9
 9
 9
 9
 9
 9
 9
 9
 9
 9
 9
 9
 9
 9
 9
 9
 9
 9
 9
 9
 9
 9
 9
 9
 9
 9
 9
 9
 9
 9
 9
 9
 9
 9
 9
 9
 9
 9
 9
 9
 9
 9
 9
 9
 9
 9
 9
 9
 9
 9
 9
 9
 9
 9
 9
 9
 9
 9
 9
 9
 9
 9
 9
 9
 9
 9
 9
 9
 9
 9
 9
 9
 9
 9
 9
 9
 9
 9
 9
 9
 9
 9
 9
 9
 9
 9
 9
 9
 9
 9
 9
 9
 9
 9
 9
 9
 9
 9
 9
 9
 9
 9
 9
 9
 9
 9
 9
 9
 9
 9
 9
 9
 9
 9
 9
 9
 9
 9
 9
 9
 9
 9
 9
 9
 9
 9
 9
 9
 9
 9
 9
 9
 9
 9
 9
 9
 9
 9
 9
 9
 9
 9
 9
 9
 9
 9
 9
 9
 9
 9
 9
 9
 9
 9
 9
 9
 9
 9
 9
 9
 9
 9
 9
 9
 9
 9
 9
 9
 9
 9
 9
 9
 9
 9
 9
 9
 9
 9
 9
 9
 9
 9
 9
 9
 9
 9
 9
 9
 9
 9
 9
 9
 9
 9
 9
 9
 9
 9
 9
 9
 9
 9
 9
 9
 9
 9
 9
 9
 9
 9
 9
 9
 9
 9
 9
 9
 9
 9
 9
 9
 9
 9
 9
 9
 9
 9
 9
 9
 9
 9
 9
 9
 9
 9
 9
 9
 9
 9
 9
 9
 9
 9
 9
 9
 9
 9
 9
 9
 9
 9
 9
 9
 9
 9
 9
 9
 9
 9
 9
 9
 9
 9
 9
 9
 9
 9
 9
 9
 9
 9
 9
 9
 9
 9
 9
 9
 9
 9
 9
 9
 9
 9
 9
 9
 9
 9
 9
 9
 9
 9
 9
 9
 9
 9
 9
 9
 9
 9
 9
 9
 9
 9
 9
 9
 9
 9
 9
 9
 9
 9
 9
 9
 9
 9
 9
 9
 9
 9
 9
 9
 9
 9
 9
 9
 9
 9
 9
 9
 9
 9
 9
 9
 9
 9
 9
 9
 9
 9
 9
 9
 9
 9
 9
 9
 9
 9
 9
 9
 9
 9
 9
 9
 9
 9
 9
 9
 9
 9
 9
 9
 9
 9
 9
 9
 9
 9
 9
 9
 9
 9
 9
 9
 9
 9
 9
 9
 9
 9
 9
 9
 9
 9
 9
 9
 9
 9
 9
 9
 9
 9
 9
 9
 9
 9
 9
 9
 9
 9
 9
 9
 9
 9
 9
 9
 9
 9
 9
 9
 9
 9
 9
 9
 9
 9
 9
 9
 9
 9
 9
 9
 9
 9
 9
 9
 9
 9
 9
 9
 9
 9
 9
 9
 9
 9
 9
 9
 9
 9
 9
 9
 9
 9
 9
 9
 9
 9
 9
 9
 9
 9
 9
 9
 9
 9
 9
 9
 9
 9
 9
 9
 9
 9
 9
 9
 9
 9
 9
 9
 9
 9
 9
 9
 9
 9
 9
 9
 9
 9
 9
 9
 9
 9
 9
 9
 9
 9
 9
 9
 9
 9
 9
 9
 9
 9
 9
 9
 9
 9
 9
 9
 9
 9
 9
 9
 9
 9
 9
 9
 9
 9
 9
 9
 9
 9
 9
 9
 9
 9
 9
 9
 9
 9
 9
 9
 9
 9
 9
 9
 9
 9
 9
 9
 9
 9
 9
 9
 9
 9
 9
 9
 9
 9
 9
 9
 9
 9
 9
 9
 9
 9
 9
 9
 9
 9
 9
 9
 9
 9
 9
 9
 9
 9
 9
 9
 9
 9
 9
 9
 9
 9
 9
 9
 9
 9
 9
 9
 9
 9
 9
 9
 9
 9
 9
 9
 9
 9
 9
 9
 9
 9
 9
 9
 9
 9
 9
 9
 9
 9
 9
 9
 9
 9
 9
 9
 9
 9
 9
 9
 9
 9
 9
 9
 9
 9
 9
 9
 9
 9
 9
 9
 9
 9
 9
 9
 9
 9
 9
 9
 9
 9
 9
 9
 9
 9
 9
 9
 9
 9
 9
 9
 9
 9
 9
 9
 9
 9
 9
 9
 9
 9
 9
 9
 9
 9
 9
 9
 9
 9
 9
 9
 9
 9
 9
 9
 9
 9
 9
 9
 9
 9
 9
 9
 9
 9
 9
 9
 9
 9
 9
 9
 9
 9
 9
 9
 9
 9
 9
 9
 9
 9
 9
 9
 9
 9
 9
 9
 9
 9
 9
 9
 9
 9
 9
 9
 9
 9
 9
 9
 9
 9
 9
 9
 9
 9
 9
 9
 9
 9
 9
 9
 9
 9
 9
 9
 9
 9
 9
 9
 9
 9
 9
 9
 9
 9
 9
 9
 9
 9
 9
 9
 9
 9
 9
 9
 9
 9
 9
 9
 9
 9
 9
 9
 9
 9
 9
 9
 9
 9
 9
 9
 9
 9
 9
 9
 9
 9
 9
 9
 9
 9
 9
 9
 9
 9
 9
 9
 9
 9
 9
 9
 9
 9
 9
 9
 9
 9
 9
 9
 9
 9
 9
 9
 9
 9
 9
 9
 9
 9
 9
 9
 9
 9
 9
 9
 9
 9
 9
 9
 9
 9
 9
 9
 9
 9
 9
 9
 9
 9
 9
 9
 9
 9
 9
 9
 9
 9
 9
 9
 9
 9
 9
 9
 9
 9
 9
 9
 9
 9
 9
 9
 9
 9
 9
 9
 9
 9
 9
 9
 9
 9
 9
 9
 9
 9
 9
 9
 9
 9
 9
 9
 9
 9
 9
 9
 9
 9
 9
 9
 9
 9
 9
 9
 9
 9
 9
 9
 9
 9
 9
 9
 9
 9
 9
 9
 9
 9
 9
 9
 9
 9
 9
 9
 9
 9
 9
 9
 9
 9
 9
 </DataArray>
 </Cells> 
 <PointData>
 <DataArray  type="Float64" Name="disp" NumberOfComponents="3" format="ascii">
   6.7684571940208216E-002   6.2692602498651384E-002   0.0000000000000000     
   7.0060114934178491E-002   6.8137553403648354E-002   0.0000000000000000     
   7.2500751214086237E-002   7.3739199158731061E-002   0.0000000000000000     
   7.5006480779931439E-002   7.9497539763899533E-002   0.0000000000000000     
   7.7577303631714126E-002   8.5412575219153755E-002   0.0000000000000000     
   6.0832576173144380E-002   6.1810238684360683E-002   0.0000000000000000     
   6.3507832690275934E-002   6.7271686071481138E-002   0.0000000000000000     
   6.6139556384686202E-002   7.2894241498833126E-002   0.0000000000000000     
   6.8727747256375163E-002   7.8677904966416676E-002   0.0000000000000000     
   7.1272405305342859E-002   8.4622676474231745E-002   0.0000000000000000     
   5.4811563512713518E-002   6.0982552967311476E-002   0.0000000000000000     
   5.7601088361466657E-002   6.6458323178013382E-002   0.0000000000000000     
   6.0281812667533435E-002   7.2099940867047491E-002   0.0000000000000000     
   6.2853736430913812E-002   7.7907406034413790E-002   0.0000000000000000     
   6.5316859651607814E-002   8.3880718680112293E-002   0.0000000000000000     
   4.9621533958915609E-002   6.0209545347503744E-002   0.0000000000000000     
   5.2339881947750674E-002   6.5697464723245086E-002   0.0000000000000000     
   5.4927520062627924E-002   7.1356297263374113E-002   0.0000000000000000     
   5.7384448303547365E-002   7.7186042967890875E-002   0.0000000000000000     
   5.9710666670509005E-002   8.3186701836795343E-002   0.0000000000000000     
   4.5262487511750674E-002   5.9491215824937500E-002   0.0000000000000000     
   4.7724213449127952E-002   6.4989110707176209E-002   0.0000000000000000     
   5.0076678569969661E-002   7.0663310687813036E-002   0.0000000000000000     
   5.2319882874275817E-002   7.6513815766847945E-002   0.0000000000000000     
   5.4453826362046417E-002   8.2540625944280965E-002   0.0000000000000000     
   7.7577303631714126E-002   8.5412575219153755E-002   0.0000000000000000     
   8.0143282467853572E-002   9.1490374865032781E-002   0.0000000000000000     
   8.2634479986769094E-002   9.7737008042075732E-002   0.0000000000000000     
   8.5050896188460706E-002  0.10415247475028254        0.0000000000000000     
   8.7392531072928381E-002  0.11073677498965324        0.0000000000000000     
   7.1272405305342859E-002   8.4622676474231745E-002   0.0000000000000000     
   7.3753354076534092E-002   9.0731474446116137E-002   0.0000000000000000     
   7.6150417114893731E-002   9.7007217305907653E-002   0.0000000000000000     
   7.8463594420421778E-002  0.10344990505360628        0.0000000000000000     
   8.0692885993118246E-002  0.11005953768921203        0.0000000000000000     
   6.5316859651607814E-002   8.3880718680112293E-002   0.0000000000000000     
   6.7681889930769012E-002   9.0019384968619096E-002   0.0000000000000000     
   6.9959534869550963E-002   9.6322911064410363E-002   0.0000000000000000     
   7.2149794467953693E-002  0.10279129696748611        0.0000000000000000     
   7.4252668725977175E-002  0.10942454267784629        0.0000000000000000     
   5.9710666670509005E-002   8.3186701836795343E-002   0.0000000000000000     
   6.1928890030558327E-002   8.9354106432541644E-002   0.0000000000000000     
   6.4061833250740788E-002   9.5684089317583848E-002   0.0000000000000000     
   6.6109496331056422E-002  0.10217665049192198        0.0000000000000000     
   6.8071879271505195E-002  0.10883178995555602        0.0000000000000000     
   5.4453826362046417E-002   8.2540625944280965E-002   0.0000000000000000     
   5.6494354375902042E-002   8.8735638837883796E-002   0.0000000000000000     
   5.8457312258463213E-002   9.5090752065428108E-002   0.0000000000000000     
   6.0342700009729973E-002  0.10160596562691390        0.0000000000000000     
   6.2150517629702307E-002  0.10828127952234121        0.0000000000000000     
   8.7392531072928381E-002  0.11073677498965324        0.0000000000000000     
   8.9651677899194523E-002  0.11746756561339827        0.0000000000000000     
   9.1820629926281594E-002  0.12432250347472801        0.0000000000000000     
   9.3899387154189537E-002  0.13130158857364252        0.0000000000000000     
   9.5887949582918394E-002  0.13840482091014178        0.0000000000000000     
   8.0692885993118246E-002  0.11005953768921203        0.0000000000000000     
   8.2836043271091925E-002  0.11681555607940557        0.0000000000000000     
   8.4890817692451714E-002  0.12369740109086752        0.0000000000000000     
   8.6857209257197560E-002  0.13070507272359794        0.0000000000000000     
   8.8735217965329502E-002  0.13783857097759677        0.0000000000000000     
   7.4252668725977175E-002  0.10942454267784629        0.0000000000000000     
   7.6269271652990855E-002  0.11620400902396077        0.0000000000000000     
   7.8200717258364111E-002  0.12311105683429935        0.0000000000000000     
   8.0047005542097011E-002  0.13014568610886207        0.0000000000000000     
   8.1808136504189485E-002  0.13730789684764885        0.0000000000000000     
   6.8071879271505195E-002  0.10883178995555602        0.0000000000000000     
   6.9951363044891274E-002  0.11563292444706391        0.0000000000000000     
   7.1750328624018839E-002  0.12256347070502355        0.0000000000000000     
   7.3468776008887848E-002  0.12962342872943491        0.0000000000000000     
   7.5106705199498344E-002  0.13681279852029804        0.0000000000000000     
   6.2150517629702307E-002  0.10828127952234121        0.0000000000000000     
   6.3882317446793249E-002  0.11510230234871495        0.0000000000000000     
   6.5539651789415870E-002  0.12205464270304005        0.0000000000000000     
   6.7122520657570142E-002  0.12913830058531650        0.0000000000000000     
   6.8630924051256093E-002  0.13635327599554431        0.0000000000000000     
   9.5887949582918394E-002  0.13840482091014178        0.0000000000000000     
   9.7784537382091044E-002  0.14562888549014652        0.0000000000000000     
   9.9587370721330337E-002  0.15297046731957759        0.0000000000000000     
  0.10129644960063634       0.16042956639843492        0.0000000000000000     
  0.10291177402000901       0.16800618272671852        0.0000000000000000     
   8.8735217965329502E-002  0.13783857097759677        0.0000000000000000     
   9.0525242318705804E-002  0.14509262224037262        0.0000000000000000     
   9.2227680819184768E-002  0.15246195289943409        0.0000000000000000     
   9.3842533466766381E-002  0.15994656295478119        0.0000000000000000     
   9.5369800261450630E-002  0.16754645240641386        0.0000000000000000     
   8.1808136504189485E-002  0.13730789684764885        0.0000000000000000     
   8.3485650287425148E-002  0.14459064533135635        0.0000000000000000     
   8.5081087034587513E-002  0.15198688784068107        0.0000000000000000     
   8.6594446745676595E-002  0.15949662437562306        0.0000000000000000     
   8.8025729420692422E-002  0.16711985493618225        0.0000000000000000     
   7.5106705199498344E-002  0.13681279852029804        0.0000000000000000     
   7.6665761288249021E-002  0.14412295476309764        0.0000000000000000     
   7.8147589367538545E-002  0.15154527214331848        0.0000000000000000     
   7.9552189437367041E-002  0.15907975066096053        0.0000000000000000     
   8.0879561497734370E-002  0.16672639031602382        0.0000000000000000     
   6.8630924051256093E-002  0.13635327599554431        0.0000000000000000     
   7.0065575321177437E-002  0.14368955053559657        0.0000000000000000     
   7.1427187818037974E-002  0.15113710580734632        0.0000000000000000     
   7.2715761541837648E-002  0.15869594181079363        0.0000000000000000     
   7.3931296492576515E-002  0.16636605854593847        0.0000000000000000     
  0.10291177402000901       0.16800618272671852        0.0000000000000000     
  0.10443962159979743       0.17568446618662778        0.0000000000000000     
  0.10588626996035064       0.18344856666036202        0.0000000000000000     
  0.10725171910166867       0.19129848414792117        0.0000000000000000     
  0.10853596902375150       0.19923421864930527        0.0000000000000000     
   9.5369800261450630E-002  0.16754645240641386        0.0000000000000000     
   9.6811978790250913E-002  0.17524764480943053        0.0000000000000000     
   9.8171566640180591E-002  0.18303616371892956        0.0000000000000000     
   9.9448563811239649E-002  0.19091200913491094        0.0000000000000000     
  0.10064297030342809       0.19887518105737473        0.0000000000000000     
   8.8025729420692422E-002  0.16711985493618225        0.0000000000000000     
   8.9374946949675030E-002  0.17484400087359750        0.0000000000000000     
   9.0642111222664482E-002  0.18265648353910752        0.0000000000000000     
   9.1827222239660805E-002  0.19055730293271234        0.0000000000000000     
   9.2930280000663973E-002  0.19854645905441190        0.0000000000000000     
   8.0879561497734370E-002  0.16672639031602382        0.0000000000000000     
   8.2128526078069794E-002  0.17447353437912877        0.0000000000000000     
   8.3297903707802379E-002  0.18230952612089596        0.0000000000000000     
   8.4387694386932180E-002  0.19023436554132525        0.0000000000000000     
   8.5397898115459170E-002  0.19824805264041673        0.0000000000000000     
   7.3931296492576515E-002  0.16636605854593847        0.0000000000000000     
   7.5072716175435150E-002  0.17413624532602434        0.0000000000000000     
   7.6138944095594241E-002  0.18199529146429477        0.0000000000000000     
   7.7129980253053745E-002  0.18994319696074977        0.0000000000000000     
   7.8045824647813677E-002  0.19797996181538929        0.0000000000000000     
  0.10853596902375150       0.19923421864930527        0.0000000000000000     
  0.10974218512630257       0.20725397907923632        0.0000000000000000     
  0.11087353280902534       0.21535597435243636        0.0000000000000000     
  0.11193001207191983       0.22354020446890527        0.0000000000000000     
  0.11291162291498601       0.23180666942864320        0.0000000000000000     
  0.10064297030342809       0.19887518105737473        0.0000000000000000     
  0.10175952552381909       0.20692095114701348        0.0000000000000000     
  0.10280296887948583       0.21504459106451990        0.0000000000000000     
  0.10377330037042828       0.22324610080989393        0.0000000000000000     
  0.10467051999664648       0.23152548038313558        0.0000000000000000     
   9.2930280000663973E-002  0.19854645905441190        0.0000000000000000     
   9.3956143591792218E-002  0.20661739854784100        0.0000000000000000     
   9.4909672099163733E-002  0.21476356805663449        0.0000000000000000     
   9.5790865522778532E-002  0.22298496758079236        0.0000000000000000     
   9.6599723862636613E-002  0.23128159712031462        0.0000000000000000     
   8.5397898115459170E-002  0.19824805264041673        0.0000000000000000     
   8.6332039330221946E-002  0.20634332128171887        0.0000000000000000     
   8.7193642468059079E-002  0.21451290532878020        0.0000000000000000     
   8.7982707528970569E-002  0.22275680478160062        0.0000000000000000     
   8.8699234512956429E-002  0.23107501964018018        0.0000000000000000     
   7.8045824647813677E-002  0.19797996181538929        0.0000000000000000     
   7.8887212739108287E-002  0.20609871934864710        0.0000000000000000     
   7.9654879986171864E-002  0.21429260288095689        0.0000000000000000     
   8.0348826389004410E-002  0.22256161241231864        0.0000000000000000     
   8.0969051947605883E-002  0.23090574794273241        0.0000000000000000     
  0.11291162291498601       0.23180666942864320        0.0000000000000000     
  0.11384629076199032       0.24017171018266908        0.0000000000000000     
  0.11476194103669916       0.24865166768200203        0.0000000000000000     
  0.11565857373911261       0.25724654192664204        0.0000000000000000     
  0.11653618886923059       0.26595633291658904        0.0000000000000000     
  0.10467051999664648       0.23152548038313558        0.0000000000000000     
  0.10549965723971970       0.23990609297123289        0.0000000000000000     
  0.10626574158122723       0.24841130176117385        0.0000000000000000     
  0.10696877302116907       0.25704110675295838        0.0000000000000000     
  0.10760875155954522       0.26579550794658657        0.0000000000000000     
   9.6599723862636613E-002  0.23128159712031462        0.0000000000000000     
   9.7327268908804845E-002  0.23967989705064924        0.0000000000000000     
   9.7964522451350108E-002  0.24820630774724442        0.0000000000000000     
   9.8511484490272361E-002  0.25686082921010001        0.0000000000000000     
   9.8968155025571616E-002  0.26564346143921613        0.0000000000000000     
   8.8699234512956429E-002  0.23107501964018018        0.0000000000000000     
   8.9329125769245774E-002  0.23949312242091816        0.0000000000000000     
   8.9858283647067799E-002  0.24803668564021372        0.0000000000000000     
   9.0286708146422451E-002  0.25670570929806691        0.0000000000000000     
   9.0614399267309784E-002  0.26550019339447767        0.0000000000000000     
   8.0969051947605883E-002  0.23090574794273241        0.0000000000000000     
   8.1505227821042470E-002  0.23934576908203964        0.0000000000000000     
   8.1947025168380302E-002  0.24790243544008186        0.0000000000000000     
   8.2294443989619354E-002  0.25657574701685892        0.0000000000000000     
   8.2547484284759665E-002  0.26536570381237107        0.0000000000000000     
  0.11653618886923059       0.26595633291658904        0.0000000000000000     
  0.11733513745467788       0.27494561707310189        0.0000000000000000     
  0.11799577052307920       0.28437897081743924        0.0000000000000000     
  0.11851808807443456       0.29425639414960114        0.0000000000000000     
  0.11890209010874396       0.30457788706958749        0.0000000000000000     
  0.10760875155954522       0.26579550794658657        0.0000000000000000     
  0.10816665461157640       0.27480659828240822        0.0000000000000000     
  0.10862345959248330       0.28420647070077282        0.0000000000000000     
  0.10897916650226590       0.29399512520168047        0.0000000000000000     
  0.10923377534092424       0.30417256178513130        0.0000000000000000     
   9.8968155025571616E-002  0.26564346143921613        0.0000000000000000     
   9.9345482104002958E-002  0.27465243170895387        0.0000000000000000     
   9.9654413772321412E-002  0.28398596729367415        0.0000000000000000     
   9.9894950030526980E-002  0.29364406819337702        0.0000000000000000     
  0.10006709087861969       0.30362673440806254        0.0000000000000000     
   9.0614399267309784E-002  0.26550019339447767        0.0000000000000000     
   9.0871619931957526E-002  0.27448311735273878        0.0000000000000000     
   9.1088633062593544E-002  0.28371746059614317        0.0000000000000000     
   9.1265438659217796E-002  0.29320322312469066        0.0000000000000000     
   9.1402036721830296E-002  0.30294040493838137        0.0000000000000000     
   8.2547484284759665E-002  0.26536570381237107        0.0000000000000000     
   8.2745068095440133E-002  0.27429865521376307        0.0000000000000000     
   8.2926117463299698E-002  0.28340095060817988        0.0000000000000000     
   8.3090632388338345E-002  0.29267258999562140        0.0000000000000000     
   8.3238612870556117E-002  0.30211357337608774        0.0000000000000000     
   4.5262487511750674E-002   5.9491215824937500E-002   0.0000000000000000     
   4.7724213449127952E-002   6.4989110707176209E-002   0.0000000000000000     
   5.0076678569969661E-002   7.0663310687813036E-002   0.0000000000000000     
   5.2319882874275817E-002   7.6513815766847945E-002   0.0000000000000000     
   5.4453826362046417E-002   8.2540625944280965E-002   0.0000000000000000     
   4.1295899514950898E-002   5.8827776022804250E-002   0.0000000000000000     
   4.3435700891693997E-002   6.4335741119289303E-002   0.0000000000000000     
   4.5502921473658385E-002   7.0024655254523088E-002   0.0000000000000000     
   4.7497561260844069E-002   7.5894518428505600E-002   0.0000000000000000     
   4.9419620253251029E-002   8.1945330641236838E-002   0.0000000000000000     
   3.7283245312248484E-002   5.8219437564295491E-002   0.0000000000000000     
   3.9155962301544320E-002   6.3739835949066848E-002   0.0000000000000000     
   4.0979882057793814E-002   6.9444005077663171E-002   0.0000000000000000     
   4.2755004580996972E-002   7.5331944950084453E-002   0.0000000000000000     
   4.4481329871153767E-002   8.1403655566330682E-002   0.0000000000000000     
   3.3224524903643429E-002   5.7666200449411238E-002   0.0000000000000000     
   3.4884997678678920E-002   6.3201395196508858E-002   0.0000000000000000     
   3.6507560322375954E-002   6.8921360157233269E-002   0.0000000000000000     
   3.8092212834734532E-002   7.4826095331584491E-002   0.0000000000000000     
   3.9638955215754661E-002   8.0915600719562497E-002   0.0000000000000000     
   2.9119738289135728E-002   5.7168064678151484E-002   0.0000000000000000     
   3.0622807023097779E-002   6.2720418861615335E-002   0.0000000000000000     
   3.2085956267404785E-002   6.8456720493233397E-002   0.0000000000000000     
   3.3509186022056749E-002   7.4376969573005713E-002   0.0000000000000000     
   3.4892496287053681E-002   8.0481166100932255E-002   0.0000000000000000     
   5.4453826362046417E-002   8.2540625944280965E-002   0.0000000000000000     
   5.6494354375902042E-002   8.8735638837883796E-002   0.0000000000000000     
   5.8457312258463213E-002   9.5090752065428108E-002   0.0000000000000000     
   6.0342700009729973E-002  0.10160596562691390        0.0000000000000000     
   6.2150517629702307E-002  0.10828127952234121        0.0000000000000000     
   4.9419620253251029E-002   8.1945330641236838E-002   0.0000000000000000     
   5.1271456074056150E-002   8.8165623991683942E-002   0.0000000000000000     
   5.3055426346436285E-002   9.4543930578814009E-002   0.0000000000000000     
   5.4771531070391420E-002  0.10108025040262708        0.0000000000000000     
   5.6419770245921597E-002  0.10777458346312313        0.0000000000000000     
   4.4481329871153767E-002   8.1403655566330682E-002   0.0000000000000000     
   4.6153368232276649E-002   8.7645703700980487E-002   0.0000000000000000     
   4.7765629968378014E-002   9.4044656128612486E-002   0.0000000000000000     
   4.9318115079457860E-002  0.10060051284922666        0.0000000000000000     
   5.0810823565516208E-002  0.10731327386282306        0.0000000000000000     
   3.9638955215754661E-002   8.0915600719562497E-002   0.0000000000000000     
   4.1140090850563540E-002   8.7175877965773432E-002   0.0000000000000000     
   4.2587923124288420E-002   9.3592928714823512E-002   0.0000000000000000     
   4.3982452036929277E-002  0.10016675296671269        0.0000000000000000     
   4.5323677588486128E-002  0.10689735072144098        0.0000000000000000     
   3.4892496287053681E-002   8.0481166100932255E-002   0.0000000000000000     
   3.6231623928916844E-002   8.6756146786062791E-002   0.0000000000000000     
   3.7522305814167503E-002   9.3188748337447072E-002   0.0000000000000000     
   3.8764541942805680E-002   9.9778970755085100E-002   0.0000000000000000     
   3.9958332314831348E-002  0.10652681403897686        0.0000000000000000     
   6.2150517629702307E-002  0.10828127952234121        0.0000000000000000     
   6.3882317446793249E-002  0.11510230234871495        0.0000000000000000     
   6.5539651789415870E-002  0.12205464270304005        0.0000000000000000     
   6.7122520657570142E-002  0.12913830058531650        0.0000000000000000     
   6.8630924051256093E-002  0.13635327599554431        0.0000000000000000     
   5.6419770245921597E-002  0.10777458346312313        0.0000000000000000     
   5.8000122998454931E-002  0.11461441742917000        0.0000000000000000     
   5.9512568453419533E-002  0.12158723996963545        0.0000000000000000     
   6.0957106610815423E-002  0.12869305108451951        0.0000000000000000     
   6.2333737470642588E-002  0.13593185077382219        0.0000000000000000     
   5.0810823565516208E-002  0.10731327386282306        0.0000000000000000     
   5.2242767839634496E-002  0.11417154438868513        0.0000000000000000     
   5.3612960314894181E-002  0.12116392964609633        0.0000000000000000     
   5.4921400991295277E-002  0.12829042963505669        0.0000000000000000     
   5.6168089868837763E-002  0.13555104435556620        0.0000000000000000     
   4.5323677588486128E-002  0.10689735072144098        0.0000000000000000     
   4.6610251970331973E-002  0.11377368322726029        0.0000000000000000     
   4.7840827373839830E-002  0.12078471173242264        0.0000000000000000     
   4.9015403799009719E-002  0.12793043623692804        0.0000000000000000     
   5.0133981245841619E-002  0.13521085674077632        0.0000000000000000     
   3.9958332314831348E-002  0.10652681403897686        0.0000000000000000     
   4.1102575390547333E-002  0.11342083394489558        0.0000000000000000     
   4.2196169630256471E-002  0.12044958622861443        0.0000000000000000     
   4.3239115033958726E-002  0.12761307089013343        0.0000000000000000     
   4.4231411601654128E-002  0.13491128792945264        0.0000000000000000     
   6.8630924051256093E-002  0.13635327599554431        0.0000000000000000     
   7.0065575321177437E-002  0.14368955053559657        0.0000000000000000     
   7.1427187818037974E-002  0.15113710580734632        0.0000000000000000     
   7.2715761541837648E-002  0.15869594181079363        0.0000000000000000     
   7.3931296492576515E-002  0.16636605854593847        0.0000000000000000     
   6.2333737470642588E-002  0.13593185077382219        0.0000000000000000     
   6.3641966964694277E-002  0.14329252988466168        0.0000000000000000     
   6.4881301024763735E-002  0.15076397926415616        0.0000000000000000     
   6.6051739650850941E-002  0.15834619891230570        0.0000000000000000     
   6.7153282842955908E-002  0.16603918882911023        0.0000000000000000     
   5.6168089868837763E-002  0.13555104435556620        0.0000000000000000     
   5.7351810797283409E-002  0.14293399004610158        0.0000000000000000     
   5.8471347626393937E-002  0.15042748294513952        0.0000000000000000     
   5.9526700356169360E-002  0.15803152305268006        0.0000000000000000     
   6.0517868986609658E-002  0.16574611036872311        0.0000000000000000     
   5.0133981245841619E-002  0.13521085674077632        0.0000000000000000     
   5.1195106818944805E-002  0.14261393101991626        0.0000000000000000     
   5.2197327622928565E-002  0.15012761685029638        0.0000000000000000     
   5.3140643657792884E-002  0.15775191423191670        0.0000000000000000     
   5.4025054923537777E-002  0.16548682316477714        0.0000000000000000     
   4.4231411601654128E-002  0.13491128792945264        0.0000000000000000     
   4.5171855029678493E-002  0.14233235280610582        0.0000000000000000     
   4.6059241014367626E-002  0.14986438097962679        0.0000000000000000     
   4.6893569555721555E-002  0.15750737245001561        0.0000000000000000     
   4.7674840653740259E-002  0.16526132721727224        0.0000000000000000     
   7.3931296492576515E-002  0.16636605854593847        0.0000000000000000     
   7.5072716175435150E-002  0.17413624532602434        0.0000000000000000     
   7.6138944095594241E-002  0.18199529146429477        0.0000000000000000     
   7.7129980253053745E-002  0.18994319696074977        0.0000000000000000     
   7.8045824647813677E-002  0.19797996181538929        0.0000000000000000     
   6.7153282842955908E-002  0.16603918882911023        0.0000000000000000     
   6.8185417265253234E-002  0.17383189495298598        0.0000000000000000     
   6.9147629581917558E-002  0.18171326322234896        0.0000000000000000     
   7.0039919792948865E-002  0.18968329363719930        0.0000000000000000     
   7.0862287898347143E-002  0.19774198619753691        0.0000000000000000     
   6.0517868986609658E-002  0.16574611036872311        0.0000000000000000     
   6.1444529371006071E-002  0.17356024449871540        0.0000000000000000     
   6.2306357362649820E-002  0.18146292504810344        0.0000000000000000     
   6.3103352961540876E-002  0.18945415201688728        0.0000000000000000     
   6.3835516167679282E-002  0.19753392540506687        0.0000000000000000     
   5.4025054923537777E-002  0.16548682316477714        0.0000000000000000     
   5.4850052492693674E-002  0.17332129396321269        0.0000000000000000     
   5.5615127437791019E-002  0.18124427694155817        0.0000000000000000     
   5.6320279758829819E-002  0.18925577209981373        0.0000000000000000     
   5.6965509455810075E-002  0.19735577943797919        0.0000000000000000     
   4.7674840653740259E-002  0.16526132721727224        0.0000000000000000     
   4.8401986630316036E-002  0.17311504334647776        0.0000000000000000     
   4.9073939807341170E-002  0.18105731890271320        0.0000000000000000     
   4.9690700184815660E-002  0.18908815388597855        0.0000000000000000     
   5.0252267762739514E-002  0.19720754829627388        0.0000000000000000     
   7.8045824647813677E-002  0.19797996181538929        0.0000000000000000     
   7.8887212739108287E-002  0.20609871934864710        0.0000000000000000     
   7.9654879986171864E-002  0.21429260288095689        0.0000000000000000     
   8.0348826389004410E-002  0.22256161241231864        0.0000000000000000     
   8.0969051947605883E-002  0.23090574794273241        0.0000000000000000     
   7.0862287898347143E-002  0.19774198619753691        0.0000000000000000     
   7.1612610041070057E-002  0.20588308626598525        0.0000000000000000     
   7.2288762364075207E-002  0.21410033920516788        0.0000000000000000     
   7.2890744867362633E-002  0.22239374501508463        0.0000000000000000     
   7.3418557550932281E-002  0.23076330369573572        0.0000000000000000     
   6.3835516167679282E-002  0.19753392540506687        0.0000000000000000     
   6.4499177458726062E-002  0.20569591555109296        0.0000000000000000     
   6.5090667312342240E-002  0.21393379279341629        0.0000000000000000     
   6.5609985728527873E-002  0.22224755713203681        0.0000000000000000     
   6.6057132707282903E-002  0.23063720856695458        0.0000000000000000     
   5.6965509455810075E-002  0.19735577943797919        0.0000000000000000     
   5.7546914992076280E-002  0.20553720720397015        0.0000000000000000     
   5.8060594830972957E-002  0.21379296364570213        0.0000000000000000     
   5.8506548972500114E-002  0.22212304876317507        0.0000000000000000     
   5.8884777416657742E-002  0.23052746255638901        0.0000000000000000     
   5.0252267762739514E-002  0.19720754829627388        0.0000000000000000     
   5.0755822641120739E-002  0.20540696122461691        0.0000000000000000     
   5.1198544919967365E-002  0.21367785176202542        0.0000000000000000     
   5.1580434599279384E-002  0.22202021990849949        0.0000000000000000     
   5.1901491679056791E-002  0.23043406566403907        0.0000000000000000     
   8.0969051947605883E-002  0.23090574794273241        0.0000000000000000     
   8.1505227821042470E-002  0.23934576908203964        0.0000000000000000     
   8.1947025168380302E-002  0.24790243544008186        0.0000000000000000     
   8.2294443989619354E-002  0.25657574701685892        0.0000000000000000     
   8.2547484284759665E-002  0.26536570381237107        0.0000000000000000     
   7.3418557550932281E-002  0.23076330369573572        0.0000000000000000     
   7.3869187590403229E-002  0.23922286853620195        0.0000000000000000     
   7.4239622161394431E-002  0.24778629282556441        0.0000000000000000     
   7.4529861263905928E-002  0.25645357656382300        0.0000000000000000     
   7.4739904897937692E-002  0.26522471975097778        0.0000000000000000     
   6.6057132707282903E-002  0.23063720856695458        0.0000000000000000     
   6.6434617603536306E-002  0.23910945228559341        0.0000000000000000     
   6.6744949772216997E-002  0.24767099347537708        0.0000000000000000     
   6.6988129213324976E-002  0.25632183213630566        0.0000000000000000     
   6.7164155926860231E-002  0.26506196826837913        0.0000000000000000     
   5.8884777416657742E-002  0.23052746255638901        0.0000000000000000     
   5.9201517860441734E-002  0.23900552033021397        0.0000000000000000     
   5.9463008000847993E-002  0.24755653738951994        0.0000000000000000     
   5.9669247837876520E-002  0.25618051373430695        0.0000000000000000     
   5.9820237371527293E-002  0.26487744936457491        0.0000000000000000     
   5.1901491679056791E-002  0.23043406566403907        0.0000000000000000     
   5.2169888361119507E-002  0.23891107267006367        0.0000000000000000     
   5.2393796847287413E-002  0.24744292456799294        0.0000000000000000     
   5.2573217137560538E-002  0.25602962135782681        0.0000000000000000     
   5.2708149231938860E-002  0.26467116303956528        0.0000000000000000     
   8.2547484284759665E-002  0.26536570381237107        0.0000000000000000     
   8.2745068095440133E-002  0.27429865521376307        0.0000000000000000     
   8.2926117463299698E-002  0.28340095060817988        0.0000000000000000     
   8.3090632388338345E-002  0.29267258999562140        0.0000000000000000     
   8.3238612870556117E-002  0.30211357337608774        0.0000000000000000     
   7.4739904897937692E-002  0.26522471975097778        0.0000000000000000     
   7.4910669312411110E-002  0.27409336040858934        0.0000000000000000     
   7.5083070756247552E-002  0.28305313655821818        0.0000000000000000     
   7.5257109229446992E-002  0.29210404819986413        0.0000000000000000     
   7.5432784732009456E-002  0.30124609533352747        0.0000000000000000     
   6.7164155926860231E-002  0.26506196826837913        0.0000000000000000     
   6.7313266300830815E-002  0.27386154805378027        0.0000000000000000     
   6.7475696723244757E-002  0.28269071767469173        0.0000000000000000     
   6.7651447194102043E-002  0.29154947713111390        0.0000000000000000     
   6.7840517713402659E-002  0.30043782642304639        0.0000000000000000     
   5.9820237371527293E-002  0.26487744936457491        0.0000000000000000     
   5.9952859060699255E-002  0.27360321814933564        0.0000000000000000     
   6.0103995364291327E-002  0.28231369395760086        0.0000000000000000     
   6.0273646282303486E-002  0.29100887678937037        0.0000000000000000     
   6.0461811814735762E-002  0.29968876664464444        0.0000000000000000     
   5.2708149231938860E-002  0.26467116303956528        0.0000000000000000     
   5.2829447592016424E-002  0.27331837069525572        0.0000000000000000     
   5.2967966679387260E-002  0.28192206540694520        0.0000000000000000     
   5.3123706494051362E-002  0.29048224717463395        0.0000000000000000     
   5.3296667036008744E-002  0.29899891599832173        0.0000000000000000     
   2.9119738289135728E-002   5.7168064678151484E-002   0.0000000000000000     
   3.0622807023097779E-002   6.2720418861615335E-002   0.0000000000000000     
   3.2085956267404785E-002   6.8456720493233397E-002   0.0000000000000000     
   3.3509186022056749E-002   7.4376969573005713E-002   0.0000000000000000     
   3.4892496287053681E-002   8.0481166100932255E-002   0.0000000000000000     
   2.5077565795260569E-002   5.6727870949269975E-002   0.0000000000000000     
   2.6438318336372630E-002   6.2296679273864508E-002   0.0000000000000000     
   2.7753564686145885E-002   6.8048104148431876E-002   0.0000000000000000     
   2.9023304844580343E-002   7.3982145572972044E-002   0.0000000000000000     
   3.0247538811675998E-002   8.0098803547485040E-002   0.0000000000000000     
   2.1206687748553117E-002   5.6348459961520457E-002   0.0000000000000000     
   2.2400459620075194E-002   6.1929948762734673E-002   0.0000000000000000     
   2.3548880371864825E-002   6.7693529185596985E-002   0.0000000000000000     
   2.4651950003922018E-002   7.3639201230107351E-002   0.0000000000000000     
   2.5709668516246766E-002   7.9766964896265849E-002   0.0000000000000000     
   1.7507104149013367E-002   5.6029831714902938E-002   0.0000000000000000     
   1.8509230874205470E-002   6.1620227328225828E-002   0.0000000000000000     
   1.9471903324561605E-002   6.7392995604728750E-002   0.0000000000000000     
   2.0395121500081777E-002   7.3348136544411704E-002   0.0000000000000000     
   2.1278885400765994E-002   7.9485650147274683E-002   0.0000000000000000     
   1.3978814996641331E-002   5.5771986209417417E-002   0.0000000000000000     
   1.4764632098763449E-002   6.1367514970337961E-002   0.0000000000000000     
   1.5522633544236213E-002   6.7146503405827174E-002   0.0000000000000000     
   1.6252819333059620E-002   7.3108951515885034E-002   0.0000000000000000     
   1.6955189465233673E-002   7.9254859300511543E-002   0.0000000000000000     
   3.4892496287053681E-002   8.0481166100932255E-002   0.0000000000000000     
   3.6231623928916844E-002   8.6756146786062791E-002   0.0000000000000000     
   3.7522305814167503E-002   9.3188748337447072E-002   0.0000000000000000     
   3.8764541942805680E-002   9.9778970755085100E-002   0.0000000000000000     
   3.9958332314831348E-002  0.10652681403897686        0.0000000000000000     
   3.0247538811675998E-002   8.0098803547485040E-002   0.0000000000000000     
   3.1427024443436605E-002   8.6386155930328848E-002   0.0000000000000000     
   3.2562519595865931E-002   9.2832280579861495E-002   0.0000000000000000     
   3.3654024268963960E-002   9.9437177496082926E-002   0.0000000000000000     
   3.4701538462730719E-002  0.10620084667899321        0.0000000000000000     
   2.5709668516246766E-002   7.9766964896265849E-002   0.0000000000000000     
   2.6725349370222931E-002   8.6065551167051904E-002   0.0000000000000000     
   2.7702306027234374E-002   9.2523691025445012E-002   0.0000000000000000     
   2.8640538487281094E-002   9.9141384471445188E-002   0.0000000000000000     
   2.9540046750363085E-002  0.10591863150505240        0.0000000000000000     
   2.1278885400765994E-002   7.9485650147274683E-002   0.0000000000000000     
   2.2126598709275826E-002   8.5794332496231931E-002   0.0000000000000000     
   2.2941665108272846E-002   9.2262979674197623E-002   0.0000000000000000     
   2.3724084597757055E-002   9.8891591681171842E-002   0.0000000000000000     
   2.4473857177728455E-002  0.10568016851715455        0.0000000000000000     
   1.6955189465233673E-002   7.9254859300511543E-002   0.0000000000000000     
   1.7630772460595280E-002   8.5572499917868916E-002   0.0000000000000000     
   1.8280596838981342E-002   9.2050146526119384E-002   0.0000000000000000     
   1.8904662600391857E-002   9.8687799125262918E-002   0.0000000000000000     
   1.9502969744826824E-002  0.10548545771529952        0.0000000000000000     
   3.9958332314831348E-002  0.10652681403897686        0.0000000000000000     
   4.1102575390547333E-002  0.11342083394489558        0.0000000000000000     
   4.2196169630256471E-002  0.12044958622861443        0.0000000000000000     
   4.3239115033958726E-002  0.12761307089013343        0.0000000000000000     
   4.4231411601654128E-002  0.13491128792945264        0.0000000000000000     
   3.4701538462730719E-002  0.10620084667899321        0.0000000000000000     
   3.5704417180927768E-002  0.11311119558525762        0.0000000000000000     
   3.6662015427316709E-002  0.12015613167154147        0.0000000000000000     
   3.7574333201897514E-002  0.12733565493784482        0.0000000000000000     
   3.8441370504670211E-002  0.13464976538416762        0.0000000000000000     
   2.9540046750363085E-002  0.10591863150505240        0.0000000000000000     
   3.0400456422120418E-002  0.11284296719201309        0.0000000000000000     
   3.1221393108193142E-002  0.11990192659807354        0.0000000000000000     
   3.2002856808581254E-002  0.12709550972323375        0.0000000000000000     
   3.2744847523284763E-002  0.13442371656749377        0.0000000000000000     
   2.4473857177728455E-002  0.10568016851715455        0.0000000000000000     
   2.5190693114125289E-002  0.11261614876516200        0.0000000000000000     
   2.5874302672885780E-002  0.11968697100821060        0.0000000000000000     
   2.6524685854009945E-002  0.12689263524630032        0.0000000000000000     
   2.7141842657497767E-002  0.13423314147943116        0.0000000000000000     
   1.9502969744826824E-002  0.10548545771529952        0.0000000000000000     
   2.0075127256942375E-002  0.11243074030470439        0.0000000000000000     
   2.0620744121394627E-002  0.11951126490195271        0.0000000000000000     
   2.1139820338183582E-002  0.12672703150704451        0.0000000000000000     
   2.1632355907309244E-002  0.13407804011997976        0.0000000000000000     
   4.4231411601654128E-002  0.13491128792945264        0.0000000000000000     
   4.5171855029678493E-002  0.14233235280610582        0.0000000000000000     
   4.6059241014367626E-002  0.14986438097962679        0.0000000000000000     
   4.6893569555721555E-002  0.15750737245001561        0.0000000000000000     
   4.7674840653740259E-002  0.16526132721727224        0.0000000000000000     
   3.8441370504670211E-002  0.13464976538416762        0.0000000000000000     
   3.9262327725926159E-002  0.14208687511698509        0.0000000000000000     
   4.0036405255956697E-002  0.14963539624277239        0.0000000000000000     
   4.0763603094761854E-002  0.15729532876152957        0.0000000000000000     
   4.1443921242341600E-002  0.16506667267325659        0.0000000000000000     
   3.2744847523284763E-002  0.13442371656749377        0.0000000000000000     
   3.3446797204129505E-002  0.14187511766486899        0.0000000000000000     
   3.4108137802941349E-002  0.14943828354937480        0.0000000000000000     
   3.4728869319720281E-002  0.15711321422101124        0.0000000000000000     
   3.5308991754466307E-002  0.16489990967977824        0.0000000000000000     
   2.7141842657497767E-002  0.13423314147943116        0.0000000000000000     
   2.7725263464288552E-002  0.14169708044975760        0.0000000000000000     
   2.8274438655321581E-002  0.14927304289943408        0.0000000000000000     
   2.8789368230596860E-002  0.15696102882846064        0.0000000000000000     
   2.9270052190114373E-002  0.16476103823683722        0.0000000000000000     
   2.1632355907309244E-002  0.13407804011997976        0.0000000000000000     
   2.2097726506403289E-002  0.14155276347165083        0.0000000000000000     
   2.2535307813097396E-002  0.14913967429295016        0.0000000000000000     
   2.2945099827391565E-002  0.15683877258387774        0.0000000000000000     
   2.3327102549285800E-002  0.16465005834443355        0.0000000000000000     
   4.7674840653740259E-002  0.16526132721727224        0.0000000000000000     
   4.8401986630316036E-002  0.17311504334647776        0.0000000000000000     
   4.9073939807341170E-002  0.18105731890271320        0.0000000000000000     
   4.9690700184815660E-002  0.18908815388597855        0.0000000000000000     
   5.0252267762739514E-002  0.19720754829627388        0.0000000000000000     
   4.1443921242341600E-002  0.16506667267325659        0.0000000000000000     
   4.2075719930423638E-002  0.17293801170353795        0.0000000000000000     
   4.2657359390735609E-002  0.18089792957795814        0.0000000000000000     
   4.3188839623277527E-002  0.18894642629651720        0.0000000000000000     
   4.3670160628049397E-002  0.19708350185921505        0.0000000000000000     
   3.5308991754466307E-002  0.16489990967977824        0.0000000000000000     
   3.5846640539566932E-002  0.17278671808942050        0.0000000000000000     
   3.6339951107409674E-002  0.18076198761368267        0.0000000000000000     
   3.6788923457994525E-002  0.18882571825256486        0.0000000000000000     
   3.7193557591321494E-002  0.19697791000606688        0.0000000000000000     
   2.9270052190114373E-002  0.16476103823683722        0.0000000000000000     
   2.9714748457745941E-002  0.17266116250412547        0.0000000000000000     
   3.0121714957363370E-002  0.18064949300988689        0.0000000000000000     
   3.0490951688966650E-002  0.18872602975412148        0.0000000000000000     
   3.0822458652555798E-002  0.19689077273682928        0.0000000000000000     
   2.3327102549285800E-002  0.16465005834443355        0.0000000000000000     
   2.3680043684960655E-002  0.17256134494765279        0.0000000000000000     
   2.4002650940596695E-002  0.18056044576657065        0.0000000000000000     
   2.4294924316193914E-002  0.18864736080118716        0.0000000000000000     
   2.4556863811752316E-002  0.19682209005150231        0.0000000000000000     
   5.0252267762739514E-002  0.19720754829627388        0.0000000000000000     
   5.0755822641120739E-002  0.20540696122461691        0.0000000000000000     
   5.1198544919967365E-002  0.21367785176202542        0.0000000000000000     
   5.1580434599279384E-002  0.22202021990849949        0.0000000000000000     
   5.1901491679056791E-002  0.23043406566403907        0.0000000000000000     
   4.3670160628049397E-002  0.19708350185921505        0.0000000000000000     
   4.4100019192863112E-002  0.20529885669763034        0.0000000000000000     
   4.4477112105530583E-002  0.21358219124334146        0.0000000000000000     
   4.4801439366051812E-002  0.22193350549634858        0.0000000000000000     
   4.5073000974426805E-002  0.23035279945665157        0.0000000000000000     
   3.7193557591321494E-002  0.19697791000606688        0.0000000000000000     
   3.7553623434307064E-002  0.20520657270760753        0.0000000000000000     
   3.7868890913867762E-002  0.21349971619060551        0.0000000000000000     
   3.8139360030003580E-002  0.22185734045506084        0.0000000000000000     
   3.8365030782714520E-002  0.23027944550097354        0.0000000000000000     
   3.0822458652555798E-002  0.19689077273682928        0.0000000000000000     
   3.1116635365452602E-002  0.20513010925454853        0.0000000000000000     
   3.1373881344978899E-002  0.21343042660381753        0.0000000000000000     
   3.1594196591134674E-002  0.22179172478463641        0.0000000000000000     
   3.1777581103919941E-002  0.23021400379700493        0.0000000000000000     
   2.4556863811752316E-002  0.19682209005150231        0.0000000000000000     
   2.4789054986299734E-002  0.20506946633845335        0.0000000000000000     
   2.4992083398863999E-002  0.21337432248297764        0.0000000000000000     
   2.5165949049445111E-002  0.22173665848507512        0.0000000000000000     
   2.5310651938043070E-002  0.23015647434474579        0.0000000000000000     
   5.1901491679056791E-002  0.23043406566403907        0.0000000000000000     
   5.2169888361119507E-002  0.23891107267006367        0.0000000000000000     
   5.2393796847287413E-002  0.24744292456799294        0.0000000000000000     
   5.2573217137560538E-002  0.25602962135782681        0.0000000000000000     
   5.2708149231938860E-002  0.26467116303956528        0.0000000000000000     
   4.5073000974426805E-002  0.23035279945665157        0.0000000000000000     
   4.5300629235944634E-002  0.23882473887019565        0.0000000000000000     
   4.5493156455894371E-002  0.24733398948292595        0.0000000000000000     
   4.5650582634276043E-002  0.25588055129484238        0.0000000000000000     
   4.5772907771089617E-002  0.26446442430594513        0.0000000000000000     
   3.8365030782714520E-002  0.23027944550097354        0.0000000000000000     
   3.8554640615292124E-002  0.23874514849566306        0.0000000000000000     
   3.8716926971027944E-002  0.24723356660644877        0.0000000000000000     
   3.8851889849921981E-002  0.25574469983333087        0.0000000000000000     
   3.8959529251974240E-002  0.26427854817630914        0.0000000000000000     
   3.1777581103919941E-002  0.23021400379700493        0.0000000000000000     
   3.1931922499161998E-002  0.23867230154646585        0.0000000000000000     
   3.2065108392688141E-002  0.24714165593856158        0.0000000000000000     
   3.2177138784498384E-002  0.25562206697329204        0.0000000000000000     
   3.2268013674592720E-002  0.26411353465065751        0.0000000000000000     
   2.5310651938043070E-002  0.23015647434474579        0.0000000000000000     
   2.5432474887554235E-002  0.23860619802260405        0.0000000000000000     
   2.5537700720874957E-002  0.24705825747926416        0.0000000000000000     
   2.5626329438005229E-002  0.25551265271472617        0.0000000000000000     
   2.5698361038945058E-002  0.26396938372899004        0.0000000000000000     
   5.2708149231938860E-002  0.26467116303956528        0.0000000000000000     
   5.2829447592016424E-002  0.27331837069525572        0.0000000000000000     
   5.2967966679387260E-002  0.28192206540694520        0.0000000000000000     
   5.3123706494051362E-002  0.29048224717463395        0.0000000000000000     
   5.3296667036008744E-002  0.29899891599832173        0.0000000000000000     
   4.5772907771089617E-002  0.26446442430594513        0.0000000000000000     
   4.5884296232721514E-002  0.27303572719974639        0.0000000000000000     
   4.6008912385558112E-002  0.28154457865975879        0.0000000000000000     
   4.6146756229599420E-002  0.28999097868598223        0.0000000000000000     
   4.6297827764845423E-002  0.29837492727841675        0.0000000000000000     
   3.8959529251974240E-002  0.26427854817630914        0.0000000000000000     
   3.9058669320753719E-002  0.27278400917101386        0.0000000000000000     
   3.9168134199829452E-002  0.28120998035307532        0.0000000000000000     
   3.9287923889201416E-002  0.28955646172249333        0.0000000000000000     
   3.9418038388869633E-002  0.29782345327926801        0.0000000000000000     
   3.2268013674592720E-002  0.26411353465065751        0.0000000000000000     
   3.2352566856113048E-002  0.27256321660905813        0.0000000000000000     
   3.2445632122201272E-002  0.28091827048689483        0.0000000000000000     
   3.2547209472857372E-002  0.28917869628416726        0.0000000000000000     
   3.2657298908081375E-002  0.29734449400087559        0.0000000000000000     
   2.5698361038945058E-002  0.26396938372899004        0.0000000000000000     
   2.5765988838799488E-002  0.27237334951387920        0.0000000000000000     
   2.5841406152673562E-002  0.28066944906121716        0.0000000000000000     
   2.5924612980567280E-002  0.28885768237100395        0.0000000000000000     
   2.6015609322480641E-002  0.29693804944323954        0.0000000000000000     
   1.3978814996641331E-002   5.5771986209417417E-002   0.0000000000000000     
   1.4764632098763449E-002   6.1367514970337961E-002   0.0000000000000000     
   1.5522633544236213E-002   6.7146503405827174E-002   0.0000000000000000     
   1.6252819333059620E-002   7.3108951515885034E-002   0.0000000000000000     
   1.6955189465233673E-002   7.9254859300511543E-002   0.0000000000000000     
   1.0523157621775473E-002   5.5572963851936441E-002   0.0000000000000000     
   1.1088379754795645E-002   6.1171333136621070E-002   0.0000000000000000     
   1.1638406839649269E-002   6.6954465842695515E-002   0.0000000000000000     
   1.2173238876336345E-002   7.2922361970159777E-002   0.0000000000000000     
   1.2692875864856873E-002   7.9075021519013841E-002   0.0000000000000000     
   7.0414693547542692E-003   5.5430805049332593E-002   0.0000000000000000     
   7.4021903033485567E-003   6.1031203274625113E-002   0.0000000000000000     
   7.7565590195613826E-003   6.6817296169137022E-002   0.0000000000000000     
   8.1045755033927469E-003   7.2789083732868298E-002   0.0000000000000000     
   8.4462397548426462E-003   7.8946565965818977E-002   0.0000000000000000     
   3.5337501955777172E-003   5.5345509801605838E-002   0.0000000000000000     
   3.7060637444221835E-003   6.0947125384350098E-002   0.0000000000000000     
   3.8770900839725526E-003   6.6734994385151680E-002   0.0000000000000000     
   4.0468292142288248E-003   7.2709116804010654E-002   0.0000000000000000     
   4.2152811351910003E-003   7.8869492640926950E-002   0.0000000000000000     
   1.4424581841476769E-010   5.5317078108756204E-002   0.0000000000000000     
   7.8016525965202144E-011   6.0919099465796017E-002   0.0000000000000000     
   3.2882779615536761E-011   6.6707560490739545E-002   0.0000000000000000     
   8.8445811547051278E-012   7.2682461183586775E-002   0.0000000000000000     
   5.9019304200769174E-012   7.8843801544337733E-002   0.0000000000000000     
   1.6955189465233673E-002   7.9254859300511543E-002   0.0000000000000000     
   1.7630772460595280E-002   8.5572499917868916E-002   0.0000000000000000     
   1.8280596838981342E-002   9.2050146526119384E-002   0.0000000000000000     
   1.8904662600391857E-002   9.8687799125262918E-002   0.0000000000000000     
   1.9502969744826824E-002  0.10548545771529952        0.0000000000000000     
   1.2692875864856873E-002   7.9075021519013841E-002   0.0000000000000000     
   1.3195576150586195E-002   8.5400002827591845E-002   0.0000000000000000     
   1.3679598078899659E-002   9.1884864234227898E-002   0.0000000000000000     
   1.4144941649797261E-002   9.8529605738921958E-002   0.0000000000000000     
   1.4591606863279002E-002  0.10533422734167409        0.0000000000000000     
   8.4462397548426462E-003   7.8946565965818977E-002   0.0000000000000000     
   8.7787153056534725E-003   8.5276790621029636E-002   0.0000000000000000     
   9.0991656875676064E-003   9.1766805451540825E-002   0.0000000000000000     
   9.4075909005850531E-003   9.8416610457352602E-002   0.0000000000000000     
   9.7039909447058058E-003  0.10522620563846494        0.0000000000000000     
   4.2152811351910003E-003   7.8869492640926950E-002   0.0000000000000000     
   4.3801899257971096E-003   8.5202863298182233E-002   0.0000000000000000     
   4.5392996649851851E-003   9.1695970178058209E-002   0.0000000000000000     
   4.6926103527552285E-003   9.8348813280554837E-002   0.0000000000000000     
   4.8401219891072364E-003  0.10516139260567209        0.0000000000000000     
   5.9019304200769174E-012   7.8843801544337733E-002   0.0000000000000000     
   1.1017107798966252E-011   8.5178220859049705E-002   0.0000000000000000     
   1.1152394437628776E-011   9.1672358413780006E-002   0.0000000000000000     
   6.3077882489753073E-012   9.8326214208528592E-002   0.0000000000000000     
  -3.5167077583331263E-012  0.10513978824329552        0.0000000000000000     
   1.9502969744826824E-002  0.10548545771529952        0.0000000000000000     
   2.0075127256942375E-002  0.11243074030470439        0.0000000000000000     
   2.0620744121394627E-002  0.11951126490195271        0.0000000000000000     
   2.1139820338183582E-002  0.12672703150704451        0.0000000000000000     
   2.1632355907309244E-002  0.13407804011997976        0.0000000000000000     
   1.4591606863279002E-002  0.10533422734167409        0.0000000000000000     
   1.5019081453697531E-002  0.11228662475818121        0.0000000000000000     
   1.5426853155405495E-002  0.11937469370414033        0.0000000000000000     
   1.5814921968402892E-002  0.12659843417955144        0.0000000000000000     
   1.6183287892689722E-002  0.13395784618441453        0.0000000000000000     
   9.7039909447058058E-003  0.10522620563846494        0.0000000000000000     
   9.9878783075166098E-003  0.11218368507313352        0.0000000000000000     
   1.0258765476604200E-002  0.11927714283961396        0.0000000000000000     
   1.0516652451968578E-002  0.12650657893790629        0.0000000000000000     
   1.0761539233609743E-002  0.13387199336801051        0.0000000000000000     
   4.8401219891072364E-003  0.10516139260567209        0.0000000000000000     
   4.9815178183996115E-003  0.11212192124956127        0.0000000000000000     
   5.1164810849907471E-003  0.11921861230837358        0.0000000000000000     
   5.2450117888806456E-003  0.12645146578210906        0.0000000000000000     
   5.3671099300693073E-003  0.13382048167076768        0.0000000000000000     
  -3.5167077583331263E-012  0.10513978824329552        0.0000000000000000     
  -1.3653469630933723E-011  0.11210133328746448        0.0000000000000000     
  -1.9434868861814558E-011  0.11919910211041922        0.0000000000000000     
  -2.0860907348329433E-011  0.12643309471215974        0.0000000000000000     
  -1.7931585036268238E-011  0.13380331109268606        0.0000000000000000     
   2.1632355907309244E-002  0.13407804011997976        0.0000000000000000     
   2.2097726506403289E-002  0.14155276347165083        0.0000000000000000     
   2.2535307813097396E-002  0.14913967429295016        0.0000000000000000     
   2.2945099827391565E-002  0.15683877258387774        0.0000000000000000     
   2.3327102549285800E-002  0.16465005834443355        0.0000000000000000     
   1.6183287892689722E-002  0.13395784618441453        0.0000000000000000     
   1.6531214673752022E-002  0.14144123871834416        0.0000000000000000     
   1.6857966057075822E-002  0.14903692078095487        0.0000000000000000     
   1.7163542042661128E-002  0.15674489237224667        0.0000000000000000     
   1.7447942630507932E-002  0.16456515349221953        0.0000000000000000     
   1.0761539233609743E-002  0.13387199336801051        0.0000000000000000     
   1.0992756309613059E-002  0.14136157817763295        0.0000000000000000     
   1.1209634168063896E-002  0.14896352541447994        0.0000000000000000     
   1.1412172808962244E-002  0.15667783507855149        0.0000000000000000     
   1.1600372232308111E-002  0.16450450716984760        0.0000000000000000     
   5.3671099300693073E-003  0.13382048167076768        0.0000000000000000     
   5.4823514139864049E-003  0.14131378184951721        0.0000000000000000     
   5.5903121460616082E-003  0.14891948819352538        0.0000000000000000     
   5.6909921262949222E-003  0.15663760070279223        0.0000000000000000     
   5.7843913546863418E-003  0.16446811937731770        0.0000000000000000     
  -1.7931585036268238E-011  0.13380331109268606        0.0000000000000000     
  -1.3127944694865668E-011  0.14129784973399695        0.0000000000000000     
  -8.9310319122820614E-012  0.14890480911809120        0.0000000000000000     
  -5.3408433817007939E-012  0.15662418924496882        0.0000000000000000     
  -2.3573816509969703E-012  0.16445599011462986        0.0000000000000000     
   2.3327102549285800E-002  0.16465005834443355        0.0000000000000000     
   2.3680043684960655E-002  0.17256134494765279        0.0000000000000000     
   2.4002650940596695E-002  0.18056044576657065        0.0000000000000000     
   2.4294924316193914E-002  0.18864736080118716        0.0000000000000000     
   2.4556863811752316E-002  0.19682209005150231        0.0000000000000000     
   1.7447942630507932E-002  0.16456515349221953        0.0000000000000000     
   1.7710457615937068E-002  0.17248526497359315        0.0000000000000000     
   1.7950376794269366E-002  0.18049278764908719        0.0000000000000000     
   1.8167700165504827E-002  0.18858772151870151        0.0000000000000000     
   1.8362427729643454E-002  0.19677006658243626        0.0000000000000000     
   1.1600372232308111E-002  0.16450450716984760        0.0000000000000000     
   1.1773921645401177E-002  0.17243092213553729        0.0000000000000000     
   1.1932510255541113E-002  0.18044446042278947        0.0000000000000000     
   1.2076138062727927E-002  0.18854512203160420        0.0000000000000000     
   1.2204805066961611E-002  0.19673290696198137        0.0000000000000000     
   5.7843913546863418E-003  0.16446811937731770        0.0000000000000000     
   5.8704357733529739E-003  0.17239831643348505        0.0000000000000000     
   5.9490513244119265E-003  0.18041546408767753        0.0000000000000000     
   6.0202380078631977E-003  0.18851956233989506        0.0000000000000000     
   6.0839958237067920E-003  0.19671061119013772        0.0000000000000000     
  -2.3573816509969703E-012  0.16445599011462986        0.0000000000000000     
  -2.0753581145283029E-013  0.17238744786743657        0.0000000000000000     
   8.8180938245807639E-013  0.18040579864375139        0.0000000000000000     
   9.1064959392705980E-013  0.18851104244357428        0.0000000000000000     
  -1.2101040655632112E-013  0.19670317926690528        0.0000000000000000     
   2.4556863811752316E-002  0.19682209005150231        0.0000000000000000     
   2.4789054986299734E-002  0.20506946633845335        0.0000000000000000     
   2.4992083398863999E-002  0.21337432248297764        0.0000000000000000     
   2.5165949049445111E-002  0.22173665848507512        0.0000000000000000     
   2.5310651938043070E-002  0.23015647434474579        0.0000000000000000     
   1.8362427729643454E-002  0.19677006658243626        0.0000000000000000     
   1.8535081648841524E-002  0.20502332527188888        0.0000000000000000     
   1.8686184085255342E-002  0.21333100001865699        0.0000000000000000     
   1.8815735038884895E-002  0.22169309082274052        0.0000000000000000     
   1.8923734509730190E-002  0.23010959768413952        0.0000000000000000     
   1.2204805066961611E-002  0.19673290696198137        0.0000000000000000     
   1.2318914705071078E-002  0.20499036736742204        0.0000000000000000     
   1.2418870413885230E-002  0.21330005540142691        0.0000000000000000     
   1.2504672193404067E-002  0.22166197106399604        0.0000000000000000     
   1.2576320043627588E-002  0.23007611435512948        0.0000000000000000     
   6.0839958237067920E-003  0.19671061119013772        0.0000000000000000     
   6.1405541549883836E-003  0.20497059262505277        0.0000000000000000     
   6.1901423847536604E-003  0.21328148863128743        0.0000000000000000     
   6.2327605130026191E-003  0.22164329920884177        0.0000000000000000     
   6.2684085397352630E-003  0.23005602435771566        0.0000000000000000     
  -1.2101040655632112E-013  0.19670317926690528        0.0000000000000000     
  -1.4065558613662876E-012  0.20496400104478107        0.0000000000000000     
  -2.1393663750257641E-012  0.21327529970823850        0.0000000000000000     
  -2.3194418391145333E-012  0.22163707525727752        0.0000000000000000     
  -1.9467834462549849E-012  0.23004932769189818        0.0000000000000000     
   2.5310651938043070E-002  0.23015647434474579        0.0000000000000000     
   2.5432474887554235E-002  0.23860619802260405        0.0000000000000000     
   2.5537700720874957E-002  0.24705825747926416        0.0000000000000000     
   2.5626329438005229E-002  0.25551265271472617        0.0000000000000000     
   2.5698361038945058E-002  0.26396938372899004        0.0000000000000000     
   1.8923734509730190E-002  0.23010959768413952        0.0000000000000000     
   1.9014585937484944E-002  0.23855130768778315        0.0000000000000000     
   1.9092692761842875E-002  0.24698900791860051        0.0000000000000000     
   1.9158054982803988E-002  0.25542269837659176        0.0000000000000000     
   1.9210672600368277E-002  0.26385237906175674        0.0000000000000000     
   1.2576320043627588E-002  0.23007611435512948        0.0000000000000000     
   1.2636543805970223E-002  0.23851210030570849        0.0000000000000000     
   1.2688073321846403E-002  0.24693954394661449        0.0000000000000000     
   1.2730908591256128E-002  0.25535844527784751        0.0000000000000000     
   1.2765049614199397E-002  0.26376880429940747        0.0000000000000000     
   6.2684085397352630E-003  0.23005602435771566        0.0000000000000000     
   6.2983484930100734E-003  0.23848857587638020        0.0000000000000000     
   6.3238424008855336E-003  0.24690986556330607        0.0000000000000000     
   6.3448902633616473E-003  0.25531989341849348        0.0000000000000000     
   6.3614920804384092E-003  0.26371865944194223        0.0000000000000000     
  -1.9467834462549849E-012  0.23004932769189818        0.0000000000000000     
  -1.3955067570264879E-012  0.23848073439979819        0.0000000000000000     
  -1.0397306930351458E-012  0.24689997276867534        0.0000000000000000     
  -8.7945446823438356E-013  0.25530704279852962        0.0000000000000000     
  -9.1467935656175392E-013  0.26370194448936102        0.0000000000000000     
   2.5698361038945058E-002  0.26396938372899004        0.0000000000000000     
   2.5765988838799488E-002  0.27237334951387920        0.0000000000000000     
   2.5841406152673562E-002  0.28066944906121716        0.0000000000000000     
   2.5924612980567280E-002  0.28885768237100395        0.0000000000000000     
   2.6015609322480641E-002  0.29693804944323954        0.0000000000000000     
   1.9210672600368277E-002  0.26385237906175674        0.0000000000000000     
   1.9260502691073371E-002  0.27222074569731131        0.0000000000000000     
   1.9317502331456893E-002  0.28047049400647123        0.0000000000000000     
   1.9381671521518842E-002  0.28860162398923656        0.0000000000000000     
   1.9453010261259222E-002  0.29661413564560718        0.0000000000000000     
   1.2765049614199397E-002  0.26376880429940747        0.0000000000000000     
   1.2797675835195019E-002  0.27211174297118873        0.0000000000000000     
   1.2835966698761810E-002  0.28032838325308562        0.0000000000000000     
   1.2879922204899768E-002  0.28841872514509803        0.0000000000000000     
   1.2929542353608891E-002  0.29638276864722607        0.0000000000000000     
   6.3614920804384092E-003  0.26371865944194223        0.0000000000000000     
   6.3775082711644299E-003  0.27204634133551153        0.0000000000000000     
   6.3967992545883104E-003  0.28024311680106018        0.0000000000000000     
   6.4193650307100515E-003  0.28830898583858849        0.0000000000000000     
   6.4452055995296549E-003  0.29624394844809626        0.0000000000000000     
  -9.1467935656175392E-013  0.26370194448936102        0.0000000000000000     
  -1.0183971721478002E-012  0.27202454079027960        0.0000000000000000     
  -1.0636064511765353E-012  0.28021469465039522        0.0000000000000000     
  -1.0503034531504640E-012  0.28827240606970789        0.0000000000000000     
  -9.7848985858295379E-013  0.29619767504821770        0.0000000000000000     
   1.4424581841476769E-010   5.5317078108756204E-002   0.0000000000000000     
   7.8016525965202144E-011   6.0919099465796017E-002   0.0000000000000000     
   3.2882779615536761E-011   6.6707560490739545E-002   0.0000000000000000     
   8.8445811547051278E-012   7.2682461183586775E-002   0.0000000000000000     
   5.9019304200769174E-012   7.8843801544337733E-002   0.0000000000000000     
  -3.5337499227551766E-003   5.5345509945678634E-002   0.0000000000000000     
  -3.7060636004453713E-003   6.0947125491830317E-002   0.0000000000000000     
  -3.8770900276832777E-003   6.6734994460274033E-002   0.0000000000000000     
  -4.0468292044688976E-003   7.2709116851009781E-002   0.0000000000000000     
  -4.2152811308022297E-003   7.8869492664037533E-002   0.0000000000000000     
  -7.0414691289390199E-003   5.5430805287268105E-002   0.0000000000000000     
  -7.4021901955404583E-003   6.1031203435320439E-002   0.0000000000000000     
  -7.7565589917009611E-003   6.6817296268128615E-002   0.0000000000000000     
  -8.1045755174205258E-003   7.2789083785692626E-002   0.0000000000000000     
  -8.4462397726991541E-003   7.8946565988012488E-002   0.0000000000000000     
  -1.0523157474305708E-002   5.5572964133524597E-002   0.0000000000000000     
  -1.1088379707268739E-002   6.1171333296266374E-002   0.0000000000000000     
  -1.1638406859170270E-002   6.6954465914303291E-002   0.0000000000000000     
  -1.2173238930010304E-002   7.2922361987635353E-002   0.0000000000000000     
  -1.2692875919788840E-002   7.9075021516262570E-002   0.0000000000000000     
  -1.3978814958855244E-002   5.5771986484448130E-002   0.0000000000000000     
  -1.4764632135630210E-002   6.1367515074668116E-002   0.0000000000000000     
  -1.5522633630091206E-002   6.7146503398798060E-002   0.0000000000000000     
  -1.6252819442238230E-002   7.3108951456837976E-002   0.0000000000000000     
  -1.6955189572071289E-002   7.9254859248787848E-002   0.0000000000000000     
   5.9019304200769174E-012   7.8843801544337733E-002   0.0000000000000000     
   1.1017107798966252E-011   8.5178220859049705E-002   0.0000000000000000     
   1.1152394437628776E-011   9.1672358413780006E-002   0.0000000000000000     
   6.3077882489753073E-012   9.8326214208528592E-002   0.0000000000000000     
  -3.5167077583331263E-012  0.10513978824329552        0.0000000000000000     
  -4.2152811308022297E-003   7.8869492664037533E-002   0.0000000000000000     
  -4.3801899105870351E-003   8.5202863300870138E-002   0.0000000000000000     
  -4.5392996477270709E-003   9.1695970163020377E-002   0.0000000000000000     
  -4.6926103422223380E-003   9.8348813250488221E-002   0.0000000000000000     
  -4.8401219940728364E-003  0.10516139256327371        0.0000000000000000     
  -8.4462397726991541E-003   7.8946565988012488E-002   0.0000000000000000     
  -8.7787153109158255E-003   8.5276790620881629E-002   0.0000000000000000     
  -9.0991656854495142E-003   9.1766805430093426E-002   0.0000000000000000     
  -9.4075908963002254E-003   9.8416610415647948E-002   0.0000000000000000     
  -9.7039909434679557E-003  0.10522620557754515        0.0000000000000000     
  -1.2692875919788840E-002   7.9075021516262570E-002   0.0000000000000000     
  -1.3195576189969258E-002   8.5400002819084136E-002   0.0000000000000000     
  -1.3679598102014934E-002   9.1884864214999210E-002   0.0000000000000000     
  -1.4144941655925872E-002   9.8529605704007761E-002   0.0000000000000000     
  -1.4591606851702072E-002  0.10533422728610985        0.0000000000000000     
  -1.6955189572071289E-002   7.9254859248787848E-002   0.0000000000000000     
  -1.7630772547747336E-002   8.5572499895477716E-002   0.0000000000000000     
  -1.8280596897423333E-002   9.2050146517737685E-002   0.0000000000000000     
  -1.8904662621099282E-002   9.8687799115567715E-002   0.0000000000000000     
  -1.9502969718775177E-002  0.10548545768896780        0.0000000000000000     
  -3.5167077583331263E-012  0.10513978824329552        0.0000000000000000     
  -1.3653469630933723E-011  0.11210133328746448        0.0000000000000000     
  -1.9434868861814558E-011  0.11919910211041922        0.0000000000000000     
  -2.0860907348329433E-011  0.12643309471215974        0.0000000000000000     
  -1.7931585036268238E-011  0.13380331109268606        0.0000000000000000     
  -4.8401219940728364E-003  0.10516139256327371        0.0000000000000000     
  -4.9815178397964732E-003  0.11212192119966113        0.0000000000000000     
  -5.1164811159111617E-003  0.11921861225793479        0.0000000000000000     
  -5.2450118224169028E-003  0.12645146573809471        0.0000000000000000     
  -5.3671099593136946E-003  0.13382048164014082        0.0000000000000000     
  -9.7039909434679557E-003  0.10522620557754515        0.0000000000000000     
  -9.9878783111832514E-003  0.11218368499896920        0.0000000000000000     
  -1.0258765483676654E-002  0.11927714276310419        0.0000000000000000     
  -1.0516652460948161E-002  0.12650657886995023        0.0000000000000000     
  -1.0761539242997777E-002  0.13387199331950717        0.0000000000000000     
  -1.4591606851702072E-002  0.10533422728610985        0.0000000000000000     
  -1.5019081427813800E-002  0.11228662468538866        0.0000000000000000     
  -1.5426853122731340E-002  0.11937469362592751        0.0000000000000000     
  -1.5814921936454687E-002  0.12659843410772634        0.0000000000000000     
  -1.6183287868983834E-002  0.13395784613078512        0.0000000000000000     
  -1.9502969718775177E-002  0.10548545768896780        0.0000000000000000     
  -2.0075127189688124E-002  0.11243074025891957        0.0000000000000000     
  -2.0620744033075220E-002  0.11951126484640465        0.0000000000000000     
  -2.1139820248936465E-002  0.12672703145142303        0.0000000000000000     
  -2.1632355837271862E-002  0.13407804007397467        0.0000000000000000     
  -1.7931585036268238E-011  0.13380331109268606        0.0000000000000000     
  -1.3127944694865668E-011  0.14129784973399695        0.0000000000000000     
  -8.9310319122820614E-012  0.14890480911809120        0.0000000000000000     
  -5.3408433817007939E-012  0.15662418924496882        0.0000000000000000     
  -2.3573816509969703E-012  0.16445599011462986        0.0000000000000000     
  -5.3671099593136946E-003  0.13382048164014082        0.0000000000000000     
  -5.4823514358688392E-003  0.14131378183365359        0.0000000000000000     
  -5.5903121613496490E-003  0.14891948818821341        0.0000000000000000     
  -5.6909921357561170E-003  0.15663760070382018        0.0000000000000000     
  -5.7843913590882520E-003  0.16446811938047401        0.0000000000000000     
  -1.0761539242997777E-002  0.13387199331950717        0.0000000000000000     
  -1.0992756318375133E-002  0.14136157815106862        0.0000000000000000     
  -1.1209634175629866E-002  0.14896352540392790        0.0000000000000000     
  -1.1412172814761978E-002  0.15667783507808511        0.0000000000000000     
  -1.1600372235771466E-002  0.16450450717354023        0.0000000000000000     
  -1.6183287868983834E-002  0.13395784613078512        0.0000000000000000     
  -1.6531214660646821E-002  0.14144123868624195        0.0000000000000000     
  -1.6857966051771686E-002  0.14903692076523478        0.0000000000000000     
  -1.7163542042358416E-002  0.15674489236776362        0.0000000000000000     
  -1.7447942632407020E-002  0.16456515349382847        0.0000000000000000     
  -2.1632355837271862E-002  0.13407804007397467        0.0000000000000000     
  -2.2097726462683914E-002  0.14155276343917370        0.0000000000000000     
  -2.2535307789775104E-002  0.14913967427213401        0.0000000000000000     
  -2.2945099818545433E-002  0.15683877257285572        0.0000000000000000     
  -2.3327102548994918E-002  0.16465005834133878        0.0000000000000000     
  -2.3573816509969703E-012  0.16445599011462986        0.0000000000000000     
  -2.0753581145283029E-013  0.17238744786743657        0.0000000000000000     
   8.8180938245807639E-013  0.18040579864375139        0.0000000000000000     
   9.1064959392705980E-013  0.18851104244357428        0.0000000000000000     
  -1.2101040655632112E-013  0.19670317926690528        0.0000000000000000     
  -5.7843913590882520E-003  0.16446811938047401        0.0000000000000000     
  -5.8704357740089865E-003  0.17239831643657816        0.0000000000000000     
  -5.9490513231812555E-003  0.18041546409053583        0.0000000000000000     
  -6.0202380066050679E-003  0.18851956234234707        0.0000000000000000     
  -6.0839958242804235E-003  0.19671061119201189        0.0000000000000000     
  -1.1600372235771466E-002  0.16450450717354023        0.0000000000000000     
  -1.1773921646780009E-002  0.17243092214009612        0.0000000000000000     
  -1.1932510255909294E-002  0.18044446042755563        0.0000000000000000     
  -1.2076138063159313E-002  0.18854512203591872        0.0000000000000000     
  -1.2204805068530075E-002  0.19673290696518544        0.0000000000000000     
  -1.7447942632407020E-002  0.16456515349382847        0.0000000000000000     
  -1.7710457618520612E-002  0.17248526497799052        0.0000000000000000     
  -1.7950376797302301E-002  0.18049278765481075        0.0000000000000000     
  -1.8167700168752087E-002  0.18858772152428924        0.0000000000000000     
  -1.8362427732869963E-002  0.19677006658642604        0.0000000000000000     
  -2.3327102548994918E-002  0.16465005834133878        0.0000000000000000     
  -2.3680043689230781E-002  0.17256134495026121        0.0000000000000000     
  -2.4002650947360270E-002  0.18056044577230118        0.0000000000000000     
  -2.4294924323383371E-002  0.18864736080745864        0.0000000000000000     
  -2.4556863817300097E-002  0.19682209005573353        0.0000000000000000     
  -1.2101040655632112E-013  0.19670317926690528        0.0000000000000000     
  -1.4065558613662876E-012  0.20496400104478107        0.0000000000000000     
  -2.1393663750257641E-012  0.21327529970823850        0.0000000000000000     
  -2.3194418391145333E-012  0.22163707525727752        0.0000000000000000     
  -1.9467834462549849E-012  0.23004932769189818        0.0000000000000000     
  -6.0839958242804235E-003  0.19671061119201189        0.0000000000000000     
  -6.1405541578296585E-003  0.20497059262630535        0.0000000000000000     
  -6.1901423888751179E-003  0.21328148863200247        0.0000000000000000     
  -6.2327605174168034E-003  0.22164329920910336        0.0000000000000000     
  -6.2684085434547149E-003  0.23005602435760800        0.0000000000000000     
  -1.2204805068530075E-002  0.19673290696518544        0.0000000000000000     
  -1.2318914707996835E-002  0.20499036736932377        0.0000000000000000     
  -1.2418870417534859E-002  0.21330005540230168        0.0000000000000000     
  -1.2504672197144150E-002  0.22166197106411914        0.0000000000000000     
  -1.2576320046824704E-002  0.23007611435477618        0.0000000000000000     
  -1.8362427732869963E-002  0.19677006658642604        0.0000000000000000     
  -1.8535081651908092E-002  0.20502332527383649        0.0000000000000000     
  -1.8686184088118590E-002  0.21333100001913607        0.0000000000000000     
  -1.8815735041501479E-002  0.22169309082232488        0.0000000000000000     
  -1.8923734512056738E-002  0.23010959768340278        0.0000000000000000     
  -2.4556863817300097E-002  0.19682209005573353        0.0000000000000000     
  -2.4789054989563422E-002  0.20506946633984344        0.0000000000000000     
  -2.4992083400626319E-002  0.21337432248250573        0.0000000000000000     
  -2.5165949050488790E-002  0.22173665848372051        0.0000000000000000     
  -2.5310651939150830E-002  0.23015647434348774        0.0000000000000000     
  -1.9467834462549849E-012  0.23004932769189818        0.0000000000000000     
  -1.3955067570264879E-012  0.23848073439979819        0.0000000000000000     
  -1.0397306930351458E-012  0.24689997276867534        0.0000000000000000     
  -8.7945446823438356E-013  0.25530704279852962        0.0000000000000000     
  -9.1467935656175392E-013  0.26370194448936102        0.0000000000000000     
  -6.2684085434547149E-003  0.23005602435760800        0.0000000000000000     
  -6.2983484957194859E-003  0.23848857587601946        0.0000000000000000     
  -6.3238424029417361E-003  0.24690986556284100        0.0000000000000000     
  -6.3448902651214679E-003  0.25531989341807260        0.0000000000000000     
  -6.3614920822586815E-003  0.26371865944171424        0.0000000000000000     
  -1.2576320046824704E-002  0.23007611435477618        0.0000000000000000     
  -1.2636543808434823E-002  0.23851210030510103        0.0000000000000000     
  -1.2688073323832816E-002  0.24693954394592199        0.0000000000000000     
  -1.2730908593018680E-002  0.25535844527723900        0.0000000000000000     
  -1.2765049615992412E-002  0.26376880429905225        0.0000000000000000     
  -1.8923734512056738E-002  0.23010959768340278        0.0000000000000000     
  -1.9014585939541528E-002  0.23855130768704283        0.0000000000000000     
  -1.9092692763712973E-002  0.24698900791791828        0.0000000000000000     
  -1.9158054984571089E-002  0.25542269837602893        0.0000000000000000     
  -1.9210672602115866E-002  0.26385237906137499        0.0000000000000000     
  -2.5310651939150830E-002  0.23015647434348774        0.0000000000000000     
  -2.5432474889039592E-002  0.23860619802184496        0.0000000000000000     
  -2.5537700722582220E-002  0.24705825747882984        0.0000000000000000     
  -2.5626329439778703E-002  0.25551265271444235        0.0000000000000000     
  -2.5698361040629048E-002  0.26396938372868245        0.0000000000000000     
  -9.1467935656175392E-013  0.26370194448936102        0.0000000000000000     
  -1.0183971721478002E-012  0.27202454079027960        0.0000000000000000     
  -1.0636064511765353E-012  0.28021469465039522        0.0000000000000000     
  -1.0503034531504640E-012  0.28827240606970789        0.0000000000000000     
  -9.7848985858295379E-013  0.29619767504821770        0.0000000000000000     
  -6.3614920822586815E-003  0.26371865944171424        0.0000000000000000     
  -6.3775082731695274E-003  0.27204634133546957        0.0000000000000000     
  -6.3967992566701451E-003  0.28024311680104219        0.0000000000000000     
  -6.4193650327605415E-003  0.28830898583843212        0.0000000000000000     
  -6.4452056014407087E-003  0.29624394844763935        0.0000000000000000     
  -1.2765049615992412E-002  0.26376880429905225        0.0000000000000000     
  -1.2797675837105022E-002  0.27211174297105800        0.0000000000000000     
  -1.2835966700707521E-002  0.28032838325295301        0.0000000000000000     
  -1.2879922206799902E-002  0.28841872514473710        0.0000000000000000     
  -1.2929542355382167E-002  0.29638276864641033        0.0000000000000000     
  -1.9210672602115866E-002  0.26385237906137499        0.0000000000000000     
  -1.9260502692824880E-002  0.27222074569704491        0.0000000000000000     
  -1.9317502333175720E-002  0.28047049400612750        0.0000000000000000     
  -1.9381671523168390E-002  0.28860162398862271        0.0000000000000000     
  -1.9453010262802866E-002  0.29661413564453054        0.0000000000000000     
  -2.5698361040629048E-002  0.26396938372868245        0.0000000000000000     
  -2.5765988840329119E-002  0.27237334951343029        0.0000000000000000     
  -2.5841406154074764E-002  0.28066944906056579        0.0000000000000000     
  -2.5924612981865994E-002  0.28885768237008907        0.0000000000000000     
  -2.6015609323702810E-002  0.29693804944199997        0.0000000000000000     
  -1.3978814958855244E-002   5.5771986484448130E-002   0.0000000000000000     
  -1.4764632135630210E-002   6.1367515074668116E-002   0.0000000000000000     
  -1.5522633630091206E-002   6.7146503398798060E-002   0.0000000000000000     
  -1.6252819442238230E-002   7.3108951456837976E-002   0.0000000000000000     
  -1.6955189572071289E-002   7.9254859248787848E-002   0.0000000000000000     
  -1.7507104162046424E-002   5.6029831954795911E-002   0.0000000000000000     
  -1.8509230957529942E-002   6.1620227361395524E-002   0.0000000000000000     
  -1.9471903454351701E-002   6.7392995512645160E-002   0.0000000000000000     
  -2.0395121652511700E-002   7.3348136408544845E-002   0.0000000000000000     
  -2.1278885552009942E-002   7.9485650049094511E-002   0.0000000000000000     
  -2.1206687663338043E-002   5.6348460159325160E-002   0.0000000000000000     
  -2.2400459649873004E-002   6.1929948747318449E-002   0.0000000000000000     
  -2.3548880481839691E-002   6.7693529046876824E-002   0.0000000000000000     
  -2.4651950159238104E-002   7.3639201058000328E-002   0.0000000000000000     
  -2.5709668682068247E-002   7.9766964780688898E-002   0.0000000000000000     
  -2.5077565462730100E-002   5.6727871098035870E-002   0.0000000000000000     
  -2.6438318212659389E-002   6.2296679232436869E-002   0.0000000000000000     
  -2.7753564712555173E-002   6.8048104001493068E-002   0.0000000000000000     
  -2.9023304962417441E-002   7.3982145405204439E-002   0.0000000000000000     
  -3.0247538962246200E-002   8.0098803443570954E-002   0.0000000000000000     
  -2.9119737560222597E-002   5.7168064770928034E-002   0.0000000000000000     
  -3.0622806645889112E-002   6.2720418816750806E-002   0.0000000000000000     
  -3.2085956146498153E-002   6.8456720376493835E-002   0.0000000000000000     
  -3.3509186062049709E-002   7.4376969450157149E-002   0.0000000000000000     
  -3.4892496392543798E-002   8.0481166037740720E-002   0.0000000000000000     
  -1.6955189572071289E-002   7.9254859248787848E-002   0.0000000000000000     
  -1.7630772547747336E-002   8.5572499895477716E-002   0.0000000000000000     
  -1.8280596897423333E-002   9.2050146517737685E-002   0.0000000000000000     
  -1.8904662621099282E-002   9.8687799115567715E-002   0.0000000000000000     
  -1.9502969718775177E-002  0.10548545768896780        0.0000000000000000     
  -2.1278885552009942E-002   7.9485650049094511E-002   0.0000000000000000     
  -2.2126598839189507E-002   8.5794332463841091E-002   0.0000000000000000     
  -2.2941665200393483E-002   9.2262979682331436E-002   0.0000000000000000     
  -2.3724084635621864E-002   9.8891591704565518E-002   0.0000000000000000     
  -2.4473857144874656E-002  0.10568016853054338        0.0000000000000000     
  -2.5709668682068247E-002   7.9766964780688898E-002   0.0000000000000000     
  -2.6725349519235227E-002   8.6065551137952973E-002   0.0000000000000000     
  -2.7702306139644157E-002   9.2523691052803031E-002   0.0000000000000000     
  -2.8640538543295044E-002   9.9141384525239004E-002   0.0000000000000000     
  -2.9540046730187876E-002  0.10591863155526093        0.0000000000000000     
  -3.0247538962246200E-002   8.0098803443570954E-002   0.0000000000000000     
  -3.1427024587884489E-002   8.6386155917813415E-002   0.0000000000000000     
  -3.2562519715175361E-002   9.2832280629152483E-002   0.0000000000000000     
  -3.3654024344118807E-002   9.9437177577588173E-002   0.0000000000000000     
  -3.4701538474714848E-002  0.10620084676312053        0.0000000000000000     
  -3.4892496392543798E-002   8.0481166037740720E-002   0.0000000000000000     
  -3.6231624045137301E-002   8.6756146803422335E-002   0.0000000000000000     
  -3.7522305926987097E-002   9.3188748411379779E-002   0.0000000000000000     
  -3.8764542038093187E-002   9.9778970861613012E-002   0.0000000000000000     
  -3.9958332378455565E-002  0.10652681415412207        0.0000000000000000     
  -1.9502969718775177E-002  0.10548545768896780        0.0000000000000000     
  -2.0075127189688124E-002  0.11243074025891957        0.0000000000000000     
  -2.0620744033075220E-002  0.11951126484640465        0.0000000000000000     
  -2.1139820248936465E-002  0.12672703145142303        0.0000000000000000     
  -2.1632355837271862E-002  0.13407804007397467        0.0000000000000000     
  -2.4473857144874656E-002  0.10568016853054338        0.0000000000000000     
  -2.5190693017512249E-002  0.11261614875884302        0.0000000000000000     
  -2.5874302542895043E-002  0.11968697098804248        0.0000000000000000     
  -2.6524685721023043E-002  0.12689263521814179        0.0000000000000000     
  -2.7141842551896240E-002  0.13423314144914095        0.0000000000000000     
  -2.9540046730187876E-002  0.10591863155526093        0.0000000000000000     
  -3.0400456331992200E-002  0.11284296722444011        0.0000000000000000     
  -3.1221392980377551E-002  0.11990192661434784        0.0000000000000000     
  -3.2002856675343930E-002  0.12709550972498412        0.0000000000000000     
  -3.2744847416891328E-002  0.13442371655634899        0.0000000000000000     
  -3.4701538474714848E-002  0.10620084676312053        0.0000000000000000     
  -3.5704417133127983E-002  0.11311119565571089        0.0000000000000000     
  -3.6662015345522742E-002  0.12015613172532073        0.0000000000000000     
  -3.7574333111899116E-002  0.12733565497195004        0.0000000000000000     
  -3.8441370432257121E-002  0.13464976539559884        0.0000000000000000     
  -3.9958332378455565E-002  0.10652681415412207        0.0000000000000000     
  -4.1102575420919593E-002  0.11342083405265534        0.0000000000000000     
  -4.2196169638330616E-002  0.12044958632096114        0.0000000000000000     
  -4.3239115030688627E-002  0.12761307095903954        0.0000000000000000     
  -4.4231411597993632E-002  0.13491128796689050        0.0000000000000000     
  -2.1632355837271862E-002  0.13407804007397467        0.0000000000000000     
  -2.2097726462683914E-002  0.14155276343917370        0.0000000000000000     
  -2.2535307789775104E-002  0.14913967427213401        0.0000000000000000     
  -2.2945099818545433E-002  0.15683877257285572        0.0000000000000000     
  -2.3327102548994918E-002  0.16465005834133878        0.0000000000000000     
  -2.7141842551896240E-002  0.13423314144914095        0.0000000000000000     
  -2.7725263397093858E-002  0.14169708042143880        0.0000000000000000     
  -2.8274438618195112E-002  0.14927304287543433        0.0000000000000000     
  -2.8789368215200003E-002  0.15696102881112745        0.0000000000000000     
  -2.9270052188108533E-002  0.16476103822851823        0.0000000000000000     
  -3.2744847416891328E-002  0.13442371655634899        0.0000000000000000     
  -3.3446797136484123E-002  0.14187511764461239        0.0000000000000000     
  -3.4108137765586716E-002  0.14943828352594435        0.0000000000000000     
  -3.4728869304199078E-002  0.15711321420034488        0.0000000000000000     
  -3.5308991752321238E-002  0.16489990966781393        0.0000000000000000     
  -3.8441370432257121E-002  0.13464976539559884        0.0000000000000000     
  -3.9262327680854726E-002  0.14208687510869442        0.0000000000000000     
  -4.0036405231949915E-002  0.14963539622366412        0.0000000000000000     
  -4.0763603085542686E-002  0.15729532874050797        0.0000000000000000     
  -4.1443921241633035E-002  0.16506667265922592        0.0000000000000000     
  -4.4231411597993632E-002  0.13491128796689050        0.0000000000000000     
  -4.5171855030205647E-002  0.14233235281368492        0.0000000000000000     
  -4.6059241017284709E-002  0.14986438096859367        0.0000000000000000     
  -4.6893569559230790E-002  0.15750737243161680        0.0000000000000000     
  -4.7674840656043931E-002  0.16526132720275422        0.0000000000000000     
  -2.3327102548994918E-002  0.16465005834133878        0.0000000000000000     
  -2.3680043689230781E-002  0.17256134495026121        0.0000000000000000     
  -2.4002650947360270E-002  0.18056044577230118        0.0000000000000000     
  -2.4294924323383371E-002  0.18864736080745864        0.0000000000000000     
  -2.4556863817300097E-002  0.19682209005573353        0.0000000000000000     
  -2.9270052188108533E-002  0.16476103822851823        0.0000000000000000     
  -2.9714748463225350E-002  0.17266116250421726        0.0000000000000000     
  -3.0121714966855114E-002  0.18064949301483527        0.0000000000000000     
  -3.0490951698997813E-002  0.18872602976037225        0.0000000000000000     
  -3.0822458659653454E-002  0.19689077274082817        0.0000000000000000     
  -3.5308991752321238E-002  0.16489990966781393        0.0000000000000000     
  -3.5846640544819133E-002  0.17278671808716745        0.0000000000000000     
  -3.6339951116558737E-002  0.18076198761722129        0.0000000000000000     
  -3.6788923467540015E-002  0.18882571825797548        0.0000000000000000     
  -3.7193557597763015E-002  0.19697791000942999        0.0000000000000000     
  -4.1443921241633035E-002  0.16506667265922592        0.0000000000000000     
  -4.2075719934012136E-002  0.17293801169911180        0.0000000000000000     
  -4.2657359396471119E-002  0.18089792957945927        0.0000000000000000     
  -4.3188839629010004E-002  0.18894642630026831        0.0000000000000000     
  -4.3670160631628784E-002  0.19708350186153903        0.0000000000000000     
  -4.7674840656043931E-002  0.16526132720275422        0.0000000000000000     
  -4.8401986630804340E-002  0.17311504334005029        0.0000000000000000     
  -4.9073939806592283E-002  0.18105731890154916        0.0000000000000000     
  -4.9690700183407752E-002  0.18908815388725081        0.0000000000000000     
  -5.0252267761250760E-002  0.19720754829715528        0.0000000000000000     
  -2.4556863817300097E-002  0.19682209005573353        0.0000000000000000     
  -2.4789054989563422E-002  0.20506946633984344        0.0000000000000000     
  -2.4992083400626319E-002  0.21337432248250573        0.0000000000000000     
  -2.5165949050488790E-002  0.22173665848372051        0.0000000000000000     
  -2.5310651939150830E-002  0.23015647434348774        0.0000000000000000     
  -3.0822458659653454E-002  0.19689077274082817        0.0000000000000000     
  -3.1116635368602531E-002  0.20513010925517108        0.0000000000000000     
  -3.1373881345625527E-002  0.21343042660236905        0.0000000000000000     
  -3.1594196590722448E-002  0.22179172478242204        0.0000000000000000     
  -3.1777581103893289E-002  0.23021400379533014        0.0000000000000000     
  -3.7193557597763015E-002  0.19697791000942999        0.0000000000000000     
  -3.7553623436665115E-002  0.20520657270764597        0.0000000000000000     
  -3.7868890913683714E-002  0.21349971618868441        0.0000000000000000     
  -3.8139360028818813E-002  0.22185734045254543        0.0000000000000000     
  -3.8365030782070424E-002  0.23027944549922899        0.0000000000000000     
  -4.3670160631628784E-002  0.19708350186153903        0.0000000000000000     
  -4.4100019193751179E-002  0.20529885669726802        0.0000000000000000     
  -4.4477112104800869E-002  0.21358219124145186        0.0000000000000000     
  -4.4801439364777894E-002  0.22193350549409066        0.0000000000000000     
  -4.5073000973682234E-002  0.23035279945518439        0.0000000000000000     
  -5.0252267761250760E-002  0.19720754829715528        0.0000000000000000     
  -5.0755822639860705E-002  0.20540696122403726        0.0000000000000000     
  -5.1198544918977018E-002  0.21367785176067139        0.0000000000000000     
  -5.1580434598599685E-002  0.22202021990705773        0.0000000000000000     
  -5.1901491678728720E-002  0.23043406566319624        0.0000000000000000     
  -2.5310651939150830E-002  0.23015647434348774        0.0000000000000000     
  -2.5432474889039592E-002  0.23860619802184496        0.0000000000000000     
  -2.5537700722582220E-002  0.24705825747882984        0.0000000000000000     
  -2.5626329439778703E-002  0.25551265271444235        0.0000000000000000     
  -2.5698361040629048E-002  0.26396938372868245        0.0000000000000000     
  -3.1777581103893289E-002  0.23021400379533014        0.0000000000000000     
  -3.1931922500063721E-002  0.23867230154577596        0.0000000000000000     
  -3.2065108394159429E-002  0.24714165593844217        0.0000000000000000     
  -3.2177138786180386E-002  0.25562206697332890        0.0000000000000000     
  -3.2268013676126611E-002  0.26411353465043613        0.0000000000000000     
  -3.8365030782070424E-002  0.23027944549922899        0.0000000000000000     
  -3.8554640615748613E-002  0.23874514849510439        0.0000000000000000     
  -3.8716926972163480E-002  0.24723356660654092        0.0000000000000000     
  -3.8851889851315019E-002  0.25574469983353854        0.0000000000000000     
  -3.8959529253203222E-002  0.26427854817609736        0.0000000000000000     
  -4.5073000973682234E-002  0.23035279945518439        0.0000000000000000     
  -4.5300629236094278E-002  0.23882473886983038        0.0000000000000000     
  -4.5493156456594387E-002  0.24733398948312599        0.0000000000000000     
  -4.5650582635182603E-002  0.25588055129507120        0.0000000000000000     
  -4.5772907771858884E-002  0.26446442430566608        0.0000000000000000     
  -5.1901491678728720E-002  0.23043406566319624        0.0000000000000000     
  -5.2169888361100689E-002  0.23891107266995382        0.0000000000000000     
  -5.2393796847452150E-002  0.24744292456819739        0.0000000000000000     
  -5.2573217137783124E-002  0.25602962135792690        0.0000000000000000     
  -5.2708149232093583E-002  0.26467116303914234        0.0000000000000000     
  -2.5698361040629048E-002  0.26396938372868245        0.0000000000000000     
  -2.5765988840329119E-002  0.27237334951343029        0.0000000000000000     
  -2.5841406154074764E-002  0.28066944906056579        0.0000000000000000     
  -2.5924612981865994E-002  0.28885768237008907        0.0000000000000000     
  -2.6015609323702810E-002  0.29693804944199997        0.0000000000000000     
  -3.2268013676126611E-002  0.26411353465043613        0.0000000000000000     
  -3.2352566857359932E-002  0.27256321660841765        0.0000000000000000     
  -3.2445632123242141E-002  0.28091827048592727        0.0000000000000000     
  -3.2547209473773257E-002  0.28917869628296500        0.0000000000000000     
  -3.2657298908953275E-002  0.29734449399953089        0.0000000000000000     
  -3.8959529253203222E-002  0.26427854817609736        0.0000000000000000     
  -3.9058669321659537E-002  0.27278400917021045        0.0000000000000000     
  -3.9168134200515355E-002  0.28120998035187122        0.0000000000000000     
  -3.9287923889770690E-002  0.28955646172107957        0.0000000000000000     
  -3.9418038389425571E-002  0.29782345327783549        0.0000000000000000     
  -4.5772907771858884E-002  0.26446442430566608        0.0000000000000000     
  -4.5884296233227928E-002  0.27303572719880875        0.0000000000000000     
  -4.6008912385894413E-002  0.28154457865839772        0.0000000000000000     
  -4.6146756229858338E-002  0.28999097868443263        0.0000000000000000     
  -4.6297827765119683E-002  0.29837492727691373        0.0000000000000000     
  -5.2708149232093583E-002  0.26467116303914234        0.0000000000000000     
  -5.2829447592065121E-002  0.27331837069421261        0.0000000000000000     
  -5.2967966679379301E-002  0.28192206540550657        0.0000000000000000     
  -5.3123706494036124E-002  0.29048224717302429        0.0000000000000000     
  -5.3296667036035604E-002  0.29899891599676570        0.0000000000000000     
  -2.9119737560222597E-002   5.7168064770928034E-002   0.0000000000000000     
  -3.0622806645889112E-002   6.2720418816750806E-002   0.0000000000000000     
  -3.2085956146498153E-002   6.8456720376493835E-002   0.0000000000000000     
  -3.3509186062049709E-002   7.4376969450157149E-002   0.0000000000000000     
  -3.4892496392543798E-002   8.0481166037740720E-002   0.0000000000000000     
  -3.3224523914475002E-002   5.7666200545984522E-002   0.0000000000000000     
  -3.4884997119046121E-002   6.3201395178295205E-002   0.0000000000000000     
  -3.6507560077839230E-002   6.8921360079697472E-002   0.0000000000000000     
  -3.8092212790854348E-002   7.4826095250191280E-002   0.0000000000000000     
  -3.9638955258091461E-002   8.0915600689776684E-002   0.0000000000000000     
  -3.7283244484146771E-002   5.8219437791188183E-002   0.0000000000000000     
  -3.9155961801614396E-002   6.3739835995105049E-002   0.0000000000000000     
  -4.0979881800749067E-002   6.9444005018922200E-002   0.0000000000000000     
  -4.2755004481550812E-002   7.5331944862639624E-002   0.0000000000000000     
  -4.4481329844019597E-002   8.1403655526257349E-002   0.0000000000000000     
  -4.1295899269237921E-002   5.8827776506539017E-002   0.0000000000000000     
  -4.3435700693593919E-002   6.4335741267180321E-002   0.0000000000000000     
  -4.5502921315227637E-002   7.0024655194168034E-002   0.0000000000000000     
  -4.7497561134139069E-002   7.5894518287502183E-002   0.0000000000000000     
  -4.9419620150328206E-002   8.1945330547182699E-002   0.0000000000000000     
  -4.5262488269748435E-002   5.9491216692037011E-002   0.0000000000000000     
  -4.7724213794984718E-002   6.4989110994521052E-002   0.0000000000000000     
  -5.0076678621274948E-002   7.0663310605435015E-002   0.0000000000000000     
  -5.2319882748619137E-002   7.6513815524778914E-002   0.0000000000000000     
  -5.4453826177017287E-002   8.2540625752552776E-002   0.0000000000000000     
  -3.4892496392543798E-002   8.0481166037740720E-002   0.0000000000000000     
  -3.6231624045137301E-002   8.6756146803422335E-002   0.0000000000000000     
  -3.7522305926987097E-002   9.3188748411379779E-002   0.0000000000000000     
  -3.8764542038093187E-002   9.9778970861613012E-002   0.0000000000000000     
  -3.9958332378455565E-002  0.10652681415412207        0.0000000000000000     
  -3.9638955258091461E-002   8.0915600689776684E-002   0.0000000000000000     
  -4.1140090918589660E-002   8.7175878005926619E-002   0.0000000000000000     
  -4.2587923211388053E-002   9.3592928806114056E-002   0.0000000000000000     
  -4.3982452136486633E-002  0.10016675309033901        0.0000000000000000     
  -4.5323677693885393E-002  0.10689735085860144        0.0000000000000000     
  -4.4481329844019597E-002   8.1403655526257349E-002   0.0000000000000000     
  -4.6153368235837586E-002   8.7645703736473055E-002   0.0000000000000000     
  -4.7765630004686942E-002   9.4044656219984465E-002   0.0000000000000000     
  -4.9318115150567637E-002  0.10060051297679160        0.0000000000000000     
  -5.0810823673479694E-002  0.10731327400689442        0.0000000000000000     
  -4.9419620150328206E-002   8.1945330547182699E-002   0.0000000000000000     
  -5.1271455996881092E-002   8.8165623995061643E-002   0.0000000000000000     
  -5.3055426306883757E-002   9.4543930652991007E-002   0.0000000000000000     
  -5.4771531080336208E-002  0.10108025052097076        0.0000000000000000     
  -5.6419770317238445E-002  0.10777458359900098        0.0000000000000000     
  -5.4453826177017287E-002   8.2540625752552776E-002   0.0000000000000000     
  -5.6494354201720158E-002   8.8735638781692411E-002   0.0000000000000000     
  -5.8457312117978513E-002   9.5090752105133652E-002   0.0000000000000000     
  -6.0342699925792352E-002  0.10160596572287658        0.0000000000000000     
  -6.2150517625161675E-002  0.10828127963492112        0.0000000000000000     
  -3.9958332378455565E-002  0.10652681415412207        0.0000000000000000     
  -4.1102575420919593E-002  0.11342083405265534        0.0000000000000000     
  -4.2196169638330616E-002  0.12044958632096114        0.0000000000000000     
  -4.3239115030688627E-002  0.12761307095903954        0.0000000000000000     
  -4.4231411597993632E-002  0.13491128796689050        0.0000000000000000     
  -4.5323677693885393E-002  0.10689735085860144        0.0000000000000000     
  -4.6610252075207442E-002  0.11377368336247587        0.0000000000000000     
  -4.7840827472075839E-002  0.12078471185353667        0.0000000000000000     
  -4.9015403884490626E-002  0.12793043633178394        0.0000000000000000     
  -5.0133981312451760E-002  0.13521085679721756        0.0000000000000000     
  -5.0810823673479694E-002  0.10731327400689442        0.0000000000000000     
  -5.2242767975831911E-002  0.11417154453237488        0.0000000000000000     
  -5.3612960460033096E-002  0.12116392977531489        0.0000000000000000     
  -5.4921401126083277E-002  0.12829042973571445        0.0000000000000000     
  -5.6168089973982434E-002  0.13555104441357360        0.0000000000000000     
  -5.6419770317238445E-002  0.10777458359900098        0.0000000000000000     
  -5.8000123122793006E-002  0.11461441756235240        0.0000000000000000     
  -5.9512568602202373E-002  0.12158724008629579        0.0000000000000000     
  -6.0957106755466582E-002  0.12869305117083124        0.0000000000000000     
  -6.2333737582585626E-002  0.13593185081595868        0.0000000000000000     
  -6.2150517625161675E-002  0.10828127963492112        0.0000000000000000     
  -6.3882317516090706E-002  0.11510230245240838        0.0000000000000000     
  -6.5539651898583670E-002  0.12205464278647940        0.0000000000000000     
  -6.7122520772640554E-002  0.12913830063713416        0.0000000000000000     
  -6.8630924138261371E-002  0.13635327600437272        0.0000000000000000     
  -4.4231411597993632E-002  0.13491128796689050        0.0000000000000000     
  -4.5171855030205647E-002  0.14233235281368492        0.0000000000000000     
  -4.6059241017284709E-002  0.14986438096859367        0.0000000000000000     
  -4.6893569559230790E-002  0.15750737243161680        0.0000000000000000     
  -4.7674840656043931E-002  0.16526132720275422        0.0000000000000000     
  -5.0133981312451760E-002  0.13521085679721756        0.0000000000000000     
  -5.1195106865217131E-002  0.14261393103848821        0.0000000000000000     
  -5.2197327652044573E-002  0.15012761684424658        0.0000000000000000     
  -5.3140643672934106E-002  0.15775191421449264        0.0000000000000000     
  -5.4025054927885716E-002  0.16548682314922633        0.0000000000000000     
  -5.6168089973982434E-002  0.13555104441357360        0.0000000000000000     
  -5.7351810866569403E-002  0.14293399006200880        0.0000000000000000     
  -5.8471347666683014E-002  0.15042748293413655        0.0000000000000000     
  -5.9526700374323283E-002  0.15803152302995688        0.0000000000000000     
  -6.0517868989490207E-002  0.16574611034946976        0.0000000000000000     
  -6.2333737582585626E-002  0.13593185081595868        0.0000000000000000     
  -6.3641967034262475E-002  0.14329252988424662        0.0000000000000000     
  -6.4881301061200047E-002  0.15076397923826357        0.0000000000000000     
  -6.6051739663398348E-002  0.15834619887800949        0.0000000000000000     
  -6.7153282840857392E-002  0.16603918880348451        0.0000000000000000     
  -6.8630924138261371E-002  0.13635327600437272        0.0000000000000000     
  -7.0065575368296315E-002  0.14368955050520163        0.0000000000000000     
  -7.1427187835595610E-002  0.15113710575662759        0.0000000000000000     
  -7.2715761540159282E-002  0.15869594175865057        0.0000000000000000     
  -7.3931296481987291E-002  0.16636605851127051        0.0000000000000000     
  -4.7674840656043931E-002  0.16526132720275422        0.0000000000000000     
  -4.8401986630804340E-002  0.17311504334005029        0.0000000000000000     
  -4.9073939806592283E-002  0.18105731890154916        0.0000000000000000     
  -4.9690700183407752E-002  0.18908815388725081        0.0000000000000000     
  -5.0252267761250760E-002  0.19720754829715528        0.0000000000000000     
  -5.4025054927885716E-002  0.16548682314922633        0.0000000000000000     
  -5.4850052489462869E-002  0.17332129395501752        0.0000000000000000     
  -5.5615127430229033E-002  0.18124427693843595        0.0000000000000000     
  -5.6320279750184221E-002  0.18925577209948166        0.0000000000000000     
  -5.6965509449328398E-002  0.19735577943815460        0.0000000000000000     
  -6.0517868989490207E-002  0.16574611034946976        0.0000000000000000     
  -6.1444529364254812E-002  0.17356024448904805        0.0000000000000000     
  -6.2306357350688193E-002  0.18146292504506473        0.0000000000000000     
  -6.3103352948790312E-002  0.18945415201751967        0.0000000000000000     
  -6.3835516158561173E-002  0.19753392540641293        0.0000000000000000     
  -6.7153282840857392E-002  0.16603918880348451        0.0000000000000000     
  -6.8185417255180195E-002  0.17383189494214193        0.0000000000000000     
  -6.9147629567969743E-002  0.18171326322143538        0.0000000000000000     
  -7.0039919779226037E-002  0.18968329364136483        0.0000000000000000     
  -7.0862287888949077E-002  0.19774198620193023        0.0000000000000000     
  -7.3931296481987291E-002  0.16636605851127051        0.0000000000000000     
  -7.5072716162238984E-002  0.17413624531429914        0.0000000000000000     
  -7.6138944082073695E-002  0.18199529146754803        0.0000000000000000     
  -7.7129980241491411E-002  0.18994319697101714        0.0000000000000000     
  -7.8045824640492131E-002  0.19797996182470651        0.0000000000000000     
  -5.0252267761250760E-002  0.19720754829715528        0.0000000000000000     
  -5.0755822639860705E-002  0.20540696122403726        0.0000000000000000     
  -5.1198544918977018E-002  0.21367785176067139        0.0000000000000000     
  -5.1580434598599685E-002  0.22202021990705773        0.0000000000000000     
  -5.1901491678728720E-002  0.23043406566319624        0.0000000000000000     
  -5.6965509449328398E-002  0.19735577943815460        0.0000000000000000     
  -5.7546914988853240E-002  0.20553720720364541        0.0000000000000000     
  -5.8060594829950393E-002  0.21379296364514438        0.0000000000000000     
  -5.8506548972619830E-002  0.22212304876265165        0.0000000000000000     
  -5.8884777416861579E-002  0.23052746255616718        0.0000000000000000     
  -6.3835516158561173E-002  0.19753392540641293        0.0000000000000000     
  -6.4499177454588330E-002  0.20569591555178399        0.0000000000000000     
  -6.5090667311459252E-002  0.21393379279367211        0.0000000000000000     
  -6.5609985729173995E-002  0.22224755713207744        0.0000000000000000     
  -6.6057132707732502E-002  0.23063720856699987        0.0000000000000000     
  -7.0862287888949077E-002  0.19774198620193023        0.0000000000000000     
  -7.1612610037065941E-002  0.20588308626845303        0.0000000000000000     
  -7.2288762363503622E-002  0.21410033920625465        0.0000000000000000     
  -7.2890744868262136E-002  0.22239374501533499        0.0000000000000000     
  -7.3418557551341468E-002  0.23076330369569414        0.0000000000000000     
  -7.8045824640492131E-002  0.19797996182470651        0.0000000000000000     
  -7.8887212736286086E-002  0.20609871935365259        0.0000000000000000     
  -7.9654879986083463E-002  0.21429260288289192        0.0000000000000000     
  -8.0348826389884262E-002  0.22256161241242442        0.0000000000000000     
  -8.0969051947688511E-002  0.23090574794225016        0.0000000000000000     
  -5.1901491678728720E-002  0.23043406566319624        0.0000000000000000     
  -5.2169888361100689E-002  0.23891107266995382        0.0000000000000000     
  -5.2393796847452150E-002  0.24744292456819739        0.0000000000000000     
  -5.2573217137783124E-002  0.25602962135792690        0.0000000000000000     
  -5.2708149232093583E-002  0.26467116303914234        0.0000000000000000     
  -5.8884777416861579E-002  0.23052746255616718        0.0000000000000000     
  -5.9201517860267804E-002  0.23900552033029668        0.0000000000000000     
  -5.9463008000430605E-002  0.24755653738964564        0.0000000000000000     
  -5.9669247837350059E-002  0.25618051373421408        0.0000000000000000     
  -5.9820237371026111E-002  0.26487744936400209        0.0000000000000000     
  -6.6057132707732502E-002  0.23063720856699987        0.0000000000000000     
  -6.6434617603095464E-002  0.23910945228568067        0.0000000000000000     
  -6.6744949771223597E-002  0.24767099347536115        0.0000000000000000     
  -6.6988129212116831E-002  0.25632183213604132        0.0000000000000000     
  -6.7164155925775237E-002  0.26506196826772116        0.0000000000000000     
  -7.3418557551341468E-002  0.23076330369569414        0.0000000000000000     
  -7.3869187589583774E-002  0.23922286853610597        0.0000000000000000     
  -7.4239622159831112E-002  0.24778629282534412        0.0000000000000000     
  -7.4529861262083497E-002  0.25645357656340867        0.0000000000000000     
  -7.4739904896340942E-002  0.26522471975029960        0.0000000000000000     
  -8.0969051947688511E-002  0.23090574794225016        0.0000000000000000     
  -8.1505227819732656E-002  0.23934576908157240        0.0000000000000000     
  -8.1947025166253157E-002  0.24790243543959431        0.0000000000000000     
  -8.2294443987250013E-002  0.25657574701631597        0.0000000000000000     
  -8.2547484282723238E-002  0.26536570381173741        0.0000000000000000     
  -5.2708149232093583E-002  0.26467116303914234        0.0000000000000000     
  -5.2829447592065121E-002  0.27331837069421261        0.0000000000000000     
  -5.2967966679379301E-002  0.28192206540550657        0.0000000000000000     
  -5.3123706494036124E-002  0.29048224717302429        0.0000000000000000     
  -5.3296667036035604E-002  0.29899891599676570        0.0000000000000000     
  -5.9820237371026111E-002  0.26487744936400209        0.0000000000000000     
  -5.9952859060284150E-002  0.27360321814823912        0.0000000000000000     
  -6.0103995363949586E-002  0.28231369395615469        0.0000000000000000     
  -6.0273646282022392E-002  0.29100887678774895        0.0000000000000000     
  -6.0461811814502567E-002  0.29968876664302180        0.0000000000000000     
  -6.7164155925775237E-002  0.26506196826772116        0.0000000000000000     
  -6.7313266299998092E-002  0.27386154805270535        0.0000000000000000     
  -6.7475696722584813E-002  0.28269071767329867        0.0000000000000000     
  -6.7651447193535372E-002  0.29154947712950108        0.0000000000000000     
  -6.7840517712849782E-002  0.30043782642131267        0.0000000000000000     
  -7.4739904896340942E-002  0.26522471975029960        0.0000000000000000     
  -7.4910669311206921E-002  0.27409336040761140        0.0000000000000000     
  -7.5083070755284975E-002  0.28305313655693842        0.0000000000000000     
  -7.5257109228575078E-002  0.29210404819828067        0.0000000000000000     
  -7.5432784731077243E-002  0.30124609533163821        0.0000000000000000     
  -8.2547484282723238E-002  0.26536570381173741        0.0000000000000000     
  -8.2745068093910662E-002  0.27429865521295715        0.0000000000000000     
  -8.2926117462050086E-002  0.28340095060707399        0.0000000000000000     
  -8.3090632387141525E-002  0.29267258999408774        0.0000000000000000     
  -8.3238612869184964E-002  0.30211357337399847        0.0000000000000000     
  -4.5262488269748435E-002   5.9491216692037011E-002   0.0000000000000000     
  -4.7724213794984718E-002   6.4989110994521052E-002   0.0000000000000000     
  -5.0076678621274948E-002   7.0663310605435015E-002   0.0000000000000000     
  -5.2319882748619137E-002   7.6513815524778914E-002   0.0000000000000000     
  -5.4453826177017287E-002   8.2540625752552776E-002   0.0000000000000000     
  -4.9621535608316912E-002   6.0209546593376240E-002   0.0000000000000000     
  -5.2339882778304335E-002   6.5697465134690061E-002   0.0000000000000000     
  -5.4927520303508115E-002   7.1356297138364319E-002   0.0000000000000000     
  -5.7384448183928287E-002   7.7186042604399013E-002   0.0000000000000000     
  -5.9710666419564823E-002   8.3186701532794144E-002   0.0000000000000000     
  -5.4811565407581947E-002   6.0982554456250775E-002   0.0000000000000000     
  -5.7601089316070345E-002   6.6458323645250200E-002   0.0000000000000000     
  -6.0281812946544285E-002   7.2099940678597138E-002   0.0000000000000000     
  -6.2853736299003773E-002   7.7907405556291567E-002   0.0000000000000000     
  -6.5316859373448805E-002   8.3880718278333488E-002   0.0000000000000000     
  -6.0832577667543526E-002   6.1810240280660581E-002   0.0000000000000000     
  -6.3507833408282754E-002   6.7271686526201496E-002   0.0000000000000000     
  -6.6139556550383435E-002   7.2894241226133527E-002   0.0000000000000000     
  -6.8727747093845590E-002   7.8677904380456604E-002   0.0000000000000000     
  -7.1272405038669204E-002   8.4622675989170781E-002   0.0000000000000000     
  -6.7684572388201664E-002   6.2692604066605692E-002   0.0000000000000000     
  -7.0060115054941557E-002   6.8137553777543935E-002   0.0000000000000000     
  -7.2500751115025575E-002   7.3739198780973417E-002   0.0000000000000000     
  -7.5006480568453743E-002   7.9497539076894094E-002   0.0000000000000000     
  -7.7577303415226062E-002   8.5412574665305996E-002   0.0000000000000000     
  -5.4453826177017287E-002   8.2540625752552776E-002   0.0000000000000000     
  -5.6494354201720158E-002   8.8735638781692411E-002   0.0000000000000000     
  -5.8457312117978513E-002   9.5090752105133652E-002   0.0000000000000000     
  -6.0342699925792352E-002  0.10160596572287658        0.0000000000000000     
  -6.2150517625161675E-002  0.10828127963492112        0.0000000000000000     
  -5.9710666419564823E-002   8.3186701532794144E-002   0.0000000000000000     
  -6.1928889777602747E-002   8.9354106309387088E-002   0.0000000000000000     
  -6.4061833025227069E-002   9.5684089320015167E-002   0.0000000000000000     
  -6.6109496162437803E-002  0.10217665056467837        0.0000000000000000     
  -6.8071879189234921E-002  0.10883179004337673        0.0000000000000000     
  -6.5316859373448805E-002   8.3880718278333488E-002   0.0000000000000000     
  -6.7681889651776822E-002   9.0019384791167487E-002   0.0000000000000000     
  -6.9959534615885333E-002   9.6322911041238191E-002   0.0000000000000000     
  -7.2149794265774295E-002  0.10279129702854556        0.0000000000000000     
  -7.4252668601443736E-002  0.10942454275308963        0.0000000000000000     
  -7.1272405038669204E-002   8.4622675989170781E-002   0.0000000000000000     
  -7.3753353824242390E-002   9.0731474227033634E-002   0.0000000000000000     
  -7.6150416889953290E-002   9.7007217268802751E-002   0.0000000000000000     
  -7.8463594235801834E-002  0.10344990511447819        0.0000000000000000     
  -8.0692885861788119E-002  0.11005953776405986        0.0000000000000000     
  -7.7577303415226062E-002   8.5412574665305996E-002   0.0000000000000000     
  -8.0143282294999466E-002   9.1490374616985476E-002   0.0000000000000000     
  -8.2634479847430942E-002   9.7737008002708875E-002   0.0000000000000000     
  -8.5050896072520449E-002  0.10415247482247615        0.0000000000000000     
  -8.7392530970268056E-002  0.11073677507628737        0.0000000000000000     
  -6.2150517625161675E-002  0.10828127963492112        0.0000000000000000     
  -6.3882317516090706E-002  0.11510230245240838        0.0000000000000000     
  -6.5539651898583670E-002  0.12205464278647940        0.0000000000000000     
  -6.7122520772640554E-002  0.12913830063713416        0.0000000000000000     
  -6.8630924138261371E-002  0.13635327600437272        0.0000000000000000     
  -6.8071879189234921E-002  0.10883179004337673        0.0000000000000000     
  -6.9951363046585446E-002  0.11563292451827831        0.0000000000000000     
  -7.1750328675456332E-002  0.12256347075155127        0.0000000000000000     
  -7.3468776075847606E-002  0.12962342874319557        0.0000000000000000     
  -7.5106705247759253E-002  0.13681279849321121        0.0000000000000000     
  -7.4252668601443736E-002  0.10942454275308963        0.0000000000000000     
  -7.6269271605137551E-002  0.11620400907569770        0.0000000000000000     
  -7.8200717259099717E-002  0.12311105685719702        0.0000000000000000     
  -8.0047005563330151E-002  0.13014568609758767        0.0000000000000000     
  -8.1808136517828936E-002  0.13730789679686961        0.0000000000000000     
  -8.0692885861788119E-002  0.11005953776405986        0.0000000000000000     
  -8.2836043191747075E-002  0.11681555612466649        0.0000000000000000     
  -8.4890817649513783E-002  0.12369740110341668        0.0000000000000000     
  -8.6857209235088217E-002  0.13070507270031048        0.0000000000000000     
  -8.8735217948470391E-002  0.13783857091534785        0.0000000000000000     
  -8.7392530970268056E-002  0.11073677507628737        0.0000000000000000     
  -8.9651677806413990E-002  0.11746756566518468        0.0000000000000000     
  -9.1820629846698545E-002  0.12432250349021019        0.0000000000000000     
  -9.3899387091121778E-002  0.13130158855136398        0.0000000000000000     
  -9.5887949539683617E-002  0.13840482084864597        0.0000000000000000     
  -6.8630924138261371E-002  0.13635327600437272        0.0000000000000000     
  -7.0065575368296315E-002  0.14368955050520163        0.0000000000000000     
  -7.1427187835595610E-002  0.15113710575662759        0.0000000000000000     
  -7.2715761540159282E-002  0.15869594175865057        0.0000000000000000     
  -7.3931296481987291E-002  0.16636605851127051        0.0000000000000000     
  -7.5106705247759253E-002  0.13681279849321121        0.0000000000000000     
  -7.6665761305592120E-002  0.14412295470133132        0.0000000000000000     
  -7.8147589363747008E-002  0.15154527206728896        0.0000000000000000     
  -7.9552189422224001E-002  0.15907975059108423        0.0000000000000000     
  -8.0879561481023002E-002  0.16672639027271699        0.0000000000000000     
  -8.1808136517828936E-002  0.13730789679686961        0.0000000000000000     
  -8.3485650283071033E-002  0.14459064524909299        0.0000000000000000     
  -8.5081087019531515E-002  0.15198688774830801        0.0000000000000000     
  -8.6594446727210395E-002  0.15949662429451467        0.0000000000000000     
  -8.8025729406107631E-002  0.16711985488771303        0.0000000000000000     
  -8.8735217948470391E-002  0.13783857091534785        0.0000000000000000     
  -9.0525242300733083E-002  0.14509262214848664        0.0000000000000000     
  -9.2227680802949130E-002  0.15246195279968466        0.0000000000000000     
  -9.3842533455118490E-002  0.15994656286894199        0.0000000000000000     
  -9.5369800257241191E-002  0.16754645235625854        0.0000000000000000     
  -9.5887949539683617E-002  0.13840482084864597        0.0000000000000000     
  -9.7784537358578255E-002  0.14562888539951227        0.0000000000000000     
  -9.9587370713999798E-002  0.15297046722141897        0.0000000000000000     
 -0.10129644960594827       0.16042956631436606        0.0000000000000000     
 -0.10291177403442368       0.16800618267835354        0.0000000000000000     
  -7.3931296481987291E-002  0.16636605851127051        0.0000000000000000     
  -7.5072716162238984E-002  0.17413624531429914        0.0000000000000000     
  -7.6138944082073695E-002  0.18199529146754803        0.0000000000000000     
  -7.7129980241491411E-002  0.18994319697101714        0.0000000000000000     
  -7.8045824640492131E-002  0.19797996182470651        0.0000000000000000     
  -8.0879561481023002E-002  0.16672639027271699        0.0000000000000000     
  -8.2128526064643520E-002  0.17447353436700866        0.0000000000000000     
  -8.3297903697585066E-002  0.18230952612878035        0.0000000000000000     
  -8.4387694379847583E-002  0.19023436555803219        0.0000000000000000     
  -8.5397898111431114E-002  0.19824805265476414        0.0000000000000000     
  -8.8025729406107631E-002  0.16711985488771303        0.0000000000000000     
  -8.9374946941606137E-002  0.17484400086175939        0.0000000000000000     
  -9.0642111219088856E-002  0.18265648355051026        0.0000000000000000     
  -9.1827222238555745E-002  0.19055730295396558        0.0000000000000000     
  -9.2930280000006818E-002  0.19854645907212548        0.0000000000000000     
  -9.5369800257241191E-002  0.16754645235625854        0.0000000000000000     
  -9.6811978793126835E-002  0.17524764479855134        0.0000000000000000     
  -9.8171566646585079E-002  0.18303616373273768        0.0000000000000000     
  -9.9448563817615868E-002  0.19091200915881740        0.0000000000000000     
 -0.10064297030621924       0.19887518107679059        0.0000000000000000     
 -0.10291177403442368       0.16800618267835354        0.0000000000000000     
 -0.10443962161920563       0.17568446617738465        0.0000000000000000     
 -0.10588626998007375       0.18344856667546264        0.0000000000000000     
 -0.10725171911702798       0.19129848417258757        0.0000000000000000     
 -0.10853596903006840       0.19923421866875937        0.0000000000000000     
  -7.8045824640492131E-002  0.19797996182470651        0.0000000000000000     
  -7.8887212736286086E-002  0.20609871935365259        0.0000000000000000     
  -7.9654879986083463E-002  0.21429260288289192        0.0000000000000000     
  -8.0348826389884262E-002  0.22256161241242442        0.0000000000000000     
  -8.0969051947688511E-002  0.23090574794225016        0.0000000000000000     
  -8.5397898111431114E-002  0.19824805265476414        0.0000000000000000     
  -8.6332039328663512E-002  0.20634332128914032        0.0000000000000000     
  -8.7193642467872687E-002  0.21451290533132492        0.0000000000000000     
  -8.7982707529058596E-002  0.22275680478131793        0.0000000000000000     
  -8.8699234512221226E-002  0.23107501963911936        0.0000000000000000     
  -9.2930280000006818E-002  0.19854645907212548        0.0000000000000000     
  -9.3956143590612981E-002  0.20661739855667377        0.0000000000000000     
  -9.4909672097545084E-002  0.21476356805929447        0.0000000000000000     
  -9.5790865520803209E-002  0.22298496757998762        0.0000000000000000     
  -9.6599723860387260E-002  0.23128159711875312        0.0000000000000000     
 -0.10064297030621924       0.19887518107679059        0.0000000000000000     
 -0.10175952552213446       0.20692095115625300        0.0000000000000000     
 -0.10280296887510075       0.21504459106680068        0.0000000000000000     
 -0.10377330036511813       0.22324610080843352        0.0000000000000000     
 -0.10467051999218660       0.23152548038115159        0.0000000000000000     
 -0.10853596903006840       0.19923421866875937        0.0000000000000000     
 -0.10974218512322795       0.20725397908787802        0.0000000000000000     
 -0.11087353280053959       0.21535597435384346        0.0000000000000000     
 -0.11193001206200337       0.22354020446665568        0.0000000000000000     
 -0.11291162290761925       0.23180666942631467        0.0000000000000000     
  -8.0969051947688511E-002  0.23090574794225016        0.0000000000000000     
  -8.1505227819732656E-002  0.23934576908157240        0.0000000000000000     
  -8.1947025166253157E-002  0.24790243543959431        0.0000000000000000     
  -8.2294443987250013E-002  0.25657574701631597        0.0000000000000000     
  -8.2547484282723238E-002  0.26536570381173741        0.0000000000000000     
  -8.8699234512221226E-002  0.23107501963911936        0.0000000000000000     
  -8.9329125767383430E-002  0.23949312242007426        0.0000000000000000     
  -8.9858283644567952E-002  0.24803668563952777        0.0000000000000000     
  -9.0286708143774805E-002  0.25670570929747982        0.0000000000000000     
  -9.0614399265003961E-002  0.26550019339393049        0.0000000000000000     
  -9.6599723860387260E-002  0.23128159711875312        0.0000000000000000     
  -9.7327268906377412E-002  0.23967989704960577        0.0000000000000000     
  -9.7964522448853730E-002  0.24820630774656025        0.0000000000000000     
  -9.8511484487816214E-002  0.25686082920961650        0.0000000000000000     
  -9.8968155023264892E-002  0.26564346143877460        0.0000000000000000     
 -0.10467051999218660       0.23152548038115159        0.0000000000000000     
 -0.10549965723671459       0.23990609297016693        0.0000000000000000     
 -0.10626574157911048       0.24841130176069182        0.0000000000000000     
 -0.10696877301937431       0.25704110675272607        0.0000000000000000     
 -0.10760875155750603       0.26579550794626972        0.0000000000000000     
 -0.11291162290761925       0.23180666942631467        0.0000000000000000     
 -0.11384629075839496       0.24017171018175781        0.0000000000000000     
 -0.11476194103533822       0.24865166768192240        0.0000000000000000     
 -0.11565857373844904       0.25724654192680846        0.0000000000000000     
 -0.11653618886772737       0.26595633291641602        0.0000000000000000     
  -8.2547484282723238E-002  0.26536570381173741        0.0000000000000000     
  -8.2745068093910662E-002  0.27429865521295715        0.0000000000000000     
  -8.2926117462050086E-002  0.28340095060707399        0.0000000000000000     
  -8.3090632387141525E-002  0.29267258999408774        0.0000000000000000     
  -8.3238612869184964E-002  0.30211357337399847        0.0000000000000000     
  -9.0614399265003961E-002  0.26550019339393049        0.0000000000000000     
  -9.0871619930121897E-002  0.27448311735209319        0.0000000000000000     
  -9.1088633060995114E-002  0.28371746059518155        0.0000000000000000     
  -9.1265438657623557E-002  0.29320322312319558        0.0000000000000000     
  -9.1402036720007268E-002  0.30294040493613517        0.0000000000000000     
  -9.8968155023264892E-002  0.26564346143877460        0.0000000000000000     
  -9.9345482101853316E-002  0.27465243170836978        0.0000000000000000     
  -9.9654413770235012E-002  0.28398596729273734        0.0000000000000000     
  -9.9894950028410090E-002  0.29364406819187738        0.0000000000000000     
 -0.10006709087637847       0.30362673440578986        0.0000000000000000     
 -0.10760875155750603       0.26579550794626972        0.0000000000000000     
 -0.10816665460910482       0.27480659828178688        0.0000000000000000     
 -0.10862345958976985       0.28420647069974136        0.0000000000000000     
 -0.10897916649950107       0.29399512520013338        0.0000000000000000     
 -0.10923377533829853       0.30417256178296259        0.0000000000000000     
 -0.11653618886772737       0.26595633291641602        0.0000000000000000     
 -0.11733513745187649       0.27494561707234455        0.0000000000000000     
 -0.11799577051959954       0.28437897081619362        0.0000000000000000     
 -0.11851808807089655       0.29425639414796323        0.0000000000000000     
 -0.11890209010576752       0.30457788706765343        0.0000000000000000     
 </DataArray>
 <DataArray  type="Float64" Name="stress" NumberOfComponents="3" format="ascii">
   4367652906.4680967       -436333624.84953284       -1403729605.2378244     
   4516122243.1309347       -358032865.97321773       -998217505.04075229     
   4667281731.5662527       -270764934.52194762       -688930859.37088251     
   4821131371.7740746       -174529830.49566245       -475869668.22822034     
   4977671163.7544022       -69327553.894381285       -359033931.61276817     
   5149219513.9331179       -96881695.906375885       -779528009.90227246     
   5067123844.0629416       -91923863.390691519       -507701079.96530718     
   4987924830.1652708       -77310510.966653347       -300081102.13561010     
   4911622472.2401018       -53041638.634286165       -156668076.41317618     
   4838216770.2874298       -19117246.393584728       -77462002.798013046     
   5493776428.0990877        111467325.04706216       -157052038.58109927     
   5272597187.1814594        70526661.847808361       -18669357.337571289     
   5054521106.4363394        39929865.890246153        87524874.218630329     
   4839548185.8637123        19676937.174351692        161530656.08749759     
   4627678425.4635973        9767875.7001402378        203347988.26904297     
   5401323648.9660330        188713438.01079297        463698308.72570527     
   5132542272.4864883        129318709.74226213        468877662.84245789     
   4867070560.3794508        80956196.048750162        473887069.69182855     
   4604908512.6449251        43625896.930273533        478726529.27381122     
   4346056129.2829008        17327812.386812449        483396041.58840847     
   4871861176.5339403        134856642.98481584        1082723032.0181220     
   4646959099.9780245        84452280.292666197        954939980.57477772     
   4425573191.9946260        45768479.508890867        859005484.28399289     
   4207703452.5837307        18805240.633467197        794919543.14575553     
   3993349881.7453537        3562563.6664297581        762682157.16007686     
   4977671163.7544022       -69327553.894381285       -359033931.61276817     
   4839869349.9208260       -50066503.106521606       -285743337.33097750     
   4700934256.3569794       -34583051.419531345       -221245471.39702210     
   4560865883.0628958       -22877198.833350182       -165540333.81088847     
   4419664230.0385647       -14948945.347993135       -118627924.57258110     
   4838216770.2874298       -19117246.393584728       -77462002.798013046     
   4680490381.3205500       -8003186.1609911919       -28376014.304734576     
   4521506374.2467680       -1081186.2847077847        16056181.023510046     
   4361264749.0660934        1648753.2352526188        55834583.186719865     
   4199765505.7785225        186632.39889001846        90959192.184887514     
   4627678425.4635973        9767875.7001402378        203347988.26904297     
   4461852990.4571066        16282604.105615854        228084309.53439778     
   4294645598.9670715        18190810.899263620        252305772.81750250     
   4126056250.9934912        15492496.081101894        276012378.11836421     
   3956084946.5363688        8187659.6511323452        299204125.43697912     
   4346056129.2829008        17327812.386812449        483396041.58840847     
   4183957177.3304944        22790867.693258762        483637634.18640888     
   4020351930.5178866        23232940.132381916        487503303.98495722     
   3855240388.8450961        18654029.704220295        494993050.98404586     
   3688622552.3121138        9054136.4087545872        506106875.18368596     
   3993349881.7453537        3562563.6664297581        762682157.16007686     
   3846802941.9407043        11521604.601945162        738283959.65130949     
   3698625368.8992205        14045201.414662361        721648774.52587545     
   3548817162.6209021        11133354.104595423        712776601.78377903     
   3397378323.1057425        2786062.6717350483        711667441.42501199     
   4419664230.0385647       -14948945.347993135       -118627924.57258110     
   4245894740.4587855       -16933862.534351587       -108702934.57179415     
   4073164363.7707381       -15455070.081570387       -97961836.489039823     
   3901473099.9744301       -10512567.989665508       -86404630.324292511     
   3730820949.0698671       -2106356.2586336136       -74031316.077575266     
   4199765505.7785225        186632.39889001846        90959192.184887514     
   4028692454.5078473       -4406589.5076169968        94322642.012972802     
   3858706279.3603883       -5376891.0033984184        99546083.547655255     
   3689806980.3361673       -2724272.0883927345        106629516.78894131     
   3521994557.4351697        3551267.2373681068        115572941.73681812     
   3956084946.5363688        8187659.6511323452        299204125.43697912     
   3790690858.2165632        1880890.4169771671        296061758.86243659     
   3626431409.2514734       -643747.63478231430        295823267.61910987     
   3463306599.6410999        613745.49583888054        298488651.70699924     
   3301316429.3854432        5653369.8088543415        304057911.12611204     
   3688622552.3121138        9054136.4087545872        506106875.18368596     
   3531889951.5849452        1928577.2394895554        496514415.97658455     
   3376339753.4439840       -1255639.9757514000        490869715.72532153     
   3221971957.8892345       -498515.23696231842        489172774.42989945     
   3068786564.9206853        4199951.4558342695        491423592.09031063     
   3397378323.1057425        2786062.6717350483        711667441.42501199     
   3252289734.6129866       -4263529.0401055813        695680613.35542524     
   3108431311.9379282       -7212568.0262794495        684685427.86629951     
   2965803055.0805645       -6061054.2868202925        678681884.95762575     
   2824404964.0408978       -808987.82169449329        677669984.62941170     
   3730820949.0698671       -2106356.2586336136       -74031316.077575266     
   3552398016.3379402        3179078.2082042694       -63746492.100629047     
   3372415393.0993509        3265544.3195137978       -48662774.234252945     
   3190873079.3540940       -1846957.9247364998       -28780162.478457227     
   3007771075.1021690       -12158428.524558902       -4098656.8332470097     
   3521994557.4351697        3551267.2373681068        115572941.73681812     
   3355770520.8455834        10020603.815104008        119813474.64791523     
   3188273200.2373061        12245660.330544710        128365671.75348952     
   3019502595.6103482        10226436.783712268        141229533.05354744     
   2849458706.9646969        3962933.1745786667        158405058.54807231     
   3301316429.3854432        5653369.8088543415        304057911.12611204     
   3145899204.0955014        12888983.044672608        302588293.87400246     
   2989495101.2748442        16835004.511448741        304943111.12142318     
   2832104120.9234910        17491434.209227204        311122362.86838031     
   2673726263.0414338        14858272.137999296        321126049.11486578     
   3068786564.9206853        4199951.4558342695        491423592.09031063     
   2922784066.0876884        11784215.896915436        484577965.57763016     
   2776081096.2119718        17033576.862250447        481069543.86954635     
   2628677655.2935238        19948034.351822615        480898326.96604663     
   2480573743.3323622        20527588.365667105        484064314.86715144     
   2824404964.0408978       -808987.82169449329        677669984.62941170     
   2686425106.8221593        6706302.3718496561        665782489.75880599     
   2548031185.0486746        12841377.382894874        656744969.99786031     
   2409223198.7204523        17596237.211492658        650557425.34655511     
   2270001147.8374782        20970881.857584715        647219855.80490613     
   3007771075.1021690       -12158428.524558902       -4098656.8332470097     
   2850936138.8455205       -15266546.274819136       -1296980.0936107461     
   2695214672.7335086       -14663096.876277924       -235045.55104299111     
   2540606676.7661543       -10348080.328879237       -912853.20552837185     
   2387112150.9434686       -2321496.6325964928       -3330403.0570822610     
   2849458706.9646969        3962933.1745786667        158405058.54807231     
   2689716168.6022315        68150.071606516838        156936613.80675822     
   2530771078.2724118       -1168472.9225583076        155152832.41635278     
   2372623435.9752412        253064.19211947918        153053714.37685597     
   2215273241.7106900        4332761.4155482054        150639259.68827286     
   2673726263.0414338        14858272.137999296        321126049.11486578     
   2515145852.7102141        11397742.723413706        315018790.42860013     
   2357046868.2996311        9541966.3776160479        310020600.64120811     
   2199429309.8096900        9290943.1006333828        306131479.75270110     
   2042293177.2403979        10644672.892452240        303351427.76307923     
   2480573743.3323622        20527588.365667105        484064314.86715144     
   2327225191.1694684        18722231.680629015        472949549.77190572     
   2174042042.8151941        17468221.024313807        464368259.12352324     
   2021024298.2695735        16765556.396837592        458320442.92199588     
   1868171957.5325673        16614237.798094630        454806101.16732818     
   2270001147.8374782        20970881.857584715        647219855.80490613     
   2125954183.9799755        22041616.943183541        630728891.83668745     
   1981756601.8190961        22610291.017526388        618195807.86330485     
   1837408401.3548427        22676904.080634356        609620603.88474560     
   1692909582.5872178        22241456.132481515        605003279.90101743     
   2387112150.9434686       -2321496.6325964928       -3330403.0570822610     
   2245877196.6857834        6053209.4095902443       -8433663.6156957261     
   2101333333.3008280        3398218.3608767986       -11878013.031705838     
   1953480560.7886372       -10286469.778614044       -13663451.305104909     
   1802318879.1491921       -35000855.008965611       -13789978.435926246     
   2215273241.7106900        4332761.4155482054        150639259.68827286     
   2077212571.3995402        12046461.280366778        141551436.04978049     
   1936934988.5207753        12370452.586481452        133398998.03770842     
   1794440493.0744138        5304735.3339287043        126181945.65208484     
   1649729085.0604396       -9150690.4773110151        119900278.89288157     
   2042293177.2403979        10644672.892452240        303351427.76307923     
   1905339575.1152966        17077201.851766825        291553037.03095645     
   1767261056.9822259        19760010.784525275        279966506.40909207     
   1628057622.8412077        18693099.690777063        268591835.89749128     
   1487729272.6922266        13876468.570492268        257429025.49615267     
   1868171957.5325673        16614237.798094630        454806101.16732818     
   1730258207.8330407        21145431.123764634        441571139.32782388     
   1592311538.6851964        25566892.955050945        427824512.08241493     
   1454331950.0890412        29878623.291963816        413566219.43110561     
   1316319442.0445628        34080622.134473562        398796261.37387586     
   1692909582.5872178        22241456.132481515        605003279.90101743     
   1551968469.5527751        24251149.096352935        591605742.94038975     
   1412086433.6296668        29791099.098004937        576973015.05768955     
   1273263474.8178864        38861306.137412012        561105096.25291121     
   1135499593.1174381        51461770.214603245        544001986.52605140     
   1802318879.1491921       -35000855.008965611       -13789978.435926246     
   1771380825.5954466       -16415237.497325063       -8312855.0910142977     
   1748520635.6632023        29096592.085997820       -41555997.255053706     
   1733738309.3524616        101534633.74098313       -113519404.92806882     
   1727033846.6632082        200898887.46761495       -224203078.11003783     
   1649729085.0604396       -9150690.4773110151        119900278.89288157     
   1527220372.7206659       -13974494.922833502        135433670.71486503     
   1408887350.5287964       -4879332.2086809278        124650534.04668131     
   1294730018.4848289        18134797.665142834        87550868.888334274     
   1184748376.5887537        55067894.698617995        24134675.239789311     
   1487729272.6922266        13876468.570492268        257429025.49615267     
   1309089150.1915381       -3724983.2446792722        278466150.07601088     
   1130722544.3651607       -20414712.812126875        285590483.18449444     
   952629455.21307039       -36192720.131961524        278802024.82158220     
   774809882.73530567       -51059005.204043806        258100774.98730424     
   1316319442.0445628        34080622.134473562        398796261.37387586     
   1116987158.0080698        14333297.537189364        420784582.99241590     
   914026217.17228556       -17509549.724392235        441263850.15837461     
   707436619.53723121       -61447919.650223643        460234062.87172318     
   497218365.10287285       -117481812.24037763        477695221.13248610     
   1135499593.1174381        51461770.214603245        544001986.52605140     
   950914396.17026317        40200347.422756612        562388969.46407914     
   758798368.95020580        3836157.0546459854        591670634.96830499     
   559151511.45725906       -57630800.889776021        631846983.03872776     
   351973823.69142818       -144200526.41046169        682918013.67535639     
   1727033846.6632082        200898887.46761495       -224203078.11003783     
   1456578160.0990975        184599241.34808898       -96604844.632910758     
   1153953269.6824961        61068915.720270693        60144038.722470962     
   819159175.41335750       -169692089.41600931        246043571.95614961     
   452195877.29175293       -507683774.06050909        461093755.06807518     
   1184748376.5887537        55067894.698617995        24134675.239789311     
   977672886.53396165        11843916.378063977        155559656.68108130     
   732776263.97534895       -157450503.62189144        312801292.98997259     
   450058508.91293335       -452815365.30122876        495859584.16646326     
   129519621.34669244       -874250668.65995061        704734530.21058404     
   774809882.73530567       -51059005.204043806        258100774.98730424     
   621588889.15934455       -124065025.73483205        386758587.63289434     
   424894834.42827392       -341981250.11599368        537899060.13543046     
   184727718.54205704       -704807678.34764433        711522192.49489486     
  -98912458.499273896       -1212544310.4296637        907627984.71129167     
   497218365.10287285       -117481812.24037763        477695221.13248610     
   388326167.97526467       -223127584.99051359        596991948.22252166     
   230308981.04122171       -492523323.76212150        735437340.15882528     
   23166804.300759017       -925669028.55514276        893031396.94139874     
  -233100362.24616721       -1522564699.3696551        1069774118.5702304     
   351973823.69142818       -144200526.41046169        682918013.67535639     
   277884722.98170406       -285343761.38909256        786259738.44996810     
   149018703.81423900       -609076724.56019366        905416133.06017864     
  -34624233.810984254       -1115399415.9238160        1040387197.5060052     
  -273044089.89394617       -1804311835.4799120        1191172931.7873962     
   4871861176.5339403        134856642.98481584        1082723032.0181220     
   4646959099.9780245        84452280.292666197        954939980.57477772     
   4425573191.9946260        45768479.508890867        859005484.28399289     
   4207703452.5837307        18805240.633467197        794919543.14575553     
   3993349881.7453537        3562563.6664297581        762682157.16007686     
   4188817656.3400202        35738166.685677290        1054426690.9732416     
   4042802142.8831801        13536875.079970121        970570369.52684999     
   3899149383.1438522       -788570.80070495605        909039063.52262831     
   3757859377.1220293       -7238170.9563498497        869832772.96057272     
   3618932124.8177176       -5811925.3869631290        852951497.84069347     
   3635085931.9069414       -24586770.885207176        1028548214.5514969     
   3540746868.0909362       -26748025.441947222        987272972.43788123     
   3447617143.1374416       -24878150.456988573        958799206.05605626     
   3355696757.0464554       -18977145.930334091        943126915.40601766     
   3264985709.8179798       -9045011.8619835377        940256100.48776877     
   3210666003.2346992       -46118169.727841258        1005087602.7528775     
   3140793275.6012988       -36402421.273081183        1005047789.3078765     
   3070976471.9754047       -26500259.459961653        1008285911.8842821     
   3001215592.3570123       -16411684.288481593        1014801970.4820890     
   2931510636.7461362       -6136695.7586371899        1024595965.1013054     
   2915557870.3233004       -28856029.842222452        984044855.57738471     
   2842941365.4142570       -15426312.413439512        1023894820.1368307     
   2769227369.6577263       -5654897.8096264601        1057499181.0072963     
   2694415883.0537047        458213.96922028065        1084857938.1887872     
   2618506905.6021843        2913022.9230767488        1105971091.6812959     
   3993349881.7453537        3562563.6664297581        762682157.16007686     
   3846802941.9407043        11521604.601945162        738283959.65130949     
   3698625368.8992205        14045201.414662361        721648774.52587545     
   3548817162.6209021        11133354.104595423        712776601.78377903     
   3397378323.1057425        2786062.6717350483        711667441.42501199     
   3618932124.8177176       -5811925.3869631290        852951497.84069347     
   3490629153.8787813        851014.73646426201        833580477.76681256     
   3361314688.6582165        4142307.2544710636        820779367.70139515     
   3230988729.1560245        4061952.1670547724        814548167.64443696     
   3099651275.3722105        609949.47422313690        814886877.59593856     
   3264985709.8179798       -9045011.8619835377        940256100.48776877     
   3151517843.8165388       -4700831.7291126251        926634586.62985694     
   3037657622.4886856       -1664502.6842848063        918389880.40553927     
   2923405045.8344154        63975.272494673729        915521981.81480420     
   2808760113.8537374        484602.14123225212        918030890.85765469     
   2931510636.7461362       -6136695.7586371899        1024595965.1013054     
   2829469011.7539811       -5133934.7947839499        1017446286.2404431     
   2727654170.3906250       -3375228.4015965462        1014480312.6382965     
   2626066112.6560669       -860576.57908737659        1015698044.2948647     
   2524704838.5503054        2410020.6727452278        1021099481.2101492     
   2618506905.6021843        2913022.9230767488        1105971091.6812959     
   2524482657.6911044       -448294.46055078506        1106015576.5985682     
   2431304332.3640385       -989869.89747095108        1109050664.3996799     
   2338971929.6209807        1288296.6122999191        1115076355.0846286     
   2247485449.4619360        6386205.0687870979        1124092648.6534212     
   3397378323.1057425        2786062.6717350483        711667441.42501199     
   3252289734.6129866       -4263529.0401055813        695680613.35542524     
   3108431311.9379282       -7212568.0262794495        684685427.86629951     
   2965803055.0805645       -6061054.2868202925        678681884.95762575     
   2824404964.0408978       -808987.82169449329        677669984.62941170     
   3099651275.3722105        609949.47422313690        814886877.59593856     
   2968162622.7575970       -3078854.8013733625        802377932.06900787     
   2837559238.9739366       -3816762.9737854004        794563266.76720119     
   2707841124.0212212       -1603775.0430535078        791442881.69053721     
   2579008277.8994603        3560108.9908533096        793016776.83900189     
   2808760113.8537374        484602.14123225212        918030890.85765469     
   2690021790.3877640       -98296.716971874237        908597448.05549943     
   2571823838.7660012        1120043.9055098295        903560923.12315428     
   2454166258.9884391        4139624.0086718798        902921316.06061554     
   2337049051.0550866        8960443.5925267935        906678626.86788678     
   2524704838.5503054        2410020.6727452278        1021099481.2101492     
   2417867237.5034862        4678145.2130914927        1014339161.3149025     
   2311225111.3141246        7597852.6116304398        1011678396.9341438     
   2204778459.9822268        11169142.868383169        1013117188.0678751     
   2098527283.5077827        15392015.983314514        1018655534.7160883     
   2247485449.4619360        6386205.0687870979        1124092648.6534212     
   2151698964.1047640        11250470.988819957        1119603071.8472190     
   2055763056.6183076        15616663.144569278        1118915688.2001777     
   1959677727.0025697        19484781.536046147        1122030497.7123017     
   1863442975.2575428        22854826.163231492        1128947500.3835878     
   2824404964.0408978       -808987.82169449329        677669984.62941170     
   2686425106.8221593        6706302.3718496561        665782489.75880599     
   2548031185.0486746        12841377.382894874        656744969.99786031     
   2409223198.7204523        17596237.211492658        650557425.34655511     
   2270001147.8374782        20970881.857584715        647219855.80490613     
   2579008277.8994603        3560108.9908533096        793016776.83900189     
   2448417132.9469676        9187069.9689047337        782165156.83936954     
   2317593839.9943132        14040204.279744387        774582954.83077359     
   2186538399.0415034        18119511.923403025        770270170.81321561     
   2055250810.0885258        21424992.899836421        769226804.78668833     
   2337049051.0550866        8960443.5925267935        906678626.86788678     
   2215045026.6013746        13058597.824855685        897075117.71957600     
   2092990770.7020783        16989313.905238509        891160469.44368279     
   1970886283.3572066        20752591.833702445        888934682.04020953     
   1848731564.5667546        24348431.610232234        890397755.50915694     
   2098527283.5077827        15392015.983314514        1018655534.7160883     
   1986308787.7853773        18320885.939680576        1010512372.3994318     
   1874221977.1719723        21688706.259379745        1006477513.8365886     
   1762266851.6675658        25495476.942415357        1006550959.0275455     
   1650443411.2721679        29741197.988798559        1010732707.9723140     
   1863442975.2575428        22854826.163231492        1128947500.3835878     
   1762208416.4989705        24973934.313379169        1122476920.8789401     
   1661287459.4039798        28138381.342127383        1120534088.0094867     
   1560680103.9725804        32348167.249510348        1123119001.7752228     
   1460386350.2047591        37603292.035498202        1130231662.1761537     
   2270001147.8374782        20970881.857584715        647219855.80490613     
   2125954183.9799755        22041616.943183541        630728891.83668745     
   1981756601.8190961        22610291.017526388        618195807.86330485     
   1837408401.3548427        22676904.080634356        609620603.88474560     
   1692909582.5872178        22241456.132481515        605003279.90101743     
   2055250810.0885258        21424992.899836421        769226804.78668833     
   1921631462.7892437        23528644.620193839        755404648.17586565     
   1787913075.5216410        25302163.112811446        745407489.69928777     
   1654095648.2857275        26745548.377721250        739235329.35694385     
   1520179181.0814898        27858800.414898217        736888167.14884615     
   1848731564.5667546        24348431.610232234        890397755.50915694     
   1725160171.3668623        27371101.227694273        879304580.97997093     
   1601541316.5337036        30235565.400951684        871903522.72442758     
   1477875000.0672894        32941824.130017698        868194580.74253964     
   1354161221.9676139        35489877.414877355        868177755.03429377     
   1650443411.2721679        29741197.988798559        1010732707.9723140     
   1536540309.7128303        33568986.765717030        1002428690.2489867     
   1422641324.8552804        37410497.881932914        997683906.93872261     
   1308746456.6995413        41265731.337514699        996498358.04151618     
   1194855705.2455945        45134687.132406712        998872043.55736780     
   1460386350.2047591        37603292.035498202        1130231662.1761537     
   1355771877.8271449        42122301.234230578        1124776975.9829347     
   1251213100.4863799        46826960.555792630        1122748642.3421764     
   1146710018.1824765        51717270.000225365        1124146661.2538853     
   1042262630.9154254        56793229.567497969        1128971032.7180676     
   1692909582.5872178        22241456.132481515        605003279.90101743     
   1551968469.5527751        24251149.096352935        591605742.94038975     
   1412086433.6296668        29791099.098004937        576973015.05768955     
   1273263474.8178864        38861306.137412012        561105096.25291121     
   1135499593.1174381        51461770.214603245        544001986.52605140     
   1520179181.0814898        27858800.414898217        736888167.14884615     
   1377371421.3223605        26519780.744729459        727501930.06106150     
   1234804536.2957892        25983676.849740028        718687781.63807166     
   1092478526.0017745        26250488.729940951        710445721.87987137     
   950393390.44032896        27320216.385381281        702775750.78645170     
   1354161221.9676139        35489877.414877355        868177755.03429377     
   1214650471.4462566        32351241.899376094        861848248.37746251     
   1074562393.2786918        27288180.896503210        857898109.97228765     
   933896987.46491528        20300694.406265914        856327339.81875598     
   792654254.00492847        11388782.428658545        857135937.91687715     
   1194855705.2455945        45134687.132406712        998872043.55736780     
   1063805619.9244819        41745532.560339570        994644697.88958514     
   931360004.57837701        33704611.238314211        994604000.06032121     
   797518859.20729661        21011923.166356325        998749950.06956935     
   662282183.81123030        3667468.3444565535        1007082547.9173247     
   1042262630.9154254        56793229.567497969        1128971032.7180676     
   924836866.75700665        54702652.727576405        1125891278.5974326     
   805197370.19483483        45232967.875141948        1128805451.9021809     
   683344141.22891140        28384175.010198027        1137713552.6323004     
   559277179.85923398        4156274.1327517629        1152615580.7878020     
   1135499593.1174381        51461770.214603245        544001986.52605140     
   950914396.17026317        40200347.422756612        562388969.46407914     
   758798368.95020580        3836157.0546459854        591670634.96830499     
   559151511.45725906       -57630800.889776021        631846983.03872776     
   351973823.69142818       -144200526.41046169        682918013.67535639     
   950393390.44032896        27320216.385381281        702775750.78645170     
   791387679.85399592        10552179.367802560        720878367.62677050     
   623726857.94244933       -35066228.733812571        749033586.99977934     
   447410924.70568383       -109535007.91950199        787241408.90549111     
   262439880.14370835       -212854158.18921095        835501833.34389305     
   792654254.00492847        11388782.428658545        857135937.91687715     
   656822086.82657921       -11607651.700489700        873642527.43175948     
   511210527.27067786       -67202060.421468258        899359639.44583762     
   355819575.33723199       -155394443.73427081        934287273.95911050     
   190649231.02623034       -276184801.63891768        978425430.97157168     
   662282183.81123030        3667468.3444565535        1007082547.9173247     
   547217617.08800137       -26279145.782120317        1020681448.8790568     
   421249376.93488300       -92571338.008337945        1042648792.3064740     
   284377463.35189950       -195209108.33410728        1072984578.1995857     
   136601876.33901855       -334192456.75952291        1111688806.5583913     
   559277179.85923398        4156274.1327517629        1152615580.7878020     
   462574270.63826376       -33462302.877128780        1161995131.9686482     
   353843406.93507355       -111174061.49440373        1178901045.5816910     
   233084588.74967706       -228979001.71903029        1203333321.6269288     
   100297816.08205333       -386877123.55108082        1235291960.1043489     
   351973823.69142818       -144200526.41046169        682918013.67535639     
   277884722.98170406       -285343761.38909256        786259738.44996810     
   149018703.81423900       -609076724.56019366        905416133.06017864     
  -34624233.810984254       -1115399415.9238160        1040387197.5060052     
  -273044089.89394617       -1804311835.4799120        1191172931.7873962     
   262439880.14370835       -212854158.18921095        835501833.34389305     
   223683914.17844313       -352517699.33004206        884904004.66375184     
   140698060.99986961       -639614197.84858942        945329372.75811350     
   13482320.607971549       -1074143653.7448788        1016777937.6269640     
  -157963306.99724215       -1656106067.0188782        1099249699.2703121     
   190649231.02623034       -276184801.63891768        978425430.97157168     
   173536476.77370137       -418475625.85144234        986192918.62184596     
   122740866.55228239       -673042636.62694466        1000192129.9855087     
   38262400.361966908       -1039885833.9654229        1020423065.0625609     
  -79898921.797229648       -1519005217.8668518        1046885723.8529937     
   136601876.33901855       -334192456.75952291        1111688806.5583913     
   127442410.76748276       -483217540.95329571        1090126480.3242447     
   95147120.471488029       -709362040.89526498        1070004404.7423815     
   39716005.451027155       -1012625956.5854378        1051322579.8127927     
  -38850934.293888330       -1393009288.0238264        1034081005.5354844     
   100297816.08205333       -386877123.55108082        1235291960.1043489     
   85401716.159787595       -546743444.63557208        1196704689.7709444     
   57916822.757478952       -748572410.65353966        1154766197.0287175     
   17843135.875128984       -992364021.60496736        1109476481.8776658     
  -34819344.487234831       -1278118277.4898078        1060835544.3177713     
   2915557870.3233004       -28856029.842222452        984044855.57738471     
   2842941365.4142570       -15426312.413439512        1023894820.1368307     
   2769227369.6577263       -5654897.8096264601        1057499181.0072963     
   2694415883.0537047        458213.96922028065        1084857938.1887872     
   2618506905.6021843        2913022.9230767488        1105971091.6812959     
   2659653477.1765647        11075515.187186837        1123181375.4954932     
   2572861040.4090977        13007017.197303772        1143834755.4975915     
   2485481265.1429834        12980724.211924672        1162482610.5480268     
   2397514151.3782196        10996636.231055498        1179124940.6468105     
   2308959699.1148067        7054753.2546802759        1193761745.7939360     
   2345652493.1514640        33578082.953088522        1259233600.4430082     
   2256798635.2036319        27645722.747957706        1261285573.6280699     
   2167867591.1059961        21456075.376808643        1265572100.5987947     
   2078859360.8585546        15009140.839639783        1272093181.3551888     
   1989773944.4613063        8304919.1364467144        1280848815.8972454     
   1973554918.2479949        38651673.455480337        1392201530.4199235     
   1894754149.7978625        28489804.238520861        1376247274.5282731     
   1816386347.5467677        19771155.685017109        1366767651.1596024     
   1738451511.4947085        12495727.794971585        1363762660.3139207     
   1660949641.6416879        6663520.5683811903        1367232301.9912248     
   1543360752.4661555        26296286.694357932        1522085165.4262466     
   1486727584.1917813        15539261.668983877        1488719858.1981897     
   1431037534.4652905        7925965.1365509629        1466069262.2304461     
   1376290603.2866786        3456397.0970438719        1454133377.5230079     
   1322486790.6559453        2130557.5504716635        1452912204.0758753     
   2618506905.6021843        2913022.9230767488        1105971091.6812959     
   2524482657.6911044       -448294.46055078506        1106015576.5985682     
   2431304332.3640385       -989869.89747095108        1109050664.3996799     
   2338971929.6209807        1288296.6122999191        1115076355.0846286     
   2247485449.4619360        6386205.0687870979        1124092648.6534212     
   2308959699.1148067        7054753.2546802759        1193761745.7939360     
   2223615400.6013136        4112825.9299265146        1191582451.8212492     
   2138882776.5380993        3209813.4394437075        1192992656.7954288     
   2054761826.9251697        4345715.7832392454        1197992360.7164805     
   1971252551.7625203        7520532.9612954855        1206581563.5843999     
   1989773944.4613063        8304919.1364467144        1280848815.8972454     
   1914820726.9540486        6295721.3531515598        1276172453.5452478     
   1840244935.7633452        5544611.2917071581        1275684486.2031534     
   1766046570.8891985        6051588.9521105289        1279384913.8709550     
   1692225632.3316004        7816654.3343541622        1287273736.5486562     
   1660949641.6416879        6663520.5683811903        1367232301.9912248     
   1598098636.7493224        6100391.8091448545        1359785581.7705734     
   1535390810.0397804        6014523.6593275070        1357126152.6228499     
   1472826161.5130646        6405916.1189296842        1359254014.5480542     
   1410404691.1691787        7274569.1879617572        1366169167.5461850     
   1322486790.6559453        2130557.5504716635        1452912204.0758753     
   1273449129.9871242        3526837.2978898883        1442421836.4972208     
   1224320399.3674035        4619550.5423076153        1437317656.0545211     
   1175100598.7967813        5408697.2837215662        1437599662.7477756     
   1125789728.2752571        5894277.5221224427        1443267856.5769925     
   2247485449.4619360        6386205.0687870979        1124092648.6534212     
   2151698964.1047640        11250470.988819957        1119603071.8472190     
   2055763056.6183076        15616663.144569278        1118915688.2001777     
   1959677727.0025697        19484781.536046147        1122030497.7123017     
   1863442975.2575428        22854826.163231492        1128947500.3835878     
   1971252551.7625203        7520532.9612954855        1206581563.5843999     
   1885310177.1125145        10840970.366568446        1201168993.5217328     
   1799333413.7749157        14046778.813196063        1199882891.2703543     
   1713322261.7497323        17137958.301206112        1202723256.8302732     
   1627276721.0369587        20114508.830583990        1209690090.2014852     
   1692225632.3316004        7816654.3343541622        1287273736.5486562     
   1617053867.3948550        9871212.9266881943        1281072378.9114912     
   1541962747.2122107        12194587.366032183        1279321763.7377553     
   1466952271.7836747        14786777.652400076        1282021891.0274489     
   1392022441.1092424        17647783.785782099        1289172760.7805688     
   1410404691.1691787        7274569.1879617572        1366169167.5461850     
   1346930034.9517851        8341198.6691827774        1359313228.0165067     
   1283651056.9301934        10060088.803079665        1357232305.6023870     
   1220567757.1043961        12431239.589624345        1359926400.3038309     
   1157680135.4744015        15454651.028843522        1367395512.1208367     
   1125789728.2752571        5894277.5221224427        1443267856.5769925     
   1074938679.7833109        6250927.5940660238        1435891540.8367722     
   1024398342.9288571        7643283.1243181825        1433614516.8642509     
   974168717.71189690        10071344.112882555        1436436784.6594241     
   924249804.13243747        13535110.559778035        1444358344.2222872     
   1863442975.2575428        22854826.163231492        1128947500.3835878     
   1762208416.4989705        24973934.313379169        1122476920.8789401     
   1661287459.4039798        28138381.342127383        1120534088.0094867     
   1560680103.9725804        32348167.249510348        1123119001.7752228     
   1460386350.2047591        37603292.035498202        1130231662.1761537     
   1627276721.0369587        20114508.830583990        1209690090.2014852     
   1537966637.9767234        22444255.805660486        1203903889.1282935     
   1448910213.3732877        25619530.970068693        1202714006.0744131     
   1360107447.2266414        29640334.323775172        1206120441.0398519     
   1271558339.5367866        34506665.866786003        1214123194.0246000     
   1392022441.1092424        17647783.785782099        1289172760.7805688     
   1314832751.9876990        20246945.057916820        1284001004.3975732     
   1237836778.1161640        23491823.830067694        1283494137.4180138     
   1161034519.4946241        27382420.102206409        1287652159.8418860     
   1084425976.1230845        31918733.874354899        1296475071.6692002     
   1157680135.4744015        15454651.028843522        1367395512.1208367     
   1092806758.5319002        18382002.070140064        1362768266.6867788     
   1028067153.6326102        21755259.922134101        1362874482.0402770     
   963461320.77652502        25574424.584814847        1367714158.1813357     
   898989259.96364975        29839496.058194101        1377287295.1099541     
   924249804.13243747        13535110.559778035        1444358344.2222872     
   871888657.60932183        16849426.842322707        1440205675.9959066     
   819601339.92263353        20409839.246287733        1440855039.9412110     
   767387851.07234836        24216347.771598518        1446306436.0581946     
   715248191.05848897        28268952.418328732        1456559864.3468626     
   1460386350.2047591        37603292.035498202        1130231662.1761537     
   1355771877.8271449        42122301.234230578        1124776975.9829347     
   1251213100.4863799        46826960.555792630        1122748642.3421764     
   1146710018.1824765        51717270.000225365        1124146661.2538853     
   1042262630.9154254        56793229.567497969        1128971032.7180676     
   1271558339.5367866        34506665.866786003        1214123194.0246000     
   1176201042.2261071        37668065.892870843        1209567069.7670639     
   1080812630.6581988        40725751.728196025        1209018791.2791646     
   985393104.83304965        43679723.372719526        1212478358.5608985     
   889942464.75066674        46529980.826458514        1219945771.6122558     
   1084425976.1230845        31918733.874354899        1296475071.6692002     
   999987263.07125235        34220947.485396147        1292716231.8375838     
   915430626.46808887        36130082.592006594        1293546730.9927628     
   830756066.31360269        37646139.194207519        1298966569.1347423     
   745963582.60779047        38769117.291983873        1308975746.2635190     
   898989259.96364975        29839496.058194101        1377287295.1099541     
   827130540.36256242        31780946.011755854        1374224462.1944783     
   755067087.91605997        33039953.147258580        1376332461.4829688     
   682798902.62413669        33616517.464699835        1383611292.9754238     
   610325984.48679495        33510638.964073390        1396060956.6718428     
   715248191.05848897        28268952.418328732        1456559864.3468626     
   657630874.10004771        30348061.471964806        1454091760.8377535     
   599722015.00209892        31455363.393905908        1457375982.7497804     
   541521613.76464808        31590858.184170842        1466412530.0829382     
   483029670.38768238        30754545.842727855        1481201402.8372228     
   1042262630.9154254        56793229.567497969        1128971032.7180676     
   924836866.75700665        54702652.727576405        1125891278.5974326     
   805197370.19483483        45232967.875141948        1128805451.9021809     
   683344141.22891140        28384175.010198027        1137713552.6323004     
   559277179.85923398        4156274.1327517629        1152615580.7878020     
   889942464.75066674        46529980.826458514        1219945771.6122558     
   787869808.22333574        43987966.137976855        1217165603.9308591     
   683582771.09035003        34064682.763977349        1220305769.5822752     
   577081353.35169744        16760130.704423726        1229366268.5665178     
   468365555.00738299       -7925690.0406715274        1244347100.8835697     
   745963582.60779047        38769117.291983873        1308975746.2635190     
   659033764.87568653        35712584.104205549        1306494408.7857769     
   569888918.33601499        25272621.557865113        1309859810.5483048     
   478529042.98876631        7449229.6529345512        1319071951.5510993     
   384954138.83394319       -17757591.610574767        1334130831.7941606     
   610325984.48679495        33510638.964073390        1396060956.6718428     
   538328736.71405101        29876506.626224160        1393877693.1622009     
   464115811.93182522        18856784.256779417        1397467574.8002746     
   387687210.14011490        451471.85571582615        1406830601.5860622     
   309042931.33891982       -25339430.576961413        1421966773.5195670     
   483029670.38768238        30754545.842727855        1481201402.8372228     
   425754723.73843122        26479733.704060808        1479315457.0601170     
   366263451.87779188        14817170.860763967        1483129062.3381770     
   304555854.80574983       -4233142.6872044951        1492642218.6713994     
   240631932.52231720       -30671206.939808518        1507854926.0597825     
   559277179.85923398        4156274.1327517629        1152615580.7878020     
   462574270.63826376       -33462302.877128780        1161995131.9686482     
   353843406.93507355       -111174061.49440373        1178901045.5816910     
   233084588.74967706       -228979001.71903029        1203333321.6269288     
   100297816.08205333       -386877123.55108082        1235291960.1043489     
   468365555.00738299       -7925690.0406715274        1244347100.8835697     
   390728681.29833651       -42068603.035107821        1242809457.3958035     
   302923263.15762913       -110106664.13508043        1247609556.3276114     
   204949300.58527303       -212039873.34053856        1258747397.6789932     
   96806793.581261232       -347868230.65153569        1276222981.4499497     
   384954138.83394319       -17757591.610574767        1334130831.7941606     
   322987243.45791584       -49443657.743246540        1323845305.3634245     
   252711213.70079169       -108826838.47957581        1318708901.3396564     
   174126049.56257814       -195907133.81953436        1318721619.7228379     
   87231751.043265849       -310684543.76315814        1323883460.5129805     
   309042931.33891982       -25339430.576961413        1421966773.5195670     
   259349957.11701620       -55587467.001516461        1405102675.8715208     
   203207258.56456617       -107334584.52789061        1392199080.6178155     
   140614835.68158334       -180580783.15603340        1383255987.7584486     
   71572688.468078241       -275326062.88592827        1378273397.2934337     
   240631932.52231720       -30671206.939808518        1507854926.0597825     
   199816822.27562156       -60500030.809951529        1486581568.9200773     
   154411397.74895149       -105629902.28001210        1468080094.1620979     
   104415658.94230610       -166060821.34998631        1452350501.7858446     
   49829605.855684802       -241792788.01988018        1439392791.7913196     
   100297816.08205333       -386877123.55108082        1235291960.1043489     
   85401716.159787595       -546743444.63557208        1196704689.7709444     
   57916822.757478952       -748572410.65353966        1154766197.0287175     
   17843135.875128984       -992364021.60496736        1109476481.8776658     
  -34819344.487234831       -1278118277.4898078        1060835544.3177713     
   96806793.581261232       -347868230.65153569        1276222981.4499497     
   79855286.712213486       -489030477.25846374        1221923476.6342065     
   51517693.943131834       -668146343.53217709        1165077787.0811160     
   11794015.273991644       -885215829.47275376        1105685912.7906642     
  -39315749.295184016       -1140238935.0801010        1043747853.7628117     
   87231751.043265849       -310684543.76315814        1323883460.5129805     
   70524944.860205203       -432452683.60265577        1255274880.0582309     
   43634760.357091546       -588165417.84232748        1184925152.5375729     
   6561197.5339119434       -777822746.48220909        1112834277.9510252     
  -40695743.609315872       -1001424669.5222626        1039002256.2985626     
   71572688.468078241       -275326062.88592827        1378273397.2934337     
   57410690.603752330       -377010063.66817605        1296758900.0429807     
   34268021.999359637       -508629633.58398277        1214308293.3981016     
   2144682.6548980772       -670184772.63334489        1130921577.3587914     
  -38959327.429631591       -861675480.81627929        1046598751.9250281     
   49829605.855684802       -241792788.01988018        1439392791.7913196     
   40512523.942846686       -322702617.45505893        1346375536.5884945     
   23417478.869936764       -429538990.75714374        1253227209.6627009     
  -1455529.3630618751       -562301907.92619085        1159947811.0139349     
  -34106500.756132215       -720991368.96213794        1066537340.6422015     
   1543360752.4661555        26296286.694357932        1522085165.4262466     
   1486727584.1917813        15539261.668983877        1488719858.1981897     
   1431037534.4652905        7925965.1365509629        1466069262.2304461     
   1376290603.2866786        3456397.0970438719        1454133377.5230079     
   1322486790.6559453        2130557.5504716635        1452912204.0758753     
   1100608315.9716330        2648581.1100528240        1504478586.8648748     
   1070089539.3335625       -1832366.0842746496        1483960687.5116932     
   1040278101.6618749       -3955516.7239889503        1471367744.8112755     
   1011174002.9565734       -3720870.8090862632        1466699758.7636170     
   982777243.21765530       -1128428.3395705819        1469956729.3687150     
   695797360.32090247       -9616680.2211128771        1486410223.4466124     
   683422247.86899722       -10212767.819438756        1478464655.7898970     
   671518694.80198133       -9236990.8014672101        1475654290.1783929     
   660086701.11985242       -6689349.1672044694        1477979126.6121011     
   649126266.82261395       -2569842.9166415036        1485439165.0910215     
   328927885.51396620       -10499497.299140349        1467880075.1714625     
   326725709.79809105       -9601943.5365051031        1472231763.0327964     
   324759313.88560909       -7918457.0958883017        1478928898.3317957     
   323028697.77651763       -5449037.9773051739        1487971481.0684621     
   321533861.47082233       -2193686.1807342023        1499359511.2427912     
  -108.44917756865094        129.87596826751349        1448888142.0394216     
  -74.879159466318868        106.76452524258664        1465262009.2403936     
  -41.087243817861591        84.392741398633262        1481191569.2714882     
  -7.0734318356792336        62.760610959596022        1496676822.1326976     
   27.162277967134038        41.868140616551223        1511717767.8240256     
   1322486790.6559453        2130557.5504716635        1452912204.0758753     
   1273449129.9871242        3526837.2978898883        1442421836.4972208     
   1224320399.3674035        4619550.5423076153        1437317656.0545211     
   1175100598.7967813        5408697.2837215662        1437599662.7477756     
   1125789728.2752571        5894277.5221224427        1443267856.5769925     
   982777243.21765530       -1128428.3395705819        1469956729.3687150     
   947350602.18830168        324255.69075626135        1461336206.8697503     
   911855659.08131981        1549266.1289893985        1457786495.9691274     
   876292413.89670730        2546602.9751220345        1459307596.6668537     
   840660866.63446450        3316266.2291507721        1465899508.9629252     
   649126266.82261395       -2569842.9166415036        1485439165.0910215     
   626409572.46812546       -1331076.4927851558        1478715050.1905611     
   603647343.90928113       -244090.75011867285        1476746371.3508353     
   580839581.14607739        691114.31135243177        1479533128.5718441     
   557986284.17851746        1474538.6916344464        1487075321.8535933     
   321533861.47082233       -2193686.1807342023        1499359511.2427912     
   310626040.82659894       -1439159.2527309060        1494558366.4596522     
   299695453.85128951       -760520.09501425922        1494197282.1996417     
   288742100.54489541       -157768.70757949352        1498276258.4627526     
   277765980.90741742        369094.90957467258        1506795295.2489903     
   27.162277967134038        41.868140616551223        1511717767.8240256     
   7.2637194793799464        7.4109158370467387        1508866155.6770272     
  -11.092653512767193       -21.905690276823211        1510139228.5155444     
  -27.906841466816868       -46.081679943979644        1515536986.3395760     
  -43.178840356685583       -65.117039050254860        1525059429.1491261     
   1125789728.2752571        5894277.5221224427        1443267856.5769925     
   1074938679.7833109        6250927.5940660238        1435891540.8367722     
   1024398342.9288571        7643283.1243181825        1433614516.8642509     
   974168717.71189690        10071344.112882555        1436436784.6594241     
   924249804.13243747        13535110.559778035        1444358344.2222872     
   840660866.63446450        3316266.2291507721        1465899508.9629252     
   802950037.08683598        3711988.8180126250        1459649506.3534076     
   765472241.93800187        4884492.7361886203        1458399055.9679236     
   728227481.18796897        6833777.9837041497        1462148157.8064713     
   691215754.83673799        9559844.5605559945        1470896811.8690457     
   557986284.17851746        1474538.6916344464        1487075321.8535933     
   533130703.45045149        1823842.7599764168        1481861008.9296341     
   508430479.88249046        2691004.0286689103        1481546508.6860456     
   483885613.47463256        4076022.4977064729        1486131821.1228197     
   459496104.22688019        5978898.1670947671        1495616946.2399673     
   277765980.90741742        369094.90957467258        1506795295.2489903     
   265480678.87416279        586489.41997724771        1502526048.5654466     
   253273056.76231787        1062817.0017459095        1503056875.0186086     
   241143114.57188368        1798077.6548834592        1508387774.6084731     
   229090852.30285949        2792271.3793871850        1518518747.3350406     
  -43.178840356685583       -65.117039050254860        1525059429.1491261     
  -36.642035605350209       -71.202003153360110        1521644625.2608504     
  -27.422513252835614       -68.344573864755873        1522930154.9656157     
  -15.520277714108367       -56.544767288776114        1528916018.2634261     
 -0.93532763951547260       -35.802580314356319        1539602215.1542740     
   924249804.13243747        13535110.559778035        1444358344.2222872     
   871888657.60932183        16849426.842322707        1440205675.9959066     
   819601339.92263353        20409839.246287733        1440855039.9412110     
   767387851.07234836        24216347.771598518        1446306436.0581946     
   715248191.05848897        28268952.418328732        1456559864.3468626     
   691215754.83673799        9559844.5605559945        1470896811.8690457     
   651241399.04780734        11834537.457171261        1467361624.5231204     
   611322414.45419753        14293801.004856110        1468792618.6593263     
   571458801.05589855        16937635.203579009        1475189794.2776737     
   531650558.85292345        19766040.053377807        1486553151.3781576     
   459496104.22688019        5978898.1670947671        1495616946.2399673     
   432377537.20200425        7354667.0867332220        1492677705.8598747     
   405295883.73134893        8853481.1871069521        1494868796.2723675     
   378251143.81490922        10475340.468200862        1502190217.4774625     
   351243317.45269102        12220244.930030122        1514641969.4751441     
   229090852.30285949        2792271.3793871850        1518518747.3350406     
   215297072.07191214        3409815.7310084403        1516153920.0061638     
   201521747.75408381        4088879.7930263728        1519083572.7803400     
   187764879.34938103        4829463.5654627532        1527307705.6575623     
   174026466.85779124        5631567.0482772291        1540826318.6378312     
 -0.93532763951547260       -35.802580314356319        1539602215.1542740     
   3.6575298193050463       -16.610006707963176        1537790266.9620008     
   6.5224068362407790       -3.1773686017420424        1541436948.1832306     
   7.6593086040244165        4.4953520073054420        1550542258.8179662     
   7.0682301586780145        6.4081392664755130        1565106198.8662105     
   715248191.05848897        28268952.418328732        1456559864.3468626     
   657630874.10004771        30348061.471964806        1454091760.8377535     
   599722015.00209892        31455363.393905908        1457375982.7497804     
   541521613.76464808        31590858.184170842        1466412530.0829382     
   483029670.38768238        30754545.842727855        1481201402.8372228     
   531650558.85292345        19766040.053377807        1486553151.3781576     
   488763766.28758645        21423230.255354613        1484866012.5445390     
   445658317.11654615        22351565.104984775        1488855086.7887158     
   402334211.33978969        22551044.602230325        1498520374.1106827     
   358791448.95732397        22021668.747109190        1513861874.5104444     
   351243317.45269102        12220244.930030122        1514641969.4751441     
   322869585.44235539        13390277.128915146        1513820828.4397802     
   294350082.36011136        14074405.754771575        1518599788.1388724     
   265684808.20595914        14272630.807601318        1528978848.5724237     
   236873762.97989234        13984952.287381858        1544958009.7404397     
   174026466.85779124        5631567.0482772291        1540826318.6378312     
   159948331.56435463        6249202.0926406235        1540956208.5234845     
   145797310.73280838        6623885.3433083147        1546610086.8002610     
   131573404.36315081        6755616.8002707362        1557787953.4681587     
   117276612.45538212        6644396.4635309651        1574489808.5271795     
   7.0682301586780145        6.4081392664755130        1565106198.8662105     
   4.6535861245064449        5.1465424412986671        1566272152.7956514     
   2.2346348672585012        3.8705888997566333        1572885982.7728753     
 -0.18863175673470489        2.5802508023970554        1584947688.7978911     
  -2.6162092638801906        1.2755424006404903        1602457270.8706899     
   483029670.38768238        30754545.842727855        1481201402.8372228     
   425754723.73843122        26479733.704060808        1479315457.0601170     
   366263451.87779188        14817170.860763967        1483129062.3381770     
   304555854.80574983       -4233142.6872044951        1492642218.6713994     
   240631932.52231720       -30671206.939808518        1507854926.0597825     
   358791448.95732397        22021668.747109190        1513861874.5104444     
   316511645.85757011        19018481.567192882        1510446703.3816912     
   272569598.85167938        10474481.366822213        1512573255.0915184     
   226965307.93965599       -3610331.8539924920        1520241529.6399291     
   179698773.12150735       -23235958.095223106        1533451527.0269303     
   236873762.97989234        13984952.287381858        1544958009.7404397     
   209138165.66798472        12118108.737704359        1540660041.4494917     
   180294405.75520220        6557389.8517793566        1541745967.7805655     
   150342483.24155435       -2697204.3703623787        1548215788.7336438     
   119282398.12703288       -15645673.928753749        1560069504.3087301     
   117276612.45538212        6644396.4635309651        1574489808.5271795     
   103634283.16967416        5778615.2155966200        1569955471.2635291     
   89437872.588354081        3065896.3156244047        1570647200.4053104     
   74687380.711432189       -1493760.2363553084        1576564995.9525232     
   59382807.538894273       -7900354.4403852969        1587708857.9051743     
  -2.6162092638801906        1.2755424006404903        1602457270.8706899     
  -1.6373602107854959        1.0008717298172318        1598332992.8237998     
 -0.64885994928691204       0.75836967200543159        1599276952.9657638     
  0.34929856626167827       0.54806248824971038        1605289151.2965877     
   1.3571024340927087       0.36990717265818041        1616369587.8162720     
   240631932.52231720       -30671206.939808518        1507854926.0597825     
   199816822.27562156       -60500030.809951529        1486581568.9200773     
   154411397.74895149       -105629902.28001210        1468080094.1620979     
   104415658.94230610       -166060821.34998631        1452350501.7858446     
   49829605.855684802       -241792788.01988018        1439392791.7913196     
   179698773.12150735       -23235958.095223106        1533451527.0269303     
   148461296.22226140       -45795419.353057384        1507746148.7545834     
   113781083.62987041       -79830666.254705757        1484958753.1495595     
   75658135.344321430       -125341698.80021544        1465089340.2118495     
   34092451.365621708       -182328516.98956093        1448137909.9414604     
   119282398.12703288       -15645673.928753749        1560069504.3087301     
   98039983.962659165       -30810543.758014202        1531270946.5883739     
   74502412.691951945       -53625937.275052316        1505536471.8209174     
   48669684.314914912       -84091854.479858235        1482866080.0063837     
   20541798.831543393       -122208295.37244292        1463259771.1447568     
   59382807.538894273       -7900354.4403852969        1587708857.9051743     
   48552885.496802971       -15545404.024858043        1557155962.4214251     
   36575384.935193539       -27015715.341056671        1529813250.1761730     
   23450305.854077440       -42311288.388943404        1505680721.1694314     
   9177648.2534520775       -61432123.168530472        1484758375.4012008     
   1.3571024340927087       0.36990717265818041        1616369587.8162720     
  0.82469864270962034      -0.15357298766005556        1585401196.2537465     
  0.35959966689351214      -0.45270168108685283        1557789088.2153239     
  -3.8179464168929367E-002 -0.52743193283551337        1533533263.7010043     
 -0.36865693647985909      -0.37782332207913438        1512633722.7107801     
   49829605.855684802       -241792788.01988018        1439392791.7913196     
   40512523.942846686       -322702617.45505893        1346375536.5884945     
   23417478.869936764       -429538990.75714374        1253227209.6627009     
  -1455529.3630618751       -562301907.92619085        1159947811.0139349     
  -34106500.756132215       -720991368.96213794        1066537340.6422015     
   34092451.365621708       -182328516.98956093        1448137909.9414604     
   29905337.967268124       -242170679.59267738        1347619178.2560103     
   19884752.182141781       -321457750.15170312        1246315878.6511309     
   4030694.0102525055       -420189728.66660792        1144228011.1268048     
  -17656836.548404872       -538366615.13739812        1041355575.6830510     
   20541798.831543393       -122208295.37244292        1463259771.1447568     
   19617521.957767852       -161542930.74049902        1357508135.5455344     
   14804263.470540941       -213840838.15339172        1250318435.8304200     
   6102023.3698539585       -279102017.61114913        1141690671.9994023     
  -6489198.3442864716       -357326469.11375421        1031624844.0524743     
   9177648.2534520775       -61432123.168530472        1484758375.4012008     
   9649075.9143600836       -80819370.898479566        1376042408.4570851     
   8176012.7351307049       -106688254.76222272        1265234881.2005939     
   4758458.7157521620       -139038774.75979626        1152335793.6317337     
  -603586.14376939833       -177870930.89117739        1037345145.7505232     
 -0.36865693647985909      -0.37782332207913438        1512633722.7107801     
 -0.16296872276575036       -6.6663067007924626E-002   1403221996.9906223     
  -2.4094508439713558E-002   2.1781775101541272E-002   1291065214.7616270     
   4.7941641499173751E-002 -0.11256762463554834        1176163376.0238085     
   5.3142838115431079E-002 -0.46969534488900516        1058516480.7771651     
  -108.44917756865094        129.87596826751349        1448888142.0394216     
  -74.879159466318868        106.76452524258664        1465262009.2403936     
  -41.087243817861591        84.392741398633262        1481191569.2714882     
  -7.0734318356792336        62.760610959596022        1496676822.1326976     
   27.162277967134038        41.868140616551223        1511717767.8240256     
  -328928125.48125291        10499653.727048770        1467880023.4436319     
  -326725887.37136734        9602044.5320309848        1472231719.7680266     
  -324759424.14784074        7918519.0491494685        1478928862.0045691     
  -323028735.81067359        5449077.2784033120        1487971450.1532571     
  -321533822.35986608        2193719.2197932154        1499359484.2140853     
  -695797605.93233538        9616738.5524271131        1486410114.3870587     
  -683422440.19107854        10212760.201286554        1478464568.8752518     
  -671518824.44443727        9236948.5347568095        1475654222.3576114     
  -660086758.69241154        6689303.5528469682        1477979074.8341422     
  -649126242.93500233        2569825.2555465102        1485439126.3048460     
  -1100608549.8024249       -2648615.6478965878        1504478414.8697195     
  -1070089733.3382924        1832253.7722876072        1483960556.5620666     
  -1040278241.9770315        3955372.8495702744        1471367650.3306139     
  -1011174075.7186444        3720741.5839404464        1466699696.1753576     
  -982777234.56312954        1128359.9754033685        1469956694.0962954     
  -1543360957.0915208       -26296408.873922229        1522084924.8915992     
  -1486727766.8130097       -15539474.754955828        1488719682.8284762     
  -1431037676.7456281       -7926208.0064244270        1466069145.9235761     
  -1376290686.8893738       -3456608.6283135414        1454133314.1769016     
  -1322486797.2442491       -2130676.6206375360        1452912187.5884459     
   27.162277967134038        41.868140616551223        1511717767.8240256     
   7.2637194793799464        7.4109158370467387        1508866155.6770272     
  -11.092653512767193       -21.905690276823211        1510139228.5155444     
  -27.906841466816868       -46.081679943979644        1515536986.3395760     
  -43.178840356685583       -65.117039050254860        1525059429.1491261     
  -321533822.35986608        2193719.2197932154        1499359484.2140853     
  -310626027.29699087        1439163.1695211530        1494558342.2953453     
  -299695465.57321042        760495.98893412948        1494197262.6521266     
  -288742137.18852878        157717.67801733315        1498276245.2844291     
  -277766042.14294612       -369171.76322922111        1506795290.1922543     
  -649126242.93500233        2569825.2555465102        1485439126.3048460     
  -626409554.93924415        1331071.0036711097        1478715013.9195318     
  -603647335.16386771        244089.35052514076        1476746341.0997424     
  -580839583.60887218       -691119.70389220119        1479533107.8454833     
  -557986300.27425814       -1474556.1595813036        1487075314.1567519     
  -982777234.56312954        1128359.9754033685        1469956694.0962954     
  -947350575.66304326       -324269.08664309978        1461336170.5495768     
  -911855619.86462653       -1549241.8209193945        1457786463.8583939     
  -876292367.16786826       -2546558.2273926139        1459307574.0227418     
  -840660817.57277906       -3316218.3060927391        1465899501.0426261     
  -1322486797.2442491       -2130676.6206375360        1452912187.5884459     
  -1273449089.4683907       -3526857.1014285684        1442421812.1854899     
  -1224320319.6754811       -4619497.5253826380        1437317630.9280753     
  -1175100487.8655176       -5408597.8924897313        1437599643.8162000     
  -1125789594.0385067       -5894158.2027727962        1443267850.8498647     
  -43.178840356685583       -65.117039050254860        1525059429.1491261     
  -36.642035605350209       -71.202003153360110        1521644625.2608504     
  -27.422513252835614       -68.344573864755873        1522930154.9656157     
  -15.520277714108367       -56.544767288776114        1528916018.2634261     
 -0.93532763951547260       -35.802580314356319        1539602215.1542740     
  -277766042.14294612       -369171.76322922111        1506795290.1922543     
  -265480729.72685051       -586575.87351959944        1502526054.3254008     
  -253273093.78278455       -1062901.5572425127        1503056888.9323478     
  -241143134.31074461       -1798148.8143847883        1508387794.0130885     
  -229090851.31073010       -2792317.6449458301        1518518769.5676253     
  -557986300.27425814       -1474556.1595813036        1487075314.1567519     
  -533130719.46243453       -1823869.5402859449        1481861020.6307940     
  -508430494.27737617       -2691035.0102076530        1481546534.4593856     
  -483885624.71908557       -4076052.5693579316        1486131855.6425323     
  -459496110.78756171       -5978922.2177284658        1495616984.1802285     
  -840660817.57277906       -3316218.3060927391        1465899501.0426261     
  -802950005.84878159       -3711952.2022765875        1459649524.1770270     
  -765472228.90628684       -4884468.7034683228        1458399091.5467365     
  -728227486.74530244       -6833767.8096938133        1462148203.1517520     
  -691215779.36582422       -9559849.5209428370        1470896858.9920769     
  -1125789594.0385067       -5894158.2027727962        1443267850.8498647     
  -1074938588.8858883       -6250823.8594885468        1435891564.9640980     
  -1024398297.6695180       -7643202.6370268464        1433614560.1943955     
  -974168720.38939798       -10071294.535400331        1436436836.5407541     
  -924249857.04552388       -13535099.554594994        1444358394.0031757     
 -0.93532763951547260       -35.802580314356319        1539602215.1542740     
   3.6575298193050463       -16.610006707963176        1537790266.9620008     
   6.5224068362407790       -3.1773686017420424        1541436948.1832306     
   7.6593086040244165        4.4953520073054420        1550542258.8179662     
   7.0682301586780145        6.4081392664755130        1565106198.8662105     
  -229090851.31073010       -2792317.6449458301        1518518769.5676253     
  -215297065.75591189       -3409839.3379824013        1516153935.8124416     
  -201521737.98991060       -4088886.9937410727        1519083582.8188663     
  -187764868.01271385       -4829460.6121835709        1527307710.5868928     
  -174026455.82432526       -5631560.1933180764        1540826319.1165283     
  -459496110.78756171       -5978922.2177284658        1495616984.1802285     
  -432377540.41907281       -7354683.6408855021        1492677732.7911668     
  -405295883.90022647       -8853491.2295192927        1494868813.5118113     
  -378251141.23101366       -10475344.983598918        1502190226.3421636     
  -351243312.41144228       -12220244.903147236        1514641971.2822223     
  -691215779.36582422       -9559849.5209428370        1470896858.9920769     
  -651241420.33194721       -11834549.518703490        1467361657.8981698     
  -611322431.20853746       -14293815.884692937        1468792640.2620707     
  -571458811.99559236       -16937648.618896335        1475189806.0837808     
  -531650562.69311994       -19766047.721342921        1486553155.3632975     
  -924249857.04552388       -13535099.554594994        1444358394.0031757     
  -871888705.49453473       -16849436.971428752        1440205711.1334522     
  -819601379.91484571       -20409860.959265798        1440855063.0696416     
  -767387880.30645084       -24216371.518084317        1446306449.8117361     
  -715248206.66935611       -28268968.647899479        1456559871.3597424     
   7.0682301586780145        6.4081392664755130        1565106198.8662105     
   4.6535861245064449        5.1465424412986671        1566272152.7956514     
   2.2346348672585012        3.8705888997566333        1572885982.7728753     
 -0.18863175673470489        2.5802508023970554        1584947688.7978911     
  -2.6162092638801906        1.2755424006404903        1602457270.8706899     
  -174026455.82432526       -5631560.1933180764        1540826319.1165283     
  -159948324.17949432       -6249195.5006942004        1540956208.0575979     
  -145797307.20508569       -6623879.7094811276        1546610085.7764292     
  -131573404.90110157       -6755612.8196807727        1557787952.2730138     
  -117276617.26753175       -6644394.8312629946        1574489807.5473642     
  -351243312.41144228       -12220244.903147236        1514641971.2822223     
  -322869581.76435506       -13390274.773464933        1513820828.1244595     
  -294350080.45380300       -14074402.432236016        1518599786.4744275     
  -265684808.47978553       -14272627.879453063        1528978846.3321311     
  -236873765.84230191       -13984951.115116008        1544958007.6975625     
  -531650562.69311994       -19766047.721342921        1486553155.3632975     
  -488763768.10100096       -21423232.671784520        1484866012.9962380     
  -445658317.51152259       -22351564.297695354        1488855084.8668799     
  -402334210.92469496       -22551042.599108100        1498520370.9752254     
  -358791448.34050775       -22021667.575989753        1513861871.3212812     
  -715248206.66935611       -28268968.647899479        1456559871.3597424     
  -657630883.18941963       -30348069.195609301        1454091762.6729214     
  -599722018.37824571       -31455365.305862397        1457375980.9537785     
  -541521612.23582470       -31590856.978622556        1466412526.2023103     
  -483029664.76216102       -30754544.213911027        1481201398.4185243     
  -2.6162092638801906        1.2755424006404903        1602457270.8706899     
  -1.6373602107854959        1.0008717298172318        1598332992.8237998     
 -0.64885994928691204       0.75836967200543159        1599276952.9657638     
  0.34929856626167827       0.54806248824971038        1605289151.2965877     
   1.3571024340927087       0.36990717265818041        1616369587.8162720     
  -117276617.26753175       -6644394.8312629946        1574489807.5473642     
  -103634286.31055300       -5778614.3321523517        1569955470.7939725     
  -89437873.970841274       -3065895.8905998096        1570647200.2717147     
  -74687380.248384908        1493760.4934355915        1576564995.9805965     
  -59382805.143194355        7900354.8199182488        1587708857.9206192     
  -236873765.84230191       -13984951.115116008        1544958007.6975625     
  -209138167.64353344       -12118108.663129374        1540660040.5062616     
  -180294406.68894437       -6557390.3584074900        1541745967.5883870     
  -150342482.97852805        2697203.7990703881        1548215788.9439297     
  -119282396.51229027        15645673.809289590        1560069504.5728943     
  -358791448.34050775       -22021667.575989753        1513861871.3212812     
  -316511645.63629144       -19018481.992034689        1510446701.9606786     
  -272569598.80316228       -10474482.645035461        1512573254.9157801     
  -226965307.84113634        3610330.4649525136        1520241530.1865783     
  -179698772.75018519        23235957.338024557        1533451527.7730885     
  -483029664.76216102       -30754544.213911027        1481201398.4185243     
  -425754720.28883237       -26479734.318874851        1479315455.1572211     
  -366263450.31350529       -14817172.750512600        1483129062.2538970     
  -304555854.83619410        4233140.4911301881        1492642219.7085607     
  -240631933.85688147        30671205.406112447        1507854927.5212007     
   1.3571024340927087       0.36990717265818041        1616369587.8162720     
  0.82469864270962034      -0.15357298766005556        1585401196.2537465     
  0.35959966689351214      -0.45270168108685283        1557789088.2153239     
  -3.8179464168929367E-002 -0.52743193283551337        1533533263.7010043     
 -0.36865693647985909      -0.37782332207913438        1512633722.7107801     
  -59382805.143194355        7900354.8199182488        1587708857.9206192     
  -48552883.934410542        15545403.910418082        1557155962.4099913     
  -36575384.152597606        27015714.911018081        1529813250.1883261     
  -23450305.797749095        42311287.821736857        1505680721.2556360     
  -9177648.8698680177        61432122.642563492        1484758375.6119130     
  -119282396.51229027        15645673.809289590        1560069504.5728943     
  -98039982.805555776        30810543.740776688        1531270946.7041614     
  -74502412.020059511        53625937.268133476        1505536471.8892748     
  -48669684.155806921        84091854.391346276        1482866080.1282289     
  -20541799.212791882        122208295.11043645        1463259771.4210186     
  -179698772.75018519        23235957.338024557        1533451527.7730885     
  -148461295.78872278        45795419.337542921        1507746149.1362720     
  -113781083.24277651        79830666.618678182        1484958753.3181655     
  -75658135.112340495        125341699.18144608        1465089340.3187709     
  -34092451.397424333        182328517.02581018        1448137910.1380942     
  -240631933.85688147        30671205.406112447        1507854927.5212007     
  -199816822.88392076        60500030.700693175        1486581569.7063150     
  -154411397.82074878        105629902.96264961        1468080094.4750130     
  -104415658.66737285        166060822.19195041        1452350501.8272858     
  -49829605.423780009        241792788.38864028        1439392791.7631447     
 -0.36865693647985909      -0.37782332207913438        1512633722.7107801     
 -0.16296872276575036       -6.6663067007924626E-002   1403221996.9906223     
  -2.4094508439713558E-002   2.1781775101541272E-002   1291065214.7616270     
   4.7941641499173751E-002 -0.11256762463554834        1176163376.0238085     
   5.3142838115431079E-002 -0.46969534488900516        1058516480.7771651     
  -9177648.8698680177        61432122.642563492        1484758375.6119130     
  -9649076.2316695154        80819370.677783787        1376042408.5814130     
  -8176012.8249827698        106688254.60796769        1265234881.2253480     
  -4758458.6498271897        139038774.43304563        1152335793.5437253     
   603586.29381627589        177870930.15308452        1037345145.5365295     
  -20541799.212791882        122208295.11043645        1463259771.4210186     
  -19617522.189895511        161542930.45535979        1357508135.7213783     
  -14804263.563202381        213840837.81293419        1250318435.8794394     
  -6102023.3327237070        279102017.18313390        1141690671.8952086     
   6489198.5015472174        357326468.56596839        1031624843.7686859     
  -34092451.397424333        182328517.02581018        1448137910.1380942     
  -29905338.037640050        242170679.26608020        1347619178.4105051     
  -19884752.238747716        321457749.63671303        1246315878.7238905     
  -4030694.0007544458        420189728.13767523        1144228011.0782471     
   17656836.676337123        538366614.76897645        1041355575.4735891     
  -49829605.423780009        241792788.38864028        1439392791.7631447     
  -40512523.774910137        322702617.10992962        1346375536.6488054     
  -23417478.851619095        429538990.07928729        1253227209.7587149     
   1455529.3460783958        562301907.29666734        1159947811.0928609     
   34106500.818192810        720991368.76210439        1066537340.6512507     
  -1543360957.0915208       -26296408.873922229        1522084924.8915992     
  -1486727766.8130097       -15539474.754955828        1488719682.8284762     
  -1431037676.7456281       -7926208.0064244270        1466069145.9235761     
  -1376290686.8893738       -3456608.6283135414        1454133314.1769016     
  -1322486797.2442491       -2130676.6206375360        1452912187.5884459     
  -1973555116.1308334       -38651806.957307577        1392201365.1937497     
  -1894754310.8678813       -28489967.516048670        1376247154.5623846     
  -1816386462.1272557       -19771316.482555866        1366767579.8403003     
  -1738451569.9089625       -12495853.856835127        1363762641.0274987     
  -1660949634.2130048       -6663579.6388969421        1367232338.1239781     
  -2345652801.4061084       -33578262.911478519        1259233537.3801148     
  -2256798864.7271132       -27645863.218443036        1261285525.8174362     
  -2167867740.8816543       -21456172.970520020        1265572080.9151013     
  -2078859429.8697286       -15009192.167712927        1272093202.6731012     
  -1989773931.6913359       -8304920.8100155592        1280848891.0914445     
  -2659654012.9173388       -11075776.736436725        1123181441.4506848     
  -2572861428.3907142       -13007161.862151384        1143834796.5936294     
  -2485481513.0088224       -12980777.470319152        1162482649.1479719     
  -2397514266.7716708       -10996623.560943961        1179124999.1137085     
  -2308959689.6792526       -7054700.1340167522        1193761846.4908438     
  -2915558750.6645308        28855651.567814946        984045077.40547526     
  -2842942001.8586779        15426136.552834749        1023894966.8909677     
  -2769227778.5087590        5654870.0180609226        1057499284.5389161     
  -2694416080.6147833       -458148.03652000427        1084858030.3493207     
  -2618506908.1767435       -2912917.6108868122        1105971204.3221798     
  -1322486797.2442491       -2130676.6206375360        1452912187.5884459     
  -1273449089.4683907       -3526857.1014285684        1442421812.1854899     
  -1224320319.6754811       -4619497.5253826380        1437317630.9280753     
  -1175100487.8655176       -5408597.8924897313        1437599643.8162000     
  -1125789594.0385067       -5894158.2027727962        1443267850.8498647     
  -1660949634.2130048       -6663579.6388969421        1367232338.1239781     
  -1598098576.5003552       -6100380.1738545299        1359785598.1842518     
  -1535390701.6222413       -6014456.8239365220        1357126153.2936361     
  -1472826009.5786674       -6405809.5891447663        1359254003.4521265     
  -1410404500.3696287       -7274438.4694777131        1366169148.6597259     
  -1989773931.6913359       -8304920.8100155592        1280848891.0914445     
  -1914820664.3174181       -6295683.4818050861        1276172500.9547648     
  -1840244824.6296287       -5544538.4406852722        1275684506.7707601     
  -1766046412.6279595       -6051485.6866325140        1279384908.5394309     
  -1692225428.3124135       -7816525.2196646929        1287273706.2607756     
  -2308959689.6792526       -7054700.1340167522        1193761846.4908438     
  -2223615352.9195871       -4112767.0252950191        1191582520.4970253     
  -2138882688.6976366       -3209742.3756133318        1192992691.3594496     
  -2054761697.0133963       -4345626.1849701405        1197992359.0781145     
  -1971252377.8668640       -7520418.4533565044        1206581523.6530230     
  -2618506908.1767435       -2912917.6108868122        1105971204.3221798     
  -2524482642.3068542        448369.19569575787        1106015656.8110356     
  -2431304293.8262701        989931.37126326561        1109050707.0597024     
  -2338971862.7349787       -1288231.0841468573        1115076355.0681782     
  -2247485349.0329857       -6386118.1705529690        1124092600.8364630     
  -1125789594.0385067       -5894158.2027727962        1443267850.8498647     
  -1074938588.8858883       -6250823.8594885468        1435891564.9640980     
  -1024398297.6695180       -7643202.6370268464        1433614560.1943955     
  -974168720.38939798       -10071294.535400331        1436436836.5407541     
  -924249857.04552388       -13535099.554594994        1444358394.0031757     
  -1410404500.3696287       -7274438.4694777131        1366169148.6597259     
  -1346929907.7248960       -8341085.4177435637        1359313224.0720165     
  -1283650995.8271618       -10060001.522669077        1357232312.1217694     
  -1220567764.6764231       -12431186.784251988        1359926412.8089814     
  -1157680214.2726786       -15454641.202479124        1367395526.1336565     
  -1692225428.3124135       -7816525.2196646929        1287273706.2607756     
  -1617053729.5430050       -9871097.8697341084        1281072348.3585868     
  -1541962678.3313375       -12194495.712276757        1279321734.6152577     
  -1466952274.6774135       -14786718.747299671        1282021865.0307877     
  -1392022518.5812292       -17647766.974781811        1289172739.6051788     
  -1971252377.8668640       -7520418.4533565044        1206581523.6530230     
  -1885310054.3402097       -10840861.215449095        1201168937.8238144     
  -1799333345.1820431       -14046685.205840468        1199882827.6748681     
  -1713322250.3923662       -17137890.424529433        1202723193.2061737     
  -1627276769.9711781       -20114476.871510744        1209690034.4177461     
  -2247485349.0329857       -6386118.1705529690        1124092600.8364630     
  -2151698882.1165147       -11250375.454900742        1119602992.4676967     
  -2055762996.3792782       -15616570.003358006        1118915591.3005905     
  -1959677691.8212843       -19484701.815962791        1122030397.3351386     
  -1863442968.4425151       -22854770.892646313        1128947410.5713482     
  -924249857.04552388       -13535099.554594994        1444358394.0031757     
  -871888705.49453473       -16849436.971428752        1440205711.1334522     
  -819601379.91484571       -20409860.959265798        1440855063.0696416     
  -767387880.30645084       -24216371.518084317        1446306449.8117361     
  -715248206.66935611       -28268968.647899479        1456559871.3597424     
  -1157680214.2726786       -15454641.202479124        1367395526.1336565     
  -1092806826.9017258       -18382010.849362969        1362768277.8436265     
  -1028067209.1038797       -21755279.073258400        1362874491.2776675     
  -963461360.87913179       -25574445.874156058        1367714166.4357824     
  -898989282.22749126       -29839511.252078801        1377287303.3179684     
  -1392022518.5812292       -17647766.974781811        1289172739.6051788     
  -1314832818.4812744       -20246945.778997779        1284000991.6927350     
  -1237836831.5562332       -23491835.166246772        1283494132.4225256     
  -1161034557.8060992       -27382435.136523724        1287652161.7945523     
  -1084425997.2308741       -31918745.689835787        1296475079.8088129     
  -1627276769.9711781       -20114476.871510744        1209690034.4177461     
  -1537966680.2331865       -22444241.760351539        1203903852.6807752     
  -1448910247.2719123       -25619529.238239586        1202713986.5042093     
  -1360107471.0873528       -29640339.305178940        1206120435.8880379     
  -1271558351.6795018       -34506671.961151123        1214123200.8322690     
  -1863442968.4425151       -22854770.892646313        1128947410.5713482     
  -1762208412.1574528       -24973898.793401718        1122476860.8077524     
  -1661287456.2509091       -28138361.289221823        1120534053.5227194     
  -1560680100.7228839       -32348158.380104244        1123118988.7162502     
  -1460386345.5733821       -37603290.066062391        1130231666.3883381     
  -715248206.66935611       -28268968.647899479        1456559871.3597424     
  -657630883.18941963       -30348069.195609301        1454091762.6729214     
  -599722018.37824571       -31455365.305862397        1457375980.9537785     
  -541521612.23582470       -31590856.978622556        1466412526.2023103     
  -483029664.76216102       -30754544.213911027        1481201398.4185243     
  -898989282.22749126       -29839511.252078801        1377287303.3179684     
  -827130554.03046679       -31780954.779168904        1374224466.7306049     
  -755067093.41160893       -33039956.900154680        1376332462.8762534     
  -682798900.37093747       -33616517.615088552        1383611291.7549179     
  -610325974.90843964       -33510636.923940182        1396060953.3666043     
  -1084425997.2308741       -31918745.689835787        1296475079.8088129     
  -999987276.41578460       -34220955.825982988        1292716238.2599120     
  -915430632.08829248       -36130087.587462962        1293546735.2093620     
  -830756064.24839962       -37646140.974272668        1298966570.6571691     
  -745963572.89610076       -38769115.986394107        1308975744.6033323     
  -1271558351.6795018       -34506671.961151123        1214123200.8322690     
  -1176201050.3453882       -37668072.336099565        1209567077.2608423     
  -1080812634.4082882       -40725757.367768288        1209018797.9531047     
  -985393103.86820805       -43679727.056164086        1212478362.9090652     
  -889942458.72513676       -46529981.401258796        1219945772.1287172     
  -1460386345.5733821       -37603290.066062391        1130231666.3883381     
  -1355771875.8192663       -42122304.309481740        1124776983.7333925     
  -1251213100.3715909       -46826966.241042256        1122748651.1074789     
  -1146710019.2303579       -51717275.860735357        1124146668.5105989     
  -1042262632.3955543       -56793233.168537974        1128971035.9427521     
  -483029664.76216102       -30754544.213911027        1481201398.4185243     
  -425754720.28883237       -26479734.318874851        1479315455.1572211     
  -366263450.31350529       -14817172.750512600        1483129062.2538970     
  -304555854.83619410        4233140.4911301881        1492642219.7085607     
  -240631933.85688147        30671205.406112447        1507854927.5212007     
  -610325974.90843964       -33510636.923940182        1396060953.3666043     
  -538328730.33633542       -29876506.010489017        1393877691.4852402     
  -464115808.63260019       -18856784.658269435        1397467574.4714746     
  -387687209.79722303       -451472.86723694205        1406830602.3253059     
  -309042933.83020675        25339429.362587228        1421966775.0467243     
  -745963572.89610076       -38769115.986394107        1308975744.6033323     
  -659033758.19775462       -35712583.046288013        1306494407.6698306     
  -569888914.73813379       -25272620.901932031        1309859810.1135347     
  -478529042.51723135       -7449229.5533047616        1319071951.9344480     
  -384954141.53504968        17757590.999586672        1334130833.1325676     
  -889942458.72513676       -46529981.401258796        1219945772.1287172     
  -787869803.87308371       -43987965.426258296        1217165603.7109849     
  -683582768.63011420       -34064681.481528282        1220305769.1800742     
  -577081352.99621761       -16760129.567045897        1229366268.5359836     
  -468365556.97140980        7925690.3171409965        1244347101.7787187     
  -1042262632.3955543       -56793233.168537974        1128971035.9427521     
  -924836867.36232638       -54702653.150396049        1125891279.6087055     
  -805197370.30854356       -45232966.397067517        1128805451.6710978     
  -683344141.23419213       -28384172.908512175        1137713552.1299279     
  -559277180.13928103       -4156272.6847580075        1152615580.9851825     
  -240631933.85688147        30671205.406112447        1507854927.5212007     
  -199816822.88392076        60500030.700693175        1486581569.7063150     
  -154411397.82074878        105629902.96264961        1468080094.4750130     
  -104415658.66737285        166060822.19195041        1452350501.8272858     
  -49829605.423780009        241792788.38864028        1439392791.7631447     
  -309042933.83020675        25339429.362587228        1421966775.0467243     
  -259349958.63381204        55587466.738919586        1405102676.8257446     
  -203207259.22109935        107334584.83632679        1392199081.0972610     
  -140614835.59208018        180580783.65475115        1383255987.8612766     
  -71572687.746741772        275326063.19423908        1378273397.1177950     
  -384954141.53504968        17757590.999586672        1334130833.1325676     
  -322987245.23258889        49443657.522487015        1323845306.3192720     
  -252711214.58771080        108826838.52011733        1318708901.9073935     
  -174126049.60041749        195907133.99246252        1318721619.8969340     
  -87231750.270709440        310684543.93952274        1323883460.2878976     
  -468365556.97140980        7925690.3171409965        1244347101.7787187     
  -390728682.68025571        42068603.051384076        1242809458.1868963     
  -302923263.92058736        110106664.01401921        1247609556.9054148     
  -204949300.69239771        212039873.20505446        1258747397.9342730     
  -96806792.995680451        347868230.62451202        1276222981.2734690     
  -559277180.13928103       -4156272.6847580075        1152615580.9851825     
  -462574270.97680670        33462303.325615913        1161995132.4286239     
  -353843407.21971142        111174061.31807345        1178901046.0913208     
  -233084588.86799371        228979001.29260173        1203333321.9732792     
  -100297815.92165744        386877123.24918622        1235291960.0744958     
  -49829605.423780009        241792788.38864028        1439392791.7631447     
  -40512523.774910137        322702617.10992962        1346375536.6488054     
  -23417478.851619095        429538990.07928729        1253227209.7587149     
   1455529.3460783958        562301907.29666734        1159947811.0928609     
   34106500.818192810        720991368.76210439        1066537340.6512507     
  -71572687.746741772        275326063.19423908        1378273397.1177950     
  -57410690.195844740        377010063.45020235        1296758899.9978037     
  -34268021.825109690        508629633.10562640        1214308293.4548192     
  -2144682.6345405877        670184772.16051376        1130921577.4888489     
   38959327.375870407        861675480.61484575        1046598752.0998818     
  -87231750.270709440        310684543.93952274        1323883460.2878976     
  -70524944.381308824        432452683.46112287        1255274879.9652443     
  -43634760.126652211        588165417.53357649        1184925152.5723674     
  -6561197.5067361891        777822746.15689063        1112834278.1092646     
   40695743.478440106        1001424669.3310680        1039002256.5759255     
  -96806792.995680451        347868230.62451202        1276222981.2734690     
  -79855286.331299752        489030477.14268857        1221923476.5511420     
  -51517693.756242663        668146343.36312556        1165077787.1113558     
  -11794015.270512640        885215829.28580499        1105685912.9541006     
   39315749.125898600        1140238934.9107504        1043747854.0793841     
  -100297815.92165744        386877123.24918622        1235291960.0744958     
  -85401716.045828938        546743444.49487293        1196704689.7554824     
  -57916822.713906318        748572410.59420943        1154766197.0717754     
  -17843135.925882816        992364021.54721689        1109476482.0233774     
   34819344.318244696        1278118277.3538990        1060835544.6102759     
  -2915558750.6645308        28855651.567814946        984045077.40547526     
  -2842942001.8586779        15426136.552834749        1023894966.8909677     
  -2769227778.5087590        5654870.0180609226        1057499284.5389161     
  -2694416080.6147833       -458148.03652000427        1084858030.3493207     
  -2618506908.1767435       -2912917.6108868122        1105971204.3221798     
  -3210666987.7895741        46118003.112867475        1005087534.1313044     
  -3140794032.3776293        36402281.506787539        1005047770.3339021     
  -3070976997.7104745        26500157.418085933        1008285938.8228289     
  -3001215883.7881088        16411630.846749067        1014802039.5980785     
  -2931510690.6105266        6136701.7927987576        1024596072.6596589     
  -3635086591.7557793        24586944.605574846        1028547778.4014246     
  -3540747417.9552546        26748019.943143129        987272733.48413944     
  -3447617560.1883779        24878041.835253000        958799124.97704947     
  -3355697018.4551344        18977010.281911373        943126952.88015997     
  -3264985792.7555213        9044925.2831254005        940256217.19346571     
  -4188817562.5631466       -35737523.954068184        1054425810.2158417     
  -4042802158.5915637       -13536648.138108730        970569856.34167969     
  -3899149465.9424686        788523.26956605911        909038843.00159025     
  -3757859484.6158519        7237990.2689712048        869832770.19556439     
  -3618932214.6117210        5811752.8600885868        852951637.92361319     
  -4871859900.2116756       -134855402.56605959        1082721629.5745478     
  -4646958254.2865353       -84451722.736956120        954939138.90652215     
  -4425572714.9727392       -45768398.278975487        859005092.89643717     
  -4207703282.2702713       -18805429.192094088        794919491.54429138     
  -3993349956.1791306       -3562815.4763112068        762682334.85008824     
  -2618506908.1767435       -2912917.6108868122        1105971204.3221798     
  -2524482642.3068542        448369.19569575787        1106015656.8110356     
  -2431304293.8262701        989931.37126326561        1109050707.0597024     
  -2338971862.7349787       -1288231.0841468573        1115076355.0681782     
  -2247485349.0329857       -6386118.1705529690        1124092600.8364630     
  -2931510690.6105266        6136701.7927987576        1024596072.6596589     
  -2829469053.2374959        5133939.7574371099        1017446372.5429237     
  -2727654198.1350937        3375236.8199814558        1014480371.7092440     
  -2626066125.3033161        860592.98043799400        1015698070.1586231     
  -2524704834.7421737       -2409991.7612136602        1021099467.8910550     
  -3264985792.7555213        9044925.2831254005        940256217.19346571     
  -3151517922.3843555        4700772.8543231487        926634688.77625883     
  -3037657699.1651468        1664463.2523212433        918389961.16535306     
  -2923405123.0978928       -64003.522858858109        915522034.36074924     
  -2808760194.1826029       -484627.47124195099        918030908.36245108     
  -3618932214.6117210        5811752.8600885868        852951637.92361319     
  -3490629249.7474313       -851131.51366424561        833580605.51104474     
  -3361314796.9164276       -4142389.3317039013        820779475.42802501     
  -3230988856.1187091       -4062020.5940291882        814548247.67455745     
  -3099651427.3542790       -610025.30064666271        814886922.25063598     
  -3993349956.1791306       -3562815.4763112068        762682334.85008824     
  -3846803035.3267245       -11521773.346509695        738284122.74727702     
  -3698625491.3889360       -14045320.932094574        721648914.49726248     
  -3548817324.3657637       -11133458.233064413        712776710.10004556     
  -3397378534.2572069       -2786185.2494268417        711667509.55562210     
  -2247485349.0329857       -6386118.1705529690        1124092600.8364630     
  -2151698882.1165147       -11250375.454900742        1119602992.4676967     
  -2055762996.3792782       -15616570.003358006        1118915591.3005905     
  -1959677691.8212843       -19484701.815962791        1122030397.3351386     
  -1863442968.4425151       -22854770.892646313        1128947410.5713482     
  -2524704834.7421737       -2409991.7612136602        1021099467.8910550     
  -2417867218.5753903       -4678105.0418586731        1014339116.3161533     
  -2311225079.1845951       -7597807.5757884979        1011678331.4235927     
  -2204778416.5697837       -11169099.363003969        1013117113.2133719     
  -2098527230.7309568       -15391980.403499126        1018655461.6854987     
  -2808760194.1826029       -484627.47124195099        918030908.36245108     
  -2690021830.2492690        98282.806674242020        908597435.38519931     
  -2571823838.6886706       -1120048.1578489542        903560888.57097626     
  -2454166219.5008092       -4139620.3648263216        902921267.91978145     
  -2337048972.6856709       -8960433.8142321110        906678573.43161559     
  -3099651427.3542790       -610025.30064666271        814886922.25063598     
  -2968162717.1381536        3078788.0907112360        802377949.67483580     
  -2837559274.8915062        3816708.2504703999        794563262.74274349     
  -2707841100.6143422        1603735.1786173582        791442861.45436692     
  -2579008194.3066607       -3560131.1248452663        793016745.80970573     
  -3397378534.2572069       -2786185.2494268417        711667509.55562210     
  -3252289879.2420402        4263410.8102442026        695680659.18506014     
  -3108431387.7931061        7212461.6491490602        684685453.93889678     
  -2965803059.9103990        6060967.2672811747        678681893.81712925     
  -2824404895.5939245        808927.66465926170        677669978.81976151     
  -1863442968.4425151       -22854770.892646313        1128947410.5713482     
  -1762208412.1574528       -24973898.793401718        1122476860.8077524     
  -1661287456.2509091       -28138361.289221823        1120534053.5227194     
  -1560680100.7228839       -32348158.380104244        1123118988.7162502     
  -1460386345.5733821       -37603290.066062391        1130231666.3883381     
  -2098527230.7309568       -15391980.403499126        1018655461.6854987     
  -1986308745.5954077       -18320865.287685037        1010512323.9379518     
  -1874221944.3208194       -21688696.375076890        1006477486.7468604     
  -1762266826.9071887       -25495473.665663481        1006550950.1122199     
  -1650443393.3545232       -29741197.159470439        1010732714.0340312     
  -2337048972.6856709       -8960433.8142321110        906678573.43161559     
  -2215044964.1913786       -13058597.329374790        897075083.63727558     
  -2092990723.0404882       -16989318.655855894        891160452.47727680     
  -1970886249.2329996       -20752597.793681026        888934679.95161748     
  -1848731542.7689166       -24348434.742850780        890397766.06030154     
  -2579008194.3066607       -3560131.1248452663        793016745.80970573     
  -2448417067.9453626       -9187094.9184541702        782165139.90572047     
  -2317593792.4099164       -14040228.131567955        774582950.71396685     
  -2186538367.7003093       -18119530.764145017        770270178.23444211     
  -2055250793.8165429       -21425002.816202641        769226822.46714902     
  -2824404895.5939245        808927.66465926170        677669978.81976151     
  -2686425056.8573685       -6706358.0549569130        665782492.74328530     
  -2548031152.4291029       -12841424.802195668        656744981.45692873     
  -2409223182.3091245       -17596272.577061057        650557444.96069360     
  -2270001146.4974275       -20970901.379531980        647219883.25457430     
  -1460386345.5733821       -37603290.066062391        1130231666.3883381     
  -1355771875.8192663       -42122304.309481740        1124776983.7333925     
  -1251213100.3715909       -46826966.241042256        1122748651.1074789     
  -1146710019.2303579       -51717275.860735357        1124146668.5105989     
  -1042262632.3955543       -56793233.168537974        1128971035.9427521     
  -1650443393.3545232       -29741197.159470439        1010732714.0340312     
  -1536540298.1738758       -33568986.414298594        1002428697.5110712     
  -1422641319.7362700       -37410498.145939350        997683913.98212147     
  -1308746458.0417163       -41265732.354418099        996498363.44718480     
  -1194855713.0902064       -45134689.039707124        998872045.90625250     
  -1848731542.7689166       -24348434.742850780        890397766.06030154     
  -1725160156.5475059       -27371099.324799895        879304589.49328566     
  -1601541309.5057516       -30235561.172277153        871903528.88525331     
  -1477875001.6436520       -32941820.285264075        868194584.23621583     
  -1354161232.9612136       -35489876.663779676        868177755.54615867     
  -2055250793.8165429       -21425002.816202641        769226822.46714902     
  -1921631450.9401548       -23528643.041017652        755404659.68003190     
  -1787913069.6800253       -25302155.320039392        745407495.81687486     
  -1654095650.0361683       -26745539.653299212        739235330.87769091     
  -1520179192.0085735       -27858796.040772915        736888164.86246717     
  -2270001146.4974275       -20970901.379531980        647219883.25457430     
  -2125954181.3518302       -22041617.562940121        630728908.07131135     
  -1981756600.2591119       -22610280.589275122        618195814.77698863     
  -1837408403.2192588       -22676890.458490729        609620603.37160993     
  -1692909590.2322860       -22241447.170645237        605003273.85517406     
  -1042262632.3955543       -56793233.168537974        1128971035.9427521     
  -924836867.36232638       -54702653.150396049        1125891279.6087055     
  -805197370.30854356       -45232966.397067517        1128805451.6710978     
  -683344141.23419213       -28384172.908512175        1137713552.1299279     
  -559277180.13928103       -4156272.6847580075        1152615580.9851825     
  -1194855713.0902064       -45134689.039707124        998872045.90625250     
  -1063805625.2813890       -41745532.947599113        994644698.68139958     
  -931360007.59530401       -33704610.597923934        994603999.94733977     
  -797518860.03195643       -21011921.990709811        998749949.70407629     
  -662282182.59134209       -3667467.1259420514        1007082547.9516047     
  -1354161232.9612136       -35489876.663779676        868177755.54615867     
  -1214650479.2500536       -32351241.559656203        861848248.26331210     
  -1074562397.8049233       -27288180.675630510        857898109.56562126     
  -933896988.62583399       -20300694.011741102        856327339.45308506     
  -792654251.71277308       -11388781.567950338        857135937.92571306     
  -1520179192.0085735       -27858796.040772915        736888164.86246717     
  -1377371429.2683213       -26519778.986594200        727501928.35444307     
  -1234804540.9374120       -25983676.630214989        718687780.52593970     
  -1092478527.0158253       -26250488.971600056        710445721.37694955     
  -950393387.50357795       -27320216.010760844        702775750.90748346     
  -1692909590.2322860       -22241447.170645237        605003273.85517406     
  -1551968475.3362072       -24251145.228441000        591605738.95479584     
  -1412086436.9927509       -29791098.461631298        576973012.82829976     
  -1273263475.2019377       -38861306.870299578        561105095.47567773     
  -1135499589.9637468       -51461770.454387248        544001986.89693677     
  -559277180.13928103       -4156272.6847580075        1152615580.9851825     
  -462574270.97680670        33462303.325615913        1161995132.4286239     
  -353843407.21971142        111174061.31807345        1178901046.0913208     
  -233084588.86799371        228979001.29260173        1203333321.9732792     
  -100297815.92165744        386877123.24918622        1235291960.0744958     
  -662282182.59134209       -3667467.1259420514        1007082547.9516047     
  -547217616.37025034        26279146.186710864        1020681449.1631790     
  -421249376.63274395        92571337.887425154        1042648792.6692886     
  -284377463.37880206        195209107.97624701        1072984578.4699256     
  -136601876.60844424        334192456.45313072        1111688806.5651031     
  -792654251.71277308       -11388781.567950338        857135937.92571306     
  -656822085.36085546        11607651.968644023        873642527.64751768     
  -511210526.57071203        67202060.299316168        899359639.73913276     
  -355819575.34234482        155394443.42407203        934287274.20056200     
  -190649231.67574787        276184801.34292674        978425431.03179729     
  -950393387.50357795       -27320216.010760844        702775750.90748346     
  -791387677.94860840       -10552179.328547120        720878367.88162661     
  -623726857.03362417        35066228.553717285        749033587.30085695     
  -447410924.75860590        109535007.63609481        787241409.16517282     
  -262439881.12356120        212854157.91855979        835501833.47457087     
  -1135499589.9637468       -51461770.454387248        544001986.89693677     
  -950914394.13352132       -40200347.704916298        562388969.86552203     
  -758798368.02147913       -3836157.3493677676        591670635.35446537     
  -559151511.62760687        57630800.612273157        631846983.36376715     
  -351973824.95189166        144200526.18005115        682918013.89342558     
  -100297815.92165744        386877123.24918622        1235291960.0744958     
  -85401716.045828938        546743444.49487293        1196704689.7554824     
  -57916822.713906318        748572410.59420943        1154766197.0717754     
  -17843135.925882816        992364021.54721689        1109476482.0233774     
   34819344.318244696        1278118277.3538990        1060835544.6102759     
  -136601876.60844424        334192456.45313072        1111688806.5651031     
  -127442410.94576025        483217540.86926687        1090126480.3272734     
  -95147120.598451942        709362040.90082300        1070004404.7893089     
  -39716005.566535771        1012625956.5477456        1051322579.9512063     
   38850934.150010407        1393009287.8100929        1034081005.8129702     
  -190649231.67574787        276184801.34292674        978425431.03179729     
  -173536477.18460044        418475625.84201157        986192918.64175439     
  -122740866.78031552        673042636.71824276        1000192130.0161314     
  -38262400.462900162        1039885833.9715745        1020423065.1549360     
   79898921.767664611        1519005217.6020403        1046885724.0581758     
  -262439881.12356120        212854157.91855979        835501833.47457087     
  -223683914.76235569        352517699.41308337        884904004.69892049     
  -140698061.25948632        639614198.04646957        945329372.75226331     
  -13482320.614968121        1074143653.8186986        1016777937.6345832     
   157963307.17120039        1656106066.7297521        1099249699.3458922     
  -351973824.95189166        144200526.18005115        682918013.89342558     
  -277884723.67902833        285343761.58245331        786259738.49877775     
  -149018704.03598189        609076724.88548231        905416132.99767864     
   34624233.977226019        1115399416.0890608        1040387197.3901216     
   273044090.36062342        1804311835.1932430        1191172931.6761107     
  -4871859900.2116756       -134855402.56605959        1082721629.5745478     
  -4646958254.2865353       -84451722.736956120        954939138.90652215     
  -4425572714.9727392       -45768398.278975487        859005092.89643717     
  -4207703282.2702713       -18805429.192094088        794919491.54429138     
  -3993349956.1791306       -3562815.4763112068        762682334.85008824     
  -5401321482.7193060       -188712191.17058825        463697162.74474382     
  -5132540729.6412792       -129318074.19239283        468876931.90244037     
  -4867069591.5695629       -80956007.235227346        473886699.48539829     
  -4604908068.5041656       -43625990.299113035        478726465.49361759     
  -4346056160.4450703       -17328023.384031296        483396229.92709452     
  -5493774054.1249628       -111466276.44452310       -157052870.98162180     
  -5272595468.8445644       -70526104.802379847       -18669935.125677429     
  -5054520006.9654474       -39929677.831203461        87524552.922846764     
  -4839547668.4876289       -19676995.531005621        161530593.16395515     
  -4627678453.4111061       -9768057.9017829895        203348185.59764001     
  -5149217614.4286661        96882341.612123489       -779528471.60453928     
  -5067122471.8963947        91924185.433066607       -507701462.17782807     
  -4987923961.1604013        77310589.933089495       -300081346.79121196     
  -4911622082.2206707        53041555.112219572       -156668125.44469681     
  -4838216835.0772104        19117080.970462799       -77461798.138277560     
  -4367652163.6304007        436333662.99936771       -1403729639.1240184     
  -4516121738.7967787        358032796.51394057       -998217649.25400901     
  -4667281454.1544046        270764796.05768728       -688930999.65678275     
  -4821131309.7032843        174529661.63057971       -475869690.33232719     
  -4977671305.4434109        69327393.232646227       -359033721.28065366     
  -3993349956.1791306       -3562815.4763112068        762682334.85008824     
  -3846803035.3267245       -11521773.346509695        738284122.74727702     
  -3698625491.3889360       -14045320.932094574        721648914.49726248     
  -3548817324.3657637       -11133458.233064413        712776710.10004556     
  -3397378534.2572069       -2786185.2494268417        711667509.55562210     
  -4346056160.4450703       -17328023.384031296        483396229.92709452     
  -4183957242.5350828       -22791003.664433718        483637786.02990568     
  -4020352039.3885102       -23233033.156209707        487503418.11118907     
  -3855240551.0053535       -18654111.859375954        494993126.17093772     
  -3688622777.3856063       -9054239.7739140987        506106910.20915180     
  -4627678453.4111061       -9768057.9017829895        203348185.59764001     
  -4461853046.6558952       -16282713.056094170        228084449.08248064     
  -4294645692.5129018       -18190876.917770147        252305860.67145371     
  -4126056390.9821243       -15492549.486841917        276012420.36457735     
  -3956085142.0635481       -8187730.7632639408        299204128.16183436     
  -4838216835.0772104        19117080.970462799       -77461798.138277560     
  -4680490447.6891537        8003098.4785268307       -28375888.095008250     
  -4521506450.7621098        1081147.7832076550        16056242.178068466     
  -4361264844.2960663       -1648771.1154356003        55834592.680958778     
  -4199765628.2910371       -186658.21746802330        90959163.413662210     
  -4977671305.4434109        69327393.232646227       -359033721.28065366     
  -4839869445.6348667        50066430.939381599       -285743225.50255919     
  -4700934314.1361227        34583040.946782112       -221245437.36898112     
  -4560865910.9471989        22877223.254769564       -165540356.87991616     
  -4419664236.0680771        14948977.863442659       -118627984.03536195     
  -3397378534.2572069       -2786185.2494268417        711667509.55562210     
  -3252289879.2420402        4263410.8102442026        695680659.18506014     
  -3108431387.7931061        7212461.6491490602        684685453.93889678     
  -2965803059.9103990        6060967.2672811747        678681893.81712925     
  -2824404895.5939245        808927.66465926170        677669978.81976151     
  -3688622777.3856063       -9054239.7739140987        506106910.20915180     
  -3531890109.0826731       -1928674.3670578003        496514443.98560965     
  -3376339841.4560418        1255555.4521255493        490869734.54813939     
  -3221971974.5057106        498449.68365252018        489172781.89674008     
  -3068786508.2316809       -4199991.6725056171        491423586.03141463     
  -3956085142.0635481       -8187730.7632639408        299204128.16183436     
  -3790690998.5823579       -1880957.4420819283        296061769.45689684     
  -3626431492.8875394        643689.92451953888        295823279.19970566     
  -3463306624.9790769       -613788.66340923309        298488657.39025903     
  -3301316394.8569984       -5653393.2059357166        304057904.02855551     
  -4199765628.2910371       -186658.21746802330        90959163.413662210     
  -4028692547.7410860        4406561.5851874352        94322635.598914981     
  -3858706342.0875759        5376865.0663783550        99546087.893587455     
  -3689807011.3305087        2724252.2260942459        106629520.29768164     
  -3521994555.4698801       -3551276.9356565475        115572932.81119138     
  -4419664236.0680771        14948977.863442659       -118627984.03536195     
  -4245894756.5588675        16933882.714740753       -108702957.58833410     
  -4073164389.0561848        15455080.877627850       -97961839.370203078     
  -3901473133.5599899        10512572.352213860       -86404629.380993545     
  -3730820990.0703192        2106357.1383886337       -74031327.620680198     
  -2824404895.5939245        808927.66465926170        677669978.81976151     
  -2686425056.8573685       -6706358.0549569130        665782492.74328530     
  -2548031152.4291029       -12841424.802195668        656744981.45692873     
  -2409223182.3091245       -17596272.577061057        650557444.96069360     
  -2270001146.4974275       -20970901.379531980        647219883.25457430     
  -3068786508.2316809       -4199991.6725056171        491423586.03141463     
  -2922784027.5907269       -11784254.141545773        484577966.51189309     
  -2776081075.1237760       -17033610.523931980        481069552.91704357     
  -2628677650.8308382       -19948060.819689035        480898345.24685770     
  -2480573754.7119050       -20527605.028805137        484064343.50134647     
  -3301316394.8569984       -5653393.2059357166        304057904.02855551     
  -3145899183.3557854       -12889005.737636685        302588291.55598426     
  -2989495093.8943095       -16835025.068442345        304943116.14262301     
  -2832104126.4725599       -17491451.198339224        311122377.78848732     
  -2673726281.0905304       -14858284.127315879        321126076.49356252     
  -3521994555.4698801       -3551276.9356565475        115572932.81119138     
  -3355770524.1525598       -10020612.843236208        119813467.87556084     
  -3188273208.7406969       -12245668.435691118        128365671.13368620     
  -3019502609.2342806       -10226443.712956190        141229542.58558393     
  -2849458725.6333313       -3962938.6751158237        158405082.23123798     
  -3730820990.0703192        2106357.1383886337       -74031327.620680198     
  -3552398049.9810438       -3179075.4583687782       -63746504.529390909     
  -3372415419.6629391       -3265540.6256911755       -48662782.109791629     
  -3190873099.1160202        1846961.6363779306       -28780160.361872118     
  -3007771088.3402538        12158431.327914238       -4098639.2856298042     
  -2270001146.4974275       -20970901.379531980        647219883.25457430     
  -2125954181.3518302       -22041617.562940121        630728908.07131135     
  -1981756600.2591119       -22610280.589275122        618195814.77698863     
  -1837408403.2192588       -22676890.458490729        609620603.37160993     
  -1692909590.2322860       -22241447.170645237        605003273.85517406     
  -2480573754.7119050       -20527605.028805137        484064343.50134647     
  -2327225198.0560780       -18722233.854988456        472949566.78013039     
  -2174042046.9261246       -17468214.434080362        464368266.09540623     
  -2021024301.3220353       -16765546.766059756        458320441.44717145     
  -1868171961.2438169       -16614230.850930572        454806092.83542854     
  -2673726281.0905304       -14858284.127315879        321126076.49356252     
  -2515145863.9314947       -11397744.898402452        315018806.51591593     
  -2357046873.7713265       -9541962.3323887587        310020606.72229439     
  -2199429310.6100030       -9290936.4291863441        306131477.11270887     
  -2042293174.4475520       -10644667.188890576        303351417.68716091     
  -2849458725.6333313       -3962938.6751158237        158405082.23123798     
  -2689716178.9780831       -68150.693177342415        156936627.27865547     
  -2530771080.7947001        1168475.7158946991        155152836.65765354     
  -2372623431.0831718       -253059.44788980484        153053710.36823192     
  -2215273229.8434877       -4332756.1844907999        150639248.41038638     
  -3007771088.3402538        12158431.327914238       -4098639.2856298042     
  -2850936143.1958265        15266548.760721445       -1296970.9316293162     
  -2695214667.9962559        14663099.710696697       -235044.09851899260     
  -2540606662.7415056        10348084.177913904       -912858.78626456554     
  -2387112127.4316316        2321502.1622333527       -3330414.9948996622     
  -1692909590.2322860       -22241447.170645237        605003273.85517406     
  -1551968475.3362072       -24251145.228441000        591605738.95479584     
  -1412086436.9927509       -29791098.461631298        576973012.82829976     
  -1273263475.2019377       -38861306.870299578        561105095.47567773     
  -1135499589.9637468       -51461770.454387248        544001986.89693677     
  -1868171961.2438169       -16614230.850930572        454806092.83542854     
  -1730258210.6745100       -21145428.302042723        441571134.36328673     
  -1592311540.1926637       -25566892.711345315        427824509.80282509     
  -1454331949.7982745       -29878624.078833997        413566219.15403759     
  -1316319439.4913473       -34080622.404560089        398796262.41692704     
  -2042293174.4475520       -10644667.188890576        303351417.68716091     
  -1905339573.5255945       -17077199.629480720        291553031.51928967     
  -1767261056.2259259       -19760010.811035991        279966504.40089977     
  -1628057622.5485535       -18693100.733570516        268591836.33198136     
  -1487729272.4934726       -13876469.397090495        257429027.31253368     
  -2215273229.8434877       -4332756.1844907999        150639248.41038638     
  -2077212563.8894615       -12046459.210765958        141551430.42282036     
  -1936934985.0925620       -12370452.760766149        133398996.62252586     
  -1794440493.4527638       -5304736.8344534636        126181947.00950654     
  -1649729088.9701118        9150688.5680383444        119900281.58376211     
  -2387112127.4316316        2321502.1622333527       -3330414.9948996622     
  -2245877181.7661152       -6053207.0458737612       -8433668.9261285886     
  -2101333326.7925472       -3398218.5604610443       -11878013.532284264     
  -1953480562.5109348        10286467.618418574       -13663448.813382536     
  -1802318888.9212773        35000851.490795970       -13789974.769405313     
  -1135499589.9637468       -51461770.454387248        544001986.89693677     
  -950914394.13352132       -40200347.704916298        562388969.86552203     
  -758798368.02147913       -3836157.3493677676        591670635.35446537     
  -559151511.62760687        57630800.612273157        631846983.36376715     
  -351973824.95189166        144200526.18005115        682918013.89342558     
  -1316319439.4913473       -34080622.404560089        398796262.41692704     
  -1116987156.3288181       -14333297.586581469        420784583.54350293     
  -914026216.40606809        17509549.765464306        441263850.38953406     
  -707436619.72309756        61447919.651567012        460234062.95501304     
  -497218366.27992338        117481812.07168496        477695221.23995817     
  -1487729272.4934726       -13876469.397090495        257429027.31253368     
  -1309089150.0012074        3724983.0886473060        278466150.82188475     
  -1130722544.2703466        20414713.036361098        285590483.24979281     
  -952629455.30087185        36192720.446122050        278802024.59624064     
  -774809883.09280121        51059005.317878306        258100774.86125124     
  -1649729088.9701118        9150688.5680383444        119900281.58376211     
  -1527220375.1507046        13974494.320726097        135433671.70067087     
  -1408887351.6142998        4879332.4634065032        124650533.93523408     
  -1294730018.3609176       -18134797.003997445        87550868.287443534     
  -1184748375.3905375       -55067894.081392586        24134674.757296100     
  -1802318888.9212773        35000851.490795970       -13789974.769405313     
  -1771380831.7773013        16415236.109701753       -8312853.8201411478     
  -1748520638.4379561       -29096591.953515768       -41555997.554137543     
  -1733738308.9032245       -101534632.69877774       -113519405.97139706     
  -1727033843.1731179       -200898886.12610346       -224203079.07189664     
  -351973824.95189166        144200526.18005115        682918013.89342558     
  -277884723.67902833        285343761.58245331        786259738.49877775     
  -149018704.03598189        609076724.88548231        905416132.99767864     
   34624233.977226019        1115399416.0890608        1040387197.3901216     
   273044090.36062342        1804311835.1932430        1191172931.6761107     
  -497218366.27992338        117481812.07168496        477695221.23995817     
  -388326168.65131229        223127585.00065228        596991948.29850733     
  -230308981.24235138        492523323.86413032        735437340.15411031     
  -23166804.053016067        925669028.66216052        893031396.80677533     
   233100362.91666329        1522564699.3947179        1069774118.2564903     
  -774809883.09280121        51059005.317878306        258100774.86125124     
  -621588889.38413596        124065025.69068265        386758587.68488353     
  -424894834.48492944        341981250.03193736        537899060.20907855     
  -184727718.39517915        704807678.34168768        711522192.43383622     
   98912458.885107040        1212544310.6199009        907627984.35916567     
  -1184748375.3905375       -55067894.081392586        24134674.757296100     
  -977672885.87750244       -11843916.347466409        155559656.65788928     
  -732776263.76373959        157450503.38889727        312801293.16255218     
  -450058509.04927385        452815365.12761343        495859584.27128780     
  -129519621.73405683        874250668.86880112        704734529.98409915     
  -1727033843.1731179       -200898886.12610346       -224203079.07189664     
  -1456578158.1314027       -184599241.11373574       -96604844.782460362     
  -1153953269.0787907       -61068916.065078378        60144039.014543101     
  -819159176.01525354        169692089.02000117        246043572.31915361     
  -452195878.94081628        507683774.14143634        461093755.13133228     
 </DataArray>
 <DataArray  type="Float64" Name="VM" NumberOfComponents="1" format="ascii">
   5204219747.6836796     
   5012961440.0992451     
   4954235140.8670826     
   4979413161.2238178     
   5051120903.5443554     
   5370819726.9543447     
   5188763321.5970688     
   5053823903.4759874     
   4945806697.3977652     
   4849659931.6999331     
   5445697739.6942387     
   5237789807.1739550     
   5036956766.7890482     
   4837836582.4111910     
   4636200130.0910196     
   5369884163.6952887     
   5133762611.5075111     
   4896388167.9647465     
   4657652803.0820761     
   4417489296.6252718     
   5158786900.6587133     
   4893326667.1657810     
   4647463000.5579481     
   4418335246.0225782     
   4204483514.6841168     
   5051120903.5443554     
   4890205013.8380146     
   4733856799.3745365     
   4581328585.8501015     
   4431923109.6382875     
   4849659931.6999331     
   4684754923.2625628     
   4522132578.2028074     
   4361512900.6467304     
   4202626232.4856396     
   4636200130.0910196     
   4471220638.9971151     
   4307802601.0193825     
   4145986709.1106348     
   3985831580.8529272     
   4417489296.6252718     
   4255863855.2621779     
   4096747884.9939022     
   3940350875.4226127     
   3786958347.5907397     
   4204483514.6841168     
   4048319885.3663816     
   3897487627.9737177     
   3752181821.1959906     
   3612773666.4617534     
   4431923109.6382875     
   4258551078.0757022     
   4084439667.6170716     
   3909605433.4878335     
   3734076825.1459045     
   4202626232.4856396     
   4034206909.3352070     
   3865245033.9738402     
   3695787409.1343422     
   3525907265.4857283     
   3985831580.8529272     
   3824286670.9215984     
   3662768611.8636532     
   3501378845.0506864     
   3340271277.1336713     
   3786958347.5907397     
   3634146188.9640012     
   3482351275.7808981     
   3331753255.8378987     
   3182620195.1564655     
   3612773666.4617534     
   3470329591.6490393     
   3330345240.3412213     
   3193090617.9020424     
   3058963678.8923278     
   3734076825.1459045     
   3552525758.9023595     
   3371837432.6547379     
   3192186197.7926435     
   3013877043.6439209     
   3525907265.4857283     
   3357191558.4778414     
   3189925811.3554068     
   3024311342.3578310     
   2860666862.9565554     
   3340271277.1336713     
   3182919966.5526524     
   3027541431.1727448     
   2874364888.6576862     
   2723723878.0298605     
   3182620195.1564655     
   3035261151.9333243     
   2890313741.2527690     
   2748035078.0116553     
   2608774053.8543468     
   3058963678.8923278     
   2920395148.0918775     
   2784573478.6095195     
   2651781981.4112377     
   2522384127.8492541     
   3013877043.6439209     
   2858600869.3367624     
   2702576085.5368876     
   2545796981.4330134     
   2388280711.7468796     
   2860666862.9565554     
   2703382523.8383493     
   2545580082.7410011     
   2387261595.5108633     
   2228437259.0478258     
   2723723878.0298605     
   2568098926.9443693     
   2412800954.2814503     
   2257939389.4852576     
   2103663816.8251009     
   2608774053.8543468     
   2458414243.5844994     
   2309913620.8953795     
   2163587203.3329148     
   2019863859.6785614     
   2522384127.8492541     
   2380496662.9865279     
   2242668172.3339562     
   2109461775.7418528     
   1981633585.9694436     
   2388280711.7468796     
   2242904286.6345267     
   2099737078.2063158     
   1958787022.9547565     
   1820228445.6281223     
   2228437259.0478258     
   2085676041.5607402     
   1944555294.5203104     
   1805073805.0671227     
   1667307464.1754427     
   2103663816.8251009     
   1962926941.8419893     
   1823135962.6039507     
   1684313609.3832610     
   1546510790.8498766     
   2019863859.6785614     
   1882181912.7100258     
   1744849759.4350080     
   1607989978.2850177     
   1471771976.5827661     
   1981633585.9694436     
   1849743034.9134078     
   1717993474.6853645     
   1586740742.1675754     
   1456498302.3184659     
   1820228445.6281223     
   1779703468.8225310     
   1735648505.9034309     
   1696697760.0056241     
   1681323333.8042200     
   1667307464.1754427     
   1552084509.3602149     
   1427751753.8791752     
   1294670030.8052161     
   1158950834.8746583     
   1546510790.8498766     
   1396866065.1666279     
   1243671733.6600103     
   1084657895.5255587     
   917794327.92897141     
   1471771976.5827661     
   1327793146.9715414     
   1198288802.3671851     
   1087731172.6381638     
   1002008166.7794852     
   1456498302.3184659     
   1347765271.3310385     
   1274009902.6136844     
   1243337404.4584889     
   1262760949.3672619     
   1681323333.8042200     
   1383766989.4476888     
   1129477225.2189736     
   1010165486.3522478     
   1153090971.4200325     
   1158950834.8746583     
   1008464920.4934291     
   985221626.14821875     
   1161472344.1595018     
   1544109599.0073011     
   917794327.92897141     
   963134951.39068949     
   1144901331.5932844     
   1476437333.2877562     
   1957415979.3746080     
   1002008166.7794852     
   1164657705.3772321     
   1425362494.2211320     
   1808690098.4549179     
   2334711685.4052343     
   1262760949.3672619     
   1446563784.4356174     
   1715599013.9079041     
   2110429199.6283135     
   2663478261.9620452     
   5158786900.6587133     
   4893326667.1657810     
   4647463000.5579481     
   4418335246.0225782     
   4204483514.6841168     
   4553374226.9789448     
   4372153477.6945992     
   4205412862.7634668     
   4051985522.7645040     
   3911561739.1280375     
   4059256527.4416161     
   3944164752.4401155     
   3838012633.9854035     
   3740749596.0122733     
   3652668878.4425983     
   3672761410.3294663     
   3607021374.0238533     
   3544418410.5144377     
   3485152578.5615845     
   3429456624.0713873     
   3389760260.5405765     
   3357304199.5153236     
   3322532987.6482835     
   3284721111.4445152     
   3243219896.4382257     
   4204483514.6841168     
   4048319885.3663816     
   3897487627.9737177     
   3752181821.1959906     
   3612773666.4617534     
   3911561739.1280375     
   3777047957.8669548     
   3647679578.5831289     
   3523726251.8472223     
   3405593874.8070679     
   3652668878.4425983     
   3538764833.1309228     
   3429685511.6166663     
   3325755784.4837098     
   3227400599.6399350     
   3429456624.0713873     
   3335571673.8403544     
   3246047756.1850281     
   3161235747.4850745     
   3081556131.3609700     
   3243219896.4382257     
   3169220088.3779364     
   3098972174.7703495     
   3032814516.3620415     
   2971133045.5667777     
   3612773666.4617534     
   3470329591.6490393     
   3330345240.3412213     
   3193090617.9020424     
   3058963678.8923278     
   3405593874.8070679     
   3278805943.3029108     
   3155404831.0941787     
   3035769160.8529830     
   2920400939.3123899     
   3227400599.6399350     
   3116589422.8423338     
   3010093949.0175862     
   2908365614.3386040     
   2811963007.8735065     
   3081556131.3609700     
   2986878727.3211174     
   2897367500.2068601     
   2813497224.4551821     
   2735823532.9634423     
   2971133045.5667777     
   2892448874.9023442     
   2819613168.1252999     
   2753069173.0175095     
   2693310374.9323215     
   3058963678.8923278     
   2920395148.0918775     
   2784573478.6095195     
   2651781981.4112377     
   2522384127.8492541     
   2920400939.3123899     
   2794223340.6386971     
   2671859858.8451314     
   2553743896.0743055     
   2440412018.5501018     
   2811963007.8735065     
   2700351998.3841133     
   2593808295.2917089     
   2492897314.4126959     
   2398293563.9593878     
   2735823532.9634423     
   2640600894.2795601     
   2551768000.2974229     
   2469967437.2966089     
   2395934817.4148450     
   2693310374.9323215     
   2615694217.0392103     
   2545724214.9140267     
   2484043583.8124290     
   2431357192.1010070     
   2522384127.8492541     
   2380496662.9865279     
   2242668172.3339562     
   2109461775.7418528     
   1981633585.9694436     
   2440412018.5501018     
   2315149290.9912634     
   2195206658.5883083     
   2081325217.1060653     
   1974432323.3794239     
   2398293563.9593878     
   2291121319.0849533     
   2190450302.9238172     
   2097093529.4723217     
   2012001733.0313838     
   2395934817.4148450     
   2307616245.3982754     
   2226702876.1738853     
   2153959308.2446218     
   2090221025.6614664     
   2431357192.1010070     
   2361811418.9387393     
   2300180432.5321670     
   2247093896.1731877     
   2203195447.5283728     
   1981633585.9694436     
   1849743034.9134078     
   1717993474.6853645     
   1586740742.1675754     
   1456498302.3184659     
   1974432323.3794239     
   1857176598.4085927     
   1744382129.7821031     
   1636984940.0380239     
   1536134859.1247852     
   2012001733.0313838     
   1914542798.9747312     
   1825944585.7350578     
   1747428534.3907957     
   1680312218.6436777     
   2090221025.6614664     
   2014192190.2953601     
   1950612130.3010771     
   1900585387.4543428     
   1865167021.2966332     
   2203195447.5283728     
   2147234988.0815949     
   2106317308.5517197     
   2081236435.5295348     
   2072691911.6151063     
   1456498302.3184659     
   1347765271.3310385     
   1274009902.6136844     
   1243337404.4584889     
   1262760949.3672619     
   1536134859.1247852     
   1475483583.8814082     
   1447511839.5873909     
   1456169193.5943904     
   1504736835.3551285     
   1680312218.6436777     
   1651946715.4077191     
   1651287377.7908652     
   1680691976.2888687     
   1742764632.9658318     
   1865167021.2966332     
   1854694041.0067801     
   1867181196.6012211     
   1904830156.1695011     
   1970672980.3058815     
   2072691911.6151063     
   2069123375.2664764     
   2084784416.4525464     
   2122301706.6387932     
   2185491974.6632795     
   1262760949.3672619     
   1446563784.4356174     
   1715599013.9079041     
   2110429199.6283135     
   2663478261.9620452     
   1504736835.3551285     
   1613171117.0908976     
   1788808992.8445814     
   2066388258.3636134     
   2476102870.3443155     
   1742764632.9658318     
   1787620474.8626986     
   1884625808.5203080     
   2060680659.9297135     
   2341004691.7767539     
   1970672980.3058815     
   1968870335.3963609     
   2003614112.9629648     
   2093571982.8856697     
   2257395653.6956925     
   2185491974.6632795     
   2156205235.9191866     
   2146514583.5468795     
   2166939271.5228214     
   2228544734.5002146     
   3389760260.5405765     
   3357304199.5153236     
   3322532987.6482835     
   3284721111.4445152     
   3243219896.4382257     
   3290749376.6610022     
   3242127651.9602351     
   3193684350.5927086     
   3145288113.6792130     
   3096813981.8029957     
   3190839759.9601126     
   3131139957.1407361     
   3075486067.3946671     
   3024126784.6696091     
   2977325222.0049014     
   3103998561.6726551     
   3036296010.6441207     
   2977901885.8348794     
   2929196539.1824555     
   2890623262.4298453     
   3048327246.6320071     
   2972601247.7070665     
   2912845024.5997210     
   2869310440.4036913     
   2842361665.0200520     
   3243219896.4382257     
   3169220088.3779364     
   3098972174.7703495     
   3032814516.3620415     
   2971133045.5667777     
   3096813981.8029957     
   3032316480.9293427     
   2972820017.6760731     
   2918679963.3974261     
   2870293629.6137071     
   2977325222.0049014     
   2922391361.2494030     
   2873750415.1343560     
   2831739217.8452463     
   2796727045.3880935     
   2890623262.4298453     
   2844513653.4915500     
   2805993701.3640747     
   2775344584.9380970     
   2752869195.7267909     
   2842361665.0200520     
   2803379414.3086896     
   2773260194.0329552     
   2752201533.1148267     
   2740413810.9403505     
   2971133045.5667777     
   2892448874.9023442     
   2819613168.1252999     
   2753069173.0175095     
   2693310374.9323215     
   2870293629.6137071     
   2804013953.5663300     
   2744390654.7241673     
   2691845785.7583175     
   2646838225.3765001     
   2796727045.3880935     
   2742706270.8011889     
   2696105848.7816186     
   2657294960.4129133     
   2626665382.4144430     
   2752869195.7267909     
   2710397099.9131103     
   2676039273.2230515     
   2650088009.4643388     
   2632846759.5965943     
   2740413810.9403505     
   2708166617.2291703     
   2684654981.0165510     
   2670083677.1773114     
   2664662109.1512842     
   2693310374.9323215     
   2615694217.0392103     
   2545724214.9140267     
   2484043583.8124290     
   2431357192.1010070     
   2646838225.3765001     
   2584469061.5829525     
   2530304271.8066292     
   2484881553.0826902     
   2448766929.0660882     
   2626665382.4144430     
   2578478135.6210508     
   2538854921.7868314     
   2508207182.7620668     
   2486951514.1038256     
   2632846759.5965943     
   2597284847.5785189     
   2570468839.9117990     
   2552684440.8202405     
   2544210600.2431946     
   2664662109.1512842     
   2639765155.8072624     
   2623666275.4091153     
   2616542400.8308434     
   2618560617.3394942     
   2431357192.1010070     
   2361811418.9387393     
   2300180432.5321670     
   2247093896.1731877     
   2203195447.5283728     
   2448766929.0660882     
   2393683363.6374502     
   2347547003.9131560     
   2310882320.8873129     
   2284197163.3124337     
   2486951514.1038256     
   2445459232.1494527     
   2413717768.5861511     
   2392120514.9810610     
   2381028532.8658681     
   2544210600.2431946     
   2514825358.8993092     
   2495825253.9281535     
   2487474968.8355880     
   2490005409.7888079     
   2618560617.3394942     
   2599344166.5197711     
   2591066522.9852495     
   2593883889.6804366     
   2607926558.3456063     
   2203195447.5283728     
   2147234988.0815949     
   2106317308.5517197     
   2081236435.5295348     
   2072691911.6151063     
   2284197163.3124337     
   2243321935.7922502     
   2216438199.2581306     
   2204009096.6975808     
   2206431587.9552541     
   2381028532.8658681     
   2352200674.6278000     
   2336280733.8905988     
   2333523795.3309627     
   2344153601.7255225     
   2490005409.7888079     
   2470484187.9348965     
   2462875189.9591603     
   2467315053.1591763     
   2483938225.2860923     
   2607926558.3456063     
   2595345266.7931747     
   2593830550.2178793     
   2603459966.1726928     
   2624329315.4273806     
   2072691911.6151063     
   2069123375.2664764     
   2084784416.4525464     
   2122301706.6387932     
   2185491974.6632795     
   2206431587.9552541     
   2191940264.1759620     
   2192448098.8073950     
   2209922528.2631311     
   2247286177.6643562     
   2344153601.7255225     
   2319576315.4177270     
   2306553164.3897371     
   2306489139.9016066     
   2321473254.6289239     
   2483938225.2860923     
   2451062945.5710135     
   2426783861.3810363     
   2412045951.3488846     
   2408224572.2160635     
   2624329315.4273806     
   2585623759.0289483     
   2552858888.6757126     
   2526615150.0413218     
   2507698149.3924594     
   2185491974.6632795     
   2156205235.9191866     
   2146514583.5468795     
   2166939271.5228214     
   2228544734.5002146     
   2247286177.6643562     
   2182629215.3559880     
   2134411796.6900015     
   2112299795.4339180     
   2127225882.6486797     
   2321473254.6289239     
   2224777037.4992676     
   2141413052.0437922     
   2079748810.1914098     
   2049958745.0632458     
   2408224572.2160635     
   2282942819.7273097     
   2168165590.3576503     
   2070637680.8118393     
   1999134564.9634514     
   2507698149.3924594     
   2357335995.9913440     
   2215140212.3238244     
   2086097763.7956777     
   1977095600.0642641     
   3048327246.6320071     
   2972601247.7070665     
   2912845024.5997210     
   2869310440.4036913     
   2842361665.0200520     
   2828214646.1641402     
   2784506013.9594107     
   2753375770.5317969     
   2734935776.9492621     
   2729336867.3505387     
   2668176112.0624585     
   2651739639.8418884     
   2643840434.6405272     
   2644511608.3910837     
   2653795057.3601971     
   2564327029.8489475     
   2571454487.4113789     
   2582594618.9006166     
   2597751876.6547418     
   2616931602.5801301     
   2509547876.4963589     
   2537908246.4048243     
   2565499053.7208962     
   2592320298.4445605     
   2618371980.5758243     
   2842361665.0200520     
   2803379414.3086896     
   2773260194.0329552     
   2752201533.1148267     
   2740413810.9403505     
   2729336867.3505387     
   2702531519.3924747     
   2684305280.6316319     
   2674770886.6443291     
   2674045240.1190519     
   2653795057.3601971     
   2636857812.2988200     
   2628093806.5479293     
   2627551808.3841047     
   2635281224.8084993     
   2616931602.5801301     
   2607307381.3847475     
   2605364163.0803494     
   2611113329.5982208     
   2624566200.2937517     
   2618371980.5758243     
   2613432843.4537425     
   2615637870.2917900     
   2624987061.0899658     
   2641480415.8482752     
   2740413810.9403505     
   2708166617.2291703     
   2684654981.0165510     
   2670083677.1773114     
   2664662109.1512842     
   2674045240.1190519     
   2652073159.5400772     
   2638752752.1891422     
   2634201420.9398274     
   2638536524.0390487     
   2635281224.8084993     
   2621258376.4574289     
   2615737138.5722218     
   2618769356.3011174     
   2630405916.6311421     
   2624566200.2937517     
   2615927792.0212255     
   2615610654.6221690     
   2623627389.0374842     
   2639990206.3420773     
   2641480415.8482752     
   2635565802.0158982     
   2637792404.7791910     
   2648160224.1381602     
   2666669260.0927930     
   2664662109.1512842     
   2639765155.8072624     
   2623666275.4091153     
   2616542400.8308434     
   2618560617.3394942     
   2638536524.0390487     
   2622212555.6005697     
   2614810998.1609802     
   2616434151.9532633     
   2627176279.2862463     
   2630405916.6311421     
   2620703080.0295215     
   2620048284.3305140     
   2628487721.0092163     
   2646063077.5094242     
   2639990206.3420773     
   2634729295.4292359     
   2638683087.9866610     
   2651863241.8121839     
   2674280111.8467703     
   2666669260.0927930     
   2663530873.7630930     
   2669847110.9172702     
   2685617971.5553293     
   2710843455.6772757     
   2618560617.3394942     
   2599344166.5197711     
   2591066522.9852495     
   2593883889.6804366     
   2607926558.3456063     
   2627176279.2862463     
   2615981517.7012057     
   2615189892.8295989     
   2624880615.4483666     
   2645117841.7208371     
   2646063077.5094242     
   2641034126.5031095     
   2645965458.3905573     
   2660888772.9983115     
   2685829079.7794170     
   2674280111.8467703     
   2673623212.3487234     
   2682600094.8298717     
   2701217922.2537045     
   2729482220.3106918     
   2710843455.6772757     
   2712862947.1223521     
   2724318436.6755261     
   2745209924.3368130     
   2775537410.1061974     
   2607926558.3456063     
   2595345266.7931747     
   2593830550.2178793     
   2603459966.1726928     
   2624329315.4273806     
   2645117841.7208371     
   2634173396.9068747     
   2633473453.7959919     
   2643056683.2573037     
   2662973486.3861613     
   2685829079.7794170     
   2676238283.8273253     
   2676248997.9268661     
   2685876398.3165565     
   2705141383.7255192     
   2729482220.3106918     
   2721112849.4877219     
   2721861901.3374686     
   2731732702.9899869     
   2750730108.7293835     
   2775537410.1061974     
   2768393950.9844432     
   2770028937.9106445     
   2780442370.8848124     
   2799634249.9069471     
   2624329315.4273806     
   2585623759.0289483     
   2552858888.6757126     
   2526615150.0413218     
   2507698149.3924594     
   2662973486.3861613     
   2617409439.0218639     
   2577539482.8491950     
   2543693798.1056595     
   2516333091.6384315     
   2705141383.7255192     
   2654798284.0274220     
   2610046324.5514126     
   2571032542.7486639     
   2537962703.5730801     
   2750730108.7293835     
   2697694921.6714196     
   2650290825.3793964     
   2608554327.0032697     
   2572536537.6169877     
   2799634249.9069471     
   2745995422.2919655     
   2698169848.2653370     
   2656157527.8270602     
   2619958460.9771242     
   2507698149.3924594     
   2357335995.9913440     
   2215140212.3238244     
   2086097763.7956777     
   1977095600.0642641     
   2516333091.6384315     
   2348407015.8561764     
   2184040385.2343383     
   2026337221.4750531     
   1879869365.1058133     
   2537962703.5730801     
   2357569734.2492023     
   2176924757.3860054     
   1997501196.3824196     
   1821580360.4265137     
   2572536537.6169877     
   2384928266.6865902     
   2194260565.4839907     
   2000912136.4868252     
   1805487725.2918625     
   2619958460.9771242     
   2430451793.0860200     
   2236190547.8519621     
   2037174725.2749746     
   1833404325.3550546     
   2509547876.4963589     
   2537908246.4048243     
   2565499053.7208962     
   2592320298.4445605     
   2618371980.5758243     
   2564326982.9634190     
   2571454442.7874808     
   2582594574.6116757     
   2597751830.8261790     
   2616931553.3577619     
   2668176002.1032457     
   2651739543.3910847     
   2643840348.7178507     
   2644511530.2123270     
   2653794984.1978750     
   2828214455.8824644     
   2784505857.5618930     
   2753375644.7927351     
   2734935679.1409516     
   2729336794.9052262     
   3048326959.1651726     
   2972601022.9109678     
   2912844859.6921911     
   2869310333.6682777     
   2842361615.1885657     
   2618371980.5758243     
   2613432843.4537425     
   2615637870.2917900     
   2624987061.0899658     
   2641480415.8482752     
   2616931553.3577619     
   2607307338.4502931     
   2605364129.4049640     
   2611113308.1414351     
   2624566194.0047703     
   2653794984.1978750     
   2636857746.4545422     
   2628093753.3829470     
   2627551773.3215237     
   2635281213.3426666     
   2729336794.9052262     
   2702531448.8314734     
   2684305219.1198878     
   2674770841.5822616     
   2674045219.1734900     
   2842361615.1885657     
   2803379353.9280062     
   2773260131.4645419     
   2752201477.2164125     
   2740413771.1423011     
   2641480415.8482752     
   2635565802.0158982     
   2637792404.7791910     
   2648160224.1381602     
   2666669260.0927930     
   2624566194.0047703     
   2615927802.7339721     
   2615610678.1264672     
   2623627421.0920887     
   2639990242.6625028     
   2635281213.3426666     
   2621258396.8485880     
   2615737182.1775312     
   2618769414.4076462     
   2630405980.4408746     
   2674045219.1734900     
   2652073185.0252261     
   2638752810.8538032     
   2634201499.3573465     
   2638536608.5973115     
   2740413771.1423011     
   2708166639.9801092     
   2684655048.3532805     
   2670083770.7386913     
   2664662210.1727061     
   2666669260.0927930     
   2663530873.7630930     
   2669847110.9172702     
   2685617971.5553293     
   2710843455.6772757     
   2639990242.6625028     
   2634729321.2703881     
   2638683104.3221745     
   2651863249.6359506     
   2674280112.1764245     
   2630405980.4408746     
   2620703125.2545247     
   2620048313.1214542     
   2628487735.5342588     
   2646063079.9567275     
   2638536608.5973115     
   2622212615.4241819     
   2614811036.7782712     
   2616434172.8984709     
   2627176286.0955658     
   2664662210.1727061     
   2639765227.3734679     
   2623666322.6288652     
   2616542428.8139944     
   2618560631.1805863     
   2710843455.6772757     
   2712862947.1223521     
   2724318436.6755261     
   2745209924.3368130     
   2775537410.1061974     
   2674280112.1764245     
   2673623211.2917819     
   2682600093.0108624     
   2701217920.2985101     
   2729482218.8470831     
   2646063079.9567275     
   2641034125.6526113     
   2645965455.4848685     
   2660888769.2934990     
   2685829076.5446544     
   2627176286.0955658     
   2615981518.5958147     
   2615189889.6747413     
   2624880610.1528206     
   2645117836.2337203     
   2618560631.1805863     
   2599344170.9592686     
   2591066520.5175862     
   2593883882.9001732     
   2607926549.9395237     
   2775537410.1061974     
   2768393950.9844432     
   2770028937.9106445     
   2780442370.8848124     
   2799634249.9069471     
   2729482218.8470831     
   2721112848.8062181     
   2721861901.1573477     
   2731732703.0294614     
   2750730108.7061558     
   2685829076.5446544     
   2676238282.3508110     
   2676248997.6406698     
   2685876398.6487832     
   2705141384.1033578     
   2645117836.2337203     
   2634173394.4141841     
   2633473453.4271884     
   2643056684.1305094     
   2662973487.6163363     
   2607926549.9395237     
   2595345262.9468422     
   2593830549.7342629     
   2603459967.8281665     
   2624329317.9883614     
   2799634249.9069471     
   2745995422.2919655     
   2698169848.2653370     
   2656157527.8270602     
   2619958460.9771242     
   2750730108.7061558     
   2697694921.6173096     
   2650290825.3783016     
   2608554327.1398306     
   2572536537.9778910     
   2705141384.1033578     
   2654798284.1778145     
   2610046324.6433806     
   2571032542.9501438     
   2537962704.0495038     
   2662973487.6163363     
   2617409439.6523790     
   2577539483.1368284     
   2543693798.3022494     
   2516333091.9823723     
   2624329317.9883614     
   2585623760.4324174     
   2552858889.2702780     
   2526615150.1651244     
   2507698149.3537583     
   2619958460.9771242     
   2430451793.0860200     
   2236190547.8519621     
   2037174725.2749746     
   1833404325.3550546     
   2572536537.9778910     
   2384928266.9005275     
   2194260565.5215425     
   2000912136.3092306     
   1805487724.8430796     
   2537962704.0495038     
   2357569734.5421195     
   2176924757.4410486     
   1997501196.1405950     
   1821580359.8230121     
   2516333091.9823723     
   2348407016.0909100     
   2184040385.2854366     
   2026337221.2815831     
   1879869364.6368206     
   2507698149.3537583     
   2357335996.0300903     
   2215140212.3497891     
   2086097763.7601454     
   1977095599.9974422     
   3048326959.1651726     
   2972601022.9109678     
   2912844859.6921911     
   2869310333.6682777     
   2842361615.1885657     
   3103998423.1569734     
   3036295897.8592892     
   2977901809.1711502     
   2929196509.9178090     
   2890623292.6062889     
   3190839846.0293064     
   3131140014.3990040     
   3075486114.4319348     
   3024126841.4530115     
   2977325309.9797606     
   3290749771.4764171     
   3242127945.7491522     
   3193684564.6330914     
   3145288271.9767470     
   3096814110.9109468     
   3389761048.7667761     
   3357304798.9164762     
   3322533415.9882135     
   3284721391.8350024     
   3243220056.1696143     
   2842361615.1885657     
   2803379353.9280062     
   2773260131.4645419     
   2752201477.2164125     
   2740413771.1423011     
   2890623292.6062889     
   2844513646.4897985     
   2805993661.2716875     
   2775344516.2023602     
   2752869103.2469840     
   2977325309.9797606     
   2922391394.7108378     
   2873750394.6510549     
   2831739144.0672107     
   2796726919.1050706     
   3096814110.9109468     
   3032316548.4747806     
   2972820021.6234684     
   2918679901.4236789     
   2870293499.0769320     
   3243220056.1696143     
   3169220189.8777642     
   3098972214.4647574     
   3032814490.0147028     
   2971132948.1131520     
   2740413771.1423011     
   2708166639.9801092     
   2684655048.3532805     
   2670083770.7386913     
   2664662210.1727061     
   2752869103.2469840     
   2710397058.7404490     
   2676039274.5526576     
   2650088044.0983553     
   2632846817.9492245     
   2796726919.1050706     
   2742706180.4655838     
   2696105793.8812418     
   2657294940.3071990     
   2626665396.3739314     
   2870293499.0769320     
   2804013835.9500575     
   2744390556.7204247     
   2691845714.4525943     
   2646838188.3718047     
   2971132948.1131520     
   2892448757.0547376     
   2819613042.4518113     
   2753069053.1801901     
   2693310275.9582672     
   2664662210.1727061     
   2639765227.3734679     
   2623666322.6288652     
   2616542428.8139944     
   2618560631.1805863     
   2632846817.9492245     
   2597284891.8800130     
   2570468872.8883996     
   2552684465.2190323     
   2544210618.8033609     
   2626665396.3739314     
   2578478150.1087680     
   2538854937.3597894     
   2508207199.9789357     
   2486951533.4777503     
   2646838188.3718047     
   2584469039.6683044     
   2530304263.6178989     
   2484881557.1949248     
   2448766943.9153333     
   2693310275.9582672     
   2615694148.4255786     
   2545724173.6558166     
   2484043566.7494144     
   2431357195.7901902     
   2618560631.1805863     
   2599344170.9592686     
   2591066520.5175862     
   2593883882.9001732     
   2607926549.9395237     
   2544210618.8033609     
   2514825369.4136214     
   2495825257.3413496     
   2487474966.1770635     
   2490005402.1686769     
   2486951533.4777503     
   2445459246.1091852     
   2413717776.5823102     
   2392120516.4791255     
   2381028527.3474975     
   2448766943.9153333     
   2393683377.4417439     
   2347547014.7182875     
   2310882326.6135106     
   2284197161.7534394     
   2431357195.7901902     
   2361811428.0493484     
   2300180443.8757339     
   2247093906.2263002     
   2203195452.4077759     
   2607926549.9395237     
   2595345262.9468422     
   2593830549.7342629     
   2603459967.8281665     
   2624329317.9883614     
   2490005402.1686769     
   2470484183.8048830     
   2462875188.7556171     
   2467315054.2905660     
   2483938228.1435552     
   2381028527.3474975     
   2352200671.0801215     
   2336280732.3740582     
   2333523795.8950033     
   2344153604.4097171     
   2284197161.7534394     
   2243321934.0601940     
   2216438198.0319963     
   2204009096.6950135     
   2206431589.9205222     
   2203195452.4077759     
   2147234989.8450842     
   2106317308.4732203     
   2081236435.0237288     
   2072691912.2121320     
   2624329317.9883614     
   2585623760.4324174     
   2552858889.2702780     
   2526615150.1651244     
   2507698149.3537583     
   2483938228.1435552     
   2451062947.3699217     
   2426783862.3022313     
   2412045951.5690994     
   2408224571.8916569     
   2344153604.4097171     
   2319576317.3002629     
   2306553165.4857321     
   2306489140.2259011     
   2321473254.1900358     
   2206431589.9205222     
   2191940265.7829499     
   2192448099.9039197     
   2209922528.6951370     
   2247286177.2883759     
   2072691912.2121320     
   2069123376.1772344     
   2084784417.3486333     
   2122301707.1778817     
   2185491974.5307322     
   2507698149.3537583     
   2357335996.0300903     
   2215140212.3497891     
   2086097763.7601454     
   1977095599.9974422     
   2408224571.8916569     
   2282942819.5676489     
   2168165590.3137560     
   2070637680.8683426     
   1999134565.1637514     
   2321473254.1900358     
   2224777037.2503920     
   2141413051.9772620     
   2079748810.3180733     
   2049958745.4228485     
   2247286177.2883759     
   2182629215.1318116     
   2134411796.6507995     
   2112299795.6109548     
   2127225883.0677006     
   2185491974.5307322     
   2156205235.8360176     
   2146514583.5861070     
   2166939271.7319899     
   2228544734.8868647     
   3389761048.7667761     
   3357304798.9164762     
   3322533415.9882135     
   3284721391.8350024     
   3243220056.1696143     
   3672762145.9371133     
   3607021958.6798635     
   3544418846.0113139     
   3485152867.3248296     
   3429456769.1563292     
   4059256867.6346622     
   3944165065.9829788     
   3838012899.7111783     
   3740749797.9893241     
   3652669003.8966870     
   4553373819.7980747     
   4372153254.6515236     
   4205412774.4932251     
   4051985536.6623073     
   3911561833.8439007     
   5158785382.2628622     
   4893325633.7117376     
   4647462369.5116472     
   4418334967.3570633     
   4204483562.6769819     
   3243220056.1696143     
   3169220189.8777642     
   3098972214.4647574     
   3032814490.0147028     
   2971132948.1131520     
   3429456769.1563292     
   3335571790.1483154     
   3246047838.4428182     
   3161235789.7397194     
   3081556126.8232250     
   3652669003.8966870     
   3538764957.1008687     
   3429685626.9425774     
   3325755883.3782387     
   3227400673.4622536     
   3911561833.8439007     
   3777048077.0983939     
   3647679713.2773552     
   3523726392.3964124     
   3405594010.6832690     
   4204483562.6769819     
   4048319983.5092578     
   3897487765.4642076     
   3752181986.7293668     
   3612773847.6650219     
   2971132948.1131520     
   2892448757.0547376     
   2819613042.4518113     
   2753069053.1801901     
   2693310275.9582672     
   3081556126.8232250     
   2986878682.3655257     
   2897367423.8404574     
   2813497126.5316510     
   2735823424.4982896     
   3227400673.4622536     
   3116589440.1634479     
   3010093916.0212073     
   2908365537.7411456     
   2811962895.2077031     
   3405594010.6832690     
   3278806011.4534149     
   3155404835.7035804     
   3035769106.3411269     
   2920400830.5187478     
   3612773847.6650219     
   3470329699.2956772     
   3330345277.4300179     
   3193090587.4639754     
   3058963584.0355911     
   2693310275.9582672     
   2615694148.4255786     
   2545724173.6558166     
   2484043566.7494144     
   2431357195.7901902     
   2735823424.4982896     
   2640600814.6778502     
   2551767947.7999387     
   2469967409.9941320     
   2395934813.1302662     
   2811962895.2077031     
   2700351913.5750508     
   2593808237.6156807     
   2492897283.0354509     
   2398293557.8432708     
   2920400830.5187478     
   2794223258.7191801     
   2671859803.8953114     
   2553743868.1340137     
   2440412017.5479388     
   3058963584.0355911     
   2920395078.7454720     
   2784573435.4671183     
   2651781965.1605568     
   2522384139.1568174     
   2431357195.7901902     
   2361811428.0493484     
   2300180443.8757339     
   2247093906.2263002     
   2203195452.4077759     
   2395934813.1302662     
   2307616247.3747563     
   2226702882.3339248     
   2153959316.2603827     
   2090221032.9245567     
   2398293557.8432708     
   2291121318.5104542     
   2190450306.6782827     
   2097093536.2043316     
   2012001741.2356968     
   2440412017.5479388     
   2315149293.1167669     
   2195206663.1797266     
   2081325223.4610226     
   1974432330.7776873     
   2522384139.1568174     
   2380496673.2849927     
   2242668181.1830139     
   2109461782.6971400     
   1981633590.6477001     
   2203195452.4077759     
   2147234989.8450842     
   2106317308.4732203     
   2081236435.0237288     
   2072691912.2121320     
   2090221032.9245567     
   2014192194.1479211     
   1950612131.6844995     
   1900585387.4532943     
   1865167021.1341422     
   2012001741.2356968     
   1914542803.8076570     
   1825944587.8533971     
   1747428534.5677452     
   1680312217.7808654     
   1974432330.7776873     
   1857176602.8662462     
   1744382131.7330506     
   1636984939.9750810     
   1536134857.6092973     
   1981633590.6477001     
   1849743037.4756629     
   1717993475.4247887     
   1586740741.3704121     
   1456498300.2461133     
   2072691912.2121320     
   2069123376.1772344     
   2084784417.3486333     
   2122301707.1778817     
   2185491974.5307322     
   1865167021.1341422     
   1854694041.3244228     
   1867181197.1137283     
   1904830156.5683539     
   1970672980.2961829     
   1680312217.7808654     
   1651946715.2172999     
   1651287378.0152671     
   1680691976.6313353     
   1742764633.1266904     
   1536134857.6092973     
   1475483583.2500439     
   1447511839.6089993     
   1456169193.9689555     
   1504736835.7511156     
   1456498300.2461133     
   1347765270.3358066     
   1274009902.5130713     
   1243337404.9593253     
   1262760950.0859454     
   2185491974.5307322     
   2156205235.8360176     
   2146514583.5861070     
   2166939271.7319899     
   2228544734.8868647     
   1970672980.2961829     
   1968870335.4114659     
   2003614113.0687518     
   2093571983.1057274     
   2257395653.9888926     
   1742764633.1266904     
   1787620474.9809661     
   1884625808.6602104     
   2060680660.0974450     
   2341004691.8932972     
   1504736835.7511156     
   1613171117.3174422     
   1788808992.9806783     
   2066388258.4153385     
   2476102870.2137427     
   1262760950.0859454     
   1446563784.7746527     
   1715599013.9971852     
   2110429199.5017064     
   2663478261.5230041     
   5158785382.2628622     
   4893325633.7117376     
   4647462369.5116472     
   4418334967.3570633     
   4204483562.6769819     
   5369882309.2106342     
   5133761189.8761883     
   4896387196.1954365     
   4657652301.1031551     
   4417489286.0858889     
   5445695948.5423813     
   5237788368.0381107     
   5036955743.9597597     
   4837836030.6500616     
   4636200093.3732767     
   5370818410.9073420     
   5188762244.5893717     
   5053823122.9128561     
   4945806270.2740402     
   4849659903.4891758     
   5204219139.7424335     
   5012961017.6419525     
   4954234857.6768179     
   4979413018.7081547     
   5051120917.9262762     
   4204483562.6769819     
   4048319983.5092578     
   3897487765.4642076     
   3752181986.7293668     
   3612773847.6650219     
   4417489286.0858889     
   4255863904.8483543     
   4096747987.1508474     
   3940351022.2303166     
   3786958530.5001931     
   4636200093.3732767     
   4471220662.3672218     
   4307802676.8890209     
   4145986830.2272472     
   3985831740.1890535     
   4849659903.4891758     
   4684754943.3829374     
   4522132636.1108141     
   4361512987.2850876     
   4202626340.1445622     
   5051120917.9262762     
   4890205053.0028172     
   4733856846.9153423     
   4581328628.4583063     
   4431923136.7585888     
   3612773847.6650219     
   3470329699.2956772     
   3330345277.4300179     
   3193090587.4639754     
   3058963584.0355911     
   3786958530.5001931     
   3634146306.3227372     
   3482351328.0835342     
   3331753243.4905095     
   3182620118.3897986     
   3985831740.1890535     
   3824286779.2951465     
   3662768668.9042482     
   3501378850.2228780     
   3340271229.5763850     
   4202626340.1445622     
   4034206988.0693965     
   3865245083.9916682     
   3695787430.4639316     
   3525907257.8119159     
   4431923136.7585888     
   4258551106.0629454     
   4084439698.5118403     
   3909605469.1746120     
   3734076867.2487178     
   3058963584.0355911     
   2920395078.7454720     
   2784573435.4671183     
   2651781965.1605568     
   2522384139.1568174     
   3182620118.3897986     
   3035261097.1199112     
   2890313709.6105599     
   2748035070.8892651     
   2608774072.7783155     
   3340271229.5763850     
   3182919934.3124404     
   3027541415.3877110     
   2874364890.6868801     
   2723723899.5630116     
   3525907257.8119159     
   3357191556.5681868     
   3189925815.7438874     
   3024311353.8367677     
   2860666882.7414999     
   3734076867.2487178     
   3552525794.5706725     
   3371837461.3946490     
   3192186219.3521142     
   3013877058.2204452     
   2522384139.1568174     
   2380496673.2849927     
   2242668181.1830139     
   2109461782.6971400     
   1981633590.6477001     
   2608774072.7783155     
   2458414258.8809118     
   2309913632.0051446     
   2163587209.6586304     
   2019863860.6232059     
   2723723899.5630116     
   2568098942.7740607     
   2412800963.9198408     
   2257939392.4112282     
   2103663812.5016353     
   2860666882.7414999     
   2703382536.1986284     
   2545580087.4145403     
   2387261592.2351065     
   2228437247.5650625     
   3013877058.2204452     
   2858600874.9274445     
   2702576082.2280359     
   2545796969.3506966     
   2388280691.0539012     
   1981633590.6477001     
   1849743037.4756629     
   1717993475.4247887     
   1586740741.3704121     
   1456498300.2461133     
   2019863860.6232059     
   1882181913.0773292     
   1744849759.2304578     
   1607989977.4697387     
   1471771975.0621500     
   2103663812.5016353     
   1962926938.9091122     
   1823135960.9372137     
   1684313608.8174565     
   1546510791.1764488     
   2228437247.5650625     
   2085676033.9757953     
   1944555290.7394934     
   1805073804.9859231     
   1667307467.6800976     
   2388280691.0539012     
   2242904272.9521656     
   2099737071.6073039     
   1958787023.5362520     
   1820228453.5052519     
   1456498300.2461133     
   1347765270.3358066     
   1274009902.5130713     
   1243337404.9593253     
   1262760950.0859454     
   1471771975.0621500     
   1327793146.0716434     
   1198288802.0487690     
   1087731172.8705332     
   1002008167.5246408     
   1546510791.1764488     
   1396866065.3605452     
   1243671733.7236290     
   1084657895.5788140     
   917794328.18875408     
   1667307467.6800976     
   1552084511.7186742     
   1427751755.0495517     
   1294670030.8815899     
   1158950833.9342489     
   1820228453.5052519     
   1779703474.2828116     
   1735648508.7614992     
   1696697760.2395473     
   1681323331.3412423     
   1262760950.0859454     
   1446563784.7746527     
   1715599013.9971852     
   2110429199.5017064     
   2663478261.5230041     
   1002008167.5246408     
   1164657705.7878840     
   1425362494.3245711     
   1808690098.2443955     
   2334711684.8373704     
   917794328.18875408     
   963134951.59294069     
   1144901331.6858711     
   1476437333.1428297     
   1957415978.8978105     
   1158950833.9342489     
   1008464919.8646086     
   985221626.01441801     
   1161472344.2718420     
   1544109598.9663556     
   1681323331.3412423     
   1383766987.6311066     
   1129477224.5076678     
   1010165486.9290497     
   1153090972.5571382     
 </DataArray>
 <DataArray  type="Float64" Name="strain" NumberOfComponents="3" format="ascii">
   7.4975883232049290E-002  -2.9110491613166034E-002  -6.0828282893639063E-002
   7.7058868382048340E-002  -2.8547825648541636E-002  -4.3256091885099268E-002
   7.9141853532047279E-002  -2.7849157566530391E-002  -2.9853670572738245E-002
   8.1224838682046219E-002  -2.7014487367131412E-002  -2.0621018956556214E-002
   8.3307823832045269E-002  -2.6043815050345032E-002  -1.5558137036553288E-002
   8.6304733711750514E-002  -2.7360792501438524E-002  -3.3779547095765139E-002
   8.4911683384669145E-002  -2.6867683610159565E-002  -2.2000380131829977E-002
   8.3518633057587777E-002  -2.6228132666937243E-002  -1.3003514425876439E-002
   8.2125582730506463E-002  -2.5442139671771946E-002  -6.7889499779043017E-003
   8.0732532403425095E-002  -2.4509704624663564E-002  -3.3566867879138984E-003
   9.1005603843082816E-002  -2.5611093389711070E-002  -6.8055883385143012E-003
   8.7523986477118620E-002  -2.5187541571777161E-002  -8.0900548462808919E-004
   8.4042369111154425E-002  -2.4607107767344261E-002   3.7927445494739809E-003
   8.0560751745190118E-002  -2.3869791976412702E-002   6.9996617637915620E-003
   7.7079134379225922E-002  -2.2975594198982319E-002   8.8117461583251955E-003
   8.9078493626046584E-002  -2.3861394277983616E-002   2.0093593378113894E-002
   8.4895777659396834E-002  -2.3507399533394743E-002   2.0318032056506508E-002
   8.0713061692747098E-002  -2.2986082867751417E-002   2.0535106353312571E-002
   7.6530345726097390E-002  -2.2297444281053402E-002   2.0744816268531821E-002
   7.2347629759447613E-002  -2.1441483773300962E-002   2.0947161802164369E-002
   8.0523403060641596E-002  -2.2111695166256107E-002   4.6917998054118615E-002
   7.7027056931503746E-002  -2.1827257495012353E-002   4.1380732491573702E-002
   7.3530710802365978E-002  -2.1365057968158283E-002   3.7223570985639692E-002
   7.0034364673228169E-002  -2.0725096585694196E-002   3.4446513536316073E-002
   6.6538018544090416E-002  -1.9907373347619606E-002   3.3049560143603329E-002
   8.3307823832045269E-002  -2.6043815050345032E-002  -1.5558137036553288E-002
   8.0914821680879712E-002  -2.5033788468046159E-002  -1.2382211284342359E-002
   7.8521819529713988E-002  -2.4081055472110424E-002  -9.5873037605376243E-003
   7.6128817378548347E-002  -2.3185616062536982E-002  -7.1734144651385001E-003
   7.3735815227382706E-002  -2.2347470239326039E-002  -5.1405433981451809E-003
   8.0732532403425095E-002  -2.4509704624663564E-002  -3.3566867879138984E-003
   7.8048188952814124E-002  -2.3535838342619270E-002  -1.2296272865384983E-003
   7.5363845502203014E-002  -2.2625551642645639E-002   6.9576784435210204E-004
   7.2679502051591974E-002  -2.1778844524742925E-002   2.4194986047578609E-003
   6.9995158600980933E-002  -2.0995716988911117E-002   3.9415649946784592E-003
   7.7079134379225922E-002  -2.2975594198982319E-002   8.8117461583251955E-003
   7.4282803487090376E-002  -2.2037888217191937E-002   9.8836534131572368E-003
   7.1486472594954872E-002  -2.1170047813180964E-002   1.0933250155425109E-002
   6.8690141702819341E-002  -2.0372072986949090E-002   1.1960536385129117E-002
   6.5893810810683823E-002  -1.9643963738496306E-002   1.2965512102269094E-002
   7.2347629759447613E-002  -2.1441483773300962E-002   2.0947161802164369E-002
   6.9618665283708608E-002  -2.0539938091764826E-002   2.0957630814744384E-002
   6.6889700807969535E-002  -1.9714543983716401E-002   2.1125143172681479E-002
   6.4160736332230503E-002  -1.8965301449155144E-002   2.1449698875975320E-002
   6.1431771856491464E-002  -1.8292210488081329E-002   2.1931297924626392E-002
   6.6538018544090416E-002  -1.9907373347619606E-002   3.3049560143603329E-002
   6.4055774342668681E-002  -1.9041987966337770E-002   3.1992304918223413E-002
   6.1573530141247029E-002  -1.8259040154251727E-002   3.1271446896121269E-002
   5.9091285939825391E-002  -1.7558529911361254E-002   3.0886986077297091E-002
   5.6609041738403698E-002  -1.6940457237666462E-002   3.0838922461750518E-002
   7.3735815227382706E-002  -2.2347470239326039E-002  -5.1405433981451809E-003
   7.0849581653651517E-002  -2.1511704744533122E-002  -4.7104604981110798E-003
   6.7963348079920161E-002  -2.0623406320213200E-002  -4.2450129145250592E-003
   6.5077114506188832E-002  -1.9682574966366578E-002  -3.7442006473860090E-003
   6.2190880932457615E-002  -1.8689210682993229E-002  -3.2080236966949283E-003
   6.9995158600980933E-002  -2.0995716988911117E-002   3.9415649946784592E-003
   6.7166907189335545E-002  -2.0216905430999521E-002   4.0873144872288214E-003
   6.4338655777690129E-002  -1.9383146246858579E-002   4.3136636203983947E-003
   6.1510404366044755E-002  -1.8494439436487382E-002   4.6206123941874566E-003
   5.8682152954399325E-002  -1.7550784999886382E-002   5.0081608085954521E-003
   6.5893810810683823E-002  -1.9643963738496306E-002   1.2965512102269094E-002
   6.3168776518191166E-002  -1.8922106117466531E-002   1.2829342884038919E-002
   6.0443742225698469E-002  -1.8142886173503736E-002   1.2819008263494761E-002
   5.7718707933205805E-002  -1.7306303906608186E-002   1.2934508240636633E-002
   5.4993673640713114E-002  -1.6412359316779646E-002   1.3175842815464855E-002
   6.1431771856491464E-002  -1.8292210488081329E-002   2.1931297924626392E-002
   5.8855189640218304E-002  -1.7627306803933235E-002   2.1515624692318665E-002
   5.6278607423945165E-002  -1.6902626100149115E-002   2.1271021014763934E-002
   5.3702025207672061E-002  -1.6118168376728879E-002   2.1197486891962311E-002
   5.1125442991398914E-002  -1.5273933633672854E-002   2.1295022323913462E-002
   5.6609041738403698E-002  -1.6940457237666462E-002   3.0838922461750518E-002
   5.4226146555416965E-002  -1.6332507490400022E-002   3.0146159912068426E-002
   5.1843251372430205E-002  -1.5662366026794300E-002   2.9669701874206311E-002
   4.9460356189443513E-002  -1.4930032846849829E-002   2.9409548348163783E-002
   4.7077461006456767E-002  -1.4135507950566062E-002   2.9365699333941175E-002
   6.2190880932457615E-002  -1.8689210682993229E-002  -3.2080236966949283E-003
   5.9190738214591310E-002  -1.7709005444886294E-002  -2.7623479910272586E-003
   5.6190595496724949E-002  -1.6807651226838194E-002  -2.1087202168176278E-003
   5.3190452778858588E-002  -1.5985148028849414E-002  -1.2471403740664799E-003
   5.0190310060992283E-002  -1.5241495850920161E-002  -1.7760846277403708E-004
   5.8682152954399325E-002  -1.7550784999886382E-002   5.0081608085954521E-003
   5.5879405661684201E-002  -1.6611842540642852E-002   5.1919172347429932E-003
   5.3076658368969049E-002  -1.5737271662344121E-002   5.5625124426512129E-003
   5.0273911076253910E-002  -1.4927072364989871E-002   6.1199464323203889E-003
   4.7471163783538717E-002  -1.4181244648580504E-002   6.8642192037497995E-003
   5.4993673640713114E-002  -1.6412359316779646E-002   1.3175842815464855E-002
   5.2367208486368333E-002  -1.5514679636399631E-002   1.3112159401206774E-002
   4.9740743332023496E-002  -1.4666892097850076E-002   1.3214201481928339E-002
   4.7114278177678715E-002  -1.3868996701130336E-002   1.3481969057629814E-002
   4.4487813023333905E-002  -1.3120993446240514E-002   1.3915462128310851E-002
   5.1125442991398914E-002  -1.5273933633672854E-002   2.1295022323913462E-002
   4.8654146688643568E-002  -1.4417516732156521E-002   2.0998378508363974E-002
   4.6182850385888277E-002  -1.3596512533355684E-002   2.0846346901013675E-002
   4.3711554083132952E-002  -1.2810921037270575E-002   2.0838927501862021E-002
   4.1240257780377695E-002  -1.2060742243900691E-002   2.0976120310909896E-002
   4.7077461006456767E-002  -1.4135507950566062E-002   2.9365699333941175E-002
   4.4740220268510072E-002  -1.3320353827913300E-002   2.8850574556214925E-002
   4.2402979530563434E-002  -1.2526132968861792E-002   2.8458948699907283E-002
   4.0065738792616740E-002  -1.1752845373410717E-002   2.8190821765017388E-002
   3.7728498054670045E-002  -1.1000491041560978E-002   2.8046193751545934E-002
   5.0190310060992283E-002  -1.5241495850920161E-002  -1.7760846277403708E-004
   4.7591935045466105E-002  -1.4509123132141255E-002  -5.6202470723132336E-005
   4.4993560029939872E-002  -1.3720458311605510E-002  -1.0185307211862948E-005
   4.2395185014413639E-002  -1.2875501389312094E-002  -3.9556972239562782E-005
   3.9796809998887461E-002  -1.1974252365260618E-002  -1.4431746580689797E-004
   4.7471163783538717E-002  -1.4181244648580504E-002   6.8642192037497995E-003
   4.4828262059679158E-002  -1.3447445008484382E-002   6.8005865982928571E-003
   4.2185360335819655E-002  -1.2673329940071365E-002   6.7232894047086211E-003
   3.9542458611960096E-002  -1.1858899443340884E-002   6.6323276229970918E-003
   3.6899556888100427E-002  -1.1004153518294313E-002   6.5277012531584910E-003
   4.4487813023333905E-002  -1.3120993446240514E-002   1.3915462128310851E-002
   4.1862108831553169E-002  -1.2385766884827509E-002   1.3650814251906007E-002
   3.9236404639772432E-002  -1.1626201568537886E-002   1.3434226027785684E-002
   3.6610700447991668E-002  -1.0842297497371228E-002   1.3265697455950382E-002
   3.3984996256211042E-002  -1.0034054671327786E-002   1.3145228536400100E-002
   4.1240257780377695E-002  -1.2060742243900691E-002   2.0976120310909896E-002
   3.8693475361087998E-002  -1.1324088761170192E-002   2.0494480490115916E-002
   3.6146692941798335E-002  -1.0579073197004074E-002   2.0122624562019339E-002
   3.3599910522508700E-002  -9.8256955514005734E-003   1.9860552526619821E-002
   3.1053128103218981E-002  -9.0639558243612584E-003   1.9708264383917554E-002
   3.7728498054670045E-002  -1.1000491041560978E-002   2.8046193751545934E-002
   3.5322361648283673E-002  -1.0262410637513486E-002   2.7331585312923123E-002
   3.2916225241897301E-002  -9.5319448254700401E-003   2.6788485007409879E-002
   3.0510088835510873E-002  -8.8090936054303071E-003   2.6416892835005645E-002
   2.8103952429124557E-002  -8.0938569773947311E-003   2.6216808795710755E-002
   3.9796809998887461E-002  -1.1974252365260618E-002  -1.4431746580689797E-004
   3.7401020564381771E-002  -1.1128499159935745E-002  -3.6545875668014816E-004
   3.5005231129876080E-002  -1.0450029693822860E-002  -5.1471389804058632E-004
   3.2609441695370361E-002  -9.9388439669200884E-003  -5.9208288988787938E-004
   3.0213652260864698E-002  -9.5949419792287216E-003  -5.9756573222347065E-004
   3.6899556888100427E-002  -1.1004153518294313E-002   6.5277012531584910E-003
   3.4559977216923832E-002  -1.0185288502324918E-002   6.1338955621571545E-003
   3.2220397545747181E-002  -9.4785007328291870E-003   5.7806232483006981E-003
   2.9880817874570587E-002  -8.8837902098065913E-003   5.4678843115903430E-003
   2.7541238203393881E-002  -8.4011569332573810E-003   5.1956787520248682E-003
   3.3984996256211042E-002  -1.0034054671327786E-002   1.3145228536400100E-002
   3.1670273575996111E-002  -9.2420778447137031E-003   1.2633964938008113E-002
   2.9355550895781138E-002  -8.5069717718357085E-003   1.2131881944393991E-002
   2.7040828215566241E-002  -7.8287364526930872E-003   1.1638979555557954E-002
   2.4726105535351317E-002  -7.2073718872862624E-003   1.1155257771499949E-002
   3.1053128103218981E-002  -9.0639558243612584E-003   1.9708264383917554E-002
   2.8731909641598524E-002  -8.2988671871024600E-003   1.9134749370872367E-002
   2.6410691179978022E-002  -7.5354428108417998E-003   1.8539062190237980E-002
   2.4089472718357534E-002  -6.7736826955791425E-003   1.7921202842014577E-002
   2.1768254256737014E-002  -6.0135868413149218E-003   1.7281171326201286E-002
   2.8103952429124557E-002  -8.0938569773947311E-003   2.6216808795710755E-002
   2.5744885413731156E-002  -7.3556565294913279E-003   2.5636248860750221E-002
   2.3385818398337754E-002  -6.5639138498482519E-003   2.5002163985833215E-002
   2.1026751382944381E-002  -5.7186289384658986E-003   2.4314554170959485E-002
   1.8667684367550952E-002  -4.8198017953438033E-003   2.3573419416128893E-002
   3.0213652260864698E-002  -9.5949419792287216E-003  -5.9756573222347065E-004
   2.9605089947410734E-002  -9.1304914195993181E-003  -3.6022372061061958E-004
   2.8996527633956715E-002  -8.2576599768827141E-003  -1.8007598810523273E-003
   2.8387965320502778E-002  -6.9764476510792567E-003  -4.9191742135496486E-003
   2.7779403007048731E-002  -5.2868544421891261E-003  -9.7154667181016396E-003
   2.7541238203393881E-002  -8.4011569332573810E-003   5.1956787520248682E-003
   2.5523545353291932E-002  -7.8690101123172207E-003   5.8687923976441514E-003
   2.3505852503190011E-002  -7.1257589561219969E-003   5.4015231420228571E-003
   2.1488159653088104E-002  -6.1714034646717653E-003   3.7938709851611518E-003
   1.9470466802986142E-002  -5.0059436379668032E-003   1.0458359270575368E-003
   2.4726105535351317E-002  -7.2073718872862624E-003   1.1155257771499949E-002
   2.1836777419415698E-002  -6.6075288050356784E-003   1.2066866503293805E-002
   1.8947449303479982E-002  -5.9938579353612520E-003   1.2375587604661425E-002
   1.6058121187544315E-002  -5.3663592782647110E-003   1.2081421075601895E-002
   1.3168793071608648E-002  -4.7250328337439251E-003   1.1184366916116517E-002
   2.1768254256737014E-002  -6.0135868413149218E-003   1.7281171326201286E-002
   1.8544786145781880E-002  -5.3460474977538586E-003   1.8233998596338022E-002
   1.5321318034826722E-002  -4.8619569146012981E-003   1.9121433506862899E-002
   1.2097849923871638E-002  -4.5613150918565500E-003   1.9943476057774672E-002
   8.8743818129164362E-003  -4.4441220295206585E-003   2.0700126249074399E-002
   1.8667684367550952E-002  -4.8198017953438033E-003   2.3573419416128893E-002
   1.5647571532390603E-002  -4.0845661904720387E-003   2.4370188676776761E-002
   1.2627458697230198E-002  -3.7300558938402617E-003   2.5639060848626549E-002
   9.6073458620698632E-003  -3.7562709054492285E-003   2.7380035931678204E-002
   6.5872330269094448E-003  -4.1632112252981690E-003   2.9593113925932113E-002
   2.7779403007048731E-002  -5.2868544421891261E-003  -9.7154667181016396E-003
   2.3353306461577850E-002  -4.2062367780273391E-003  -4.1862099340927994E-003
   1.8927209916106913E-002  -4.7519510864079684E-003   2.6062416779737418E-003
   1.4501113370636004E-002  -6.9239973673336092E-003   1.0661888118099816E-002
   1.0075016825165095E-002  -1.0722375620800584E-002   1.9980729386283258E-002
   1.9470466802986142E-002  -5.0059436379668032E-003   1.0458359270575368E-003
   1.6235328527009041E-002  -4.6909658263687426E-003   6.7409184561801894E-003
   1.3000190251031940E-002  -6.2880563802416023E-003   1.3554722696232147E-002
   9.7650519750550335E-003  -9.7972152995851464E-003   2.1487248647213408E-002
   6.5299136990779605E-003  -1.5218442584399305E-002   3.0538496309125307E-002
   1.3168793071608648E-002  -4.7250328337439251E-003   1.1184366916116517E-002
   1.0980139947996570E-002  -5.1756948747105902E-003   1.6759538797425422E-002
   8.7914868243845340E-003  -7.8241616740745978E-003   2.3308959272535318E-002
   6.6028337007725049E-003  -1.2670433231837690E-002   3.0832628341445442E-002
   4.4141805771604203E-003  -1.9714509547998027E-002   3.9330546004155975E-002
   8.8743818129164362E-003  -4.4441220295206585E-003   2.0700126249074399E-002
   7.5877407245403122E-003  -5.6604239230515496E-003   2.5869651089642606E-002
   6.3010996361643028E-003  -9.3602669679081346E-003   3.1868951406882430E-002
   5.0144585477883644E-003  -1.5543651164089508E-002   3.8698027200793947E-002
   3.7278174594121555E-003  -2.4210576511596749E-002   4.6356878471376650E-002
   6.5872330269094448E-003  -4.1632112252981690E-003   2.9593113925932113E-002
   6.0581308566405312E-003  -6.1451529713933972E-003   3.4071255332831951E-002
   5.5290286863716176E-003  -1.0896372261741089E-002   3.9234699099274406E-002
   4.9999265161026762E-003  -1.8416869096342013E-002   4.5083445225260227E-002
   4.4708243458337904E-003  -2.8706643475195470E-002   5.1617493710787166E-002
   8.0523403060641596E-002  -2.2111695166256107E-002   4.6917998054118615E-002
   7.7027056931503746E-002  -2.1827257495012353E-002   4.1380732491573702E-002
   7.3530710802365978E-002  -2.1365057968158283E-002   3.7223570985639692E-002
   7.0034364673228169E-002  -2.0725096585694196E-002   3.4446513536316073E-002
   6.6538018544090416E-002  -1.9907373347619606E-002   3.3049560143603329E-002
   6.9634936772238615E-002  -2.0348452170272147E-002   4.5691823275507137E-002
   6.7312351339319815E-002  -1.9988396129749730E-002   4.2058049346163501E-002
   6.4989765906401056E-002  -1.9508889762397674E-002   3.9391692752647228E-002
   6.2667180473482242E-002  -1.8909933068215978E-002   3.7692753494958153E-002
   6.0344595040563442E-002  -1.8191526047204643E-002   3.6961231573096720E-002
   6.0707699386208389E-002  -1.8585209174288159E-002   4.4570422630564863E-002
   5.9146187928725336E-002  -1.8149534764487135E-002   4.2781828805641520E-002
   5.7584676471242303E-002  -1.7652721556637017E-002   4.1547965595762439E-002
   5.6023165013759257E-002  -1.7094769550737847E-002   4.0868833000927432E-002
   5.4461653556276246E-002  -1.6475678746789624E-002   4.0744431021136646E-002
   5.3741690902550862E-002  -1.6821966178304185E-002   4.3553796119291360E-002
   5.2528566699720385E-002  -1.6310673399224512E-002   4.3552070870007981E-002
   5.1315442496889886E-002  -1.5796553350876385E-002   4.3692389514985559E-002
   5.0102318294059277E-002  -1.5279606033259754E-002   4.3974752054223860E-002
   4.8889194091228785E-002  -1.4759831446374633E-002   4.4399158487723231E-002
   4.8736911321266119E-002  -1.5058723182320211E-002   4.2641943741686672E-002
   4.7459487652304816E-002  -1.4471812033961945E-002   4.4368775539262661E-002
   4.6182063983343569E-002  -1.3940385145115738E-002   4.5824964510316174E-002
   4.4904640314382308E-002  -1.3464442515781518E-002   4.7010510654847446E-002
   4.3627216645421019E-002  -1.3043984145959642E-002   4.7925413972856157E-002
   6.6538018544090416E-002  -1.9907373347619606E-002   3.3049560143603329E-002
   6.4055774342668681E-002  -1.9041987966337770E-002   3.1992304918223413E-002
   6.1573530141247029E-002  -1.8259040154251727E-002   3.1271446896121269E-002
   5.9091285939825391E-002  -1.7558529911361254E-002   3.0886986077297091E-002
   5.6609041738403698E-002  -1.6940457237666462E-002   3.0838922461750518E-002
   6.0344595040563442E-002  -1.8191526047204643E-002   3.6961231573096720E-002
   5.8172897490964035E-002  -1.7438962190452836E-002   3.6121820703228544E-002
   5.6001199941364585E-002  -1.6737534989049896E-002   3.5567105933727125E-002
   5.3829502391765136E-002  -1.6087244442995877E-002   3.5297087264592270E-002
   5.1657804842165728E-002  -1.5488090552290668E-002   3.5311764695824005E-002
   5.4461653556276246E-002  -1.6475678746789624E-002   4.0744431021136646E-002
   5.2548801555587873E-002  -1.5835936414567903E-002   4.0154165420627136E-002
   5.0635949554899522E-002  -1.5216029823848176E-002   3.9796894817573369E-002
   4.8723097554211114E-002  -1.4615958974630500E-002   3.9672619211974847E-002
   4.6810245553522797E-002  -1.4035723866914818E-002   3.9781338603831706E-002
   4.8889194091228785E-002  -1.4759831446374633E-002   4.4399158487723231E-002
   4.7183486536540267E-002  -1.4232910638682969E-002   4.4089339070419203E-002
   4.5477778981851735E-002  -1.3694524658646401E-002   4.3960813547659516E-002
   4.3772071427163217E-002  -1.3144673506265123E-002   4.4013581919444135E-002
   4.2066363872474699E-002  -1.2583357181539107E-002   4.4247644185773129E-002
   4.3627216645421019E-002  -1.3043984145959642E-002   4.7925413972856157E-002
   4.2076952433821160E-002  -1.2629884862798035E-002   4.7927341652604621E-002
   4.0526688222221330E-002  -1.2173019493444709E-002   4.8058862123986135E-002
   3.8976424010621513E-002  -1.1673388037899905E-002   4.8319975387000572E-002
   3.7426159799021669E-002  -1.1130990496163229E-002   4.8710681441648251E-002
   5.6609041738403698E-002  -1.6940457237666462E-002   3.0838922461750518E-002
   5.4226146555416965E-002  -1.6332507490400022E-002   3.0146159912068426E-002
   5.1843251372430205E-002  -1.5662366026794300E-002   2.9669701874206311E-002
   4.9460356189443513E-002  -1.4930032846849829E-002   2.9409548348163783E-002
   4.7077461006456767E-002  -1.4135507950566062E-002   2.9365699333941175E-002
   5.1657804842165728E-002  -1.5488090552290668E-002   3.5311764695824005E-002
   4.9484771319966814E-002  -1.4892127360477542E-002   3.4769710389657010E-002
   4.7311737797767872E-002  -1.4251408911099439E-002   3.4431074893245386E-002
   4.5138704275568958E-002  -1.3565935204156998E-002   3.4295858206589945E-002
   4.2965670753370072E-002  -1.2835706239649747E-002   3.4364060329690083E-002
   4.6810245553522797E-002  -1.4035723866914818E-002   3.9781338603831706E-002
   4.4834187990047597E-002  -1.3451747230555020E-002   3.9372556082404975E-002
   4.2858130426572473E-002  -1.2840451795404842E-002   3.9154306668670022E-002
   4.0882072863097293E-002  -1.2201837561464330E-002   3.9126590362626675E-002
   3.8906015299622149E-002  -1.1535904528733321E-002   3.9289407164275092E-002
   4.2066363872474699E-002  -1.2583357181539107E-002   4.4247644185773129E-002
   4.0274396565659315E-002  -1.2011367100632574E-002   4.3954696990312445E-002
   3.8482429258843917E-002  -1.1429494679710113E-002   4.3839397200479566E-002
   3.6690461952028526E-002  -1.0837739918771414E-002   4.3901744816274589E-002
   3.4898494645213142E-002  -1.0236102817817005E-002   4.4141739837697161E-002
   3.7426159799021669E-002  -1.1130990496163229E-002   4.8710681441648251E-002
   3.5805397046801968E-002  -1.0570986970710156E-002   4.8516133113379489E-002
   3.4184634294582281E-002  -1.0018537564015384E-002   4.8486346488674364E-002
   3.2563871542362600E-002  -9.4736422760787475E-003   4.8621321567533071E-002
   3.0943108790142893E-002  -8.9363011069005238E-003   4.8921058349955471E-002
   4.7077461006456767E-002  -1.4135507950566062E-002   2.9365699333941175E-002
   4.4740220268510072E-002  -1.3320353827913300E-002   2.8850574556214925E-002
   4.2402979530563434E-002  -1.2526132968861792E-002   2.8458948699907283E-002
   4.0065738792616740E-002  -1.1752845373410717E-002   2.8190821765017388E-002
   3.7728498054670045E-002  -1.1000491041560978E-002   2.8046193751545934E-002
   4.2965670753370072E-002  -1.2835706239649747E-002   3.4364060329690083E-002
   4.0761016865938277E-002  -1.2088967831919761E-002   3.3893823463039346E-002
   3.8556362978506495E-002  -1.1353965795309159E-002   3.3565261376000188E-002
   3.6351709091074706E-002  -1.0630700129817466E-002   3.3378374068572678E-002
   3.4147055203642918E-002  -9.9191708354453567E-003   3.3333161540756495E-002
   3.8906015299622149E-002  -1.1535904528733321E-002   3.9289407164275092E-002
   3.6852124120898631E-002  -1.0857581835925945E-002   3.8873255101181628E-002
   3.4798232942175114E-002  -1.0181798621756416E-002   3.8616953675892920E-002
   3.2744341763451597E-002  -9.5085548862243255E-003   3.8520502888409081E-002
   3.0690450584728080E-002  -8.8378506293299020E-003   3.8583902738730136E-002
   3.4898494645213142E-002  -1.0236102817817005E-002   4.4141739837697161E-002
   3.3013542033391220E-002  -9.6261958399322112E-003   4.3788869470642047E-002
   3.1128589421569309E-002  -9.0096314482035339E-003   4.3614025599585507E-002
   2.9243636809747356E-002  -8.3864096426309077E-003   4.3617208224526971E-002
   2.7358684197925476E-002  -7.7565304232141974E-003   4.3798417345466939E-002
   3.0943108790142893E-002  -8.9363011069005238E-003   4.8921058349955471E-002
   2.9245270603415946E-002  -8.3948098439385332E-003   4.8640666571420743E-002
   2.7547432416689027E-002  -7.8374642746511097E-003   4.8556477147077753E-002
   2.5849594229962122E-002  -7.2642643990377294E-003   4.8668490076926321E-002
   2.4151756043235162E-002  -6.6752102170988259E-003   4.8976705360966655E-002
   3.7728498054670045E-002  -1.1000491041560978E-002   2.8046193751545934E-002
   3.5322361648283673E-002  -1.0262410637513486E-002   2.7331585312923123E-002
   3.2916225241897301E-002  -9.5319448254700401E-003   2.6788485007409879E-002
   3.0510088835510873E-002  -8.8090936054303071E-003   2.6416892835005645E-002
   2.8103952429124557E-002  -8.0938569773947311E-003   2.6216808795710755E-002
   3.4147055203642918E-002  -9.9191708354453567E-003   3.3333161540756495E-002
   3.1909547823386425E-002  -9.2160132369429881E-003   3.2734201420954179E-002
   2.9672040443129960E-002  -8.5178626590613482E-003   3.2300991220302472E-002
   2.7434533062873523E-002  -7.8247191017999512E-003   3.2033530938800903E-002
   2.5197025682617002E-002  -7.1365825651591441E-003   3.1931820576449998E-002
   3.0690450584728080E-002  -8.8378506293299020E-003   3.8583902738730136E-002
   2.8615814016642566E-002  -8.1696158363727400E-003   3.8103198509132075E-002
   2.6541177448556968E-002  -7.5037804926526563E-003   3.7782485984725195E-002
   2.4466540880471399E-002  -6.8403445981694844E-003   3.7621765165510052E-002
   2.2391904312385844E-002  -6.1793081529234462E-003   3.7621036051486062E-002
   2.7358684197925476E-002  -7.7565304232141974E-003   4.3798417345466939E-002
   2.5441160228051918E-002  -7.1232184358022005E-003   4.3438576577456089E-002
   2.3523636258178340E-002  -6.4896983262441865E-003   4.3232969300677979E-002
   2.1606112288304783E-002  -5.8559700945391285E-003   4.3181595515132370E-002
   1.9688588318431205E-002  -5.2220337406878592E-003   4.3284455220819272E-002
   2.4151756043235162E-002  -6.6752102170988259E-003   4.8976705360966655E-002
   2.2385586457614598E-002  -6.0768210352318830E-003   4.8740335625927167E-002
   2.0619416871994034E-002  -5.4756161598353559E-003   4.8652441168160976E-002
   1.8853247286373484E-002  -4.8715955909086270E-003   4.8713021987668359E-002
   1.7087077700752934E-002  -4.2647593284521612E-003   4.8922078084449594E-002
   2.8103952429124557E-002  -8.0938569773947311E-003   2.6216808795710755E-002
   2.5744885413731156E-002  -7.3556565294913279E-003   2.5636248860750221E-002
   2.3385818398337754E-002  -6.5639138498482519E-003   2.5002163985833215E-002
   2.1026751382944381E-002  -5.7186289384658986E-003   2.4314554170959485E-002
   1.8667684367550952E-002  -4.8198017953438033E-003   2.3573419416128893E-002
   2.5197025682617002E-002  -7.1365825651591441E-003   3.1931820576449998E-002
   2.2823591451649028E-002  -6.4448607608663111E-003   3.1525083635979334E-002
   2.0450157220681123E-002  -5.7409614006499465E-003   3.1143137204316440E-002
   1.8076722989713204E-002  -5.0248844845098561E-003   3.0785981281461094E-002
   1.5703288758745243E-002  -4.2966300124452905E-003   3.0453615867412909E-002
   2.2391904312385844E-002  -6.1793081529234462E-003   3.7621036051486062E-002
   2.0082418314607400E-002  -5.5340649922416829E-003   3.7346757429690042E-002
   1.7772932316829013E-002  -4.9180089514517383E-003   3.7175584765465799E-002
   1.5463446319050590E-002  -4.3311400305534771E-003   3.7107518058812759E-002
   1.3153960321272182E-002  -3.7734582295469998E-003   3.7142557309731344E-002
   1.9688588318431205E-002  -5.2220337406878592E-003   4.3284455220819272E-002
   1.7521366002606332E-002  -4.6232692236167494E-003   4.3101270241882025E-002
   1.5354143686781379E-002  -4.0950565022533150E-003   4.3099506669280585E-002
   1.3186921370956495E-002  -3.6373955765972108E-003   4.3279164503014673E-002
   1.1019699055131556E-002  -3.2502864466485426E-003   4.3640243743084069E-002
   1.7087077700752934E-002  -4.2647593284521612E-003   4.8922078084449594E-002
   1.5140434515645562E-002  -3.7124734549920935E-003   4.8788622072555410E-002
   1.3193791330538204E-002  -3.2721040530551415E-003   4.8914902915761171E-002
   1.1247148145430867E-002  -2.9436511226412568E-003   4.9300920614066351E-002
   9.3005049603234746E-003  -2.7271146637503074E-003   4.9946675167471422E-002
   1.8667684367550952E-002  -4.8198017953438033E-003   2.3573419416128893E-002
   1.5647571532390603E-002  -4.0845661904720387E-003   2.4370188676776761E-002
   1.2627458697230198E-002  -3.7300558938402617E-003   2.5639060848626549E-002
   9.6073458620698632E-003  -3.7562709054492285E-003   2.7380035931678204E-002
   6.5872330269094448E-003  -4.1632112252981690E-003   2.9593113925932113E-002
   1.5703288758745243E-002  -4.2966300124452905E-003   3.0453615867412909E-002
   1.3137033767394252E-002  -3.7810687431399370E-003   3.1238062597160055E-002
   1.0570778776043219E-002  -3.7030714352757899E-003   3.2458122103323772E-002
   8.0045237846922412E-003  -4.0626380888534527E-003   3.4113794385904617E-002
   5.4382687933411944E-003  -4.8597687038720583E-003   3.6205079444902033E-002
   1.3153960321272182E-002  -3.7734582295469998E-003   3.7142557309731344E-002
   1.1005073038945434E-002  -3.4775712958077243E-003   3.7857842855376245E-002
   8.8561857566186383E-003  -3.6760869767111931E-003   3.8972251042652964E-002
   6.7072984742918874E-003  -4.3690052722573404E-003   4.0485781871561453E-002
   4.5584111919650949E-003  -5.5563261824464472E-003   4.2398435342101443E-002
   1.1019699055131556E-002  -3.2502864466485426E-003   4.3640243743084069E-002
   9.2516893470439565E-003  -3.1740738484753450E-003   4.4229529451425796E-002
   7.4836796389564069E-003  -3.6491025181467143E-003   4.5181447666613875E-002
   5.7156699308688616E-003  -4.6753724556612853E-003   4.6495998388648714E-002
   3.9476602227812574E-003  -6.2528836610204752E-003   4.8173181617530293E-002
   9.3005049603234746E-003  -2.7271146637503074E-003   4.9946675167471422E-002
   7.8768826916900403E-003  -2.8705764011434654E-003   5.0353122385308091E-002
   6.4532604230565782E-003  -3.6221180595820968E-003   5.1085711975206616E-002
   5.0296381544231022E-003  -4.9817396390655563E-003   5.2144443937166912E-002
   3.6060158857896263E-003  -6.9494411395949474E-003   5.3529318271188453E-002
   6.5872330269094448E-003  -4.1632112252981690E-003   2.9593113925932113E-002
   6.0581308566405312E-003  -6.1451529713933972E-003   3.4071255332831951E-002
   5.5290286863716176E-003  -1.0896372261741089E-002   3.9234699099274406E-002
   4.9999265161026762E-003  -1.8416869096342013E-002   4.5083445225260227E-002
   4.4708243458337904E-003  -2.8706643475195470E-002   5.1617493710787166E-002
   5.4382687933411944E-003  -4.8597687038720583E-003   3.6205079444902033E-002
   5.4906537329575955E-003  -6.9937145597262496E-003   3.8345840202095915E-002
   5.5430386725741077E-003  -1.1363726935809171E-002   4.0964272819518255E-002
   5.5954236121905851E-003  -1.7969805832121169E-002   4.4060377297168440E-002
   5.6478085518070209E-003  -2.6811951248661758E-002   4.7634153635046861E-002
   4.5584111919650949E-003  -5.5563261824464472E-003   4.2398435342101443E-002
   4.9846527421522346E-003  -7.8422761480592129E-003   4.2735026473613325E-002
   5.4108942923394299E-003  -1.1831081609877156E-002   4.3341658966038712E-002
   5.8371358425265626E-003  -1.7522742567900217E-002   4.4218332819377641E-002
   6.2633773927137648E-003  -2.4917259022128047E-002   4.5365048033629729E-002
   3.9476602227812574E-003  -6.2528836610204752E-003   4.8173181617530293E-002
   4.5401278842245249E-003  -8.6908377363923428E-003   4.7238814147383942E-002
   5.1325955456677924E-003  -1.2298436283945190E-002   4.6366857538836528E-002
   5.7250632071109749E-003  -1.7075679303679099E-002   4.5557311791887684E-002
   6.3175308685543274E-003  -2.3022566795594335E-002   4.4810176906537658E-002
   3.6060158857896263E-003  -6.9494411395949474E-003   5.3529318271188453E-002
   4.1570791591743206E-003  -9.5393993247251396E-003   5.1857203223407589E-002
   4.7081424325590149E-003  -1.2765790958013057E-002   5.0039868537911092E-002
   5.2592057059436537E-003  -1.6628616039458435E-002   4.8077314214698852E-002
   5.8102689793284590E-003  -2.1127874569060623E-002   4.5969540253770091E-002
   4.8736911321266119E-002  -1.5058723182320211E-002   4.2641943741686672E-002
   4.7459487652304816E-002  -1.4471812033961945E-002   4.4368775539262661E-002
   4.6182063983343569E-002  -1.3940385145115738E-002   4.5824964510316174E-002
   4.4904640314382308E-002  -1.3464442515781518E-002   4.7010510654847446E-002
   4.3627216645421019E-002  -1.3043984145959642E-002   4.7925413972856157E-002
   4.4272180377006809E-002  -1.3113675466096375E-002   4.8671192938138041E-002
   4.2815982254165108E-002  -1.2647521582090426E-002   4.9566172738228970E-002
   4.1359784131323435E-002  -1.2211060922182840E-002   5.0374246457081162E-002
   3.9903586008481720E-002  -1.1804293486373508E-002   5.1095414094695119E-002
   3.8447387885640047E-002  -1.1427219274662698E-002   5.1729675651070561E-002
   3.8926317804425625E-002  -1.1168627749872512E-002   5.4566789352530357E-002
   3.7475081972987413E-002  -1.0823231130218866E-002   5.4655708190549698E-002
   3.6023846141549229E-002  -1.0481736699249837E-002   5.4841457692614441E-002
   3.4572610310111045E-002  -1.0144144456965444E-002   5.5124037858724856E-002
   3.3121374478672874E-002  -9.8104544033657537E-003   5.5503448688880630E-002
   3.2699323603522512E-002  -9.2235800336486345E-003   6.0328732984863354E-002
   3.1436786808771773E-002  -8.9989406783472989E-003   5.9637381896225167E-002
   3.0174250014021044E-002  -8.7524124763168863E-003   5.9226598216916101E-002
   2.8911713219270288E-002  -8.4839954275573518E-003   5.9096381946936567E-002
   2.7649176424519559E-002  -8.1936895320687542E-003   5.9246733086286411E-002
   2.5591197774297469E-002  -7.2785323174248129E-003   6.5957023835137352E-002
   2.4701096761518104E-002  -7.1746502264758427E-003   6.4511193855254889E-002
   2.3810995748738753E-002  -7.0230882533839356E-003   6.3529668029985997E-002
   2.2920894735959423E-002  -6.8238463981493275E-003   6.3012446359330343E-002
   2.2030793723180064E-002  -6.5769246607718657E-003   6.2959528843287926E-002
   4.3627216645421019E-002  -1.3043984145959642E-002   4.7925413972856157E-002
   4.2076952433821160E-002  -1.2629884862798035E-002   4.7927341652604621E-002
   4.0526688222221330E-002  -1.2173019493444709E-002   4.8058862123986135E-002
   3.8976424010621513E-002  -1.1673388037899905E-002   4.8319975387000572E-002
   3.7426159799021669E-002  -1.1130990496163229E-002   4.8710681441648251E-002
   3.8447387885640047E-002  -1.1427219274662698E-002   5.1729675651070561E-002
   3.7039692547038927E-002  -1.1049529904174460E-002   5.1635239578920800E-002
   3.5631997208437773E-002  -1.0640916992033102E-002   5.1696348461135244E-002
   3.4224301869836632E-002  -1.0201380538238528E-002   5.1913002297714159E-002
   3.2816606531235526E-002  -9.7309205427910106E-003   5.2285201088657335E-002
   3.3121374478672874E-002  -9.8104544033657537E-003   5.5503448688880630E-002
   3.1882200175801720E-002  -9.4691749455510510E-003   5.5300806320294070E-002
   3.0643025872930552E-002  -9.1088144906216056E-003   5.5279661068803318E-002
   2.9403851570059421E-002  -8.7293730385774836E-003   5.5440012934408055E-002
   2.8164677267188236E-002  -8.3308505894187646E-003   5.5781861917108433E-002
   2.7649176424519559E-002  -8.1936895320687542E-003   5.9246733086286411E-002
   2.6604475320109650E-002  -7.8888199869275311E-003   5.8924041876724849E-002
   2.5559774215699702E-002  -7.5767119892101095E-003   5.8808799946990162E-002
   2.4515073111289760E-002  -7.2573655389164948E-003   5.8901007297082350E-002
   2.3470372006879840E-002  -6.9307806360465324E-003   5.9200663927001351E-002
   2.2030793723180064E-002  -6.5769246607718657E-003   6.2959528843287926E-002
   2.1206517979962619E-002  -6.3084650283041221E-003   6.2504946248212900E-002
   2.0382242236745188E-002  -6.0446094877985579E-003   6.2283765095695914E-002
   1.9557966493527749E-002  -5.7853580392552145E-003   6.2295985385736941E-002
   1.8733690750310339E-002  -5.5307106826742447E-003   6.2541607118336340E-002
   3.7426159799021669E-002  -1.1130990496163229E-002   4.8710681441648251E-002
   3.5805397046801968E-002  -1.0570986970710156E-002   4.8516133113379489E-002
   3.4184634294582281E-002  -1.0018537564015384E-002   4.8486346488674364E-002
   3.2563871542362600E-002  -9.4736422760787475E-003   4.8621321567533071E-002
   3.0943108790142893E-002  -8.9363011069005238E-003   4.8921058349955471E-002
   3.2816606531235526E-002  -9.7309205427910106E-003   5.2285201088657335E-002
   3.1367631433375731E-002  -9.2458680461197651E-003   5.2050656385941751E-002
   2.9918656335515950E-002  -8.7625540886546449E-003   5.1994925288382024E-002
   2.8469681237656176E-002  -8.2809786703952268E-003   5.2118007795978506E-002
   2.7020706139796388E-002  -7.8011417913417258E-003   5.2419903908731025E-002
   2.8164677267188236E-002  -8.3308505894187646E-003   5.5781861917108433E-002
   2.6901541725280809E-002  -7.9207491215294717E-003   5.5513136419497955E-002
   2.5638406183373350E-002  -7.5065706132938503E-003   5.5437276428636065E-002
   2.4375270641465913E-002  -7.0883150647117060E-003   5.5554281944522790E-002
   2.3112135099558465E-002  -6.6659824757831776E-003   5.5864152967157979E-002
   2.3470372006879840E-002  -6.9307806360465324E-003   5.9200663927001351E-002
   2.2407127922517173E-002  -6.5956301969392131E-003   5.8903573214048620E-002
   2.1343883838154491E-002  -6.2505871379329725E-003   5.8813399909436764E-002
   2.0280639753791813E-002  -5.8956514590282408E-003   5.8930144013166007E-002
   1.9217395669429139E-002  -5.5308231602246155E-003   5.9253805525236264E-002
   1.8733690750310339E-002  -5.5307106826742447E-003   6.2541607118336340E-002
   1.7884390025084851E-002  -5.2705112723487879E-003   6.2221966769593462E-002
   1.7035089299859363E-002  -4.9946036625723167E-003   6.2123295730784206E-002
   1.6185788574633868E-002  -4.7029878533447755E-003   6.2245594001908378E-002
   1.5336487849408401E-002  -4.3956638446658869E-003   6.2588861582965782E-002
   3.0943108790142893E-002  -8.9363011069005238E-003   4.8921058349955471E-002
   2.9245270603415946E-002  -8.3948098439385332E-003   4.8640666571420743E-002
   2.7547432416689027E-002  -7.8374642746511097E-003   4.8556477147077753E-002
   2.5849594229962122E-002  -7.2642643990377294E-003   4.8668490076926321E-002
   2.4151756043235162E-002  -6.6752102170988259E-003   4.8976705360966655E-002
   2.7020706139796388E-002  -7.8011417913417258E-003   5.2419903908731025E-002
   2.5520556020583757E-002  -7.3157622597892769E-003   5.2169168528892723E-002
   2.4020405901371118E-002  -6.8175588840319601E-003   5.2117606929891230E-002
   2.2520255782158483E-002  -6.3065316640702890E-003   5.2265219111726921E-002
   2.1020105662945848E-002  -5.7826805999041664E-003   5.2612005074399337E-002
   2.3112135099558465E-002  -6.6659824757831776E-003   5.5864152967157979E-002
   2.1812644474505399E-002  -6.2367146756398817E-003   5.5640043523894844E-002
   2.0513153849452397E-002  -5.7976534934130255E-003   5.5618079288113929E-002
   1.9213663224399369E-002  -5.3487989291030134E-003   5.5798260259815061E-002
   1.7914172599346301E-002  -4.8901509827095069E-003   5.6180586438998675E-002
   1.9217395669429139E-002  -5.5308231602246155E-003   5.9253805525236264E-002
   1.8121535965180971E-002  -5.1576670914905004E-003   5.9053291556427079E-002
   1.7025676260932834E-002  -4.7777481027941500E-003   5.9057894221745337E-002
   1.5929816556684677E-002  -4.3910661941357109E-003   5.9267613521191219E-002
   1.4833956852436526E-002  -3.9976213655150139E-003   5.9682449454764676E-002
   1.5336487849408401E-002  -4.3956638446658869E-003   6.2588861582965782E-002
   1.4447230492610416E-002  -4.0786195073412301E-003   6.2408912626489288E-002
   1.3557973135812453E-002  -3.7578427121750385E-003   6.2437051730785814E-002
   1.2668715779014478E-002  -3.4333334591684327E-003   6.2673278895855097E-002
   1.1779458422216504E-002  -3.1050917483202989E-003   6.3117594121697373E-002
   2.4151756043235162E-002  -6.6752102170988259E-003   4.8976705360966655E-002
   2.2385586457614598E-002  -6.0768210352318830E-003   4.8740335625927167E-002
   2.0619416871994034E-002  -5.4756161598353559E-003   4.8652441168160976E-002
   1.8853247286373484E-002  -4.8715955909086270E-003   4.8713021987668359E-002
   1.7087077700752934E-002  -4.2647593284521612E-003   4.8922078084449594E-002
   2.1020105662945848E-002  -5.7826805999041664E-003   5.2612005074399337E-002
   1.9415010374304098E-002  -5.2532041129160212E-003   5.2414573023239430E-002
   1.7809915085662334E-002  -4.7253006244877271E-003   5.2390814288763798E-002
   1.6204819797020563E-002  -4.1989701346199226E-003   5.2540728870972275E-002
   1.4599724508378820E-002  -3.6742126433123579E-003   5.2864316769864417E-002
   1.7914172599346301E-002  -4.8901509827095069E-003   5.6180586438998675E-002
   1.6495349647093892E-002  -4.4295871905996598E-003   5.6017703379628636E-002
   1.5076526694841448E-002  -3.9749850891403343E-003   5.6053691676353060E-002
   1.3657703742589008E-002  -3.5263446783312218E-003   5.6288551329172161E-002
   1.2238880790336588E-002  -3.0836659581725545E-003   5.6722282338085822E-002
   1.4833956852436526E-002  -3.9976213655150139E-003   5.9682449454764676E-002
   1.3626604275983929E-002  -3.6059702682835482E-003   5.9549726695094063E-002
   1.2419251699531373E-002  -3.2246695537926570E-003   5.9641073330928648E-002
   1.1211899123078779E-002  -2.8537192220423526E-003   5.9956489362268363E-002
   1.0004546546626214E-002  -2.4931192730327512E-003   6.0495974789113192E-002
   1.1779458422216504E-002  -3.1050917483202989E-003   6.3117594121697373E-002
   1.0808774260974305E-002  -2.7823533459674921E-003   6.3010642969635988E-002
   9.8380900997321191E-003  -2.4743540184453960E-003   6.3152959252490481E-002
   8.8674059384899473E-003  -2.1810937657537263E-003   6.3544542970260659E-002
   7.8967217772477338E-003  -1.9025725878929478E-003   6.4185394122946327E-002
   1.7087077700752934E-002  -4.2647593284521612E-003   4.8922078084449594E-002
   1.5140434515645562E-002  -3.7124734549920935E-003   4.8788622072555410E-002
   1.3193791330538204E-002  -3.2721040530551415E-003   4.8914902915761171E-002
   1.1247148145430867E-002  -2.9436511226412568E-003   4.9300920614066351E-002
   9.3005049603234746E-003  -2.7271146637503074E-003   4.9946675167471422E-002
   1.4599724508378820E-002  -3.6742126433123579E-003   5.2864316769864417E-002
   1.2911223639699043E-002  -3.2062162721503973E-003   5.2743842837003896E-002
   1.1222722771019281E-002  -2.8501691427187947E-003   5.2879916681898592E-002
   9.5342219023395042E-003  -2.6060712550180914E-003   5.3272538304549102E-002
   7.8457210336597416E-003  -2.4739226090481070E-003   5.3921707704954691E-002
   1.2238880790336588E-002  -3.0836659581725545E-003   5.6722282338085822E-002
   1.0805333160740414E-002  -2.6999590893083403E-003   5.6614757714050334E-002
   9.3717855311442576E-003  -2.4282342323823231E-003   5.6760591790426543E-002
   7.9382379015480991E-003  -2.2684913873949226E-003   5.7159784567214302E-002
   6.5046902719519267E-003  -2.2207305543459621E-003   5.7812336044413631E-002
   1.0004546546626214E-002  -2.4931192730327512E-003   6.0495974789113192E-002
   8.8227630787697294E-003  -2.1937019064665192E-003   6.0401366703695378E-002
   7.6409796109131898E-003  -2.0062993220461359E-003   6.0556928241345231E-002
   6.4591961430566693E-003  -1.9309115197719776E-003   6.0962659402062698E-002
   5.2774126752001375E-003  -1.9675384996439560E-003   6.1618560185847902E-002
   7.8967217772477338E-003  -1.9025725878929478E-003   6.4185394122946327E-002
   6.9635133937868826E-003  -1.6874447236244761E-003   6.4103669805938401E-002
   6.0303050103260453E-003  -1.5843644117095601E-003   6.4268926034654339E-002
   5.0970966268651871E-003  -1.5933316521488244E-003   6.4681162809093973E-002
   4.1638882434043289E-003  -1.7143464449417278E-003   6.5340380129257247E-002
   9.3005049603234746E-003  -2.7271146637503074E-003   4.9946675167471422E-002
   7.8768826916900403E-003  -2.8705764011434654E-003   5.0353122385308091E-002
   6.4532604230565782E-003  -3.6221180595820968E-003   5.1085711975206616E-002
   5.0296381544231022E-003  -4.9817396390655563E-003   5.2144443937166912E-002
   3.6060158857896263E-003  -6.9494411395949474E-003   5.3529318271188453E-002
   7.8457210336597416E-003  -2.4739226090481070E-003   5.3921707704954691E-002
   6.7224877034811475E-003  -2.6547867904101463E-003   5.3855076487151488E-002
   5.5992543733025535E-003  -3.3497273847061526E-003   5.4063080774196498E-002
   4.4760210431239109E-003  -4.5587443919353418E-003   5.4545720566089709E-002
   3.3527877129453654E-003  -6.2818378120985674E-003   5.5302995862831161E-002
   6.5046902719519267E-003  -2.2207305543459621E-003   5.7812336044413631E-002
   5.6303390130148304E-003  -2.4389971796770216E-003   5.7366629899081728E-002
   4.7559877540777409E-003  -3.0773367098302223E-003   5.7144052391385106E-002
   3.8816364951406411E-003  -4.1357491448051308E-003   5.7144603521322980E-002
   3.0072852362035551E-003  -5.6142344846022985E-003   5.7368283288895816E-002
   5.2774126752001375E-003  -1.9675384996439560E-003   6.1618560185847902E-002
   4.6004366202911859E-003  -2.2232075689436887E-003   6.0887782621099236E-002
   3.9234605653822221E-003  -2.8049460349543406E-003   6.0328626826772008E-002
   3.2464845104732227E-003  -3.7127538976751400E-003   5.9941092802866108E-002
   2.5695084555642789E-003  -4.9466311571058630E-003   5.9725180549382126E-002
   4.1638882434043289E-003  -1.7143464449417278E-003   6.5340380129257247E-002
   3.6327805253101170E-003  -2.0074179582106333E-003   6.4418534653203352E-002
   3.1016728072159189E-003  -2.5325553600782924E-003   6.3616804080357581E-002
   2.5705650891217000E-003  -3.2897586505446358E-003   6.2935188410719933E-002
   2.0394573710274810E-003  -4.2790278296097606E-003   6.2373687644290521E-002
   3.6060158857896263E-003  -6.9494411395949474E-003   5.3529318271188453E-002
   4.1570791591743206E-003  -9.5393993247251396E-003   5.1857203223407589E-002
   4.7081424325590149E-003  -1.2765790958013057E-002   5.0039868537911092E-002
   5.2592057059436537E-003  -1.6628616039458435E-002   4.8077314214698852E-002
   5.8102689793284590E-003  -2.1127874569060623E-002   4.5969540253770091E-002
   3.3527877129453654E-003  -6.2818378120985674E-003   5.5302995862831161E-002
   3.7760738314958769E-003  -8.5497843878687974E-003   5.2950017320815612E-002
   4.1993599500464163E-003  -1.1393360861918611E-002   5.0486704106848357E-002
   4.6226460685969625E-003  -1.4812567234249188E-002   4.7913056220928785E-002
   5.0459321871474394E-003  -1.8807403504859099E-002   4.5229073663055175E-002
   3.0072852362035551E-003  -5.6142344846022985E-003   5.7368283288895816E-002
   3.3376791656833660E-003  -7.5601694510119555E-003   5.4395244802523335E-002
   3.6680730951631629E-003  -1.0020930765824249E-002   5.1346756609961491E-002
   3.9984670246429113E-003  -1.2996518429039712E-002   4.8222818711211091E-002
   4.3288609541227152E-003  -1.6486932440657798E-002   4.5023431106271050E-002
   2.5695084555642789E-003  -4.9466311571058630E-003   5.9725180549382126E-002
   2.8418951617367530E-003  -6.5705545141550303E-003   5.6192885668529161E-002
   3.1142818679092410E-003  -8.6485006697298444E-003   5.2620026047251071E-002
   3.3866685740816926E-003  -1.1180469623830239E-002   4.9006601685547629E-002
   3.6590552802542031E-003  -1.4166461376456496E-002   4.5352612583417884E-002
   2.0394573710274810E-003  -4.2790278296097606E-003   6.2373687644290521E-002
   2.2887218196560727E-003  -5.5809395772985493E-003   5.8342939918834769E-002
   2.5379862682846643E-003  -7.2760705736354125E-003   5.4306512418717034E-002
   2.7872507169132560E-003  -9.3644208186212038E-003   5.0264405143937180E-002
   3.0365151655418199E-003  -1.1845990312254973E-002   4.6216618094495399E-002
   2.5591197774297469E-002  -7.2785323174248129E-003   6.5957023835137352E-002
   2.4701096761518104E-002  -7.1746502264758427E-003   6.4511193855254889E-002
   2.3810995748738753E-002  -7.0230882533839356E-003   6.3529668029985997E-002
   2.2920894735959423E-002  -6.8238463981493275E-003   6.3012446359330343E-002
   2.2030793723180064E-002  -6.5769246607718657E-003   6.2959528843287926E-002
   1.8330229027310282E-002  -5.4588985613572838E-003   6.5194072097477906E-002
   1.7843987485980747E-002  -5.3809871314057234E-003   6.4304963125506709E-002
   1.7357745944651191E-002  -5.2673157870425230E-003   6.3759268941821934E-002
   1.6871504403321653E-002  -5.1178845282676376E-003   6.3556989546423401E-002
   1.6385262861992107E-002  -4.9326933550811192E-003   6.3698124939310985E-002
   1.1644706073120605E-002  -3.6392648052897270E-003   6.4411109682686540E-002
   1.1441434636913814E-002  -3.5873240363356318E-003   6.4066801750895533E-002
   1.1238163200707026E-002  -3.5115433207010271E-003   6.3945019241063689E-002
   1.1034891764500230E-002  -3.4119226583860032E-003   6.4045762153191049E-002
   1.0831620328293441E-002  -3.2884620493904282E-003   6.4369030487277601E-002
   5.5346289117284720E-003  -1.8196310492221701E-003   6.3608136590763378E-002
   5.4934382143173761E-003  -1.7936609412655402E-003   6.3796709731421181E-002
   5.4522475169062603E-003  -1.7557708543595174E-003   6.4086918927711151E-002
   5.4110568194951532E-003  -1.7059607885043411E-003   6.4478764179633358E-002
   5.3698661220840434E-003  -1.6442307436996817E-003   6.4972245487187621E-002
  -2.4568661341484166E-009   2.7068453589684793E-009   6.2785152821708268E-002
  -1.7818086173182479E-009   2.1538045513747051E-009   6.3494687067083722E-002
  -1.1067511039575262E-009   1.6119819090665288E-009   6.4184968001764486E-002
  -4.3169358539263403E-010   1.0813773418383299E-009   6.4855995625750229E-002
   2.4336392970281118E-010   5.6199095377351682E-010   6.5507769939041116E-002
   2.2030793723180064E-002  -6.5769246607718657E-003   6.2959528843287926E-002
   2.1206517979962619E-002  -6.3084650283041221E-003   6.2504946248212900E-002
   2.0382242236745188E-002  -6.0446094877985579E-003   6.2283765095695914E-002
   1.9557966493527749E-002  -5.7853580392552145E-003   6.2295985385736941E-002
   1.8733690750310339E-002  -5.5307106826742447E-003   6.2541607118336340E-002
   1.6385262861992107E-002  -4.9326933550811192E-003   6.3698124939310985E-002
   1.5787555424684581E-002  -4.7313487494289042E-003   6.3324568964355843E-002
   1.5189847987377051E-002  -4.5334571932567763E-003   6.3170748158662193E-002
   1.4592140550069512E-002  -4.3390186865648363E-003   6.3236662522230327E-002
   1.3994433112761988E-002  -4.1480332293531430E-003   6.3522312055060093E-002
   1.0831620328293441E-002  -3.2884620493904282E-003   6.4369030487277601E-002
   1.0446814923599352E-002  -3.1542324705537139E-003   6.4077652174924310E-002
   1.0062009518905280E-002  -3.0223048987150503E-003   6.3992342758536200E-002
   9.6772041142111961E-003  -2.8926793338745135E-003   6.4113102238113243E-002
   9.2923987095171190E-003  -2.7653557760320135E-003   6.4439930613655716E-002
   5.3698661220840434E-003  -1.6442307436996817E-003   6.4972245487187621E-002
   5.1842964767069705E-003  -1.5771161916785098E-003   6.4764195879918260E-002
   4.9987268313298966E-003  -1.5111526041733520E-003   6.4748548895317809E-002
   4.8131571859528210E-003  -1.4463399811841353E-003   6.4925304533385950E-002
   4.6275875405757498E-003  -1.3826783227108425E-003   6.5294462794122918E-002
   2.4336392970281118E-010   5.6199095377351682E-010   6.5507769939041116E-002
   8.4007412137765414E-011   8.7196666553879254E-011   6.5384200079337845E-002
  -7.5349107162003826E-011  -3.0963157038321754E-010   6.5439366569006924E-002
  -2.3470562472704959E-010  -6.2849379173224307E-010   6.5673269408048296E-002
  -3.9406214402681883E-010  -8.6938978238748632E-010   6.6085908596462128E-002
   1.8733690750310339E-002  -5.5307106826742447E-003   6.2541607118336340E-002
   1.7884390025084851E-002  -5.2705112723487879E-003   6.2221966769593462E-002
   1.7035089299859363E-002  -4.9946036625723167E-003   6.2123295730784206E-002
   1.6185788574633868E-002  -4.7029878533447755E-003   6.2245594001908378E-002
   1.5336487849408401E-002  -4.3956638446658869E-003   6.2588861582965782E-002
   1.3994433112761988E-002  -4.1480332293531430E-003   6.3522312055060093E-002
   1.3363940674023869E-002  -3.9528837051339694E-003   6.3251478608647660E-002
   1.2733448235285754E-002  -3.7459529974201988E-003   6.3197292425276691E-002
   1.2102955796547630E-002  -3.5272411062114428E-003   6.3359753504947089E-002
   1.1472463357809520E-002  -3.2967480315077569E-003   6.3738861847658645E-002
   9.2923987095171190E-003  -2.7653557760320135E-003   6.4439930613655716E-002
   8.8763925103743091E-003  -2.6352561379193173E-003   6.4213977053617477E-002
   8.4603863112314957E-003  -2.4973023322679699E-003   6.4200348709728641E-002
   8.0443801120886772E-003  -2.3514943590780546E-003   6.4399045581988848E-002
   7.6283739129458621E-003  -2.1978322183494881E-003   6.4810067670398583E-002
   4.6275875405757498E-003  -1.3826783227108425E-003   6.5294462794122918E-002
   4.4217455341361601E-003  -1.3176285707045265E-003   6.5109462104502691E-002
   4.2159035276965687E-003  -1.2486516671158243E-003   6.5132464584139710E-002
   4.0100615212569773E-003  -1.1757476119446941E-003   6.5363470233033835E-002
   3.8042195148173885E-003  -1.0989164051911776E-003   6.5802479051185095E-002
  -3.9406214402681883E-010  -8.6938978238748632E-010   6.6085908596462128E-002
  -2.5469057765570291E-010  -1.0034898745292509E-009   6.5937933761303524E-002
  -1.1531901822348090E-010  -1.0019636648150865E-009   6.5993640048510022E-002
   2.4052541208741118E-011  -8.6481139957572672E-010   6.6253027458081801E-002
   1.6342410757985704E-010  -5.9203303370836124E-010   6.6716095990018542E-002
   1.5336487849408401E-002  -4.3956638446658869E-003   6.2588861582965782E-002
   1.4447230492610416E-002  -4.0786195073412301E-003   6.2408912626489288E-002
   1.3557973135812453E-002  -3.7578427121750385E-003   6.2437051730785814E-002
   1.2668715779014478E-002  -3.4333334591684327E-003   6.2673278895855097E-002
   1.1779458422216504E-002  -3.1050917483202989E-003   6.3117594121697373E-002
   1.1472463357809520E-002  -3.2967480315077569E-003   6.3738861847658645E-002
   1.0794850630177599E-002  -3.0589647042861823E-003   6.3585670396001881E-002
   1.0117237902545678E-002  -2.8183820555233857E-003   6.3647680141904139E-002
   9.4396251749137468E-003  -2.5750000852198425E-003   6.3924891085365865E-002
   8.7620124472818361E-003  -2.3288187933749871E-003   6.4417303226386835E-002
   7.6283739129458621E-003  -2.1978322183494881E-003   6.4810067670398583E-002
   7.1695189512664056E-003  -2.0393099012311344E-003   6.4682700587261235E-002
   6.7106639895869475E-003  -1.8789213988716288E-003   6.4777647838469260E-002
   6.2518090279074833E-003  -1.7166667112711986E-003   6.5094909424023378E-002
   5.7929540662280329E-003  -1.5525458384296198E-003   6.5634485343922910E-002
   3.8042195148173885E-003  -1.0989164051911776E-003   6.5802479051185095E-002
   3.5712354558768266E-003  -1.0196550981760866E-003   6.5700003200267101E-002
   3.3382513969362651E-003  -9.3946074221997952E-004   6.5826954820481398E-002
   3.1052673379957036E-003  -8.5833333732252600E-004   6.6183333911827694E-002
   2.8722832790551347E-003  -7.7627288348433576E-004   6.6769140474306016E-002
   1.6342410757985704E-010  -5.9203303370836124E-010   6.6716095990018542E-002
   1.4400886386156664E-010  -2.9512109422924482E-010   6.6637578235020034E-002
   1.2459362361272319E-010  -8.5568177543571267E-011   6.6795601087939999E-002
   1.0517838336387975E-010   3.6625990434968614E-011   6.7190164548778533E-002
   8.5763139645589348E-011   7.1461170314535138E-011   6.7821268617535790E-002
   1.1779458422216504E-002  -3.1050917483202989E-003   6.3117594121697373E-002
   1.0808774260974305E-002  -2.7823533459674921E-003   6.3010642969635988E-002
   9.8380900997321191E-003  -2.4743540184453960E-003   6.3152959252490481E-002
   8.8674059384899473E-003  -2.1810937657537263E-003   6.3544542970260659E-002
   7.8967217772477338E-003  -1.9025725878929478E-003   6.4185394122946327E-002
   8.7620124472818361E-003  -2.3288187933749871E-003   6.4417303226386835E-002
   8.0389466201830004E-003  -2.0867649938486887E-003   6.4344193876930023E-002
   7.3158807930841785E-003  -1.8557655004996509E-003   6.4517053760844351E-002
   6.5928149659853427E-003  -1.6358203133284427E-003   6.4935882878129583E-002
   5.8697491388865208E-003  -1.4269294323348003E-003   6.5600681228785929E-002
   5.7929540662280329E-003  -1.5525458384296198E-003   6.5634485343922910E-002
   5.3142083717280138E-003  -1.3911766417298577E-003   6.5598902565723816E-002
   4.8354626772279981E-003  -1.2371769825543638E-003   6.5805990819351137E-002
   4.3567169827279789E-003  -1.0905468609031070E-003   6.6255750104805028E-002
   3.8779712882279632E-003  -9.5128627677643074E-004   6.6948180422085724E-002
   2.8722832790551347E-003  -7.7627288348433576E-004   6.6769140474306016E-002
   2.6345595156093736E-003  -6.9558828961109598E-004   6.6774769036017659E-002
   2.3968357521635978E-003  -6.1858846460890321E-004   6.7019770428011313E-002
   2.1591119887178264E-003  -5.4527340847790838E-004   6.7504144650286882E-002
   1.9213882252720471E-003  -4.7564312121806118E-004   6.8227891702844448E-002
   8.5763139645589348E-011   7.1461170314535138E-011   6.7821268617535790E-002
   5.1827056535280747E-011   6.2507776732445564E-011   6.7871793287811566E-002
   1.7890969955525193E-011   5.3336640659651380E-011   6.8158392586824601E-002
  -1.6045116624230360E-011   4.3947338823624449E-011   6.8681066514575284E-002
  -4.9981199734538961E-011   3.4340086330075792E-011   6.9439815071063227E-002
   7.8967217772477338E-003  -1.9025725878929478E-003   6.4185394122946327E-002
   6.9635133937868826E-003  -1.6874447236244761E-003   6.4103669805938401E-002
   6.0303050103260453E-003  -1.5843644117095601E-003   6.4268926034654339E-002
   5.0970966268651871E-003  -1.5933316521488244E-003   6.4681162809093973E-002
   4.1638882434043289E-003  -1.7143464449417278E-003   6.5340380129257247E-002
   5.8697491388865208E-003  -1.4269294323348003E-003   6.5600681228785929E-002
   5.1801016897902036E-003  -1.2655835365013024E-003   6.5452690479873288E-002
   4.4904542406938794E-003  -1.1882733048113603E-003   6.5544841053965797E-002
   3.8008067915975621E-003  -1.1949987372648213E-003   6.5877132951063594E-002
   3.1111593425012379E-003  -1.2857598338612553E-003   6.6449566171166985E-002
   3.8779712882279632E-003  -9.5128627677643074E-004   6.6948180422085724E-002
   3.4250455507778901E-003  -8.4372234937818424E-004   6.6761935129477978E-002
   2.9721198133278066E-003  -7.9218219791302169E-004   6.6808991937157836E-002
   2.5191940758777179E-003  -7.9666582238047817E-004   6.7089350845124560E-002
   2.0662683384276501E-003  -8.5717322278106023E-004   6.7603011853378303E-002
   1.9213882252720471E-003  -4.7564312121806118E-004   6.8227891702844448E-002
   1.6983449767499197E-003  -4.2186116225509385E-004   6.8031403754752931E-002
   1.4753017282277793E-003  -3.9609109101469697E-004   6.8061378684230123E-002
   1.2522584797056463E-003  -3.9833290749641606E-004   6.8317816491276009E-002
   1.0292152311834977E-003  -4.2858661170089296E-004   6.8800717175890883E-002
  -4.9981199734538961E-011   3.4340086330075792E-011   6.9439815071063227E-002
  -3.2293695495511088E-011   2.4867996550881344E-011   6.9261096355697993E-002
  -1.4606180848142358E-011   1.5883794279858421E-011   6.9302001295183102E-002
   3.0813303297794192E-012   7.3878819728534495E-012   6.9562529889518804E-002
   2.0768838038254245E-011  -6.2039262616053747E-013   7.0042682138705126E-002
   4.1638882434043289E-003  -1.7143464449417278E-003   6.5340380129257247E-002
   3.6327805253101170E-003  -2.0074179582106333E-003   6.4418534653203352E-002
   3.1016728072159189E-003  -2.5325553600782924E-003   6.3616804080357581E-002
   2.5705650891217000E-003  -3.2897586505446358E-003   6.2935188410719933E-002
   2.0394573710274810E-003  -4.2790278296097606E-003   6.2373687644290521E-002
   3.1111593425012379E-003  -1.2857598338612553E-003   6.6449566171166985E-002
   2.7033320338029770E-003  -1.5055634703289300E-003   6.5335666446031948E-002
   2.2955047251047023E-003  -1.8994165223944481E-003   6.4348212636480911E-002
   1.8876774164064344E-003  -2.4673189900585313E-003   6.3487204742513473E-002
   1.4798501077081666E-003  -3.2092708733207909E-003   6.2752642764129951E-002
   2.0662683384276501E-003  -8.5717322278106023E-004   6.7603011853378303E-002
   1.7880524515010571E-003  -1.0037089824468659E-003   6.6355074352162868E-002
   1.5098365645744606E-003  -1.2662776847106316E-003   6.5239913778906422E-002
   1.2316206776478728E-003  -1.6448793295722117E-003   6.4257530133609964E-002
   9.5340479072127116E-004  -2.1395139170317656E-003   6.3407923416272799E-002
   1.0292152311834977E-003  -4.2858661170089296E-004   6.8800717175890883E-002
   8.8694177840433971E-004  -5.0185449456498221E-004   6.7476758371595086E-002
   7.4466832562517567E-004  -6.3313884702691225E-004   6.6291907507634168E-002
   6.0239487284600773E-004  -8.2243966908611063E-004   6.5246164584008698E-002
   4.6012142006685366E-004  -1.0697569607427682E-003   6.4339529600718703E-002
   2.0768838038254245E-011  -6.2039262616053747E-013   7.0042682138705126E-002
   1.4512842316793950E-011  -6.6830430078823611E-012   6.8700718504329017E-002
   8.2568361869927998E-012  -9.3430263525817736E-012   6.7504193822664038E-002
   2.0008352613620772E-012  -8.5996348930805766E-012   6.6453108093710189E-002
  -4.2551656642686453E-012  -4.4537706855862780E-012   6.5547461317467137E-002
   2.0394573710274810E-003  -4.2790278296097606E-003   6.2373687644290521E-002
   2.2887218196560727E-003  -5.5809395772985493E-003   5.8342939918834769E-002
   2.5379862682846643E-003  -7.2760705736354125E-003   5.4306512418717034E-002
   2.7872507169132560E-003  -9.3644208186212038E-003   5.0264405143937180E-002
   3.0365151655418199E-003  -1.1845990312254973E-002   4.6216618094495399E-002
   1.4798501077081666E-003  -3.2092708733207909E-003   6.2752642764129951E-002
   1.7092756974178558E-003  -4.1857046830476308E-003   5.8396831057760445E-002
   1.9387012871275450E-003  -5.4570529301057602E-003   5.4007021408215672E-002
   2.1681268768372480E-003  -7.0233156144947281E-003   4.9583213815494881E-002
   2.3975524665469095E-003  -8.8844927362146109E-003   4.5125408279598878E-002
   9.5340479072127116E-004  -2.1395139170317656E-003   6.3407923416272799E-002
   1.1346733529986261E-003  -2.7904697887971563E-003   5.8825352540306491E-002
   1.3159419152759741E-003  -3.6380352865758997E-003   5.4180465552651533E-002
   1.4972104775533117E-003  -4.6822104103684224E-003   4.9473262453307430E-002
   1.6784790398306632E-003  -5.9229951601744713E-003   4.4703743242273886E-002
   4.6012142006685366E-004  -1.0697569607427682E-003   6.4339529600718703E-002
   5.6491478639839922E-004  -1.3952348945464599E-003   5.9628504366473691E-002
   6.6970815272995865E-004  -1.8190176430460323E-003   5.4826844852025741E-002
   7.7450151906151721E-004  -2.3411052062420317E-003   4.9934551057375126E-002
   8.7929488539306364E-004  -2.9614975841341096E-003   4.4951622982522671E-002
  -4.2551656642686453E-012  -4.4537706855862780E-012   6.5547461317467137E-002
  -2.3828300443895500E-012  -2.9620750296999176E-013   6.0806286536260301E-002
  -5.1048401616959893E-013   4.8350212722425567E-013   5.5946159306337173E-002
   1.3618654814973041E-012  -2.1158352847550077E-012   5.0967079627698364E-002
   3.2341906930355435E-012  -8.0939699387272412E-012   4.5869047500343818E-002
  -2.4568661341484166E-009   2.7068453589684793E-009   6.2785152821708268E-002
  -1.7818086173182479E-009   2.1538045513747051E-009   6.3494687067083722E-002
  -1.1067511039575262E-009   1.6119819090665288E-009   6.4184968001764486E-002
  -4.3169358539263403E-010   1.0813773418383299E-009   6.4855995625750229E-002
   2.4336392970281118E-010   5.6199095377351682E-010   6.5507769939041116E-002
  -5.5346336933227921E-003   1.8196348561904108E-003   6.3608134349224049E-002
  -5.4934416788496102E-003   1.7936635123906863E-003   6.3796707856614482E-002
  -5.4522496643764264E-003   1.7557724382250284E-003   6.4086917353531322E-002
  -5.4110576499032427E-003   1.7059616336934230E-003   6.4478762839974474E-002
  -5.3698656354300676E-003   1.6442310987958841E-003   6.4972244315943700E-002
  -1.1644710458301059E-002   3.6392670055354626E-003   6.4411104956772547E-002
  -1.1441437804191075E-002   3.5873248709768352E-003   6.4066797984594248E-002
  -1.1238165150081074E-002   3.5115432644681338E-003   6.3945016302163163E-002
  -1.1034892495971095E-002   3.4119221860095077E-003   6.4045759909479499E-002
  -1.0831619841861104E-002   3.2884616356007867E-003   6.4369028806543327E-002
  -1.8330232751800932E-002   5.4588991548805144E-003   6.5194064644354510E-002
  -1.7843990157832976E-002   5.3809862295629216E-003   6.4304957451022882E-002
  -1.7357747563865045E-002   5.2673140907113294E-003   6.3759264847659938E-002
  -1.6871504969897110E-002   5.1178827383255628E-003   6.3556986834265500E-002
  -1.6385262375929174E-002   4.9326921724057032E-003   6.3698123410839469E-002
  -2.5591200573822401E-002   7.2785313042255662E-003   6.5957013411969301E-002
  -2.4701098739775385E-002   7.1746475881491190E-003   6.4511186255900632E-002
  -2.3810996905728347E-002   7.0230849169544002E-003   6.3529662990021635E-002
  -2.2920895071681328E-002   6.8238432906416423E-003   6.3012443614332406E-002
  -2.2030793237634298E-002   6.5769227092106197E-003   6.2959528128832654E-002
   2.4336392970281118E-010   5.6199095377351682E-010   6.5507769939041116E-002
   8.4007412137765414E-011   8.7196666553879254E-011   6.5384200079337845E-002
  -7.5349107162003826E-011  -3.0963157038321754E-010   6.5439366569006924E-002
  -2.3470562472704959E-010  -6.2849379173224307E-010   6.5673269408048296E-002
  -3.9406214402681883E-010  -8.6938978238748632E-010   6.6085908596462128E-002
  -5.3698656354300676E-003   1.6442310987958841E-003   6.4972244315943700E-002
  -5.1842962707974536E-003   1.5771161893103069E-003   6.4764194832798300E-002
  -4.9987269061648448E-003   1.5111522610149544E-003   6.4748548048258817E-002
  -4.8131575415322325E-003   1.4463393139095993E-003   6.4925303962325265E-002
  -4.6275881768996219E-003   1.3826773479942434E-003   6.5294462574997686E-002
  -1.0831619841861104E-002   3.2884616356007867E-003   6.4369028806543327E-002
  -1.0446814604005757E-002   3.1542322914240722E-003   6.4077650603179714E-002
  -1.0062009366150419E-002   3.0223048316614237E-003   6.3992341447655504E-002
  -9.6772041282950742E-003   2.8926792563128238E-003   6.4113101339970946E-002
  -9.2923988904397292E-003   2.7653555653782691E-003   6.4439930280125915E-002
  -1.6385262375929174E-002   4.9326921724057032E-003   6.3698123410839469E-002
  -1.5787554915617504E-002   4.7313483935378306E-003   6.3324567390481659E-002
  -1.5189847455305844E-002   4.5334574023078097E-003   6.3170746767197070E-002
  -1.4592139994994174E-002   4.3390191987161316E-003   6.3236661540985478E-002
  -1.3994432534682522E-002   4.1480337827623504E-003   6.3522311711847135E-002
  -2.2030793237634298E-002   6.5769227092106197E-003   6.2959528128832654E-002
  -2.1206517205632703E-002   6.3084644956514779E-003   6.2504945194704564E-002
  -2.0382241173631105E-002   6.0446099729543623E-003   6.2283764006883263E-002
  -1.9557965141629510E-002   5.7853591411194255E-003   6.2295984565368667E-002
  -1.8733689109627916E-002   5.5307120001463206E-003   6.2541606870160804E-002
  -3.9406214402681883E-010  -8.6938978238748632E-010   6.6085908596462128E-002
  -2.5469057765570291E-010  -1.0034898745292509E-009   6.5937933761303524E-002
  -1.1531901822348090E-010  -1.0019636648150865E-009   6.5993640048510022E-002
   2.4052541208741118E-011  -8.6481139957572672E-010   6.6253027458081801E-002
   1.6342410757985704E-010  -5.9203303370836124E-010   6.6716095990018542E-002
  -4.6275881768996219E-003   1.3826773479942434E-003   6.5294462574997686E-002
  -4.4217459494132437E-003   1.3176273840755925E-003   6.5109462354100700E-002
  -4.2159037219268638E-003   1.2486504429598810E-003   6.5132465187068403E-002
  -4.0100614944404865E-003   1.1757465246473101E-003   6.5363471073900503E-002
  -3.8042192669541057E-003   1.0989156291378865E-003   6.5802480014597098E-002
  -9.2923988904397292E-003   2.7653555653782691E-003   6.4439930280125915E-002
  -8.8763926433391462E-003   2.6352557716407404E-003   6.4213977560667740E-002
  -8.4603863962385648E-003   2.4973018878834199E-003   6.4200349826573383E-002
  -8.0443801491379696E-003   2.3514939141061290E-003   6.4399047077843066E-002
  -7.6283739020373866E-003   2.1978318503090011E-003   6.4810069314476568E-002
  -1.3994432534682522E-002   4.1480337827623504E-003   6.3522311711847135E-002
  -1.3363940336468311E-002   3.9528841592059646E-003   6.3251479381004505E-002
  -1.2733448138254106E-002   3.7459533328069623E-003   6.3197293967025253E-002
  -1.2102955940039906E-002   3.5272413035649488E-003   6.3359755469909254E-002
  -1.1472463741825690E-002   3.2967480714800740E-003   6.3738863889656661E-002
  -1.8733689109627916E-002   5.5307120001463206E-003   6.2541606870160804E-002
  -1.7884389028800698E-002   5.2705125467712999E-003   6.2221967815110912E-002
  -1.7035088947973502E-002   4.9946047777304770E-003   6.2123297608423805E-002
  -1.6185788867146299E-002   4.7029886930236506E-003   6.2245596250099344E-002
  -1.5336488786319089E-002   4.3956642926510359E-003   6.2588863740137612E-002
   1.6342410757985704E-010  -5.9203303370836124E-010   6.6716095990018542E-002
   1.4400886386156664E-010  -2.9512109422924482E-010   6.6637578235020034E-002
   1.2459362361272319E-010  -8.5568177543571267E-011   6.6795601087939999E-002
   1.0517838336387975E-010   3.6625990434968614E-011   6.7190164548778533E-002
   8.5763139645589348E-011   7.1461170314535138E-011   6.7821268617535790E-002
  -3.8042192669541057E-003   1.0989156291378865E-003   6.5802480014597098E-002
  -3.5712352325752861E-003   1.0196546731465195E-003   6.5700003885205804E-002
  -3.3382511981964718E-003   9.3946057338720190E-004   6.5826955255484210E-002
  -3.1052671638176462E-003   8.5833332986050975E-004   6.6183334125432022E-002
  -2.8722831294388310E-003   7.7627294256632506E-004   6.6769140495049562E-002
  -7.6283739020373866E-003   2.1978318503090011E-003   6.4810069314476568E-002
  -7.1695189221134522E-003   2.0393096414139389E-003   6.4682701754283894E-002
  -6.7106639421895108E-003   1.8789212323424773E-003   6.4777648585511827E-002
  -6.2518089622655660E-003   1.7166666230950863E-003   6.5094909808160420E-002
  -5.7929539823416351E-003   1.5525458136714243E-003   6.5634485422229633E-002
  -1.1472463741825690E-002   3.2967480714800740E-003   6.3738863889656661E-002
  -1.0794850924605602E-002   3.0589646096813444E-003   6.3585671842254027E-002
  -1.0117238107385492E-002   2.8183818912978047E-003   6.3647681078023058E-002
  -9.4396252901653918E-003   2.5749999163296898E-003   6.3924891596963837E-002
  -8.7620124729452849E-003   2.3288186847765513E-003   6.4417303399076226E-002
  -1.5336488786319089E-002   4.3956642926510359E-003   6.2588863740137612E-002
  -1.4447231240051768E-002   4.0786195779488610E-003   6.2408914149116257E-002
  -1.3557973693784434E-002   3.7578425502531321E-003   6.2437052733017806E-002
  -1.2668716147517092E-002   3.4333332095641822E-003   6.2673279491841899E-002
  -1.1779458601249772E-002   3.1050915558817893E-003   6.3117594425588841E-002
   8.5763139645589348E-011   7.1461170314535138E-011   6.7821268617535790E-002
   5.1827056535280747E-011   6.2507776732445564E-011   6.7871793287811566E-002
   1.7890969955525193E-011   5.3336640659651380E-011   6.8158392586824601E-002
  -1.6045116624230360E-011   4.3947338823624449E-011   6.8681066514575284E-002
  -4.9981199734538961E-011   3.4340086330075792E-011   6.9439815071063227E-002
  -2.8722831294388310E-003   7.7627294256632506E-004   6.6769140495049562E-002
  -2.6345594254881012E-003   6.9558836255256828E-004   6.6774769015829238E-002
  -2.3968357215373558E-003   6.1858854086740966E-004   6.7019770383645261E-002
  -2.1591120175866226E-003   5.4527347751082839E-004   6.7504144598497268E-002
  -1.9213883136358807E-003   4.7564317248327548E-004   6.8227891660385787E-002
  -5.7929539823416351E-003   1.5525458136714243E-003   6.5634485422229633E-002
  -5.3142083222052598E-003   1.3911766625973598E-003   6.5598902552059912E-002
  -4.8354626620688698E-003   1.2371770283984146E-003   6.5805990747225193E-002
  -4.3567170019324936E-003   1.0905469110747100E-003   6.6255750007725683E-002
  -3.8779713417961183E-003   9.5128631062624258E-004   6.6948180333561036E-002
  -8.7620124729452849E-003   2.3288186847765513E-003   6.4417303399076226E-002
  -8.0389466383244262E-003   2.0867649626419293E-003   6.4344193896503643E-002
  -7.3158808037035658E-003   1.8557655159293571E-003   6.4517053677564801E-002
  -6.5928149690827097E-003   1.6358203446383401E-003   6.4935882742259768E-002
  -5.8697491344618467E-003   1.4269294487693762E-003   6.5600681090588850E-002
  -1.1779458601249772E-002   3.1050915558817893E-003   6.3117594425588841E-002
  -1.0808774373845614E-002   2.7823532626869429E-003   6.3010643049159931E-002
  -9.8380901464414500E-003   2.4743540034601885E-003   6.3152959174663736E-002
  -8.8674059190372995E-003   2.1810937782020812E-003   6.3544542802100118E-002
  -7.8967216916331281E-003   1.9025725869122878E-003   6.4185393931469381E-002
  -4.9981199734538961E-011   3.4340086330075792E-011   6.9439815071063227E-002
  -3.2293695495511088E-011   2.4867996550881344E-011   6.9261096355697993E-002
  -1.4606180848142358E-011   1.5883794279858421E-011   6.9302001295183102E-002
   3.0813303297794192E-012   7.3878819728534495E-012   6.9562529889518804E-002
   2.0768838038254245E-011  -6.2039262616053747E-013   7.0042682138705126E-002
  -1.9213883136358807E-003   4.7564317248327548E-004   6.8227891660385787E-002
  -1.6983450335151216E-003   4.2186119268355915E-004   6.8031403734405471E-002
  -1.4753017533943556E-003   3.9609110501087619E-004   6.8061378678440976E-002
  -1.2522584732735931E-003   3.9833290946585109E-004   6.8317816492492522E-002
  -1.0292151931528305E-003   4.2858660604794263E-004   6.8800717176560167E-002
  -3.8779713417961183E-003   9.5128631062624258E-004   6.6948180333561036E-002
  -3.4250455840765769E-003   8.4372236049884419E-004   6.6761935088604674E-002
  -2.9721198263570354E-003   7.9218219413793034E-004   6.6808991928830108E-002
  -2.5191940686374861E-003   7.9666581154381327E-004   6.7089350854236951E-002
  -2.0662683109179524E-003   8.5717321271627789E-004   6.7603011864825424E-002
  -5.8697491344618467E-003   1.4269294487693762E-003   6.5600681090588850E-002
  -5.1801016839780178E-003   1.2655835283142125E-003   6.5452690418296072E-002
  -4.4904542334941941E-003   1.1882732832652204E-003   6.5544841046350472E-002
  -3.8008067830103682E-003   1.1949987136215569E-003   6.5877132974751729E-002
  -3.1111593325265428E-003   1.2857598193846687E-003   6.6449566203500496E-002
  -7.8967216916331281E-003   1.9025725869122878E-003   6.4185393931469381E-002
  -6.9635133332194982E-003   1.6874446961295808E-003   6.4103669723479584E-002
  -6.0303049748058578E-003   1.5843643723923162E-003   6.4268926031002205E-002
  -5.0970966163922191E-003   1.5933316156998070E-003   6.4681162854037633E-002
  -4.1638882579785874E-003   1.7143464260529484E-003   6.5340380192585368E-002
   2.0768838038254245E-011  -6.2039262616053747E-013   7.0042682138705126E-002
   1.4512842316793950E-011  -6.6830430078823611E-012   6.8700718504329017E-002
   8.2568361869927998E-012  -9.3430263525817736E-012   6.7504193822664038E-002
   2.0008352613620772E-012  -8.5996348930805766E-012   6.6453108093710189E-002
  -4.2551656642686453E-012  -4.4537706855862780E-012   6.5547461317467137E-002
  -1.0292151931528305E-003   4.2858660604794263E-004   6.8800717176560167E-002
  -8.8694175179226606E-004   5.0185448484568740E-004   6.7476758371099621E-002
  -7.4466831043171720E-004   6.3313883594662279E-004   6.6291907508160802E-002
  -6.0239486907116922E-004   8.2243965935102636E-004   6.5246164587744224E-002
  -4.6012142771061776E-004   1.0697569550587316E-003   6.4339529609849566E-002
  -2.0662683109179524E-003   8.5717321271627789E-004   6.7603011864825424E-002
  -1.7880524321298129E-003   1.0037089763740570E-003   6.6355074357180327E-002
  -1.5098365533416595E-003   1.2662776812358556E-003   6.5239913781868580E-002
  -1.2316206745535134E-003   1.6448793273014725E-003   6.4257530138889921E-002
  -9.5340479576538038E-004   2.1395139145712339E-003   6.3407923428244140E-002
  -3.1111593325265428E-003   1.2857598193846687E-003   6.6449566203500496E-002
  -2.7033320264997608E-003   1.5055634679026625E-003   6.5335666462571787E-002
  -2.2955047204729997E-003   1.8994165265251856E-003   6.4348212643787178E-002
  -1.8876774144462385E-003   2.4673189952524703E-003   6.3487204747146739E-002
  -1.4798501084194566E-003   3.2092708740839582E-003   6.2752642772650746E-002
  -4.1638882579785874E-003   1.7143464260529484E-003   6.5340380192585368E-002
  -3.6327805349021455E-003   2.0074179594311570E-003   6.4418534687273654E-002
  -3.1016728118257279E-003   2.5325553718145710E-003   6.3616804093917234E-002
  -2.5705650887492999E-003   3.2897586632027048E-003   6.2935188412515719E-002
  -2.0394573656728684E-003   4.2790278335962384E-003   6.2373687643069609E-002
  -4.2551656642686453E-012  -4.4537706855862780E-012   6.5547461317467137E-002
  -2.3828300443895500E-012  -2.9620750296999176E-013   6.0806286536260301E-002
  -5.1048401616959893E-013   4.8350212722425567E-013   5.5946159306337173E-002
   1.3618654814973041E-012  -2.1158352847550077E-012   5.0967079627698364E-002
   3.2341906930355435E-012  -8.0939699387272412E-012   4.5869047500343818E-002
  -4.6012142771061776E-004   1.0697569550587316E-003   6.4339529609849566E-002
  -5.6491479058341093E-004   1.3952348924547442E-003   5.9628504371861235E-002
  -6.6970815345621798E-004   1.8190176409243752E-003   5.4826844853098411E-002
  -7.7450151632901462E-004   2.3411052004665631E-003   4.9934551053561427E-002
  -8.7929487920181820E-004   2.9614975710823277E-003   4.4951622973249616E-002
  -9.5340479576538038E-004   2.1395139145712339E-003   6.3407923428244140E-002
  -1.1346733554417239E-003   2.7904697852054738E-003   5.8825352547926396E-002
  -1.3159419151180440E-003   3.6380352813649153E-003   5.4180465554775709E-002
  -1.4972104747943979E-003   4.6822104030491835E-003   4.9473262448792368E-002
  -1.6784790344707215E-003   5.9229951502584033E-003   4.4703743229976389E-002
  -1.4798501084194566E-003   3.2092708740839582E-003   6.2752642772650746E-002
  -1.7092756969577351E-003   4.1857046779562035E-003   5.8396831064455222E-002
  -1.9387012854960269E-003   5.4570529218056218E-003   5.4007021411368594E-002
  -2.1681268740342836E-003   7.0233156056316928E-003   4.9583213813390710E-002
  -2.3975524625725973E-003   8.8844927294345899E-003   4.5125408270522194E-002
  -2.0394573656728684E-003   4.2790278335962384E-003   6.2373687643069609E-002
  -2.2887218151314837E-003   5.5809395707067111E-003   5.8342939921448234E-002
  -2.5379862645900884E-003   7.2760705622462174E-003   5.4306512422877651E-002
  -2.7872507140486967E-003   9.3644208082140634E-003   5.0264405147357305E-002
  -3.0365151635073084E-003   1.1845990308610777E-002   4.6216618094887529E-002
  -2.5591200573822401E-002   7.2785313042255662E-003   6.5957013411969301E-002
  -2.4701098739775385E-002   7.1746475881491190E-003   6.4511186255900632E-002
  -2.3810996905728347E-002   7.0230849169544002E-003   6.3529662990021635E-002
  -2.2920895071681328E-002   6.8238432906416423E-003   6.3012443614332406E-002
  -2.2030793237634298E-002   6.5769227092106197E-003   6.2959528128832654E-002
  -3.2699326234060681E-002   9.2235787980323725E-003   6.0328725825062490E-002
  -3.1436788676884445E-002   8.9989387624052619E-003   5.9637376697703331E-002
  -3.0174251119708149E-002   8.7524103692603467E-003   5.9226595126413012E-002
  -2.8911713562531867E-002   8.4839936185975608E-003   5.9096381111191615E-002
  -2.7649176005355595E-002   8.1936885104167412E-003   5.9246734652039057E-002
  -3.8926322042211081E-002   1.1168626291839234E-002   5.4566786619804977E-002
  -3.7475085096026338E-002   1.0823229936661516E-002   5.4655706118755573E-002
  -3.6023848149841643E-002   1.0481735821566272E-002   5.4841456839654391E-002
  -3.4572611203656907E-002   1.0144143946553425E-002   5.5124038782501050E-002
  -3.3121374257472184E-002   9.8104543116230847E-003   5.5503451947295931E-002
  -4.4272187998273468E-002   1.3113673785646082E-002   4.8671195796196345E-002
  -4.2815987997201148E-002   1.2647521110917714E-002   4.9566174519057274E-002
  -4.1359787996128779E-002   1.2211061273872125E-002   5.0374248129745447E-002
  -3.9903587995056465E-002   1.1804294274509290E-002   5.1095416628260698E-002
  -3.8447387993984124E-002   1.1427220112829317E-002   5.1729680014603235E-002
  -4.8736924102247919E-002   1.5058721279452902E-002   4.2641953354237261E-002
  -4.7459497380408805E-002   1.4471812285173968E-002   4.4368781898608600E-002
  -4.6182070658569621E-002   1.3940386726178144E-002   4.5824968996686366E-002
  -4.4904643936730458E-002   1.3464444602465250E-002   4.7010514648470558E-002
  -4.3627217214891295E-002   1.3043985914035605E-002   4.7925418853961121E-002
  -2.2030793237634298E-002   6.5769227092106197E-003   6.2959528128832654E-002
  -2.1206517205632703E-002   6.3084644956514779E-003   6.2504945194704564E-002
  -2.0382241173631105E-002   6.0446099729543623E-003   6.2283764006883263E-002
  -1.9557965141629510E-002   5.7853591411194255E-003   6.2295984565368667E-002
  -1.8733689109627916E-002   5.5307120001463206E-003   6.2541606870160804E-002
  -2.7649176005355595E-002   8.1936885104167412E-003   5.9246734652039057E-002
  -2.6604474374136645E-002   7.8888198796042003E-003   5.8924042587984241E-002
  -2.5559772742917673E-002   7.5767125610455982E-003   5.8808799976057563E-002
  -2.4515071111698733E-002   7.2573665547409245E-003   5.8901006816258816E-002
  -2.3470369480479758E-002   6.9307818606901828E-003   5.9200663108588125E-002
  -3.3121374257472184E-002   9.8104543116230847E-003   5.5503451947295931E-002
  -3.1882199321214610E-002   9.4691752635570059E-003   5.5300808374706481E-002
  -3.0643024384957054E-002   9.1088151491367231E-003   5.5279661960066270E-002
  -2.9403849448699497E-002   8.7293739683625901E-003   5.5440012703375341E-002
  -2.8164674512441902E-002   8.3308517212343225E-003   5.5781860604633610E-002
  -3.8447387993984124E-002   1.1427220112829317E-002   5.1729680014603235E-002
  -3.7039692046866649E-002   1.1049530647509687E-002   5.1635242554871091E-002
  -3.5631996099749208E-002   1.0640917737227959E-002   5.1696349958909482E-002
  -3.4224300152631754E-002   1.0201381381984145E-002   5.1913002226718297E-002
  -3.2816604205514285E-002   9.7309215817783790E-003   5.2285199358297667E-002
  -4.3627217214891295E-002   1.3043985914035605E-002   4.7925418853961121E-002
  -4.2076952551092714E-002   1.2629886031462534E-002   4.7927345128478210E-002
  -4.0526687887294147E-002   1.2173020325319070E-002   4.8058863972587101E-002
  -3.8976423223495579E-002   1.1673388795605779E-002   4.8319975386287725E-002
  -3.7426158559696998E-002   1.1130991442322380E-002   4.8710679369580068E-002
  -1.8733689109627916E-002   5.5307120001463206E-003   6.2541606870160804E-002
  -1.7884389028800698E-002   5.2705125467712999E-003   6.2221967815110912E-002
  -1.7035088947973502E-002   4.9946047777304770E-003   6.2123297608423805E-002
  -1.6185788867146299E-002   4.7029886930236506E-003   6.2245596250099344E-002
  -1.5336488786319089E-002   4.3956642926510359E-003   6.2588863740137612E-002
  -2.3470369480479758E-002   6.9307818606901828E-003   5.9200663108588125E-002
  -2.2407126368326216E-002   6.5956314483287537E-003   5.8903573043120716E-002
  -2.1343883256172685E-002   6.2505882870913243E-003   5.8813400191943338E-002
  -2.0280640144019126E-002   5.8956523769779154E-003   5.8930144555055866E-002
  -1.9217397031865584E-002   5.5308237179887421E-003   5.9253806132458453E-002
  -2.8164674512441902E-002   8.3308517212343225E-003   5.5781860604633610E-002
  -2.6901540003034748E-002   7.9207503498861243E-003   5.5513135095538763E-002
  -2.5638405493627572E-002   7.5065717964520745E-003   5.5437275166661165E-002
  -2.4375270984220394E-002   7.0883160609320726E-003   5.5554280818000797E-002
  -2.3112136474813243E-002   6.6659831433264483E-003   5.5864152049557747E-002
  -3.2816604205514285E-002   9.7309215817783790E-003   5.2285199358297667E-002
  -3.1367629932926251E-002   9.2458692514435642E-003   5.2050653972365295E-002
  -2.9918655660338182E-002   8.7625553058128733E-003   5.1994922532577620E-002
  -2.8469681387750120E-002   8.2809797448863392E-003   5.2118005038934191E-002
  -2.7020707115162079E-002   7.8011425686640434E-003   5.2419901491435661E-002
  -3.7426158559696998E-002   1.1130991442322380E-002   4.8710679369580068E-002
  -3.5805396158000741E-002   1.0570988153000893E-002   4.8516129673600195E-002
  -3.4184633756304511E-002   1.0018538815173755E-002   4.8486342289692258E-002
  -3.2563871354608261E-002   9.4736434288403767E-003   4.8621317217856008E-002
  -3.0943108952912024E-002   8.9363019940018051E-003   4.8921054458091751E-002
  -1.5336488786319089E-002   4.3956642926510359E-003   6.2588863740137612E-002
  -1.4447231240051768E-002   4.0786195779488610E-003   6.2408914149116257E-002
  -1.3557973693784434E-002   3.7578425502531321E-003   6.2437052733017806E-002
  -1.2668716147517092E-002   3.4333332095641822E-003   6.2673279491841899E-002
  -1.1779458601249772E-002   3.1050915558817893E-003   6.3117594425588841E-002
  -1.9217397031865584E-002   5.5308237179887421E-003   5.9253806132458453E-002
  -1.8121537060781949E-002   5.1576672870192464E-003   5.9053292039890487E-002
  -1.7025677089698370E-002   4.7777480609650924E-003   5.9057894622032259E-002
  -1.5929817118614749E-002   4.3910660398263912E-003   5.9267613878883907E-002
  -1.4833957147531128E-002   3.9976212236028097E-003   5.9682449810445293E-002
  -2.3112136474813243E-002   6.6659831433264483E-003   5.5864152049557747E-002
  -2.1812645579126252E-002   6.2367149960897428E-003   5.5640042973351844E-002
  -2.0513154683439318E-002   5.7976535716770528E-003   5.5618079071642776E-002
  -1.9213663787752369E-002   5.3487988700884337E-003   5.5798260344430597E-002
  -1.7914172892065389E-002   4.8901508913237746E-003   5.6180586791715226E-002
  -2.7020707115162079E-002   7.8011425686640434E-003   5.2419901491435661E-002
  -2.5520556795084682E-002   7.3157627051600727E-003   5.2169166949500259E-002
  -2.4020406475007344E-002   6.8175590823889021E-003   5.2117606081849066E-002
  -2.2520256154929984E-002   6.3065317003504484E-003   5.2265218888481645E-002
  -2.1020105834852604E-002   5.7826805590449892E-003   5.2612005369398321E-002
  -3.0943108952912024E-002   8.9363019940018051E-003   4.8921054458091751E-002
  -2.9245270708657206E-002   8.3948104142305691E-003   4.8640663968335940E-002
  -2.7547432464402374E-002   7.8374645931008485E-003   4.8556475652651171E-002
  -2.5849594220147543E-002   7.2642645306126817E-003   4.8668489511037513E-002
  -2.4151755975892725E-002   6.6752102267658708E-003   4.8976705543494647E-002
  -1.1779458601249772E-002   3.1050915558817893E-003   6.3117594425588841E-002
  -1.0808774373845614E-002   2.7823532626869429E-003   6.3010643049159931E-002
  -9.8380901464414500E-003   2.4743540034601885E-003   6.3152959174663736E-002
  -8.8674059190372995E-003   2.1810937782020812E-003   6.3544542802100118E-002
  -7.8967216916331281E-003   1.9025725869122878E-003   6.4185393931469381E-002
  -1.4833957147531128E-002   3.9976212236028097E-003   5.9682449810445293E-002
  -1.3626604459945270E-002   3.6059701904995189E-003   5.9549726891659549E-002
  -1.2419251772359377E-002   3.2246695187221341E-003   5.9641073391304311E-002
  -1.1211899084773515E-002   2.8537192082698781E-003   5.9956489309379774E-002
  -1.0004546397187626E-002   2.4931192591431950E-003   6.0495974645886186E-002
  -1.7914172892065389E-002   4.8901508913237746E-003   5.6180586791715226E-002
  -1.6495349827799828E-002   4.4295871183125390E-003   5.6017703657929518E-002
  -1.5076526763534227E-002   3.9749850339837467E-003   5.6053691859072358E-002
  -1.3657703699268629E-002   3.5263446383374530E-003   5.6288551395143993E-002
  -1.2238880635003042E-002   3.0836659313739356E-003   5.6722282266144397E-002
  -2.1020105834852604E-002   5.7826805590449892E-003   5.2612005369398321E-002
  -1.9415010477409306E-002   5.2532040461252816E-003   5.2414573347969839E-002
  -1.7809915119965963E-002   4.7253005492453037E-003   5.2390814577967876E-002
  -1.6204819762522648E-002   4.1989700684049724E-003   5.2540729059392825E-002
  -1.4599724405079320E-002   3.6742126036047040E-003   5.2864316792244410E-002
  -2.4151755975892725E-002   6.6752102267658708E-003   4.8976705543494647E-002
  -2.2385586408773694E-002   6.0768209739383017E-003   4.8740335961780346E-002
  -2.0619416841654636E-002   5.4756160645072494E-003   4.8652441547990755E-002
  -1.8853247274535620E-002   4.8715954984728665E-003   4.8713022302125958E-002
  -1.7087077707416548E-002   4.2647592758354724E-003   4.8922078224185928E-002
  -7.8967216916331281E-003   1.9025725869122878E-003   6.4185393931469381E-002
  -6.9635133332194982E-003   1.6874446961295808E-003   6.4103669723479584E-002
  -6.0303049748058578E-003   1.5843643723923162E-003   6.4268926031002205E-002
  -5.0970966163922191E-003   1.5933316156998070E-003   6.4681162854037633E-002
  -4.1638882579785874E-003   1.7143464260529484E-003   6.5340380192585368E-002
  -1.0004546397187626E-002   2.4931192591431950E-003   6.0495974645886186E-002
  -8.8227629755531466E-003   2.1937018848401935E-003   6.0401366631027076E-002
  -7.6409795539186566E-003   2.0062992988585104E-003   6.0556928227097240E-002
  -6.4591961322841996E-003   1.9309115011988329E-003   6.0962659434096594E-002
  -5.2774127106497148E-003   1.9675384918608207E-003   6.1618560252024723E-002
  -1.2238880635003042E-002   3.0836659313739356E-003   5.6722282266144397E-002
  -1.0805333054731137E-002   2.6999590735506396E-003   5.6614757665692655E-002
  -9.3717854744592363E-003   2.4282342253251349E-003   5.6760591771586502E-002
  -7.9382378941873326E-003   2.2684913866977442E-003   5.7159784583826083E-002
  -6.5046903139154288E-003   2.2207305576683600E-003   5.7812336102411266E-002
  -1.4599724405079320E-002   3.6742126036047040E-003   5.2864316792244410E-002
  -1.2911223570753437E-002   3.2062162622611134E-003   5.2743842827476010E-002
  -1.1222722736427595E-002   2.8501691517917663E-003   5.2879916664469881E-002
  -9.5342219021017326E-003   2.6060712721969904E-003   5.3272538303225953E-002
  -7.8457210677758682E-003   2.4739226234760658E-003   5.3921707743744482E-002
  -1.7087077707416548E-002   4.2647592758354724E-003   4.8922078224185928E-002
  -1.5140434523620128E-002   3.7124734509716983E-003   4.8788622116377245E-002
  -1.3193791339823721E-002   3.2721040782582589E-003   4.8914902905747570E-002
  -1.1247148156027308E-002   2.9436511576957577E-003   4.9300920592296876E-002
  -9.3005049722308941E-003   2.7271146892837717E-003   4.9946675176024580E-002
  -4.1638882579785874E-003   1.7143464260529484E-003   6.5340380192585368E-002
  -3.6327805349021455E-003   2.0074179594311570E-003   6.4418534687273654E-002
  -3.1016728118257279E-003   2.5325553718145710E-003   6.3616804093917234E-002
  -2.5705650887492999E-003   3.2897586632027048E-003   6.2935188412515719E-002
  -2.0394573656728684E-003   4.2790278335962384E-003   6.2373687643069609E-002
  -5.2774127106497148E-003   1.9675384918608207E-003   6.1618560252024723E-002
  -4.6004366442581324E-003   2.2232075721510536E-003   6.0887782662448930E-002
  -3.9234605778666228E-003   2.8049460433776097E-003   6.0328626847547973E-002
  -3.2464845114750923E-003   3.7127539055395870E-003   5.9941092807321988E-002
  -2.5695084450835584E-003   4.9466311586376932E-003   5.9725180541771117E-002
  -6.5046903139154288E-003   2.2207305576683600E-003   5.7812336102411266E-002
  -5.6303390414889163E-003   2.4389971848710612E-003   5.7366629940501790E-002
  -4.7559877690624332E-003   3.0773367149405095E-003   5.7144052415987051E-002
  -3.8816364966359372E-003   4.1357491478764621E-003   5.7144603528867147E-002
  -3.0072852242094376E-003   5.6142344836789260E-003   5.7368283279142229E-002
  -7.8457210677758682E-003   2.4739226234760658E-003   5.3921707743744482E-002
  -6.7224877265945155E-003   2.6547867975910133E-003   5.3855076521432177E-002
  -5.5992543854132184E-003   3.3497273865032567E-003   5.4063080799234643E-002
  -4.4760210442319013E-003   4.5587443902128967E-003   5.4545720577151832E-002
  -3.3527877030505677E-003   6.2818378087202698E-003   5.5302995855183654E-002
  -9.3005049722308941E-003   2.7271146892837717E-003   4.9946675176024580E-002
  -7.8768826995748581E-003   2.8705764103109654E-003   5.0353122405240369E-002
  -6.4532604269188915E-003   3.6221180580664480E-003   5.1085711997290562E-002
  -5.0296381542629040E-003   4.9817396325499974E-003   5.2144443952175434E-002
  -3.6060158816068888E-003   6.9494411337613915E-003   5.3529318269894821E-002
  -2.0394573656728684E-003   4.2790278335962384E-003   6.2373687643069609E-002
  -2.2887218151314837E-003   5.5809395707067111E-003   5.8342939921448234E-002
  -2.5379862645900884E-003   7.2760705622462174E-003   5.4306512422877651E-002
  -2.7872507140486967E-003   9.3644208082140634E-003   5.0264405147357305E-002
  -3.0365151635073084E-003   1.1845990308610777E-002   4.6216618094887529E-002
  -2.5695084450835584E-003   4.9466311586376932E-003   5.9725180541771117E-002
  -2.8418951538484241E-003   6.5705545084825956E-003   5.6192885666571490E-002
  -3.1142818626132933E-003   8.6485006608859882E-003   5.2620026049708835E-002
  -3.3866685713782457E-003   1.1180469615847934E-002   4.9006601691183455E-002
  -3.6590552801430559E-003   1.4166461373368078E-002   4.5352612590994879E-002
  -3.0072852242094376E-003   5.6142344836789260E-003   5.7368283279142229E-002
  -3.3376791569940945E-003   7.5601694462585911E-003   5.4395244798493919E-002
  -3.6680730897787530E-003   1.0020930759526203E-002   5.1346756611469258E-002
  -3.9984670225633899E-003   1.2996518423481859E-002   4.8222818718068133E-002
  -4.3288609553480059E-003   1.6486932438125601E-002   4.5023431118290103E-002
  -3.3527877030505677E-003   6.2818378087202698E-003   5.5302995855183654E-002
  -3.7760738245684392E-003   8.5497843840346421E-003   5.2950017317216151E-002
  -4.1993599460863392E-003   1.1393360858166640E-002   5.0486704108158753E-002
  -4.6226460676042358E-003   1.4812567231115979E-002   4.7913056228011029E-002
  -5.0459321891221090E-003   1.8807403502883013E-002   4.5229073676773313E-002
  -3.6060158816068888E-003   6.9494411337613915E-003   5.3529318269894821E-002
  -4.1570791565715137E-003   9.5393993218103601E-003   5.1857203222737569E-002
  -4.7081424315361525E-003   1.2765790956806355E-002   5.0039868539776933E-002
  -5.2592057065007983E-003   1.6628616038749697E-002   4.8077314221013023E-002
  -5.8102689814654163E-003   2.1127874567640426E-002   4.5969540266445286E-002
  -4.8736924102247919E-002   1.5058721279452902E-002   4.2641953354237261E-002
  -4.7459497380408805E-002   1.4471812285173968E-002   4.4368781898608600E-002
  -4.6182070658569621E-002   1.3940386726178144E-002   4.5824968996686366E-002
  -4.4904643936730458E-002   1.3464444602465250E-002   4.7010514648470558E-002
  -4.3627217214891295E-002   1.3043985914035605E-002   4.7925418853961121E-002
  -5.3741706478723908E-002   1.6821968324162329E-002   4.3553793145689856E-002
  -5.2528578613827759E-002   1.6310674853667939E-002   4.3552070047802427E-002
  -5.1315450748931672E-002   1.5796554278853805E-002   4.3692390682322585E-002
  -5.0102322884035558E-002   1.5279606599719695E-002   4.3974755049250067E-002
  -4.8889195019139436E-002   1.4759831816265945E-002   4.4399163148585219E-002
  -6.0707711252290859E-002   1.8585215368871810E-002   4.4570403730728403E-002
  -5.9146197065636633E-002   1.8149537422161993E-002   4.2781818450979378E-002
  -5.7584682878982565E-002   1.7652721831529439E-002   4.1547962082338810E-002
  -5.6023168692328464E-002   1.7094768596974196E-002   4.0868834624806935E-002
  -5.4461654505674320E-002   1.6475677718496368E-002   4.0744436078383517E-002
  -6.9634938422948767E-002   2.0348462413581264E-002   4.5691785109353136E-002
  -6.7312352735835509E-002   1.9988399990656006E-002   4.2058027108139454E-002
  -6.4989767048722308E-002   1.9508889384205114E-002   3.9391683196735576E-002
  -6.2667181361609051E-002   1.8909930594228779E-002   3.7692753375141122E-002
  -6.0344595674495793E-002   1.8191523620726749E-002   3.6961237643356570E-002
  -8.0523387990697637E-002   2.2111709458290718E-002   4.6917937281563737E-002
  -7.7027045624424140E-002   2.1827262559150074E-002   4.1380696019282626E-002
  -7.3530703258150781E-002   2.1365056936880775E-002   3.7223554025512279E-002
  -7.0034360891877381E-002   2.0725092591483123E-002   3.4446511300252627E-002
  -6.6538018525603954E-002   1.9907369522957130E-002   3.3049567843503824E-002
  -4.3627217214891295E-002   1.3043985914035605E-002   4.7925418853961121E-002
  -4.2076952551092714E-002   1.2629886031462534E-002   4.7927345128478210E-002
  -4.0526687887294147E-002   1.2173020325319070E-002   4.8058863972587101E-002
  -3.8976423223495579E-002   1.1673388795605779E-002   4.8319975386287725E-002
  -3.7426158559696998E-002   1.1130991442322380E-002   4.8710679369580068E-002
  -4.8889195019139436E-002   1.4759831816265945E-002   4.4399163148585219E-002
  -4.7183487252745453E-002   1.4232910928811432E-002   4.4089342810193360E-002
  -4.5477779486351469E-002   1.3694524937675159E-002   4.3960816107400574E-002
  -4.3772071719957457E-002   1.3144673842857214E-002   4.4013583040206999E-002
  -4.2066363953563495E-002   1.2583357644357307E-002   4.4247643608612386E-002
  -5.4461654505674320E-002   1.6475677718496368E-002   4.0744436078383517E-002
  -5.2548802570677539E-002   1.5835935826160497E-002   4.0154169846971219E-002
  -5.0635950635680722E-002   1.5216029550031089E-002   3.9796898317165298E-002
  -4.8723098700683920E-002   1.4615958890108484E-002   3.9672621488965804E-002
  -4.6810246765687173E-002   1.4035723846392317E-002   3.9781339362372881E-002
  -6.0344595674495793E-002   1.8191523620726749E-002   3.6961237643356570E-002
  -5.8172898504888867E-002   1.7438960723509422E-002   3.6121826238811938E-002
  -5.6001201335281942E-002   1.6737534162387071E-002   3.5567110601881086E-002
  -5.3829504165675009E-002   1.6087243937359726E-002   3.5297090732564158E-002
  -5.1657806996068090E-002   1.5488090048427286E-002   3.5311766630860893E-002
  -6.6538018525603954E-002   1.9907369522957130E-002   3.3049567843503824E-002
  -6.4055775055379530E-002   1.9041985620858459E-002   3.1992311985715338E-002
  -6.1573531585155133E-002   1.8259038774743108E-002   3.1271452961548041E-002
  -5.9091288114930737E-002   1.7558528984611077E-002   3.0886990771001974E-002
  -5.6609044644706313E-002   1.6940456250462255E-002   3.0838925414076956E-002
  -3.7426158559696998E-002   1.1130991442322380E-002   4.8710679369580068E-002
  -3.5805396158000741E-002   1.0570988153000893E-002   4.8516129673600195E-002
  -3.4184633756304511E-002   1.0018538815173755E-002   4.8486342289692258E-002
  -3.2563871354608261E-002   9.4736434288403767E-003   4.8621317217856008E-002
  -3.0943108952912024E-002   8.9363019940018051E-003   4.8921054458091751E-002
  -4.2066363953563495E-002   1.2583357644357307E-002   4.4247643608612386E-002
  -4.0274396451047210E-002   1.2011367675512641E-002   4.3954695040366643E-002
  -3.8482428948530975E-002   1.1429495269659834E-002   4.3839394361689016E-002
  -3.6690461446014705E-002   1.0837740426798852E-002   4.3901741572579450E-002
  -3.4898493943498449E-002   1.0236103146929798E-002   4.4141736673038279E-002
  -4.6810246765687173E-002   1.4035723846392317E-002   3.9781339362372881E-002
  -4.4834188584854523E-002   1.3451747198024250E-002   3.9372555533358639E-002
  -4.2858130404021935E-002   1.2840451724145871E-002   3.9154305171408971E-002
  -4.0882072223189354E-002   1.2201837424756942E-002   3.9126588276523863E-002
  -3.8906014042356690E-002   1.1535904299857819E-002   3.9289404848703344E-002
  -5.1657806996068090E-002   1.5488090048427286E-002   3.5311766630860893E-002
  -4.9484772559422782E-002   1.4892126720535956E-002   3.4769711152576217E-002
  -4.7311738122777461E-002   1.4251408178632040E-002   3.4431074718852220E-002
  -4.5138703686132126E-002   1.3565934422715335E-002   3.4295857329689233E-002
  -4.2965669249486783E-002   1.2835705452785881E-002   3.4364058985087251E-002
  -5.6609044644706313E-002   1.6940456250462255E-002   3.0838925414076956E-002
  -5.4226148374751898E-002   1.6332506243047606E-002   3.0146161898019275E-002
  -5.1843252104797510E-002   1.5662364633118014E-002   2.9669703004018860E-002
  -4.9460355834843053E-002   1.4930031420673347E-002   2.9409548732075602E-002
  -4.7077459564888707E-002   1.4135506605713943E-002   2.9365699082189667E-002
  -3.0943108952912024E-002   8.9363019940018051E-003   4.8921054458091751E-002
  -2.9245270708657206E-002   8.3948104142305691E-003   4.8640663968335940E-002
  -2.7547432464402374E-002   7.8374645931008485E-003   4.8556475652651171E-002
  -2.5849594220147543E-002   7.2642645306126817E-003   4.8668489511037513E-002
  -2.4151755975892725E-002   6.6752102267658708E-003   4.8976705543494647E-002
  -3.4898493943498449E-002   1.0236103146929798E-002   4.4141736673038279E-002
  -3.3013541433485040E-002   9.6261959731822888E-003   4.3788867370644580E-002
  -3.1128588923471603E-002   9.0096314486861478E-003   4.3614024425697284E-002
  -2.9243636413458160E-002   8.3864095734415521E-003   4.3617207838196198E-002
  -2.7358683903444703E-002   7.7565303474481095E-003   4.3798417608141349E-002
  -3.8906014042356690E-002   1.1535904299857819E-002   3.9289404848703344E-002
  -3.6852123083209440E-002   1.0857581532133981E-002   3.8873253624281942E-002
  -3.4798232124062189E-002   1.0181798304271510E-002   3.8616952940681994E-002
  -3.2744341164914918E-002   9.5085546162703132E-003   3.8520502797903422E-002
  -3.0690450205767689E-002   8.8378504681304038E-003   3.8583903195946401E-002
  -4.2965669249486783E-002   1.2835705452785881E-002   3.4364058985087251E-002
  -4.0761015657830434E-002   1.2088967091085909E-002   3.3893822729247888E-002
  -3.8556362066174105E-002   1.1353965159856785E-002   3.3565261197605230E-002
  -3.6351708474517762E-002   1.0630699659099130E-002   3.3378374390159157E-002
  -3.4147054882861370E-002   9.9191705888126702E-003   3.3333162306909789E-002
  -4.7077459564888707E-002   1.4135506605713943E-002   2.9365699082189667E-002
  -4.4740219157348021E-002   1.3320352650037559E-002   2.8850574685542363E-002
  -4.2402978749807405E-002   1.2526132015442254E-002   2.8458949196466909E-002
  -4.0065738342266767E-002   1.1752844701927938E-002   2.8190822614963390E-002
  -3.7728497934726130E-002   1.1000490709494937E-002   2.8046194941031555E-002
  -2.4151755975892725E-002   6.6752102267658708E-003   4.8976705543494647E-002
  -2.2385586408773694E-002   6.0768209739383017E-003   4.8740335961780346E-002
  -2.0619416841654636E-002   5.4756160645072494E-003   4.8652441547990755E-002
  -1.8853247274535620E-002   4.8715954984728665E-003   4.8713022302125958E-002
  -1.7087077707416548E-002   4.2647592758354724E-003   4.8922078224185928E-002
  -2.7358683903444703E-002   7.7565303474481095E-003   4.3798417608141349E-002
  -2.5441160037493103E-002   7.1232183839644025E-003   4.3438576892146419E-002
  -2.3523636171541469E-002   6.4896982962490274E-003   4.3232969605891930E-002
  -2.1606112305589849E-002   5.8559700843016128E-003   4.3181595749378007E-002
  -1.9688588439638235E-002   5.2220337481225787E-003   4.3284455322604276E-002
  -3.0690450205767689E-002   8.8378504681304038E-003   3.8583903195946401E-002
  -2.8615813779167762E-002   8.1696157939908642E-003   3.8103198878042380E-002
  -2.6541177352567807E-002   7.5037805279908054E-003   3.7782486251694308E-002
  -2.4466540925967881E-002   6.8403446701305257E-003   3.7621765316902686E-002
  -2.2391904499367996E-002   6.1793082204097405E-003   3.7621036073666875E-002
  -3.4147054882861370E-002   9.9191705888126702E-003   3.3333162306909789E-002
  -3.1909547633797490E-002   9.2160132040171455E-003   3.2734201919468048E-002
  -2.9672040384733561E-002   8.5178627597328055E-003   3.2300991485397910E-002
  -2.7434533135669643E-002   7.8247192559591887E-003   3.2033531004699939E-002
  -2.5197025886605696E-002   7.1365826926966525E-003   3.1931820477373578E-002
  -3.7728497934726130E-002   1.1000490709494937E-002   2.8046194941031555E-002
  -3.5322361601382468E-002   1.0262410614043482E-002   2.7331586016423493E-002
  -3.2916225268038821E-002   9.5319449914743060E-003   2.6788485307002841E-002
  -3.0510088934695194E-002   8.8090938417881154E-003   2.6416892812769766E-002
  -2.8103952601351539E-002   8.0938571649840085E-003   2.6216808533724212E-002
  -1.7087077707416548E-002   4.2647592758354724E-003   4.8922078224185928E-002
  -1.5140434523620128E-002   3.7124734509716983E-003   4.8788622116377245E-002
  -1.3193791339823721E-002   3.2721040782582589E-003   4.8914902905747570E-002
  -1.1247148156027308E-002   2.9436511576957577E-003   4.9300920592296876E-002
  -9.3005049722308941E-003   2.7271146892837717E-003   4.9946675176024580E-002
  -1.9688588439638235E-002   5.2220337481225787E-003   4.3284455322604276E-002
  -1.7521366089951820E-002   4.6232692439469592E-003   4.3101270276193981E-002
  -1.5354143740265447E-002   4.0950565280111206E-003   4.3099506664384724E-002
  -1.3186921390579059E-002   3.6373956003146191E-003   4.3279164487176641E-002
  -1.1019699040892658E-002   3.2502864608576765E-003   4.3640243744569540E-002
  -2.2391904499367996E-002   6.1793082204097405E-003   3.7621036073666875E-002
  -2.0082418446369280E-002   5.5340650369226640E-003   3.7346757424743526E-002
  -1.7772932393370567E-002   4.9180089777641073E-003   3.7175584747843590E-002
  -1.5463446340371860E-002   4.3311400429334838E-003   3.7107518042967018E-002
  -1.3153960287373131E-002   3.7734582324313592E-003   3.7142557310114233E-002
  -2.5197025886605696E-002   7.1365826926966525E-003   3.1931820477373578E-002
  -2.2823591592872384E-002   6.4448608298983689E-003   3.1525083562025866E-002
  -2.0450157299139123E-002   5.7409614275168094E-003   3.1143137156124056E-002
  -1.8076723005405752E-002   5.0248844855524579E-003   3.0785981259667812E-002
  -1.5703288711672495E-002   4.2966300040052086E-003   3.0453615872657616E-002
  -2.8103952601351539E-002   8.0938571649840085E-003   2.6216808533724212E-002
  -2.5744885529461248E-002   7.3556566228736853E-003   2.5636248688041152E-002
  -2.3385818457571025E-002   6.5639138772699002E-003   2.5002163889226325E-002
  -2.1026751385680796E-002   5.7186289281713626E-003   2.4314554137279371E-002
  -1.8667684313790511E-002   4.8198017755789468E-003   2.3573419432200593E-002
  -9.3005049722308941E-003   2.7271146892837717E-003   4.9946675176024580E-002
  -7.8768826995748581E-003   2.8705764103109654E-003   5.0353122405240369E-002
  -6.4532604269188915E-003   3.6221180580664480E-003   5.1085711997290562E-002
  -5.0296381542629040E-003   4.9817396325499974E-003   5.2144443952175434E-002
  -3.6060158816068888E-003   6.9494411337613915E-003   5.3529318269894821E-002
  -1.1019699040892658E-002   3.2502864608576765E-003   4.3640243744569540E-002
  -9.2516893371043935E-003   3.1740738516297662E-003   4.4229529463737760E-002
  -7.4836796333161912E-003   3.6491025146208056E-003   4.5181447682335840E-002
  -5.7156699295279369E-003   4.6753724498314608E-003   4.6495998400363447E-002
  -3.9476602257397242E-003   6.2528836572610658E-003   4.8173181617821137E-002
  -1.3153960287373131E-002   3.7734582324313592E-003   3.7142557310114233E-002
  -1.1005073015857479E-002   3.4775712929483449E-003   3.7857842864725766E-002
  -8.8561857443417817E-003   3.6760869711754962E-003   3.8972251055362422E-002
  -6.7072984728261068E-003   4.3690052671129243E-003   4.0485781882024355E-002
  -4.5584112013104319E-003   5.5563261807608511E-003   4.2398435344711216E-002
  -1.5703288711672495E-002   4.2966300040052086E-003   3.0453615872657616E-002
  -1.3137033735834072E-002   3.7810687342672566E-003   3.1238062608203818E-002
  -1.0570778759995656E-002   3.7030714277300758E-003   3.2458122116370468E-002
  -8.0045237841572386E-003   4.0626380843946097E-003   3.4113794397157490E-002
  -5.4382688083188194E-003   4.8597687042604698E-003   3.6205079450564739E-002
  -1.8667684313790511E-002   4.8198017755789468E-003   2.3573419432200593E-002
  -1.5647571497034107E-002   4.0845661755856688E-003   2.4370188694172623E-002
  -1.2627458680277814E-002   3.7300558842845999E-003   2.5639060865360164E-002
  -9.6073458635214798E-003   3.7562709016759205E-003   2.7380035945763243E-002
  -6.5872330467651175E-003   4.1632112277603106E-003   2.9593113935381776E-002
  -3.6060158816068888E-003   6.9494411337613915E-003   5.3529318269894821E-002
  -4.1570791565715137E-003   9.5393993218103601E-003   5.1857203222737569E-002
  -4.7081424315361525E-003   1.2765790956806355E-002   5.0039868539776933E-002
  -5.2592057065007983E-003   1.6628616038749697E-002   4.8077314221013023E-002
  -5.8102689814654163E-003   2.1127874567640426E-002   4.5969540266445286E-002
  -3.9476602257397242E-003   6.2528836572610658E-003   4.8173181617821137E-002
  -4.5401278867756717E-003   8.6908377358832500E-003   4.7238814147515185E-002
  -5.1325955478116470E-003   1.2298436284672642E-002   4.6366857540870055E-002
  -5.7250632088476569E-003   1.7075679303628438E-002   4.5557311797885608E-002
  -6.3175308698836252E-003   2.3022566792751498E-002   4.4810176918562039E-002
  -4.5584112013104319E-003   5.5563261807608511E-003   4.2398435344711216E-002
  -4.9846527489533984E-003   7.8422761499565286E-003   4.2735026474476023E-002
  -5.4108942965964725E-003   1.1831081612538957E-002   4.3341658967365693E-002
  -5.8371358442395414E-003   1.7522742568507409E-002   4.4218332823380557E-002
  -6.2633773918824576E-003   2.4917259017862348E-002   4.5365048042520950E-002
  -5.4382688083188194E-003   4.8597687042604698E-003   3.6205079450564739E-002
  -5.4906537431046783E-003   6.9937145640298348E-003   3.8345840203619891E-002
  -5.5430386778904531E-003   1.1363726940405258E-002   4.0964272819264742E-002
  -5.5954236126762955E-003   1.7969805833386487E-002   4.4060377297498607E-002
  -5.6478085474620868E-003   2.6811951242973198E-002   4.7634153638321991E-002
  -6.5872330467651175E-003   4.1632112277603106E-003   2.9593113935381776E-002
  -6.0581308692294056E-003   6.1451529781026970E-003   3.4071255334947037E-002
  -5.5290286916937770E-003   1.0896372268271282E-002   3.9234699096566072E-002
  -4.9999265141582039E-003   1.8416869098264885E-002   4.5083445220238605E-002
  -4.4708243366224920E-003   2.8706643468084270E-002   5.1617493705964801E-002
  -8.0523387990697637E-002   2.2111709458290718E-002   4.6917937281563737E-002
  -7.7027045624424140E-002   2.1827262559150074E-002   4.1380696019282626E-002
  -7.3530703258150781E-002   2.1365056936880775E-002   3.7223554025512279E-002
  -7.0034360891877381E-002   2.0725092591483123E-002   3.4446511300252627E-002
  -6.6538018525603954E-002   1.9907369522957130E-002   3.3049567843503824E-002
  -8.9078463756135484E-002   2.3861404227420058E-002   2.0093543718938900E-002
  -8.4895755123059358E-002   2.3507402411666517E-002   2.0318000382439083E-002
  -8.0713046489983259E-002   2.2986081170594030E-002   2.0535090311033927E-002
  -7.6530337856907202E-002   2.2297440504202279E-002   2.0744813504723431E-002
  -7.2347629223831020E-002   2.1441480412491498E-002   2.0947169963507428E-002
  -9.1005569519860094E-002   2.5611098996549425E-002  -6.8056244092036117E-003
  -8.7523960623397498E-002   2.5187542264183155E-002  -8.0903052211268867E-004
  -8.4042351726934778E-002   2.4607105404307182E-002   3.7927306266566929E-003
  -8.0560742830472112E-002   2.3869788416921382E-002   6.9996590371047239E-003
  -7.7079133934009517E-002   2.2975591302025811E-002   8.8117547092310677E-003
  -8.6304705281871730E-002   2.7360793765678723E-002  -3.3779567102863367E-002
  -8.4911662125438575E-002   2.6867682116699751E-002  -2.2000396694372551E-002
  -8.3518618969005462E-002   2.6228129638020164E-002  -1.3003525027619185E-002
  -8.2125575812572266E-002   2.5442136329640343E-002  -6.7889521026035290E-003
  -8.0732532656139153E-002   2.4509702191560429E-002  -3.3566779193253612E-003
  -7.4975871042170184E-002   2.9110488534808132E-002  -6.0828284362040796E-002
  -7.7058859629182686E-002   2.8547821969216236E-002  -4.3256098134340393E-002
  -7.9141848216195188E-002   2.7849153871733479E-002  -2.9853676651793920E-002
  -8.1224836803207634E-002   2.7014484242359416E-002  -2.0621019914400844E-002
  -8.3307825390220080E-002   2.6043813081094491E-002  -1.5558127922161658E-002
  -6.6538018525603954E-002   1.9907369522957130E-002   3.3049567843503824E-002
  -6.4055775055379530E-002   1.9041985620858459E-002   3.1992311985715338E-002
  -6.1573531585155133E-002   1.8259038774743108E-002   3.1271452961548041E-002
  -5.9091288114930737E-002   1.7558528984611077E-002   3.0886990771001974E-002
  -5.6609044644706313E-002   1.6940456250462255E-002   3.0838925414076956E-002
  -7.2347629223831020E-002   2.1441480412491498E-002   2.0947169963507428E-002
  -6.9618665690595882E-002   2.0539936151601518E-002   2.0957637394629247E-002
  -6.6889702157360786E-002   1.9714542977672389E-002   2.1125148118151527E-002
  -6.4160738624125677E-002   1.8965300890703835E-002   2.1449702134073968E-002
  -6.1431775090890539E-002   1.8292209890696132E-002   2.1931299442396579E-002
  -7.7079133934009517E-002   2.2975591302025811E-002   8.8117547092310677E-003
  -7.4282803878984463E-002   2.2037886682344576E-002   9.8836594602408276E-003
  -7.1486473823959507E-002   2.1170047180601670E-002   1.0933253962429661E-002
  -6.8690143768934536E-002   2.0372072796796592E-002   1.1960538215798351E-002
  -6.5893813713909483E-002   1.9643963530930009E-002   1.2965512220346156E-002
  -8.0732532656139153E-002   2.4509702191560429E-002  -3.3566779193253612E-003
  -7.8048189620545202E-002   2.3535837213087885E-002  -1.2296218174503576E-003
  -7.5363846584951197E-002   2.2625551383530673E-002   6.9577049438296693E-004
  -7.2679503549357261E-002   2.1778844702889738E-002   2.4194990161748803E-003
  -6.9995160513763283E-002   2.0995717171164052E-002   3.9415637479253626E-003
  -8.3307825390220080E-002   2.6043813081094491E-002  -1.5558127922161658E-002
  -8.0914822915278017E-002   2.5033787743830693E-002  -1.2382206438444232E-002
  -7.8521820440335954E-002   2.4081055586460315E-002  -9.5873022859891827E-003
  -7.6128817965393836E-002   2.3185616608982156E-002  -7.1734154647963670E-003
  -7.3735815490451828E-002   2.2347470811397763E-002  -5.1405459748656845E-003
  -5.6609044644706313E-002   1.6940456250462255E-002   3.0838925414076956E-002
  -5.4226148374751898E-002   1.6332506243047606E-002   3.0146161898019275E-002
  -5.1843252104797510E-002   1.5662364633118014E-002   2.9669703004018860E-002
  -4.9460355834843053E-002   1.4930031420673347E-002   2.9409548732075602E-002
  -4.7077459564888707E-002   1.4135506605713943E-002   2.9365699082189667E-002
  -6.1431775090890539E-002   1.8292209890696132E-002   2.1931299442396579E-002
  -5.8855191779542598E-002   1.7627305972629070E-002   2.1515625906043084E-002
  -5.6278608468194657E-002   1.6902625131482302E-002   2.1271021830419373E-002
  -5.3702025156846772E-002   1.6118167367256096E-002   2.1197487215525404E-002
  -5.1125441845498817E-002   1.5273932679949975E-002   2.1295022061361302E-002
  -6.5893813713909483E-002   1.9643963530930009E-002   1.2965512220346156E-002
  -6.3168778522495556E-002   1.8922105702210423E-002   1.2829343343132196E-002
  -6.0443743331081587E-002   1.8142885629846353E-002   1.2819008765320578E-002
  -5.7718708139667570E-002   1.7306303313838565E-002   1.2934508486911224E-002
  -5.4993672948253629E-002   1.6412358754186063E-002   1.3175842507904073E-002
  -6.9995160513763283E-002   2.0995717171164052E-002   3.9415637479253626E-003
  -6.7166908603610700E-002   2.0216905431791887E-002   4.0873142092863156E-003
  -6.4338656693458160E-002   1.9383146128210856E-002   4.3136638087221228E-003
  -6.1510404783305619E-002   1.8494439260420784E-002   4.6206125462328711E-003
  -5.8682152873153051E-002   1.7550784828421789E-002   5.0081604218182932E-003
  -7.3735815490451828E-002   2.2347470811397763E-002  -5.1405459748656845E-003
  -7.0849582022888158E-002   2.1511705161373351E-002  -4.7104614954944779E-003
  -6.7963348555324543E-002   2.0623406626574720E-002  -4.2450130393754670E-003
  -6.5077115087760901E-002   1.9682575207003512E-002  -3.7442006065097205E-003
  -6.2190881620197258E-002   1.8689210902658071E-002  -3.2080241968961420E-003
  -4.7077459564888707E-002   1.4135506605713943E-002   2.9365699082189667E-002
  -4.4740219157348021E-002   1.3320352650037559E-002   2.8850574685542363E-002
  -4.2402978749807405E-002   1.2526132015442254E-002   2.8458949196466909E-002
  -4.0065738342266767E-002   1.1752844701927938E-002   2.8190822614963390E-002
  -3.7728497934726130E-002   1.1000490709494937E-002   2.8046194941031555E-002
  -5.1125441845498817E-002   1.5273932679949975E-002   2.1295022061361302E-002
  -4.8654145855804382E-002   1.4417515902261202E-002   2.0998378548848701E-002
  -4.6182849866109939E-002   1.3596511866886679E-002   2.0846347293071887E-002
  -4.3711553876415524E-002   1.2810920573826039E-002   2.0838928294030501E-002
  -4.1240257886721060E-002   1.2060742023079440E-002   2.0976121551725013E-002
  -5.4993672948253629E-002   1.6412358754186063E-002   1.3175842507904073E-002
  -5.2367208027241575E-002   1.5514679154484984E-002   1.3112159300759318E-002
  -4.9740743106229612E-002   1.4666891718330841E-002   1.3214201699513664E-002
  -4.7114278185217628E-002   1.3868996445723810E-002   1.3481969704167783E-002
  -4.4487813264205596E-002   1.3120993336664055E-002   1.3915463314721044E-002
  -5.8682152873153051E-002   1.7550784828421789E-002   5.0081604218182932E-003
  -5.5879405671659818E-002   1.6611842406708863E-002   5.1919169412743028E-003
  -5.3076658470166495E-002   1.5737271569775300E-002   5.5625124157930687E-003
  -5.0273911268673234E-002   1.4927072317622135E-002   6.1199468453753039E-003
  -4.7471164067179938E-002   1.4181244650248059E-002   6.8642202300203126E-003
  -6.2190881620197258E-002   1.8689210902658071E-002  -3.2080241968961420E-003
  -5.9190738789058894E-002   1.7709005658932409E-002  -2.7623485296069394E-003
  -5.6190595957920531E-002   1.6807651421219844E-002  -2.1087205580909707E-003
  -5.3190453126782222E-002   1.5985148189519731E-002  -1.2471402823477917E-003
  -5.0190310295643803E-002   1.5241495963833174E-002  -1.7760770237729151E-004
  -3.7728497934726130E-002   1.1000490709494937E-002   2.8046194941031555E-002
  -3.5322361601382468E-002   1.0262410614043482E-002   2.7331586016423493E-002
  -3.2916225268038821E-002   9.5319449914743060E-003   2.6788485307002841E-002
  -3.0510088934695194E-002   8.8090938417881154E-003   2.6416892812769766E-002
  -2.8103952601351539E-002   8.0938571649840085E-003   2.6216808533724212E-002
  -4.1240257886721060E-002   1.2060742023079440E-002   2.0976121551725013E-002
  -3.8693475464993021E-002   1.1324088759363915E-002   2.0494481227138983E-002
  -3.6146693043265010E-002   1.0579073327395952E-002   2.0122624864134270E-002
  -3.3599910621536958E-002   9.8256957271758462E-003   1.9860552462710762E-002
  -3.1053128199808960E-002   9.0639559587035734E-003   1.9708264022868571E-002
  -4.4487813264205596E-002   1.3120993336664055E-002   1.3915463314721044E-002
  -4.1862109007699565E-002   1.2385766904684098E-002   1.3650814949023024E-002
  -3.9236404751193499E-002   1.1626201663316821E-002   1.3434226291299423E-002
  -3.6610700494687454E-002   1.0842297612563577E-002   1.3265697341550718E-002
  -3.3984996238181416E-002   1.0034054752422916E-002   1.3145228099776973E-002
  -4.7471164067179938E-002   1.4181244650248059E-002   6.8642202300203126E-003
  -4.4828262229502168E-002   1.3447445050004128E-002   6.8005871820750706E-003
  -4.2185360391824474E-002   1.2673329999238411E-002   6.7232895884983199E-003
  -3.9542458554146752E-002   1.1858899497951030E-002   6.6323274492900500E-003
  -3.6899556716469009E-002   1.1004153546142592E-002   6.5277007644500770E-003
  -5.0190310295643803E-002   1.5241495963833174E-002  -1.7760770237729151E-004
  -4.7591935130400720E-002   1.4509123195324491E-002  -5.6202073703937039E-005
  -4.4993559965157748E-002   1.3720458335159558E-002  -1.0185244269156346E-005
  -4.2395184799914665E-002   1.2875501383339427E-002  -3.9557214071464508E-005
  -3.9796809634671693E-002   1.1974252339862046E-002  -1.4431798311231869E-004
  -2.8103952601351539E-002   8.0938571649840085E-003   2.6216808533724212E-002
  -2.5744885529461248E-002   7.3556566228736853E-003   2.5636248688041152E-002
  -2.3385818457571025E-002   6.5639138772699002E-003   2.5002163889226325E-002
  -2.1026751385680796E-002   5.7186289281713626E-003   2.4314554137279371E-002
  -1.8667684313790511E-002   4.8198017755789468E-003   2.3573419432200593E-002
  -3.1053128199808960E-002   9.0639559587035734E-003   1.9708264022868571E-002
  -2.8731909703064953E-002   8.2988672483385040E-003   1.9134749155742425E-002
  -2.6410691206321002E-002   7.5354428224408965E-003   1.8539062091455755E-002
  -2.4089472709577071E-002   6.7736826810108064E-003   1.7921202830008295E-002
  -2.1768254212832988E-002   6.0135868240474011E-003   1.7281171371400172E-002
  -3.3984996238181416E-002   1.0034054752422916E-002   1.3145228099776973E-002
  -3.1670273560612507E-002   9.2420778738032949E-003   1.2633964699169220E-002
  -2.9355550883043587E-002   8.5069717676123646E-003   1.2131881857372323E-002
  -2.7040828205474703E-002   7.8287364338499241E-003   1.1638979574385859E-002
  -2.4726105527905759E-002   7.2073718725158553E-003   1.1155257850209793E-002
  -3.6899556716469009E-002   1.1004153546142592E-002   6.5277007644500770E-003
  -3.4559977102103866E-002   1.0185288499267878E-002   6.1338953183222161E-003
  -3.2220397487738868E-002   9.4785007127833748E-003   5.7806231869761207E-003
  -2.9880817873373797E-002   8.8837901866895934E-003   5.4678843704119504E-003
  -2.7541238259008723E-002   8.4011569209845316E-003   5.1956788686296912E-003
  -3.9796809634671693E-002   1.1974252339862046E-002  -1.4431798311231869E-004
  -3.7401020327539225E-002   1.1128499124732683E-002  -3.6545898679890554E-004
  -3.5005231020406813E-002   1.0450029657955051E-002  -5.1471391973231806E-004
  -3.2609441713274345E-002   9.9388439395283190E-003  -5.9208278191324321E-004
  -3.0213652406141933E-002   9.5949419694529858E-003  -5.9756557334089688E-004
  -1.8667684313790511E-002   4.8198017755789468E-003   2.3573419432200593E-002
  -1.5647571497034107E-002   4.0845661755856688E-003   2.4370188694172623E-002
  -1.2627458680277814E-002   3.7300558842845999E-003   2.5639060865360164E-002
  -9.6073458635214798E-003   3.7562709016759205E-003   2.7380035945763243E-002
  -6.5872330467651175E-003   4.1632112277603106E-003   2.9593113935381776E-002
  -2.1768254212832988E-002   6.0135868240474011E-003   1.7281171371400172E-002
  -1.8544786117547396E-002   5.3460474885344000E-003   1.8233998620218461E-002
  -1.5321318022261790E-002   4.8619569114547456E-003   1.9121433516879810E-002
  -1.2097849926976129E-002   4.5613150928082713E-003   1.9943476061383900E-002
  -8.8743818316904810E-003   4.4441220325943664E-003   2.0700126253731521E-002
  -2.4726105527905759E-002   7.2073718725158553E-003   1.1155257850209793E-002
  -2.1836777415463360E-002   6.6075288014834921E-003   1.2066866535615006E-002
  -1.8947449303020919E-002   5.9938579386244195E-003   1.2375587607491023E-002
  -1.6058121190578475E-002   5.3663592839397270E-003   1.2081421065837095E-002
  -1.3168793078136079E-002   4.7250328374286443E-003   1.1184366910654220E-002
  -2.7541238259008723E-002   8.4011569209845316E-003   5.1956788686296912E-003
  -2.5523545390782044E-002   7.8690101144322927E-003   5.8687924403624039E-003
  -2.3505852522555361E-002   7.1257589657949399E-003   5.4015231371934772E-003
  -2.1488159654328640E-002   6.1714034750712972E-003   3.7938709591225535E-003
  -1.9470466786101995E-002   5.0059436422628112E-003   1.0458359061494976E-003
  -3.0213652406141933E-002   9.5949419694529858E-003  -5.9756557334089688E-004
  -2.9605090043503535E-002   9.1304914273815374E-003  -3.6022366553944973E-004
  -2.8996527680865025E-002   8.2576599929645167E-003  -1.8007598940126268E-003
  -2.8387965318226516E-002   6.9764476662031588E-003  -4.9191742587605392E-003
  -2.7779402955588117E-002   5.2868544470972001E-003  -9.7154667597821875E-003
  -6.5872330467651175E-003   4.1632112277603106E-003   2.9593113935381776E-002
  -6.0581308692294056E-003   6.1451529781026970E-003   3.4071255334947037E-002
  -5.5290286916937770E-003   1.0896372268271282E-002   3.9234699096566072E-002
  -4.9999265141582039E-003   1.8416869098264885E-002   4.5083445220238605E-002
  -4.4708243366224920E-003   2.8706643468084270E-002   5.1617493705964801E-002
  -8.8743818316904810E-003   4.4441220325943664E-003   2.0700126253731521E-002
  -7.5877407358584670E-003   5.6604239266007661E-003   2.5869651092935320E-002
  -6.3010996400265085E-003   9.3602669706139285E-003   3.1868951406678114E-002
  -5.0144585441944042E-003   1.5543651164634423E-002   3.8698027194960266E-002
  -3.7278174483625359E-003   2.4210576508661985E-002   4.6356878457781248E-002
  -1.3168793078136079E-002   4.7250328374286443E-003   1.1184366910654220E-002
  -1.0980139951522347E-002   5.1756948750987242E-003   1.6759538799678286E-002
  -8.7914868249085107E-003   7.8241616729569363E-003   2.3308959275726737E-002
  -6.6028336982947577E-003   1.2670433231004023E-002   3.0832628338799573E-002
  -4.4141805716810534E-003   1.9714509549239478E-002   3.9330545988897181E-002
  -1.9470466786101995E-002   5.0059436422628112E-003   1.0458359061494976E-003
  -1.6235328516221042E-002   4.6909658235964047E-003   6.7409184551752016E-003
  -1.3000190246340144E-002   6.2880563753003188E-003   1.3554722703710595E-002
  -9.7650519764592991E-003   9.7972152973732594E-003   2.1487248651755806E-002
  -6.5299137065782872E-003   1.5218442589816972E-002   3.0538496299310963E-002
  -2.7779402955588117E-002   5.2868544470972001E-003  -9.7154667597821875E-003
  -2.3353306429954701E-002   4.2062367720947513E-003  -4.1862099405732822E-003
  -1.8927209904321118E-002   4.7519510776426466E-003   2.6062416906302011E-003
  -1.4501113378687563E-002   6.9239973637429536E-003   1.0661888133829990E-002
  -1.0075016853054120E-002   1.0722375630394687E-002   1.9980729389024399E-002
 </DataArray>
 </PointData>
 </Piece>
 </UnstructuredGrid>
 </VTKFile>
