 <VTKFile type="UnstructuredGrid"  version="0.1"   >
 <UnstructuredGrid>
 <Piece  NumberOfPoints="          1600 "  NumberOfCells="         1024 ">
 <Points>
 <DataArray  type="Float64" NumberOfComponents="3"  format="ascii" >
   0.0000000000000000        0.0000000000000000        0.0000000000000000     
   3.1250000000000000E-002   0.0000000000000000        0.0000000000000000     
   6.2500000000000000E-002   0.0000000000000000        0.0000000000000000     
   9.3750000000000000E-002   0.0000000000000000        0.0000000000000000     
  0.12500000000000000        0.0000000000000000        0.0000000000000000     
   0.0000000000000000        3.1250000000000000E-002   0.0000000000000000     
   3.1250000000000000E-002   3.1250000000000000E-002   0.0000000000000000     
   6.2500000000000000E-002   3.1250000000000000E-002   0.0000000000000000     
   9.3750000000000000E-002   3.1250000000000000E-002   0.0000000000000000     
  0.12500000000000000        3.1250000000000000E-002   0.0000000000000000     
   0.0000000000000000        6.2500000000000000E-002   0.0000000000000000     
   3.1250000000000000E-002   6.2500000000000000E-002   0.0000000000000000     
   6.2500000000000000E-002   6.2500000000000000E-002   0.0000000000000000     
   9.3750000000000000E-002   6.2500000000000000E-002   0.0000000000000000     
  0.12500000000000000        6.2500000000000000E-002   0.0000000000000000     
   0.0000000000000000        9.3750000000000000E-002   0.0000000000000000     
   3.1250000000000000E-002   9.3750000000000000E-002   0.0000000000000000     
   6.2500000000000000E-002   9.3750000000000000E-002   0.0000000000000000     
   9.3750000000000000E-002   9.3750000000000000E-002   0.0000000000000000     
  0.12500000000000000        9.3750000000000000E-002   0.0000000000000000     
   0.0000000000000000       0.12500000000000000        0.0000000000000000     
   3.1250000000000000E-002  0.12500000000000000        0.0000000000000000     
   6.2500000000000000E-002  0.12500000000000000        0.0000000000000000     
   9.3750000000000000E-002  0.12500000000000000        0.0000000000000000     
  0.12500000000000000       0.12500000000000000        0.0000000000000000     
  0.12500000000000000        0.0000000000000000        0.0000000000000000     
  0.15625000000000000        0.0000000000000000        0.0000000000000000     
  0.18750000000000000        0.0000000000000000        0.0000000000000000     
  0.21875000000000000        0.0000000000000000        0.0000000000000000     
  0.25000000000000000        0.0000000000000000        0.0000000000000000     
  0.12500000000000000        3.1250000000000000E-002   0.0000000000000000     
  0.15625000000000000        3.1250000000000000E-002   0.0000000000000000     
  0.18750000000000000        3.1250000000000000E-002   0.0000000000000000     
  0.21875000000000000        3.1250000000000000E-002   0.0000000000000000     
  0.25000000000000000        3.1250000000000000E-002   0.0000000000000000     
  0.12500000000000000        6.2500000000000000E-002   0.0000000000000000     
  0.15625000000000000        6.2500000000000000E-002   0.0000000000000000     
  0.18750000000000000        6.2500000000000000E-002   0.0000000000000000     
  0.21875000000000000        6.2500000000000000E-002   0.0000000000000000     
  0.25000000000000000        6.2500000000000000E-002   0.0000000000000000     
  0.12500000000000000        9.3750000000000000E-002   0.0000000000000000     
  0.15625000000000000        9.3750000000000000E-002   0.0000000000000000     
  0.18750000000000000        9.3750000000000000E-002   0.0000000000000000     
  0.21875000000000000        9.3750000000000000E-002   0.0000000000000000     
  0.25000000000000000        9.3750000000000000E-002   0.0000000000000000     
  0.12500000000000000       0.12500000000000000        0.0000000000000000     
  0.15625000000000000       0.12500000000000000        0.0000000000000000     
  0.18750000000000000       0.12500000000000000        0.0000000000000000     
  0.21875000000000000       0.12500000000000000        0.0000000000000000     
  0.25000000000000000       0.12500000000000000        0.0000000000000000     
  0.25000000000000000        0.0000000000000000        0.0000000000000000     
  0.28125000000000000        0.0000000000000000        0.0000000000000000     
  0.31250000000000000        0.0000000000000000        0.0000000000000000     
  0.34375000000000000        0.0000000000000000        0.0000000000000000     
  0.37500000000000000        0.0000000000000000        0.0000000000000000     
  0.25000000000000000        3.1250000000000000E-002   0.0000000000000000     
  0.28125000000000000        3.1250000000000000E-002   0.0000000000000000     
  0.31250000000000000        3.1250000000000000E-002   0.0000000000000000     
  0.34375000000000000        3.1250000000000000E-002   0.0000000000000000     
  0.37500000000000000        3.1250000000000000E-002   0.0000000000000000     
  0.25000000000000000        6.2500000000000000E-002   0.0000000000000000     
  0.28125000000000000        6.2500000000000000E-002   0.0000000000000000     
  0.31250000000000000        6.2500000000000000E-002   0.0000000000000000     
  0.34375000000000000        6.2500000000000000E-002   0.0000000000000000     
  0.37500000000000000        6.2500000000000000E-002   0.0000000000000000     
  0.25000000000000000        9.3750000000000000E-002   0.0000000000000000     
  0.28125000000000000        9.3750000000000000E-002   0.0000000000000000     
  0.31250000000000000        9.3750000000000000E-002   0.0000000000000000     
  0.34375000000000000        9.3750000000000000E-002   0.0000000000000000     
  0.37500000000000000        9.3750000000000000E-002   0.0000000000000000     
  0.25000000000000000       0.12500000000000000        0.0000000000000000     
  0.28125000000000000       0.12500000000000000        0.0000000000000000     
  0.31250000000000000       0.12500000000000000        0.0000000000000000     
  0.34375000000000000       0.12500000000000000        0.0000000000000000     
  0.37500000000000000       0.12500000000000000        0.0000000000000000     
  0.37500000000000000        0.0000000000000000        0.0000000000000000     
  0.40625000000000000        0.0000000000000000        0.0000000000000000     
  0.43750000000000000        0.0000000000000000        0.0000000000000000     
  0.46875000000000000        0.0000000000000000        0.0000000000000000     
  0.50000000000000000        0.0000000000000000        0.0000000000000000     
  0.37500000000000000        3.1250000000000000E-002   0.0000000000000000     
  0.40625000000000000        3.1250000000000000E-002   0.0000000000000000     
  0.43750000000000000        3.1250000000000000E-002   0.0000000000000000     
  0.46875000000000000        3.1250000000000000E-002   0.0000000000000000     
  0.50000000000000000        3.1250000000000000E-002   0.0000000000000000     
  0.37500000000000000        6.2500000000000000E-002   0.0000000000000000     
  0.40625000000000000        6.2500000000000000E-002   0.0000000000000000     
  0.43750000000000000        6.2500000000000000E-002   0.0000000000000000     
  0.46875000000000000        6.2500000000000000E-002   0.0000000000000000     
  0.50000000000000000        6.2500000000000000E-002   0.0000000000000000     
  0.37500000000000000        9.3750000000000000E-002   0.0000000000000000     
  0.40625000000000000        9.3750000000000000E-002   0.0000000000000000     
  0.43750000000000000        9.3750000000000000E-002   0.0000000000000000     
  0.46875000000000000        9.3750000000000000E-002   0.0000000000000000     
  0.50000000000000000        9.3750000000000000E-002   0.0000000000000000     
  0.37500000000000000       0.12500000000000000        0.0000000000000000     
  0.40625000000000000       0.12500000000000000        0.0000000000000000     
  0.43750000000000000       0.12500000000000000        0.0000000000000000     
  0.46875000000000000       0.12500000000000000        0.0000000000000000     
  0.50000000000000000       0.12500000000000000        0.0000000000000000     
  0.50000000000000000        0.0000000000000000        0.0000000000000000     
  0.53125000000000000        0.0000000000000000        0.0000000000000000     
  0.56250000000000000        0.0000000000000000        0.0000000000000000     
  0.59375000000000000        0.0000000000000000        0.0000000000000000     
  0.62500000000000000        0.0000000000000000        0.0000000000000000     
  0.50000000000000000        3.1250000000000000E-002   0.0000000000000000     
  0.53125000000000000        3.1250000000000000E-002   0.0000000000000000     
  0.56250000000000000        3.1250000000000000E-002   0.0000000000000000     
  0.59375000000000000        3.1250000000000000E-002   0.0000000000000000     
  0.62500000000000000        3.1250000000000000E-002   0.0000000000000000     
  0.50000000000000000        6.2500000000000000E-002   0.0000000000000000     
  0.53125000000000000        6.2500000000000000E-002   0.0000000000000000     
  0.56250000000000000        6.2500000000000000E-002   0.0000000000000000     
  0.59375000000000000        6.2500000000000000E-002   0.0000000000000000     
  0.62500000000000000        6.2500000000000000E-002   0.0000000000000000     
  0.50000000000000000        9.3750000000000000E-002   0.0000000000000000     
  0.53125000000000000        9.3750000000000000E-002   0.0000000000000000     
  0.56250000000000000        9.3750000000000000E-002   0.0000000000000000     
  0.59375000000000000        9.3750000000000000E-002   0.0000000000000000     
  0.62500000000000000        9.3750000000000000E-002   0.0000000000000000     
  0.50000000000000000       0.12500000000000000        0.0000000000000000     
  0.53125000000000000       0.12500000000000000        0.0000000000000000     
  0.56250000000000000       0.12500000000000000        0.0000000000000000     
  0.59375000000000000       0.12500000000000000        0.0000000000000000     
  0.62500000000000000       0.12500000000000000        0.0000000000000000     
  0.62500000000000000        0.0000000000000000        0.0000000000000000     
  0.65625000000000000        0.0000000000000000        0.0000000000000000     
  0.68750000000000000        0.0000000000000000        0.0000000000000000     
  0.71875000000000000        0.0000000000000000        0.0000000000000000     
  0.75000000000000000        0.0000000000000000        0.0000000000000000     
  0.62500000000000000        3.1250000000000000E-002   0.0000000000000000     
  0.65625000000000000        3.1250000000000000E-002   0.0000000000000000     
  0.68750000000000000        3.1250000000000000E-002   0.0000000000000000     
  0.71875000000000000        3.1250000000000000E-002   0.0000000000000000     
  0.75000000000000000        3.1250000000000000E-002   0.0000000000000000     
  0.62500000000000000        6.2500000000000000E-002   0.0000000000000000     
  0.65625000000000000        6.2500000000000000E-002   0.0000000000000000     
  0.68750000000000000        6.2500000000000000E-002   0.0000000000000000     
  0.71875000000000000        6.2500000000000000E-002   0.0000000000000000     
  0.75000000000000000        6.2500000000000000E-002   0.0000000000000000     
  0.62500000000000000        9.3750000000000000E-002   0.0000000000000000     
  0.65625000000000000        9.3750000000000000E-002   0.0000000000000000     
  0.68750000000000000        9.3750000000000000E-002   0.0000000000000000     
  0.71875000000000000        9.3750000000000000E-002   0.0000000000000000     
  0.75000000000000000        9.3750000000000000E-002   0.0000000000000000     
  0.62500000000000000       0.12500000000000000        0.0000000000000000     
  0.65625000000000000       0.12500000000000000        0.0000000000000000     
  0.68750000000000000       0.12500000000000000        0.0000000000000000     
  0.71875000000000000       0.12500000000000000        0.0000000000000000     
  0.75000000000000000       0.12500000000000000        0.0000000000000000     
  0.75000000000000000        0.0000000000000000        0.0000000000000000     
  0.78125000000000000        0.0000000000000000        0.0000000000000000     
  0.81250000000000000        0.0000000000000000        0.0000000000000000     
  0.84375000000000000        0.0000000000000000        0.0000000000000000     
  0.87500000000000000        0.0000000000000000        0.0000000000000000     
  0.75000000000000000        3.1250000000000000E-002   0.0000000000000000     
  0.78125000000000000        3.1250000000000000E-002   0.0000000000000000     
  0.81250000000000000        3.1250000000000000E-002   0.0000000000000000     
  0.84375000000000000        3.1250000000000000E-002   0.0000000000000000     
  0.87500000000000000        3.1250000000000000E-002   0.0000000000000000     
  0.75000000000000000        6.2500000000000000E-002   0.0000000000000000     
  0.78125000000000000        6.2500000000000000E-002   0.0000000000000000     
  0.81250000000000000        6.2500000000000000E-002   0.0000000000000000     
  0.84375000000000000        6.2500000000000000E-002   0.0000000000000000     
  0.87500000000000000        6.2500000000000000E-002   0.0000000000000000     
  0.75000000000000000        9.3750000000000000E-002   0.0000000000000000     
  0.78125000000000000        9.3750000000000000E-002   0.0000000000000000     
  0.81250000000000000        9.3750000000000000E-002   0.0000000000000000     
  0.84375000000000000        9.3750000000000000E-002   0.0000000000000000     
  0.87500000000000000        9.3750000000000000E-002   0.0000000000000000     
  0.75000000000000000       0.12500000000000000        0.0000000000000000     
  0.78125000000000000       0.12500000000000000        0.0000000000000000     
  0.81250000000000000       0.12500000000000000        0.0000000000000000     
  0.84375000000000000       0.12500000000000000        0.0000000000000000     
  0.87500000000000000       0.12500000000000000        0.0000000000000000     
  0.87500000000000000        0.0000000000000000        0.0000000000000000     
  0.90625000000000000        0.0000000000000000        0.0000000000000000     
  0.93750000000000000        0.0000000000000000        0.0000000000000000     
  0.96875000000000000        0.0000000000000000        0.0000000000000000     
   1.0000000000000000        0.0000000000000000        0.0000000000000000     
  0.87500000000000000        3.1250000000000000E-002   0.0000000000000000     
  0.90625000000000000        3.1250000000000000E-002   0.0000000000000000     
  0.93750000000000000        3.1250000000000000E-002   0.0000000000000000     
  0.96875000000000000        3.1250000000000000E-002   0.0000000000000000     
   1.0000000000000000        3.1250000000000000E-002   0.0000000000000000     
  0.87500000000000000        6.2500000000000000E-002   0.0000000000000000     
  0.90625000000000000        6.2500000000000000E-002   0.0000000000000000     
  0.93750000000000000        6.2500000000000000E-002   0.0000000000000000     
  0.96875000000000000        6.2500000000000000E-002   0.0000000000000000     
   1.0000000000000000        6.2500000000000000E-002   0.0000000000000000     
  0.87500000000000000        9.3750000000000000E-002   0.0000000000000000     
  0.90625000000000000        9.3750000000000000E-002   0.0000000000000000     
  0.93750000000000000        9.3750000000000000E-002   0.0000000000000000     
  0.96875000000000000        9.3750000000000000E-002   0.0000000000000000     
   1.0000000000000000        9.3750000000000000E-002   0.0000000000000000     
  0.87500000000000000       0.12500000000000000        0.0000000000000000     
  0.90625000000000000       0.12500000000000000        0.0000000000000000     
  0.93750000000000000       0.12500000000000000        0.0000000000000000     
  0.96875000000000000       0.12500000000000000        0.0000000000000000     
   1.0000000000000000       0.12500000000000000        0.0000000000000000     
   0.0000000000000000       0.12500000000000000        0.0000000000000000     
   3.1250000000000000E-002  0.12500000000000000        0.0000000000000000     
   6.2500000000000000E-002  0.12500000000000000        0.0000000000000000     
   9.3750000000000000E-002  0.12500000000000000        0.0000000000000000     
  0.12500000000000000       0.12500000000000000        0.0000000000000000     
   0.0000000000000000       0.15625000000000000        0.0000000000000000     
   3.1250000000000000E-002  0.15625000000000000        0.0000000000000000     
   6.2500000000000000E-002  0.15625000000000000        0.0000000000000000     
   9.3750000000000000E-002  0.15625000000000000        0.0000000000000000     
  0.12500000000000000       0.15625000000000000        0.0000000000000000     
   0.0000000000000000       0.18750000000000000        0.0000000000000000     
   3.1250000000000000E-002  0.18750000000000000        0.0000000000000000     
   6.2500000000000000E-002  0.18750000000000000        0.0000000000000000     
   9.3750000000000000E-002  0.18750000000000000        0.0000000000000000     
  0.12500000000000000       0.18750000000000000        0.0000000000000000     
   0.0000000000000000       0.21875000000000000        0.0000000000000000     
   3.1250000000000000E-002  0.21875000000000000        0.0000000000000000     
   6.2500000000000000E-002  0.21875000000000000        0.0000000000000000     
   9.3750000000000000E-002  0.21875000000000000        0.0000000000000000     
  0.12500000000000000       0.21875000000000000        0.0000000000000000     
   0.0000000000000000       0.25000000000000000        0.0000000000000000     
   3.1250000000000000E-002  0.25000000000000000        0.0000000000000000     
   6.2500000000000000E-002  0.25000000000000000        0.0000000000000000     
   9.3750000000000000E-002  0.25000000000000000        0.0000000000000000     
  0.12500000000000000       0.25000000000000000        0.0000000000000000     
  0.12500000000000000       0.12500000000000000        0.0000000000000000     
  0.15625000000000000       0.12500000000000000        0.0000000000000000     
  0.18750000000000000       0.12500000000000000        0.0000000000000000     
  0.21875000000000000       0.12500000000000000        0.0000000000000000     
  0.25000000000000000       0.12500000000000000        0.0000000000000000     
  0.12500000000000000       0.15625000000000000        0.0000000000000000     
  0.15625000000000000       0.15625000000000000        0.0000000000000000     
  0.18750000000000000       0.15625000000000000        0.0000000000000000     
  0.21875000000000000       0.15625000000000000        0.0000000000000000     
  0.25000000000000000       0.15625000000000000        0.0000000000000000     
  0.12500000000000000       0.18750000000000000        0.0000000000000000     
  0.15625000000000000       0.18750000000000000        0.0000000000000000     
  0.18750000000000000       0.18750000000000000        0.0000000000000000     
  0.21875000000000000       0.18750000000000000        0.0000000000000000     
  0.25000000000000000       0.18750000000000000        0.0000000000000000     
  0.12500000000000000       0.21875000000000000        0.0000000000000000     
  0.15625000000000000       0.21875000000000000        0.0000000000000000     
  0.18750000000000000       0.21875000000000000        0.0000000000000000     
  0.21875000000000000       0.21875000000000000        0.0000000000000000     
  0.25000000000000000       0.21875000000000000        0.0000000000000000     
  0.12500000000000000       0.25000000000000000        0.0000000000000000     
  0.15625000000000000       0.25000000000000000        0.0000000000000000     
  0.18750000000000000       0.25000000000000000        0.0000000000000000     
  0.21875000000000000       0.25000000000000000        0.0000000000000000     
  0.25000000000000000       0.25000000000000000        0.0000000000000000     
  0.25000000000000000       0.12500000000000000        0.0000000000000000     
  0.28125000000000000       0.12500000000000000        0.0000000000000000     
  0.31250000000000000       0.12500000000000000        0.0000000000000000     
  0.34375000000000000       0.12500000000000000        0.0000000000000000     
  0.37500000000000000       0.12500000000000000        0.0000000000000000     
  0.25000000000000000       0.15625000000000000        0.0000000000000000     
  0.28125000000000000       0.15625000000000000        0.0000000000000000     
  0.31250000000000000       0.15625000000000000        0.0000000000000000     
  0.34375000000000000       0.15625000000000000        0.0000000000000000     
  0.37500000000000000       0.15625000000000000        0.0000000000000000     
  0.25000000000000000       0.18750000000000000        0.0000000000000000     
  0.28125000000000000       0.18750000000000000        0.0000000000000000     
  0.31250000000000000       0.18750000000000000        0.0000000000000000     
  0.34375000000000000       0.18750000000000000        0.0000000000000000     
  0.37500000000000000       0.18750000000000000        0.0000000000000000     
  0.25000000000000000       0.21875000000000000        0.0000000000000000     
  0.28125000000000000       0.21875000000000000        0.0000000000000000     
  0.31250000000000000       0.21875000000000000        0.0000000000000000     
  0.34375000000000000       0.21875000000000000        0.0000000000000000     
  0.37500000000000000       0.21875000000000000        0.0000000000000000     
  0.25000000000000000       0.25000000000000000        0.0000000000000000     
  0.28125000000000000       0.25000000000000000        0.0000000000000000     
  0.31250000000000000       0.25000000000000000        0.0000000000000000     
  0.34375000000000000       0.25000000000000000        0.0000000000000000     
  0.37500000000000000       0.25000000000000000        0.0000000000000000     
  0.37500000000000000       0.12500000000000000        0.0000000000000000     
  0.40625000000000000       0.12500000000000000        0.0000000000000000     
  0.43750000000000000       0.12500000000000000        0.0000000000000000     
  0.46875000000000000       0.12500000000000000        0.0000000000000000     
  0.50000000000000000       0.12500000000000000        0.0000000000000000     
  0.37500000000000000       0.15625000000000000        0.0000000000000000     
  0.40625000000000000       0.15625000000000000        0.0000000000000000     
  0.43750000000000000       0.15625000000000000        0.0000000000000000     
  0.46875000000000000       0.15625000000000000        0.0000000000000000     
  0.50000000000000000       0.15625000000000000        0.0000000000000000     
  0.37500000000000000       0.18750000000000000        0.0000000000000000     
  0.40625000000000000       0.18750000000000000        0.0000000000000000     
  0.43750000000000000       0.18750000000000000        0.0000000000000000     
  0.46875000000000000       0.18750000000000000        0.0000000000000000     
  0.50000000000000000       0.18750000000000000        0.0000000000000000     
  0.37500000000000000       0.21875000000000000        0.0000000000000000     
  0.40625000000000000       0.21875000000000000        0.0000000000000000     
  0.43750000000000000       0.21875000000000000        0.0000000000000000     
  0.46875000000000000       0.21875000000000000        0.0000000000000000     
  0.50000000000000000       0.21875000000000000        0.0000000000000000     
  0.37500000000000000       0.25000000000000000        0.0000000000000000     
  0.40625000000000000       0.25000000000000000        0.0000000000000000     
  0.43750000000000000       0.25000000000000000        0.0000000000000000     
  0.46875000000000000       0.25000000000000000        0.0000000000000000     
  0.50000000000000000       0.25000000000000000        0.0000000000000000     
  0.50000000000000000       0.12500000000000000        0.0000000000000000     
  0.53125000000000000       0.12500000000000000        0.0000000000000000     
  0.56250000000000000       0.12500000000000000        0.0000000000000000     
  0.59375000000000000       0.12500000000000000        0.0000000000000000     
  0.62500000000000000       0.12500000000000000        0.0000000000000000     
  0.50000000000000000       0.15625000000000000        0.0000000000000000     
  0.53125000000000000       0.15625000000000000        0.0000000000000000     
  0.56250000000000000       0.15625000000000000        0.0000000000000000     
  0.59375000000000000       0.15625000000000000        0.0000000000000000     
  0.62500000000000000       0.15625000000000000        0.0000000000000000     
  0.50000000000000000       0.18750000000000000        0.0000000000000000     
  0.53125000000000000       0.18750000000000000        0.0000000000000000     
  0.56250000000000000       0.18750000000000000        0.0000000000000000     
  0.59375000000000000       0.18750000000000000        0.0000000000000000     
  0.62500000000000000       0.18750000000000000        0.0000000000000000     
  0.50000000000000000       0.21875000000000000        0.0000000000000000     
  0.53125000000000000       0.21875000000000000        0.0000000000000000     
  0.56250000000000000       0.21875000000000000        0.0000000000000000     
  0.59375000000000000       0.21875000000000000        0.0000000000000000     
  0.62500000000000000       0.21875000000000000        0.0000000000000000     
  0.50000000000000000       0.25000000000000000        0.0000000000000000     
  0.53125000000000000       0.25000000000000000        0.0000000000000000     
  0.56250000000000000       0.25000000000000000        0.0000000000000000     
  0.59375000000000000       0.25000000000000000        0.0000000000000000     
  0.62500000000000000       0.25000000000000000        0.0000000000000000     
  0.62500000000000000       0.12500000000000000        0.0000000000000000     
  0.65625000000000000       0.12500000000000000        0.0000000000000000     
  0.68750000000000000       0.12500000000000000        0.0000000000000000     
  0.71875000000000000       0.12500000000000000        0.0000000000000000     
  0.75000000000000000       0.12500000000000000        0.0000000000000000     
  0.62500000000000000       0.15625000000000000        0.0000000000000000     
  0.65625000000000000       0.15625000000000000        0.0000000000000000     
  0.68750000000000000       0.15625000000000000        0.0000000000000000     
  0.71875000000000000       0.15625000000000000        0.0000000000000000     
  0.75000000000000000       0.15625000000000000        0.0000000000000000     
  0.62500000000000000       0.18750000000000000        0.0000000000000000     
  0.65625000000000000       0.18750000000000000        0.0000000000000000     
  0.68750000000000000       0.18750000000000000        0.0000000000000000     
  0.71875000000000000       0.18750000000000000        0.0000000000000000     
  0.75000000000000000       0.18750000000000000        0.0000000000000000     
  0.62500000000000000       0.21875000000000000        0.0000000000000000     
  0.65625000000000000       0.21875000000000000        0.0000000000000000     
  0.68750000000000000       0.21875000000000000        0.0000000000000000     
  0.71875000000000000       0.21875000000000000        0.0000000000000000     
  0.75000000000000000       0.21875000000000000        0.0000000000000000     
  0.62500000000000000       0.25000000000000000        0.0000000000000000     
  0.65625000000000000       0.25000000000000000        0.0000000000000000     
  0.68750000000000000       0.25000000000000000        0.0000000000000000     
  0.71875000000000000       0.25000000000000000        0.0000000000000000     
  0.75000000000000000       0.25000000000000000        0.0000000000000000     
  0.75000000000000000       0.12500000000000000        0.0000000000000000     
  0.78125000000000000       0.12500000000000000        0.0000000000000000     
  0.81250000000000000       0.12500000000000000        0.0000000000000000     
  0.84375000000000000       0.12500000000000000        0.0000000000000000     
  0.87500000000000000       0.12500000000000000        0.0000000000000000     
  0.75000000000000000       0.15625000000000000        0.0000000000000000     
  0.78125000000000000       0.15625000000000000        0.0000000000000000     
  0.81250000000000000       0.15625000000000000        0.0000000000000000     
  0.84375000000000000       0.15625000000000000        0.0000000000000000     
  0.87500000000000000       0.15625000000000000        0.0000000000000000     
  0.75000000000000000       0.18750000000000000        0.0000000000000000     
  0.78125000000000000       0.18750000000000000        0.0000000000000000     
  0.81250000000000000       0.18750000000000000        0.0000000000000000     
  0.84375000000000000       0.18750000000000000        0.0000000000000000     
  0.87500000000000000       0.18750000000000000        0.0000000000000000     
  0.75000000000000000       0.21875000000000000        0.0000000000000000     
  0.78125000000000000       0.21875000000000000        0.0000000000000000     
  0.81250000000000000       0.21875000000000000        0.0000000000000000     
  0.84375000000000000       0.21875000000000000        0.0000000000000000     
  0.87500000000000000       0.21875000000000000        0.0000000000000000     
  0.75000000000000000       0.25000000000000000        0.0000000000000000     
  0.78125000000000000       0.25000000000000000        0.0000000000000000     
  0.81250000000000000       0.25000000000000000        0.0000000000000000     
  0.84375000000000000       0.25000000000000000        0.0000000000000000     
  0.87500000000000000       0.25000000000000000        0.0000000000000000     
  0.87500000000000000       0.12500000000000000        0.0000000000000000     
  0.90625000000000000       0.12500000000000000        0.0000000000000000     
  0.93750000000000000       0.12500000000000000        0.0000000000000000     
  0.96875000000000000       0.12500000000000000        0.0000000000000000     
   1.0000000000000000       0.12500000000000000        0.0000000000000000     
  0.87500000000000000       0.15625000000000000        0.0000000000000000     
  0.90625000000000000       0.15625000000000000        0.0000000000000000     
  0.93750000000000000       0.15625000000000000        0.0000000000000000     
  0.96875000000000000       0.15625000000000000        0.0000000000000000     
   1.0000000000000000       0.15625000000000000        0.0000000000000000     
  0.87500000000000000       0.18750000000000000        0.0000000000000000     
  0.90625000000000000       0.18750000000000000        0.0000000000000000     
  0.93750000000000000       0.18750000000000000        0.0000000000000000     
  0.96875000000000000       0.18750000000000000        0.0000000000000000     
   1.0000000000000000       0.18750000000000000        0.0000000000000000     
  0.87500000000000000       0.21875000000000000        0.0000000000000000     
  0.90625000000000000       0.21875000000000000        0.0000000000000000     
  0.93750000000000000       0.21875000000000000        0.0000000000000000     
  0.96875000000000000       0.21875000000000000        0.0000000000000000     
   1.0000000000000000       0.21875000000000000        0.0000000000000000     
  0.87500000000000000       0.25000000000000000        0.0000000000000000     
  0.90625000000000000       0.25000000000000000        0.0000000000000000     
  0.93750000000000000       0.25000000000000000        0.0000000000000000     
  0.96875000000000000       0.25000000000000000        0.0000000000000000     
   1.0000000000000000       0.25000000000000000        0.0000000000000000     
   0.0000000000000000       0.25000000000000000        0.0000000000000000     
   3.1250000000000000E-002  0.25000000000000000        0.0000000000000000     
   6.2500000000000000E-002  0.25000000000000000        0.0000000000000000     
   9.3750000000000000E-002  0.25000000000000000        0.0000000000000000     
  0.12500000000000000       0.25000000000000000        0.0000000000000000     
   0.0000000000000000       0.28125000000000000        0.0000000000000000     
   3.1250000000000000E-002  0.28125000000000000        0.0000000000000000     
   6.2500000000000000E-002  0.28125000000000000        0.0000000000000000     
   9.3750000000000000E-002  0.28125000000000000        0.0000000000000000     
  0.12500000000000000       0.28125000000000000        0.0000000000000000     
   0.0000000000000000       0.31250000000000000        0.0000000000000000     
   3.1250000000000000E-002  0.31250000000000000        0.0000000000000000     
   6.2500000000000000E-002  0.31250000000000000        0.0000000000000000     
   9.3750000000000000E-002  0.31250000000000000        0.0000000000000000     
  0.12500000000000000       0.31250000000000000        0.0000000000000000     
   0.0000000000000000       0.34375000000000000        0.0000000000000000     
   3.1250000000000000E-002  0.34375000000000000        0.0000000000000000     
   6.2500000000000000E-002  0.34375000000000000        0.0000000000000000     
   9.3750000000000000E-002  0.34375000000000000        0.0000000000000000     
  0.12500000000000000       0.34375000000000000        0.0000000000000000     
   0.0000000000000000       0.37500000000000000        0.0000000000000000     
   3.1250000000000000E-002  0.37500000000000000        0.0000000000000000     
   6.2500000000000000E-002  0.37500000000000000        0.0000000000000000     
   9.3750000000000000E-002  0.37500000000000000        0.0000000000000000     
  0.12500000000000000       0.37500000000000000        0.0000000000000000     
  0.12500000000000000       0.25000000000000000        0.0000000000000000     
  0.15625000000000000       0.25000000000000000        0.0000000000000000     
  0.18750000000000000       0.25000000000000000        0.0000000000000000     
  0.21875000000000000       0.25000000000000000        0.0000000000000000     
  0.25000000000000000       0.25000000000000000        0.0000000000000000     
  0.12500000000000000       0.28125000000000000        0.0000000000000000     
  0.15625000000000000       0.28125000000000000        0.0000000000000000     
  0.18750000000000000       0.28125000000000000        0.0000000000000000     
  0.21875000000000000       0.28125000000000000        0.0000000000000000     
  0.25000000000000000       0.28125000000000000        0.0000000000000000     
  0.12500000000000000       0.31250000000000000        0.0000000000000000     
  0.15625000000000000       0.31250000000000000        0.0000000000000000     
  0.18750000000000000       0.31250000000000000        0.0000000000000000     
  0.21875000000000000       0.31250000000000000        0.0000000000000000     
  0.25000000000000000       0.31250000000000000        0.0000000000000000     
  0.12500000000000000       0.34375000000000000        0.0000000000000000     
  0.15625000000000000       0.34375000000000000        0.0000000000000000     
  0.18750000000000000       0.34375000000000000        0.0000000000000000     
  0.21875000000000000       0.34375000000000000        0.0000000000000000     
  0.25000000000000000       0.34375000000000000        0.0000000000000000     
  0.12500000000000000       0.37500000000000000        0.0000000000000000     
  0.15625000000000000       0.37500000000000000        0.0000000000000000     
  0.18750000000000000       0.37500000000000000        0.0000000000000000     
  0.21875000000000000       0.37500000000000000        0.0000000000000000     
  0.25000000000000000       0.37500000000000000        0.0000000000000000     
  0.25000000000000000       0.25000000000000000        0.0000000000000000     
  0.28125000000000000       0.25000000000000000        0.0000000000000000     
  0.31250000000000000       0.25000000000000000        0.0000000000000000     
  0.34375000000000000       0.25000000000000000        0.0000000000000000     
  0.37500000000000000       0.25000000000000000        0.0000000000000000     
  0.25000000000000000       0.28125000000000000        0.0000000000000000     
  0.28125000000000000       0.28125000000000000        0.0000000000000000     
  0.31250000000000000       0.28125000000000000        0.0000000000000000     
  0.34375000000000000       0.28125000000000000        0.0000000000000000     
  0.37500000000000000       0.28125000000000000        0.0000000000000000     
  0.25000000000000000       0.31250000000000000        0.0000000000000000     
  0.28125000000000000       0.31250000000000000        0.0000000000000000     
  0.31250000000000000       0.31250000000000000        0.0000000000000000     
  0.34375000000000000       0.31250000000000000        0.0000000000000000     
  0.37500000000000000       0.31250000000000000        0.0000000000000000     
  0.25000000000000000       0.34375000000000000        0.0000000000000000     
  0.28125000000000000       0.34375000000000000        0.0000000000000000     
  0.31250000000000000       0.34375000000000000        0.0000000000000000     
  0.34375000000000000       0.34375000000000000        0.0000000000000000     
  0.37500000000000000       0.34375000000000000        0.0000000000000000     
  0.25000000000000000       0.37500000000000000        0.0000000000000000     
  0.28125000000000000       0.37500000000000000        0.0000000000000000     
  0.31250000000000000       0.37500000000000000        0.0000000000000000     
  0.34375000000000000       0.37500000000000000        0.0000000000000000     
  0.37500000000000000       0.37500000000000000        0.0000000000000000     
  0.37500000000000000       0.25000000000000000        0.0000000000000000     
  0.40625000000000000       0.25000000000000000        0.0000000000000000     
  0.43750000000000000       0.25000000000000000        0.0000000000000000     
  0.46875000000000000       0.25000000000000000        0.0000000000000000     
  0.50000000000000000       0.25000000000000000        0.0000000000000000     
  0.37500000000000000       0.28125000000000000        0.0000000000000000     
  0.40625000000000000       0.28125000000000000        0.0000000000000000     
  0.43750000000000000       0.28125000000000000        0.0000000000000000     
  0.46875000000000000       0.28125000000000000        0.0000000000000000     
  0.50000000000000000       0.28125000000000000        0.0000000000000000     
  0.37500000000000000       0.31250000000000000        0.0000000000000000     
  0.40625000000000000       0.31250000000000000        0.0000000000000000     
  0.43750000000000000       0.31250000000000000        0.0000000000000000     
  0.46875000000000000       0.31250000000000000        0.0000000000000000     
  0.50000000000000000       0.31250000000000000        0.0000000000000000     
  0.37500000000000000       0.34375000000000000        0.0000000000000000     
  0.40625000000000000       0.34375000000000000        0.0000000000000000     
  0.43750000000000000       0.34375000000000000        0.0000000000000000     
  0.46875000000000000       0.34375000000000000        0.0000000000000000     
  0.50000000000000000       0.34375000000000000        0.0000000000000000     
  0.37500000000000000       0.37500000000000000        0.0000000000000000     
  0.40625000000000000       0.37500000000000000        0.0000000000000000     
  0.43750000000000000       0.37500000000000000        0.0000000000000000     
  0.46875000000000000       0.37500000000000000        0.0000000000000000     
  0.50000000000000000       0.37500000000000000        0.0000000000000000     
  0.50000000000000000       0.25000000000000000        0.0000000000000000     
  0.53125000000000000       0.25000000000000000        0.0000000000000000     
  0.56250000000000000       0.25000000000000000        0.0000000000000000     
  0.59375000000000000       0.25000000000000000        0.0000000000000000     
  0.62500000000000000       0.25000000000000000        0.0000000000000000     
  0.50000000000000000       0.28125000000000000        0.0000000000000000     
  0.53125000000000000       0.28125000000000000        0.0000000000000000     
  0.56250000000000000       0.28125000000000000        0.0000000000000000     
  0.59375000000000000       0.28125000000000000        0.0000000000000000     
  0.62500000000000000       0.28125000000000000        0.0000000000000000     
  0.50000000000000000       0.31250000000000000        0.0000000000000000     
  0.53125000000000000       0.31250000000000000        0.0000000000000000     
  0.56250000000000000       0.31250000000000000        0.0000000000000000     
  0.59375000000000000       0.31250000000000000        0.0000000000000000     
  0.62500000000000000       0.31250000000000000        0.0000000000000000     
  0.50000000000000000       0.34375000000000000        0.0000000000000000     
  0.53125000000000000       0.34375000000000000        0.0000000000000000     
  0.56250000000000000       0.34375000000000000        0.0000000000000000     
  0.59375000000000000       0.34375000000000000        0.0000000000000000     
  0.62500000000000000       0.34375000000000000        0.0000000000000000     
  0.50000000000000000       0.37500000000000000        0.0000000000000000     
  0.53125000000000000       0.37500000000000000        0.0000000000000000     
  0.56250000000000000       0.37500000000000000        0.0000000000000000     
  0.59375000000000000       0.37500000000000000        0.0000000000000000     
  0.62500000000000000       0.37500000000000000        0.0000000000000000     
  0.62500000000000000       0.25000000000000000        0.0000000000000000     
  0.65625000000000000       0.25000000000000000        0.0000000000000000     
  0.68750000000000000       0.25000000000000000        0.0000000000000000     
  0.71875000000000000       0.25000000000000000        0.0000000000000000     
  0.75000000000000000       0.25000000000000000        0.0000000000000000     
  0.62500000000000000       0.28125000000000000        0.0000000000000000     
  0.65625000000000000       0.28125000000000000        0.0000000000000000     
  0.68750000000000000       0.28125000000000000        0.0000000000000000     
  0.71875000000000000       0.28125000000000000        0.0000000000000000     
  0.75000000000000000       0.28125000000000000        0.0000000000000000     
  0.62500000000000000       0.31250000000000000        0.0000000000000000     
  0.65625000000000000       0.31250000000000000        0.0000000000000000     
  0.68750000000000000       0.31250000000000000        0.0000000000000000     
  0.71875000000000000       0.31250000000000000        0.0000000000000000     
  0.75000000000000000       0.31250000000000000        0.0000000000000000     
  0.62500000000000000       0.34375000000000000        0.0000000000000000     
  0.65625000000000000       0.34375000000000000        0.0000000000000000     
  0.68750000000000000       0.34375000000000000        0.0000000000000000     
  0.71875000000000000       0.34375000000000000        0.0000000000000000     
  0.75000000000000000       0.34375000000000000        0.0000000000000000     
  0.62500000000000000       0.37500000000000000        0.0000000000000000     
  0.65625000000000000       0.37500000000000000        0.0000000000000000     
  0.68750000000000000       0.37500000000000000        0.0000000000000000     
  0.71875000000000000       0.37500000000000000        0.0000000000000000     
  0.75000000000000000       0.37500000000000000        0.0000000000000000     
  0.75000000000000000       0.25000000000000000        0.0000000000000000     
  0.78125000000000000       0.25000000000000000        0.0000000000000000     
  0.81250000000000000       0.25000000000000000        0.0000000000000000     
  0.84375000000000000       0.25000000000000000        0.0000000000000000     
  0.87500000000000000       0.25000000000000000        0.0000000000000000     
  0.75000000000000000       0.28125000000000000        0.0000000000000000     
  0.78125000000000000       0.28125000000000000        0.0000000000000000     
  0.81250000000000000       0.28125000000000000        0.0000000000000000     
  0.84375000000000000       0.28125000000000000        0.0000000000000000     
  0.87500000000000000       0.28125000000000000        0.0000000000000000     
  0.75000000000000000       0.31250000000000000        0.0000000000000000     
  0.78125000000000000       0.31250000000000000        0.0000000000000000     
  0.81250000000000000       0.31250000000000000        0.0000000000000000     
  0.84375000000000000       0.31250000000000000        0.0000000000000000     
  0.87500000000000000       0.31250000000000000        0.0000000000000000     
  0.75000000000000000       0.34375000000000000        0.0000000000000000     
  0.78125000000000000       0.34375000000000000        0.0000000000000000     
  0.81250000000000000       0.34375000000000000        0.0000000000000000     
  0.84375000000000000       0.34375000000000000        0.0000000000000000     
  0.87500000000000000       0.34375000000000000        0.0000000000000000     
  0.75000000000000000       0.37500000000000000        0.0000000000000000     
  0.78125000000000000       0.37500000000000000        0.0000000000000000     
  0.81250000000000000       0.37500000000000000        0.0000000000000000     
  0.84375000000000000       0.37500000000000000        0.0000000000000000     
  0.87500000000000000       0.37500000000000000        0.0000000000000000     
  0.87500000000000000       0.25000000000000000        0.0000000000000000     
  0.90625000000000000       0.25000000000000000        0.0000000000000000     
  0.93750000000000000       0.25000000000000000        0.0000000000000000     
  0.96875000000000000       0.25000000000000000        0.0000000000000000     
   1.0000000000000000       0.25000000000000000        0.0000000000000000     
  0.87500000000000000       0.28125000000000000        0.0000000000000000     
  0.90625000000000000       0.28125000000000000        0.0000000000000000     
  0.93750000000000000       0.28125000000000000        0.0000000000000000     
  0.96875000000000000       0.28125000000000000        0.0000000000000000     
   1.0000000000000000       0.28125000000000000        0.0000000000000000     
  0.87500000000000000       0.31250000000000000        0.0000000000000000     
  0.90625000000000000       0.31250000000000000        0.0000000000000000     
  0.93750000000000000       0.31250000000000000        0.0000000000000000     
  0.96875000000000000       0.31250000000000000        0.0000000000000000     
   1.0000000000000000       0.31250000000000000        0.0000000000000000     
  0.87500000000000000       0.34375000000000000        0.0000000000000000     
  0.90625000000000000       0.34375000000000000        0.0000000000000000     
  0.93750000000000000       0.34375000000000000        0.0000000000000000     
  0.96875000000000000       0.34375000000000000        0.0000000000000000     
   1.0000000000000000       0.34375000000000000        0.0000000000000000     
  0.87500000000000000       0.37500000000000000        0.0000000000000000     
  0.90625000000000000       0.37500000000000000        0.0000000000000000     
  0.93750000000000000       0.37500000000000000        0.0000000000000000     
  0.96875000000000000       0.37500000000000000        0.0000000000000000     
   1.0000000000000000       0.37500000000000000        0.0000000000000000     
   0.0000000000000000       0.37500000000000000        0.0000000000000000     
   3.1250000000000000E-002  0.37500000000000000        0.0000000000000000     
   6.2500000000000000E-002  0.37500000000000000        0.0000000000000000     
   9.3750000000000000E-002  0.37500000000000000        0.0000000000000000     
  0.12500000000000000       0.37500000000000000        0.0000000000000000     
   0.0000000000000000       0.40625000000000000        0.0000000000000000     
   3.1250000000000000E-002  0.40625000000000000        0.0000000000000000     
   6.2500000000000000E-002  0.40625000000000000        0.0000000000000000     
   9.3750000000000000E-002  0.40625000000000000        0.0000000000000000     
  0.12500000000000000       0.40625000000000000        0.0000000000000000     
   0.0000000000000000       0.43750000000000000        0.0000000000000000     
   3.1250000000000000E-002  0.43750000000000000        0.0000000000000000     
   6.2500000000000000E-002  0.43750000000000000        0.0000000000000000     
   9.3750000000000000E-002  0.43750000000000000        0.0000000000000000     
  0.12500000000000000       0.43750000000000000        0.0000000000000000     
   0.0000000000000000       0.46875000000000000        0.0000000000000000     
   3.1250000000000000E-002  0.46875000000000000        0.0000000000000000     
   6.2500000000000000E-002  0.46875000000000000        0.0000000000000000     
   9.3750000000000000E-002  0.46875000000000000        0.0000000000000000     
  0.12500000000000000       0.46875000000000000        0.0000000000000000     
   0.0000000000000000       0.50000000000000000        0.0000000000000000     
   3.1250000000000000E-002  0.50000000000000000        0.0000000000000000     
   6.2500000000000000E-002  0.50000000000000000        0.0000000000000000     
   9.3750000000000000E-002  0.50000000000000000        0.0000000000000000     
  0.12500000000000000       0.50000000000000000        0.0000000000000000     
  0.12500000000000000       0.37500000000000000        0.0000000000000000     
  0.15625000000000000       0.37500000000000000        0.0000000000000000     
  0.18750000000000000       0.37500000000000000        0.0000000000000000     
  0.21875000000000000       0.37500000000000000        0.0000000000000000     
  0.25000000000000000       0.37500000000000000        0.0000000000000000     
  0.12500000000000000       0.40625000000000000        0.0000000000000000     
  0.15625000000000000       0.40625000000000000        0.0000000000000000     
  0.18750000000000000       0.40625000000000000        0.0000000000000000     
  0.21875000000000000       0.40625000000000000        0.0000000000000000     
  0.25000000000000000       0.40625000000000000        0.0000000000000000     
  0.12500000000000000       0.43750000000000000        0.0000000000000000     
  0.15625000000000000       0.43750000000000000        0.0000000000000000     
  0.18750000000000000       0.43750000000000000        0.0000000000000000     
  0.21875000000000000       0.43750000000000000        0.0000000000000000     
  0.25000000000000000       0.43750000000000000        0.0000000000000000     
  0.12500000000000000       0.46875000000000000        0.0000000000000000     
  0.15625000000000000       0.46875000000000000        0.0000000000000000     
  0.18750000000000000       0.46875000000000000        0.0000000000000000     
  0.21875000000000000       0.46875000000000000        0.0000000000000000     
  0.25000000000000000       0.46875000000000000        0.0000000000000000     
  0.12500000000000000       0.50000000000000000        0.0000000000000000     
  0.15625000000000000       0.50000000000000000        0.0000000000000000     
  0.18750000000000000       0.50000000000000000        0.0000000000000000     
  0.21875000000000000       0.50000000000000000        0.0000000000000000     
  0.25000000000000000       0.50000000000000000        0.0000000000000000     
  0.25000000000000000       0.37500000000000000        0.0000000000000000     
  0.28125000000000000       0.37500000000000000        0.0000000000000000     
  0.31250000000000000       0.37500000000000000        0.0000000000000000     
  0.34375000000000000       0.37500000000000000        0.0000000000000000     
  0.37500000000000000       0.37500000000000000        0.0000000000000000     
  0.25000000000000000       0.40625000000000000        0.0000000000000000     
  0.28125000000000000       0.40625000000000000        0.0000000000000000     
  0.31250000000000000       0.40625000000000000        0.0000000000000000     
  0.34375000000000000       0.40625000000000000        0.0000000000000000     
  0.37500000000000000       0.40625000000000000        0.0000000000000000     
  0.25000000000000000       0.43750000000000000        0.0000000000000000     
  0.28125000000000000       0.43750000000000000        0.0000000000000000     
  0.31250000000000000       0.43750000000000000        0.0000000000000000     
  0.34375000000000000       0.43750000000000000        0.0000000000000000     
  0.37500000000000000       0.43750000000000000        0.0000000000000000     
  0.25000000000000000       0.46875000000000000        0.0000000000000000     
  0.28125000000000000       0.46875000000000000        0.0000000000000000     
  0.31250000000000000       0.46875000000000000        0.0000000000000000     
  0.34375000000000000       0.46875000000000000        0.0000000000000000     
  0.37500000000000000       0.46875000000000000        0.0000000000000000     
  0.25000000000000000       0.50000000000000000        0.0000000000000000     
  0.28125000000000000       0.50000000000000000        0.0000000000000000     
  0.31250000000000000       0.50000000000000000        0.0000000000000000     
  0.34375000000000000       0.50000000000000000        0.0000000000000000     
  0.37500000000000000       0.50000000000000000        0.0000000000000000     
  0.37500000000000000       0.37500000000000000        0.0000000000000000     
  0.40625000000000000       0.37500000000000000        0.0000000000000000     
  0.43750000000000000       0.37500000000000000        0.0000000000000000     
  0.46875000000000000       0.37500000000000000        0.0000000000000000     
  0.50000000000000000       0.37500000000000000        0.0000000000000000     
  0.37500000000000000       0.40625000000000000        0.0000000000000000     
  0.40625000000000000       0.40625000000000000        0.0000000000000000     
  0.43750000000000000       0.40625000000000000        0.0000000000000000     
  0.46875000000000000       0.40625000000000000        0.0000000000000000     
  0.50000000000000000       0.40625000000000000        0.0000000000000000     
  0.37500000000000000       0.43750000000000000        0.0000000000000000     
  0.40625000000000000       0.43750000000000000        0.0000000000000000     
  0.43750000000000000       0.43750000000000000        0.0000000000000000     
  0.46875000000000000       0.43750000000000000        0.0000000000000000     
  0.50000000000000000       0.43750000000000000        0.0000000000000000     
  0.37500000000000000       0.46875000000000000        0.0000000000000000     
  0.40625000000000000       0.46875000000000000        0.0000000000000000     
  0.43750000000000000       0.46875000000000000        0.0000000000000000     
  0.46875000000000000       0.46875000000000000        0.0000000000000000     
  0.50000000000000000       0.46875000000000000        0.0000000000000000     
  0.37500000000000000       0.50000000000000000        0.0000000000000000     
  0.40625000000000000       0.50000000000000000        0.0000000000000000     
  0.43750000000000000       0.50000000000000000        0.0000000000000000     
  0.46875000000000000       0.50000000000000000        0.0000000000000000     
  0.50000000000000000       0.50000000000000000        0.0000000000000000     
  0.50000000000000000       0.37500000000000000        0.0000000000000000     
  0.53125000000000000       0.37500000000000000        0.0000000000000000     
  0.56250000000000000       0.37500000000000000        0.0000000000000000     
  0.59375000000000000       0.37500000000000000        0.0000000000000000     
  0.62500000000000000       0.37500000000000000        0.0000000000000000     
  0.50000000000000000       0.40625000000000000        0.0000000000000000     
  0.53125000000000000       0.40625000000000000        0.0000000000000000     
  0.56250000000000000       0.40625000000000000        0.0000000000000000     
  0.59375000000000000       0.40625000000000000        0.0000000000000000     
  0.62500000000000000       0.40625000000000000        0.0000000000000000     
  0.50000000000000000       0.43750000000000000        0.0000000000000000     
  0.53125000000000000       0.43750000000000000        0.0000000000000000     
  0.56250000000000000       0.43750000000000000        0.0000000000000000     
  0.59375000000000000       0.43750000000000000        0.0000000000000000     
  0.62500000000000000       0.43750000000000000        0.0000000000000000     
  0.50000000000000000       0.46875000000000000        0.0000000000000000     
  0.53125000000000000       0.46875000000000000        0.0000000000000000     
  0.56250000000000000       0.46875000000000000        0.0000000000000000     
  0.59375000000000000       0.46875000000000000        0.0000000000000000     
  0.62500000000000000       0.46875000000000000        0.0000000000000000     
  0.50000000000000000       0.50000000000000000        0.0000000000000000     
  0.53125000000000000       0.50000000000000000        0.0000000000000000     
  0.56250000000000000       0.50000000000000000        0.0000000000000000     
  0.59375000000000000       0.50000000000000000        0.0000000000000000     
  0.62500000000000000       0.50000000000000000        0.0000000000000000     
  0.62500000000000000       0.37500000000000000        0.0000000000000000     
  0.65625000000000000       0.37500000000000000        0.0000000000000000     
  0.68750000000000000       0.37500000000000000        0.0000000000000000     
  0.71875000000000000       0.37500000000000000        0.0000000000000000     
  0.75000000000000000       0.37500000000000000        0.0000000000000000     
  0.62500000000000000       0.40625000000000000        0.0000000000000000     
  0.65625000000000000       0.40625000000000000        0.0000000000000000     
  0.68750000000000000       0.40625000000000000        0.0000000000000000     
  0.71875000000000000       0.40625000000000000        0.0000000000000000     
  0.75000000000000000       0.40625000000000000        0.0000000000000000     
  0.62500000000000000       0.43750000000000000        0.0000000000000000     
  0.65625000000000000       0.43750000000000000        0.0000000000000000     
  0.68750000000000000       0.43750000000000000        0.0000000000000000     
  0.71875000000000000       0.43750000000000000        0.0000000000000000     
  0.75000000000000000       0.43750000000000000        0.0000000000000000     
  0.62500000000000000       0.46875000000000000        0.0000000000000000     
  0.65625000000000000       0.46875000000000000        0.0000000000000000     
  0.68750000000000000       0.46875000000000000        0.0000000000000000     
  0.71875000000000000       0.46875000000000000        0.0000000000000000     
  0.75000000000000000       0.46875000000000000        0.0000000000000000     
  0.62500000000000000       0.50000000000000000        0.0000000000000000     
  0.65625000000000000       0.50000000000000000        0.0000000000000000     
  0.68750000000000000       0.50000000000000000        0.0000000000000000     
  0.71875000000000000       0.50000000000000000        0.0000000000000000     
  0.75000000000000000       0.50000000000000000        0.0000000000000000     
  0.75000000000000000       0.37500000000000000        0.0000000000000000     
  0.78125000000000000       0.37500000000000000        0.0000000000000000     
  0.81250000000000000       0.37500000000000000        0.0000000000000000     
  0.84375000000000000       0.37500000000000000        0.0000000000000000     
  0.87500000000000000       0.37500000000000000        0.0000000000000000     
  0.75000000000000000       0.40625000000000000        0.0000000000000000     
  0.78125000000000000       0.40625000000000000        0.0000000000000000     
  0.81250000000000000       0.40625000000000000        0.0000000000000000     
  0.84375000000000000       0.40625000000000000        0.0000000000000000     
  0.87500000000000000       0.40625000000000000        0.0000000000000000     
  0.75000000000000000       0.43750000000000000        0.0000000000000000     
  0.78125000000000000       0.43750000000000000        0.0000000000000000     
  0.81250000000000000       0.43750000000000000        0.0000000000000000     
  0.84375000000000000       0.43750000000000000        0.0000000000000000     
  0.87500000000000000       0.43750000000000000        0.0000000000000000     
  0.75000000000000000       0.46875000000000000        0.0000000000000000     
  0.78125000000000000       0.46875000000000000        0.0000000000000000     
  0.81250000000000000       0.46875000000000000        0.0000000000000000     
  0.84375000000000000       0.46875000000000000        0.0000000000000000     
  0.87500000000000000       0.46875000000000000        0.0000000000000000     
  0.75000000000000000       0.50000000000000000        0.0000000000000000     
  0.78125000000000000       0.50000000000000000        0.0000000000000000     
  0.81250000000000000       0.50000000000000000        0.0000000000000000     
  0.84375000000000000       0.50000000000000000        0.0000000000000000     
  0.87500000000000000       0.50000000000000000        0.0000000000000000     
  0.87500000000000000       0.37500000000000000        0.0000000000000000     
  0.90625000000000000       0.37500000000000000        0.0000000000000000     
  0.93750000000000000       0.37500000000000000        0.0000000000000000     
  0.96875000000000000       0.37500000000000000        0.0000000000000000     
   1.0000000000000000       0.37500000000000000        0.0000000000000000     
  0.87500000000000000       0.40625000000000000        0.0000000000000000     
  0.90625000000000000       0.40625000000000000        0.0000000000000000     
  0.93750000000000000       0.40625000000000000        0.0000000000000000     
  0.96875000000000000       0.40625000000000000        0.0000000000000000     
   1.0000000000000000       0.40625000000000000        0.0000000000000000     
  0.87500000000000000       0.43750000000000000        0.0000000000000000     
  0.90625000000000000       0.43750000000000000        0.0000000000000000     
  0.93750000000000000       0.43750000000000000        0.0000000000000000     
  0.96875000000000000       0.43750000000000000        0.0000000000000000     
   1.0000000000000000       0.43750000000000000        0.0000000000000000     
  0.87500000000000000       0.46875000000000000        0.0000000000000000     
  0.90625000000000000       0.46875000000000000        0.0000000000000000     
  0.93750000000000000       0.46875000000000000        0.0000000000000000     
  0.96875000000000000       0.46875000000000000        0.0000000000000000     
   1.0000000000000000       0.46875000000000000        0.0000000000000000     
  0.87500000000000000       0.50000000000000000        0.0000000000000000     
  0.90625000000000000       0.50000000000000000        0.0000000000000000     
  0.93750000000000000       0.50000000000000000        0.0000000000000000     
  0.96875000000000000       0.50000000000000000        0.0000000000000000     
   1.0000000000000000       0.50000000000000000        0.0000000000000000     
   0.0000000000000000       0.50000000000000000        0.0000000000000000     
   3.1250000000000000E-002  0.50000000000000000        0.0000000000000000     
   6.2500000000000000E-002  0.50000000000000000        0.0000000000000000     
   9.3750000000000000E-002  0.50000000000000000        0.0000000000000000     
  0.12500000000000000       0.50000000000000000        0.0000000000000000     
   0.0000000000000000       0.53125000000000000        0.0000000000000000     
   3.1250000000000000E-002  0.53125000000000000        0.0000000000000000     
   6.2500000000000000E-002  0.53125000000000000        0.0000000000000000     
   9.3750000000000000E-002  0.53125000000000000        0.0000000000000000     
  0.12500000000000000       0.53125000000000000        0.0000000000000000     
   0.0000000000000000       0.56250000000000000        0.0000000000000000     
   3.1250000000000000E-002  0.56250000000000000        0.0000000000000000     
   6.2500000000000000E-002  0.56250000000000000        0.0000000000000000     
   9.3750000000000000E-002  0.56250000000000000        0.0000000000000000     
  0.12500000000000000       0.56250000000000000        0.0000000000000000     
   0.0000000000000000       0.59375000000000000        0.0000000000000000     
   3.1250000000000000E-002  0.59375000000000000        0.0000000000000000     
   6.2500000000000000E-002  0.59375000000000000        0.0000000000000000     
   9.3750000000000000E-002  0.59375000000000000        0.0000000000000000     
  0.12500000000000000       0.59375000000000000        0.0000000000000000     
   0.0000000000000000       0.62500000000000000        0.0000000000000000     
   3.1250000000000000E-002  0.62500000000000000        0.0000000000000000     
   6.2500000000000000E-002  0.62500000000000000        0.0000000000000000     
   9.3750000000000000E-002  0.62500000000000000        0.0000000000000000     
  0.12500000000000000       0.62500000000000000        0.0000000000000000     
  0.12500000000000000       0.50000000000000000        0.0000000000000000     
  0.15625000000000000       0.50000000000000000        0.0000000000000000     
  0.18750000000000000       0.50000000000000000        0.0000000000000000     
  0.21875000000000000       0.50000000000000000        0.0000000000000000     
  0.25000000000000000       0.50000000000000000        0.0000000000000000     
  0.12500000000000000       0.53125000000000000        0.0000000000000000     
  0.15625000000000000       0.53125000000000000        0.0000000000000000     
  0.18750000000000000       0.53125000000000000        0.0000000000000000     
  0.21875000000000000       0.53125000000000000        0.0000000000000000     
  0.25000000000000000       0.53125000000000000        0.0000000000000000     
  0.12500000000000000       0.56250000000000000        0.0000000000000000     
  0.15625000000000000       0.56250000000000000        0.0000000000000000     
  0.18750000000000000       0.56250000000000000        0.0000000000000000     
  0.21875000000000000       0.56250000000000000        0.0000000000000000     
  0.25000000000000000       0.56250000000000000        0.0000000000000000     
  0.12500000000000000       0.59375000000000000        0.0000000000000000     
  0.15625000000000000       0.59375000000000000        0.0000000000000000     
  0.18750000000000000       0.59375000000000000        0.0000000000000000     
  0.21875000000000000       0.59375000000000000        0.0000000000000000     
  0.25000000000000000       0.59375000000000000        0.0000000000000000     
  0.12500000000000000       0.62500000000000000        0.0000000000000000     
  0.15625000000000000       0.62500000000000000        0.0000000000000000     
  0.18750000000000000       0.62500000000000000        0.0000000000000000     
  0.21875000000000000       0.62500000000000000        0.0000000000000000     
  0.25000000000000000       0.62500000000000000        0.0000000000000000     
  0.25000000000000000       0.50000000000000000        0.0000000000000000     
  0.28125000000000000       0.50000000000000000        0.0000000000000000     
  0.31250000000000000       0.50000000000000000        0.0000000000000000     
  0.34375000000000000       0.50000000000000000        0.0000000000000000     
  0.37500000000000000       0.50000000000000000        0.0000000000000000     
  0.25000000000000000       0.53125000000000000        0.0000000000000000     
  0.28125000000000000       0.53125000000000000        0.0000000000000000     
  0.31250000000000000       0.53125000000000000        0.0000000000000000     
  0.34375000000000000       0.53125000000000000        0.0000000000000000     
  0.37500000000000000       0.53125000000000000        0.0000000000000000     
  0.25000000000000000       0.56250000000000000        0.0000000000000000     
  0.28125000000000000       0.56250000000000000        0.0000000000000000     
  0.31250000000000000       0.56250000000000000        0.0000000000000000     
  0.34375000000000000       0.56250000000000000        0.0000000000000000     
  0.37500000000000000       0.56250000000000000        0.0000000000000000     
  0.25000000000000000       0.59375000000000000        0.0000000000000000     
  0.28125000000000000       0.59375000000000000        0.0000000000000000     
  0.31250000000000000       0.59375000000000000        0.0000000000000000     
  0.34375000000000000       0.59375000000000000        0.0000000000000000     
  0.37500000000000000       0.59375000000000000        0.0000000000000000     
  0.25000000000000000       0.62500000000000000        0.0000000000000000     
  0.28125000000000000       0.62500000000000000        0.0000000000000000     
  0.31250000000000000       0.62500000000000000        0.0000000000000000     
  0.34375000000000000       0.62500000000000000        0.0000000000000000     
  0.37500000000000000       0.62500000000000000        0.0000000000000000     
  0.37500000000000000       0.50000000000000000        0.0000000000000000     
  0.40625000000000000       0.50000000000000000        0.0000000000000000     
  0.43750000000000000       0.50000000000000000        0.0000000000000000     
  0.46875000000000000       0.50000000000000000        0.0000000000000000     
  0.50000000000000000       0.50000000000000000        0.0000000000000000     
  0.37500000000000000       0.53125000000000000        0.0000000000000000     
  0.40625000000000000       0.53125000000000000        0.0000000000000000     
  0.43750000000000000       0.53125000000000000        0.0000000000000000     
  0.46875000000000000       0.53125000000000000        0.0000000000000000     
  0.50000000000000000       0.53125000000000000        0.0000000000000000     
  0.37500000000000000       0.56250000000000000        0.0000000000000000     
  0.40625000000000000       0.56250000000000000        0.0000000000000000     
  0.43750000000000000       0.56250000000000000        0.0000000000000000     
  0.46875000000000000       0.56250000000000000        0.0000000000000000     
  0.50000000000000000       0.56250000000000000        0.0000000000000000     
  0.37500000000000000       0.59375000000000000        0.0000000000000000     
  0.40625000000000000       0.59375000000000000        0.0000000000000000     
  0.43750000000000000       0.59375000000000000        0.0000000000000000     
  0.46875000000000000       0.59375000000000000        0.0000000000000000     
  0.50000000000000000       0.59375000000000000        0.0000000000000000     
  0.37500000000000000       0.62500000000000000        0.0000000000000000     
  0.40625000000000000       0.62500000000000000        0.0000000000000000     
  0.43750000000000000       0.62500000000000000        0.0000000000000000     
  0.46875000000000000       0.62500000000000000        0.0000000000000000     
  0.50000000000000000       0.62500000000000000        0.0000000000000000     
  0.50000000000000000       0.50000000000000000        0.0000000000000000     
  0.53125000000000000       0.50000000000000000        0.0000000000000000     
  0.56250000000000000       0.50000000000000000        0.0000000000000000     
  0.59375000000000000       0.50000000000000000        0.0000000000000000     
  0.62500000000000000       0.50000000000000000        0.0000000000000000     
  0.50000000000000000       0.53125000000000000        0.0000000000000000     
  0.53125000000000000       0.53125000000000000        0.0000000000000000     
  0.56250000000000000       0.53125000000000000        0.0000000000000000     
  0.59375000000000000       0.53125000000000000        0.0000000000000000     
  0.62500000000000000       0.53125000000000000        0.0000000000000000     
  0.50000000000000000       0.56250000000000000        0.0000000000000000     
  0.53125000000000000       0.56250000000000000        0.0000000000000000     
  0.56250000000000000       0.56250000000000000        0.0000000000000000     
  0.59375000000000000       0.56250000000000000        0.0000000000000000     
  0.62500000000000000       0.56250000000000000        0.0000000000000000     
  0.50000000000000000       0.59375000000000000        0.0000000000000000     
  0.53125000000000000       0.59375000000000000        0.0000000000000000     
  0.56250000000000000       0.59375000000000000        0.0000000000000000     
  0.59375000000000000       0.59375000000000000        0.0000000000000000     
  0.62500000000000000       0.59375000000000000        0.0000000000000000     
  0.50000000000000000       0.62500000000000000        0.0000000000000000     
  0.53125000000000000       0.62500000000000000        0.0000000000000000     
  0.56250000000000000       0.62500000000000000        0.0000000000000000     
  0.59375000000000000       0.62500000000000000        0.0000000000000000     
  0.62500000000000000       0.62500000000000000        0.0000000000000000     
  0.62500000000000000       0.50000000000000000        0.0000000000000000     
  0.65625000000000000       0.50000000000000000        0.0000000000000000     
  0.68750000000000000       0.50000000000000000        0.0000000000000000     
  0.71875000000000000       0.50000000000000000        0.0000000000000000     
  0.75000000000000000       0.50000000000000000        0.0000000000000000     
  0.62500000000000000       0.53125000000000000        0.0000000000000000     
  0.65625000000000000       0.53125000000000000        0.0000000000000000     
  0.68750000000000000       0.53125000000000000        0.0000000000000000     
  0.71875000000000000       0.53125000000000000        0.0000000000000000     
  0.75000000000000000       0.53125000000000000        0.0000000000000000     
  0.62500000000000000       0.56250000000000000        0.0000000000000000     
  0.65625000000000000       0.56250000000000000        0.0000000000000000     
  0.68750000000000000       0.56250000000000000        0.0000000000000000     
  0.71875000000000000       0.56250000000000000        0.0000000000000000     
  0.75000000000000000       0.56250000000000000        0.0000000000000000     
  0.62500000000000000       0.59375000000000000        0.0000000000000000     
  0.65625000000000000       0.59375000000000000        0.0000000000000000     
  0.68750000000000000       0.59375000000000000        0.0000000000000000     
  0.71875000000000000       0.59375000000000000        0.0000000000000000     
  0.75000000000000000       0.59375000000000000        0.0000000000000000     
  0.62500000000000000       0.62500000000000000        0.0000000000000000     
  0.65625000000000000       0.62500000000000000        0.0000000000000000     
  0.68750000000000000       0.62500000000000000        0.0000000000000000     
  0.71875000000000000       0.62500000000000000        0.0000000000000000     
  0.75000000000000000       0.62500000000000000        0.0000000000000000     
  0.75000000000000000       0.50000000000000000        0.0000000000000000     
  0.78125000000000000       0.50000000000000000        0.0000000000000000     
  0.81250000000000000       0.50000000000000000        0.0000000000000000     
  0.84375000000000000       0.50000000000000000        0.0000000000000000     
  0.87500000000000000       0.50000000000000000        0.0000000000000000     
  0.75000000000000000       0.53125000000000000        0.0000000000000000     
  0.78125000000000000       0.53125000000000000        0.0000000000000000     
  0.81250000000000000       0.53125000000000000        0.0000000000000000     
  0.84375000000000000       0.53125000000000000        0.0000000000000000     
  0.87500000000000000       0.53125000000000000        0.0000000000000000     
  0.75000000000000000       0.56250000000000000        0.0000000000000000     
  0.78125000000000000       0.56250000000000000        0.0000000000000000     
  0.81250000000000000       0.56250000000000000        0.0000000000000000     
  0.84375000000000000       0.56250000000000000        0.0000000000000000     
  0.87500000000000000       0.56250000000000000        0.0000000000000000     
  0.75000000000000000       0.59375000000000000        0.0000000000000000     
  0.78125000000000000       0.59375000000000000        0.0000000000000000     
  0.81250000000000000       0.59375000000000000        0.0000000000000000     
  0.84375000000000000       0.59375000000000000        0.0000000000000000     
  0.87500000000000000       0.59375000000000000        0.0000000000000000     
  0.75000000000000000       0.62500000000000000        0.0000000000000000     
  0.78125000000000000       0.62500000000000000        0.0000000000000000     
  0.81250000000000000       0.62500000000000000        0.0000000000000000     
  0.84375000000000000       0.62500000000000000        0.0000000000000000     
  0.87500000000000000       0.62500000000000000        0.0000000000000000     
  0.87500000000000000       0.50000000000000000        0.0000000000000000     
  0.90625000000000000       0.50000000000000000        0.0000000000000000     
  0.93750000000000000       0.50000000000000000        0.0000000000000000     
  0.96875000000000000       0.50000000000000000        0.0000000000000000     
   1.0000000000000000       0.50000000000000000        0.0000000000000000     
  0.87500000000000000       0.53125000000000000        0.0000000000000000     
  0.90625000000000000       0.53125000000000000        0.0000000000000000     
  0.93750000000000000       0.53125000000000000        0.0000000000000000     
  0.96875000000000000       0.53125000000000000        0.0000000000000000     
   1.0000000000000000       0.53125000000000000        0.0000000000000000     
  0.87500000000000000       0.56250000000000000        0.0000000000000000     
  0.90625000000000000       0.56250000000000000        0.0000000000000000     
  0.93750000000000000       0.56250000000000000        0.0000000000000000     
  0.96875000000000000       0.56250000000000000        0.0000000000000000     
   1.0000000000000000       0.56250000000000000        0.0000000000000000     
  0.87500000000000000       0.59375000000000000        0.0000000000000000     
  0.90625000000000000       0.59375000000000000        0.0000000000000000     
  0.93750000000000000       0.59375000000000000        0.0000000000000000     
  0.96875000000000000       0.59375000000000000        0.0000000000000000     
   1.0000000000000000       0.59375000000000000        0.0000000000000000     
  0.87500000000000000       0.62500000000000000        0.0000000000000000     
  0.90625000000000000       0.62500000000000000        0.0000000000000000     
  0.93750000000000000       0.62500000000000000        0.0000000000000000     
  0.96875000000000000       0.62500000000000000        0.0000000000000000     
   1.0000000000000000       0.62500000000000000        0.0000000000000000     
   0.0000000000000000       0.62500000000000000        0.0000000000000000     
   3.1250000000000000E-002  0.62500000000000000        0.0000000000000000     
   6.2500000000000000E-002  0.62500000000000000        0.0000000000000000     
   9.3750000000000000E-002  0.62500000000000000        0.0000000000000000     
  0.12500000000000000       0.62500000000000000        0.0000000000000000     
   0.0000000000000000       0.65625000000000000        0.0000000000000000     
   3.1250000000000000E-002  0.65625000000000000        0.0000000000000000     
   6.2500000000000000E-002  0.65625000000000000        0.0000000000000000     
   9.3750000000000000E-002  0.65625000000000000        0.0000000000000000     
  0.12500000000000000       0.65625000000000000        0.0000000000000000     
   0.0000000000000000       0.68750000000000000        0.0000000000000000     
   3.1250000000000000E-002  0.68750000000000000        0.0000000000000000     
   6.2500000000000000E-002  0.68750000000000000        0.0000000000000000     
   9.3750000000000000E-002  0.68750000000000000        0.0000000000000000     
  0.12500000000000000       0.68750000000000000        0.0000000000000000     
   0.0000000000000000       0.71875000000000000        0.0000000000000000     
   3.1250000000000000E-002  0.71875000000000000        0.0000000000000000     
   6.2500000000000000E-002  0.71875000000000000        0.0000000000000000     
   9.3750000000000000E-002  0.71875000000000000        0.0000000000000000     
  0.12500000000000000       0.71875000000000000        0.0000000000000000     
   0.0000000000000000       0.75000000000000000        0.0000000000000000     
   3.1250000000000000E-002  0.75000000000000000        0.0000000000000000     
   6.2500000000000000E-002  0.75000000000000000        0.0000000000000000     
   9.3750000000000000E-002  0.75000000000000000        0.0000000000000000     
  0.12500000000000000       0.75000000000000000        0.0000000000000000     
  0.12500000000000000       0.62500000000000000        0.0000000000000000     
  0.15625000000000000       0.62500000000000000        0.0000000000000000     
  0.18750000000000000       0.62500000000000000        0.0000000000000000     
  0.21875000000000000       0.62500000000000000        0.0000000000000000     
  0.25000000000000000       0.62500000000000000        0.0000000000000000     
  0.12500000000000000       0.65625000000000000        0.0000000000000000     
  0.15625000000000000       0.65625000000000000        0.0000000000000000     
  0.18750000000000000       0.65625000000000000        0.0000000000000000     
  0.21875000000000000       0.65625000000000000        0.0000000000000000     
  0.25000000000000000       0.65625000000000000        0.0000000000000000     
  0.12500000000000000       0.68750000000000000        0.0000000000000000     
  0.15625000000000000       0.68750000000000000        0.0000000000000000     
  0.18750000000000000       0.68750000000000000        0.0000000000000000     
  0.21875000000000000       0.68750000000000000        0.0000000000000000     
  0.25000000000000000       0.68750000000000000        0.0000000000000000     
  0.12500000000000000       0.71875000000000000        0.0000000000000000     
  0.15625000000000000       0.71875000000000000        0.0000000000000000     
  0.18750000000000000       0.71875000000000000        0.0000000000000000     
  0.21875000000000000       0.71875000000000000        0.0000000000000000     
  0.25000000000000000       0.71875000000000000        0.0000000000000000     
  0.12500000000000000       0.75000000000000000        0.0000000000000000     
  0.15625000000000000       0.75000000000000000        0.0000000000000000     
  0.18750000000000000       0.75000000000000000        0.0000000000000000     
  0.21875000000000000       0.75000000000000000        0.0000000000000000     
  0.25000000000000000       0.75000000000000000        0.0000000000000000     
  0.25000000000000000       0.62500000000000000        0.0000000000000000     
  0.28125000000000000       0.62500000000000000        0.0000000000000000     
  0.31250000000000000       0.62500000000000000        0.0000000000000000     
  0.34375000000000000       0.62500000000000000        0.0000000000000000     
  0.37500000000000000       0.62500000000000000        0.0000000000000000     
  0.25000000000000000       0.65625000000000000        0.0000000000000000     
  0.28125000000000000       0.65625000000000000        0.0000000000000000     
  0.31250000000000000       0.65625000000000000        0.0000000000000000     
  0.34375000000000000       0.65625000000000000        0.0000000000000000     
  0.37500000000000000       0.65625000000000000        0.0000000000000000     
  0.25000000000000000       0.68750000000000000        0.0000000000000000     
  0.28125000000000000       0.68750000000000000        0.0000000000000000     
  0.31250000000000000       0.68750000000000000        0.0000000000000000     
  0.34375000000000000       0.68750000000000000        0.0000000000000000     
  0.37500000000000000       0.68750000000000000        0.0000000000000000     
  0.25000000000000000       0.71875000000000000        0.0000000000000000     
  0.28125000000000000       0.71875000000000000        0.0000000000000000     
  0.31250000000000000       0.71875000000000000        0.0000000000000000     
  0.34375000000000000       0.71875000000000000        0.0000000000000000     
  0.37500000000000000       0.71875000000000000        0.0000000000000000     
  0.25000000000000000       0.75000000000000000        0.0000000000000000     
  0.28125000000000000       0.75000000000000000        0.0000000000000000     
  0.31250000000000000       0.75000000000000000        0.0000000000000000     
  0.34375000000000000       0.75000000000000000        0.0000000000000000     
  0.37500000000000000       0.75000000000000000        0.0000000000000000     
  0.37500000000000000       0.62500000000000000        0.0000000000000000     
  0.40625000000000000       0.62500000000000000        0.0000000000000000     
  0.43750000000000000       0.62500000000000000        0.0000000000000000     
  0.46875000000000000       0.62500000000000000        0.0000000000000000     
  0.50000000000000000       0.62500000000000000        0.0000000000000000     
  0.37500000000000000       0.65625000000000000        0.0000000000000000     
  0.40625000000000000       0.65625000000000000        0.0000000000000000     
  0.43750000000000000       0.65625000000000000        0.0000000000000000     
  0.46875000000000000       0.65625000000000000        0.0000000000000000     
  0.50000000000000000       0.65625000000000000        0.0000000000000000     
  0.37500000000000000       0.68750000000000000        0.0000000000000000     
  0.40625000000000000       0.68750000000000000        0.0000000000000000     
  0.43750000000000000       0.68750000000000000        0.0000000000000000     
  0.46875000000000000       0.68750000000000000        0.0000000000000000     
  0.50000000000000000       0.68750000000000000        0.0000000000000000     
  0.37500000000000000       0.71875000000000000        0.0000000000000000     
  0.40625000000000000       0.71875000000000000        0.0000000000000000     
  0.43750000000000000       0.71875000000000000        0.0000000000000000     
  0.46875000000000000       0.71875000000000000        0.0000000000000000     
  0.50000000000000000       0.71875000000000000        0.0000000000000000     
  0.37500000000000000       0.75000000000000000        0.0000000000000000     
  0.40625000000000000       0.75000000000000000        0.0000000000000000     
  0.43750000000000000       0.75000000000000000        0.0000000000000000     
  0.46875000000000000       0.75000000000000000        0.0000000000000000     
  0.50000000000000000       0.75000000000000000        0.0000000000000000     
  0.50000000000000000       0.62500000000000000        0.0000000000000000     
  0.53125000000000000       0.62500000000000000        0.0000000000000000     
  0.56250000000000000       0.62500000000000000        0.0000000000000000     
  0.59375000000000000       0.62500000000000000        0.0000000000000000     
  0.62500000000000000       0.62500000000000000        0.0000000000000000     
  0.50000000000000000       0.65625000000000000        0.0000000000000000     
  0.53125000000000000       0.65625000000000000        0.0000000000000000     
  0.56250000000000000       0.65625000000000000        0.0000000000000000     
  0.59375000000000000       0.65625000000000000        0.0000000000000000     
  0.62500000000000000       0.65625000000000000        0.0000000000000000     
  0.50000000000000000       0.68750000000000000        0.0000000000000000     
  0.53125000000000000       0.68750000000000000        0.0000000000000000     
  0.56250000000000000       0.68750000000000000        0.0000000000000000     
  0.59375000000000000       0.68750000000000000        0.0000000000000000     
  0.62500000000000000       0.68750000000000000        0.0000000000000000     
  0.50000000000000000       0.71875000000000000        0.0000000000000000     
  0.53125000000000000       0.71875000000000000        0.0000000000000000     
  0.56250000000000000       0.71875000000000000        0.0000000000000000     
  0.59375000000000000       0.71875000000000000        0.0000000000000000     
  0.62500000000000000       0.71875000000000000        0.0000000000000000     
  0.50000000000000000       0.75000000000000000        0.0000000000000000     
  0.53125000000000000       0.75000000000000000        0.0000000000000000     
  0.56250000000000000       0.75000000000000000        0.0000000000000000     
  0.59375000000000000       0.75000000000000000        0.0000000000000000     
  0.62500000000000000       0.75000000000000000        0.0000000000000000     
  0.62500000000000000       0.62500000000000000        0.0000000000000000     
  0.65625000000000000       0.62500000000000000        0.0000000000000000     
  0.68750000000000000       0.62500000000000000        0.0000000000000000     
  0.71875000000000000       0.62500000000000000        0.0000000000000000     
  0.75000000000000000       0.62500000000000000        0.0000000000000000     
  0.62500000000000000       0.65625000000000000        0.0000000000000000     
  0.65625000000000000       0.65625000000000000        0.0000000000000000     
  0.68750000000000000       0.65625000000000000        0.0000000000000000     
  0.71875000000000000       0.65625000000000000        0.0000000000000000     
  0.75000000000000000       0.65625000000000000        0.0000000000000000     
  0.62500000000000000       0.68750000000000000        0.0000000000000000     
  0.65625000000000000       0.68750000000000000        0.0000000000000000     
  0.68750000000000000       0.68750000000000000        0.0000000000000000     
  0.71875000000000000       0.68750000000000000        0.0000000000000000     
  0.75000000000000000       0.68750000000000000        0.0000000000000000     
  0.62500000000000000       0.71875000000000000        0.0000000000000000     
  0.65625000000000000       0.71875000000000000        0.0000000000000000     
  0.68750000000000000       0.71875000000000000        0.0000000000000000     
  0.71875000000000000       0.71875000000000000        0.0000000000000000     
  0.75000000000000000       0.71875000000000000        0.0000000000000000     
  0.62500000000000000       0.75000000000000000        0.0000000000000000     
  0.65625000000000000       0.75000000000000000        0.0000000000000000     
  0.68750000000000000       0.75000000000000000        0.0000000000000000     
  0.71875000000000000       0.75000000000000000        0.0000000000000000     
  0.75000000000000000       0.75000000000000000        0.0000000000000000     
  0.75000000000000000       0.62500000000000000        0.0000000000000000     
  0.78125000000000000       0.62500000000000000        0.0000000000000000     
  0.81250000000000000       0.62500000000000000        0.0000000000000000     
  0.84375000000000000       0.62500000000000000        0.0000000000000000     
  0.87500000000000000       0.62500000000000000        0.0000000000000000     
  0.75000000000000000       0.65625000000000000        0.0000000000000000     
  0.78125000000000000       0.65625000000000000        0.0000000000000000     
  0.81250000000000000       0.65625000000000000        0.0000000000000000     
  0.84375000000000000       0.65625000000000000        0.0000000000000000     
  0.87500000000000000       0.65625000000000000        0.0000000000000000     
  0.75000000000000000       0.68750000000000000        0.0000000000000000     
  0.78125000000000000       0.68750000000000000        0.0000000000000000     
  0.81250000000000000       0.68750000000000000        0.0000000000000000     
  0.84375000000000000       0.68750000000000000        0.0000000000000000     
  0.87500000000000000       0.68750000000000000        0.0000000000000000     
  0.75000000000000000       0.71875000000000000        0.0000000000000000     
  0.78125000000000000       0.71875000000000000        0.0000000000000000     
  0.81250000000000000       0.71875000000000000        0.0000000000000000     
  0.84375000000000000       0.71875000000000000        0.0000000000000000     
  0.87500000000000000       0.71875000000000000        0.0000000000000000     
  0.75000000000000000       0.75000000000000000        0.0000000000000000     
  0.78125000000000000       0.75000000000000000        0.0000000000000000     
  0.81250000000000000       0.75000000000000000        0.0000000000000000     
  0.84375000000000000       0.75000000000000000        0.0000000000000000     
  0.87500000000000000       0.75000000000000000        0.0000000000000000     
  0.87500000000000000       0.62500000000000000        0.0000000000000000     
  0.90625000000000000       0.62500000000000000        0.0000000000000000     
  0.93750000000000000       0.62500000000000000        0.0000000000000000     
  0.96875000000000000       0.62500000000000000        0.0000000000000000     
   1.0000000000000000       0.62500000000000000        0.0000000000000000     
  0.87500000000000000       0.65625000000000000        0.0000000000000000     
  0.90625000000000000       0.65625000000000000        0.0000000000000000     
  0.93750000000000000       0.65625000000000000        0.0000000000000000     
  0.96875000000000000       0.65625000000000000        0.0000000000000000     
   1.0000000000000000       0.65625000000000000        0.0000000000000000     
  0.87500000000000000       0.68750000000000000        0.0000000000000000     
  0.90625000000000000       0.68750000000000000        0.0000000000000000     
  0.93750000000000000       0.68750000000000000        0.0000000000000000     
  0.96875000000000000       0.68750000000000000        0.0000000000000000     
   1.0000000000000000       0.68750000000000000        0.0000000000000000     
  0.87500000000000000       0.71875000000000000        0.0000000000000000     
  0.90625000000000000       0.71875000000000000        0.0000000000000000     
  0.93750000000000000       0.71875000000000000        0.0000000000000000     
  0.96875000000000000       0.71875000000000000        0.0000000000000000     
   1.0000000000000000       0.71875000000000000        0.0000000000000000     
  0.87500000000000000       0.75000000000000000        0.0000000000000000     
  0.90625000000000000       0.75000000000000000        0.0000000000000000     
  0.93750000000000000       0.75000000000000000        0.0000000000000000     
  0.96875000000000000       0.75000000000000000        0.0000000000000000     
   1.0000000000000000       0.75000000000000000        0.0000000000000000     
   0.0000000000000000       0.75000000000000000        0.0000000000000000     
   3.1250000000000000E-002  0.75000000000000000        0.0000000000000000     
   6.2500000000000000E-002  0.75000000000000000        0.0000000000000000     
   9.3750000000000000E-002  0.75000000000000000        0.0000000000000000     
  0.12500000000000000       0.75000000000000000        0.0000000000000000     
   0.0000000000000000       0.78125000000000000        0.0000000000000000     
   3.1250000000000000E-002  0.78125000000000000        0.0000000000000000     
   6.2500000000000000E-002  0.78125000000000000        0.0000000000000000     
   9.3750000000000000E-002  0.78125000000000000        0.0000000000000000     
  0.12500000000000000       0.78125000000000000        0.0000000000000000     
   0.0000000000000000       0.81250000000000000        0.0000000000000000     
   3.1250000000000000E-002  0.81250000000000000        0.0000000000000000     
   6.2500000000000000E-002  0.81250000000000000        0.0000000000000000     
   9.3750000000000000E-002  0.81250000000000000        0.0000000000000000     
  0.12500000000000000       0.81250000000000000        0.0000000000000000     
   0.0000000000000000       0.84375000000000000        0.0000000000000000     
   3.1250000000000000E-002  0.84375000000000000        0.0000000000000000     
   6.2500000000000000E-002  0.84375000000000000        0.0000000000000000     
   9.3750000000000000E-002  0.84375000000000000        0.0000000000000000     
  0.12500000000000000       0.84375000000000000        0.0000000000000000     
   0.0000000000000000       0.87500000000000000        0.0000000000000000     
   3.1250000000000000E-002  0.87500000000000000        0.0000000000000000     
   6.2500000000000000E-002  0.87500000000000000        0.0000000000000000     
   9.3750000000000000E-002  0.87500000000000000        0.0000000000000000     
  0.12500000000000000       0.87500000000000000        0.0000000000000000     
  0.12500000000000000       0.75000000000000000        0.0000000000000000     
  0.15625000000000000       0.75000000000000000        0.0000000000000000     
  0.18750000000000000       0.75000000000000000        0.0000000000000000     
  0.21875000000000000       0.75000000000000000        0.0000000000000000     
  0.25000000000000000       0.75000000000000000        0.0000000000000000     
  0.12500000000000000       0.78125000000000000        0.0000000000000000     
  0.15625000000000000       0.78125000000000000        0.0000000000000000     
  0.18750000000000000       0.78125000000000000        0.0000000000000000     
  0.21875000000000000       0.78125000000000000        0.0000000000000000     
  0.25000000000000000       0.78125000000000000        0.0000000000000000     
  0.12500000000000000       0.81250000000000000        0.0000000000000000     
  0.15625000000000000       0.81250000000000000        0.0000000000000000     
  0.18750000000000000       0.81250000000000000        0.0000000000000000     
  0.21875000000000000       0.81250000000000000        0.0000000000000000     
  0.25000000000000000       0.81250000000000000        0.0000000000000000     
  0.12500000000000000       0.84375000000000000        0.0000000000000000     
  0.15625000000000000       0.84375000000000000        0.0000000000000000     
  0.18750000000000000       0.84375000000000000        0.0000000000000000     
  0.21875000000000000       0.84375000000000000        0.0000000000000000     
  0.25000000000000000       0.84375000000000000        0.0000000000000000     
  0.12500000000000000       0.87500000000000000        0.0000000000000000     
  0.15625000000000000       0.87500000000000000        0.0000000000000000     
  0.18750000000000000       0.87500000000000000        0.0000000000000000     
  0.21875000000000000       0.87500000000000000        0.0000000000000000     
  0.25000000000000000       0.87500000000000000        0.0000000000000000     
  0.25000000000000000       0.75000000000000000        0.0000000000000000     
  0.28125000000000000       0.75000000000000000        0.0000000000000000     
  0.31250000000000000       0.75000000000000000        0.0000000000000000     
  0.34375000000000000       0.75000000000000000        0.0000000000000000     
  0.37500000000000000       0.75000000000000000        0.0000000000000000     
  0.25000000000000000       0.78125000000000000        0.0000000000000000     
  0.28125000000000000       0.78125000000000000        0.0000000000000000     
  0.31250000000000000       0.78125000000000000        0.0000000000000000     
  0.34375000000000000       0.78125000000000000        0.0000000000000000     
  0.37500000000000000       0.78125000000000000        0.0000000000000000     
  0.25000000000000000       0.81250000000000000        0.0000000000000000     
  0.28125000000000000       0.81250000000000000        0.0000000000000000     
  0.31250000000000000       0.81250000000000000        0.0000000000000000     
  0.34375000000000000       0.81250000000000000        0.0000000000000000     
  0.37500000000000000       0.81250000000000000        0.0000000000000000     
  0.25000000000000000       0.84375000000000000        0.0000000000000000     
  0.28125000000000000       0.84375000000000000        0.0000000000000000     
  0.31250000000000000       0.84375000000000000        0.0000000000000000     
  0.34375000000000000       0.84375000000000000        0.0000000000000000     
  0.37500000000000000       0.84375000000000000        0.0000000000000000     
  0.25000000000000000       0.87500000000000000        0.0000000000000000     
  0.28125000000000000       0.87500000000000000        0.0000000000000000     
  0.31250000000000000       0.87500000000000000        0.0000000000000000     
  0.34375000000000000       0.87500000000000000        0.0000000000000000     
  0.37500000000000000       0.87500000000000000        0.0000000000000000     
  0.37500000000000000       0.75000000000000000        0.0000000000000000     
  0.40625000000000000       0.75000000000000000        0.0000000000000000     
  0.43750000000000000       0.75000000000000000        0.0000000000000000     
  0.46875000000000000       0.75000000000000000        0.0000000000000000     
  0.50000000000000000       0.75000000000000000        0.0000000000000000     
  0.37500000000000000       0.78125000000000000        0.0000000000000000     
  0.40625000000000000       0.78125000000000000        0.0000000000000000     
  0.43750000000000000       0.78125000000000000        0.0000000000000000     
  0.46875000000000000       0.78125000000000000        0.0000000000000000     
  0.50000000000000000       0.78125000000000000        0.0000000000000000     
  0.37500000000000000       0.81250000000000000        0.0000000000000000     
  0.40625000000000000       0.81250000000000000        0.0000000000000000     
  0.43750000000000000       0.81250000000000000        0.0000000000000000     
  0.46875000000000000       0.81250000000000000        0.0000000000000000     
  0.50000000000000000       0.81250000000000000        0.0000000000000000     
  0.37500000000000000       0.84375000000000000        0.0000000000000000     
  0.40625000000000000       0.84375000000000000        0.0000000000000000     
  0.43750000000000000       0.84375000000000000        0.0000000000000000     
  0.46875000000000000       0.84375000000000000        0.0000000000000000     
  0.50000000000000000       0.84375000000000000        0.0000000000000000     
  0.37500000000000000       0.87500000000000000        0.0000000000000000     
  0.40625000000000000       0.87500000000000000        0.0000000000000000     
  0.43750000000000000       0.87500000000000000        0.0000000000000000     
  0.46875000000000000       0.87500000000000000        0.0000000000000000     
  0.50000000000000000       0.87500000000000000        0.0000000000000000     
  0.50000000000000000       0.75000000000000000        0.0000000000000000     
  0.53125000000000000       0.75000000000000000        0.0000000000000000     
  0.56250000000000000       0.75000000000000000        0.0000000000000000     
  0.59375000000000000       0.75000000000000000        0.0000000000000000     
  0.62500000000000000       0.75000000000000000        0.0000000000000000     
  0.50000000000000000       0.78125000000000000        0.0000000000000000     
  0.53125000000000000       0.78125000000000000        0.0000000000000000     
  0.56250000000000000       0.78125000000000000        0.0000000000000000     
  0.59375000000000000       0.78125000000000000        0.0000000000000000     
  0.62500000000000000       0.78125000000000000        0.0000000000000000     
  0.50000000000000000       0.81250000000000000        0.0000000000000000     
  0.53125000000000000       0.81250000000000000        0.0000000000000000     
  0.56250000000000000       0.81250000000000000        0.0000000000000000     
  0.59375000000000000       0.81250000000000000        0.0000000000000000     
  0.62500000000000000       0.81250000000000000        0.0000000000000000     
  0.50000000000000000       0.84375000000000000        0.0000000000000000     
  0.53125000000000000       0.84375000000000000        0.0000000000000000     
  0.56250000000000000       0.84375000000000000        0.0000000000000000     
  0.59375000000000000       0.84375000000000000        0.0000000000000000     
  0.62500000000000000       0.84375000000000000        0.0000000000000000     
  0.50000000000000000       0.87500000000000000        0.0000000000000000     
  0.53125000000000000       0.87500000000000000        0.0000000000000000     
  0.56250000000000000       0.87500000000000000        0.0000000000000000     
  0.59375000000000000       0.87500000000000000        0.0000000000000000     
  0.62500000000000000       0.87500000000000000        0.0000000000000000     
  0.62500000000000000       0.75000000000000000        0.0000000000000000     
  0.65625000000000000       0.75000000000000000        0.0000000000000000     
  0.68750000000000000       0.75000000000000000        0.0000000000000000     
  0.71875000000000000       0.75000000000000000        0.0000000000000000     
  0.75000000000000000       0.75000000000000000        0.0000000000000000     
  0.62500000000000000       0.78125000000000000        0.0000000000000000     
  0.65625000000000000       0.78125000000000000        0.0000000000000000     
  0.68750000000000000       0.78125000000000000        0.0000000000000000     
  0.71875000000000000       0.78125000000000000        0.0000000000000000     
  0.75000000000000000       0.78125000000000000        0.0000000000000000     
  0.62500000000000000       0.81250000000000000        0.0000000000000000     
  0.65625000000000000       0.81250000000000000        0.0000000000000000     
  0.68750000000000000       0.81250000000000000        0.0000000000000000     
  0.71875000000000000       0.81250000000000000        0.0000000000000000     
  0.75000000000000000       0.81250000000000000        0.0000000000000000     
  0.62500000000000000       0.84375000000000000        0.0000000000000000     
  0.65625000000000000       0.84375000000000000        0.0000000000000000     
  0.68750000000000000       0.84375000000000000        0.0000000000000000     
  0.71875000000000000       0.84375000000000000        0.0000000000000000     
  0.75000000000000000       0.84375000000000000        0.0000000000000000     
  0.62500000000000000       0.87500000000000000        0.0000000000000000     
  0.65625000000000000       0.87500000000000000        0.0000000000000000     
  0.68750000000000000       0.87500000000000000        0.0000000000000000     
  0.71875000000000000       0.87500000000000000        0.0000000000000000     
  0.75000000000000000       0.87500000000000000        0.0000000000000000     
  0.75000000000000000       0.75000000000000000        0.0000000000000000     
  0.78125000000000000       0.75000000000000000        0.0000000000000000     
  0.81250000000000000       0.75000000000000000        0.0000000000000000     
  0.84375000000000000       0.75000000000000000        0.0000000000000000     
  0.87500000000000000       0.75000000000000000        0.0000000000000000     
  0.75000000000000000       0.78125000000000000        0.0000000000000000     
  0.78125000000000000       0.78125000000000000        0.0000000000000000     
  0.81250000000000000       0.78125000000000000        0.0000000000000000     
  0.84375000000000000       0.78125000000000000        0.0000000000000000     
  0.87500000000000000       0.78125000000000000        0.0000000000000000     
  0.75000000000000000       0.81250000000000000        0.0000000000000000     
  0.78125000000000000       0.81250000000000000        0.0000000000000000     
  0.81250000000000000       0.81250000000000000        0.0000000000000000     
  0.84375000000000000       0.81250000000000000        0.0000000000000000     
  0.87500000000000000       0.81250000000000000        0.0000000000000000     
  0.75000000000000000       0.84375000000000000        0.0000000000000000     
  0.78125000000000000       0.84375000000000000        0.0000000000000000     
  0.81250000000000000       0.84375000000000000        0.0000000000000000     
  0.84375000000000000       0.84375000000000000        0.0000000000000000     
  0.87500000000000000       0.84375000000000000        0.0000000000000000     
  0.75000000000000000       0.87500000000000000        0.0000000000000000     
  0.78125000000000000       0.87500000000000000        0.0000000000000000     
  0.81250000000000000       0.87500000000000000        0.0000000000000000     
  0.84375000000000000       0.87500000000000000        0.0000000000000000     
  0.87500000000000000       0.87500000000000000        0.0000000000000000     
  0.87500000000000000       0.75000000000000000        0.0000000000000000     
  0.90625000000000000       0.75000000000000000        0.0000000000000000     
  0.93750000000000000       0.75000000000000000        0.0000000000000000     
  0.96875000000000000       0.75000000000000000        0.0000000000000000     
   1.0000000000000000       0.75000000000000000        0.0000000000000000     
  0.87500000000000000       0.78125000000000000        0.0000000000000000     
  0.90625000000000000       0.78125000000000000        0.0000000000000000     
  0.93750000000000000       0.78125000000000000        0.0000000000000000     
  0.96875000000000000       0.78125000000000000        0.0000000000000000     
   1.0000000000000000       0.78125000000000000        0.0000000000000000     
  0.87500000000000000       0.81250000000000000        0.0000000000000000     
  0.90625000000000000       0.81250000000000000        0.0000000000000000     
  0.93750000000000000       0.81250000000000000        0.0000000000000000     
  0.96875000000000000       0.81250000000000000        0.0000000000000000     
   1.0000000000000000       0.81250000000000000        0.0000000000000000     
  0.87500000000000000       0.84375000000000000        0.0000000000000000     
  0.90625000000000000       0.84375000000000000        0.0000000000000000     
  0.93750000000000000       0.84375000000000000        0.0000000000000000     
  0.96875000000000000       0.84375000000000000        0.0000000000000000     
   1.0000000000000000       0.84375000000000000        0.0000000000000000     
  0.87500000000000000       0.87500000000000000        0.0000000000000000     
  0.90625000000000000       0.87500000000000000        0.0000000000000000     
  0.93750000000000000       0.87500000000000000        0.0000000000000000     
  0.96875000000000000       0.87500000000000000        0.0000000000000000     
   1.0000000000000000       0.87500000000000000        0.0000000000000000     
   0.0000000000000000       0.87500000000000000        0.0000000000000000     
   3.1250000000000000E-002  0.87500000000000000        0.0000000000000000     
   6.2500000000000000E-002  0.87500000000000000        0.0000000000000000     
   9.3750000000000000E-002  0.87500000000000000        0.0000000000000000     
  0.12500000000000000       0.87500000000000000        0.0000000000000000     
   0.0000000000000000       0.90625000000000000        0.0000000000000000     
   3.1250000000000000E-002  0.90625000000000000        0.0000000000000000     
   6.2500000000000000E-002  0.90625000000000000        0.0000000000000000     
   9.3750000000000000E-002  0.90625000000000000        0.0000000000000000     
  0.12500000000000000       0.90625000000000000        0.0000000000000000     
   0.0000000000000000       0.93750000000000000        0.0000000000000000     
   3.1250000000000000E-002  0.93750000000000000        0.0000000000000000     
   6.2500000000000000E-002  0.93750000000000000        0.0000000000000000     
   9.3750000000000000E-002  0.93750000000000000        0.0000000000000000     
  0.12500000000000000       0.93750000000000000        0.0000000000000000     
   0.0000000000000000       0.96875000000000000        0.0000000000000000     
   3.1250000000000000E-002  0.96875000000000000        0.0000000000000000     
   6.2500000000000000E-002  0.96875000000000000        0.0000000000000000     
   9.3750000000000000E-002  0.96875000000000000        0.0000000000000000     
  0.12500000000000000       0.96875000000000000        0.0000000000000000     
   0.0000000000000000        1.0000000000000000        0.0000000000000000     
   3.1250000000000000E-002   1.0000000000000000        0.0000000000000000     
   6.2500000000000000E-002   1.0000000000000000        0.0000000000000000     
   9.3750000000000000E-002   1.0000000000000000        0.0000000000000000     
  0.12500000000000000        1.0000000000000000        0.0000000000000000     
  0.12500000000000000       0.87500000000000000        0.0000000000000000     
  0.15625000000000000       0.87500000000000000        0.0000000000000000     
  0.18750000000000000       0.87500000000000000        0.0000000000000000     
  0.21875000000000000       0.87500000000000000        0.0000000000000000     
  0.25000000000000000       0.87500000000000000        0.0000000000000000     
  0.12500000000000000       0.90625000000000000        0.0000000000000000     
  0.15625000000000000       0.90625000000000000        0.0000000000000000     
  0.18750000000000000       0.90625000000000000        0.0000000000000000     
  0.21875000000000000       0.90625000000000000        0.0000000000000000     
  0.25000000000000000       0.90625000000000000        0.0000000000000000     
  0.12500000000000000       0.93750000000000000        0.0000000000000000     
  0.15625000000000000       0.93750000000000000        0.0000000000000000     
  0.18750000000000000       0.93750000000000000        0.0000000000000000     
  0.21875000000000000       0.93750000000000000        0.0000000000000000     
  0.25000000000000000       0.93750000000000000        0.0000000000000000     
  0.12500000000000000       0.96875000000000000        0.0000000000000000     
  0.15625000000000000       0.96875000000000000        0.0000000000000000     
  0.18750000000000000       0.96875000000000000        0.0000000000000000     
  0.21875000000000000       0.96875000000000000        0.0000000000000000     
  0.25000000000000000       0.96875000000000000        0.0000000000000000     
  0.12500000000000000        1.0000000000000000        0.0000000000000000     
  0.15625000000000000        1.0000000000000000        0.0000000000000000     
  0.18750000000000000        1.0000000000000000        0.0000000000000000     
  0.21875000000000000        1.0000000000000000        0.0000000000000000     
  0.25000000000000000        1.0000000000000000        0.0000000000000000     
  0.25000000000000000       0.87500000000000000        0.0000000000000000     
  0.28125000000000000       0.87500000000000000        0.0000000000000000     
  0.31250000000000000       0.87500000000000000        0.0000000000000000     
  0.34375000000000000       0.87500000000000000        0.0000000000000000     
  0.37500000000000000       0.87500000000000000        0.0000000000000000     
  0.25000000000000000       0.90625000000000000        0.0000000000000000     
  0.28125000000000000       0.90625000000000000        0.0000000000000000     
  0.31250000000000000       0.90625000000000000        0.0000000000000000     
  0.34375000000000000       0.90625000000000000        0.0000000000000000     
  0.37500000000000000       0.90625000000000000        0.0000000000000000     
  0.25000000000000000       0.93750000000000000        0.0000000000000000     
  0.28125000000000000       0.93750000000000000        0.0000000000000000     
  0.31250000000000000       0.93750000000000000        0.0000000000000000     
  0.34375000000000000       0.93750000000000000        0.0000000000000000     
  0.37500000000000000       0.93750000000000000        0.0000000000000000     
  0.25000000000000000       0.96875000000000000        0.0000000000000000     
  0.28125000000000000       0.96875000000000000        0.0000000000000000     
  0.31250000000000000       0.96875000000000000        0.0000000000000000     
  0.34375000000000000       0.96875000000000000        0.0000000000000000     
  0.37500000000000000       0.96875000000000000        0.0000000000000000     
  0.25000000000000000        1.0000000000000000        0.0000000000000000     
  0.28125000000000000        1.0000000000000000        0.0000000000000000     
  0.31250000000000000        1.0000000000000000        0.0000000000000000     
  0.34375000000000000        1.0000000000000000        0.0000000000000000     
  0.37500000000000000        1.0000000000000000        0.0000000000000000     
  0.37500000000000000       0.87500000000000000        0.0000000000000000     
  0.40625000000000000       0.87500000000000000        0.0000000000000000     
  0.43750000000000000       0.87500000000000000        0.0000000000000000     
  0.46875000000000000       0.87500000000000000        0.0000000000000000     
  0.50000000000000000       0.87500000000000000        0.0000000000000000     
  0.37500000000000000       0.90625000000000000        0.0000000000000000     
  0.40625000000000000       0.90625000000000000        0.0000000000000000     
  0.43750000000000000       0.90625000000000000        0.0000000000000000     
  0.46875000000000000       0.90625000000000000        0.0000000000000000     
  0.50000000000000000       0.90625000000000000        0.0000000000000000     
  0.37500000000000000       0.93750000000000000        0.0000000000000000     
  0.40625000000000000       0.93750000000000000        0.0000000000000000     
  0.43750000000000000       0.93750000000000000        0.0000000000000000     
  0.46875000000000000       0.93750000000000000        0.0000000000000000     
  0.50000000000000000       0.93750000000000000        0.0000000000000000     
  0.37500000000000000       0.96875000000000000        0.0000000000000000     
  0.40625000000000000       0.96875000000000000        0.0000000000000000     
  0.43750000000000000       0.96875000000000000        0.0000000000000000     
  0.46875000000000000       0.96875000000000000        0.0000000000000000     
  0.50000000000000000       0.96875000000000000        0.0000000000000000     
  0.37500000000000000        1.0000000000000000        0.0000000000000000     
  0.40625000000000000        1.0000000000000000        0.0000000000000000     
  0.43750000000000000        1.0000000000000000        0.0000000000000000     
  0.46875000000000000        1.0000000000000000        0.0000000000000000     
  0.50000000000000000        1.0000000000000000        0.0000000000000000     
  0.50000000000000000       0.87500000000000000        0.0000000000000000     
  0.53125000000000000       0.87500000000000000        0.0000000000000000     
  0.56250000000000000       0.87500000000000000        0.0000000000000000     
  0.59375000000000000       0.87500000000000000        0.0000000000000000     
  0.62500000000000000       0.87500000000000000        0.0000000000000000     
  0.50000000000000000       0.90625000000000000        0.0000000000000000     
  0.53125000000000000       0.90625000000000000        0.0000000000000000     
  0.56250000000000000       0.90625000000000000        0.0000000000000000     
  0.59375000000000000       0.90625000000000000        0.0000000000000000     
  0.62500000000000000       0.90625000000000000        0.0000000000000000     
  0.50000000000000000       0.93750000000000000        0.0000000000000000     
  0.53125000000000000       0.93750000000000000        0.0000000000000000     
  0.56250000000000000       0.93750000000000000        0.0000000000000000     
  0.59375000000000000       0.93750000000000000        0.0000000000000000     
  0.62500000000000000       0.93750000000000000        0.0000000000000000     
  0.50000000000000000       0.96875000000000000        0.0000000000000000     
  0.53125000000000000       0.96875000000000000        0.0000000000000000     
  0.56250000000000000       0.96875000000000000        0.0000000000000000     
  0.59375000000000000       0.96875000000000000        0.0000000000000000     
  0.62500000000000000       0.96875000000000000        0.0000000000000000     
  0.50000000000000000        1.0000000000000000        0.0000000000000000     
  0.53125000000000000        1.0000000000000000        0.0000000000000000     
  0.56250000000000000        1.0000000000000000        0.0000000000000000     
  0.59375000000000000        1.0000000000000000        0.0000000000000000     
  0.62500000000000000        1.0000000000000000        0.0000000000000000     
  0.62500000000000000       0.87500000000000000        0.0000000000000000     
  0.65625000000000000       0.87500000000000000        0.0000000000000000     
  0.68750000000000000       0.87500000000000000        0.0000000000000000     
  0.71875000000000000       0.87500000000000000        0.0000000000000000     
  0.75000000000000000       0.87500000000000000        0.0000000000000000     
  0.62500000000000000       0.90625000000000000        0.0000000000000000     
  0.65625000000000000       0.90625000000000000        0.0000000000000000     
  0.68750000000000000       0.90625000000000000        0.0000000000000000     
  0.71875000000000000       0.90625000000000000        0.0000000000000000     
  0.75000000000000000       0.90625000000000000        0.0000000000000000     
  0.62500000000000000       0.93750000000000000        0.0000000000000000     
  0.65625000000000000       0.93750000000000000        0.0000000000000000     
  0.68750000000000000       0.93750000000000000        0.0000000000000000     
  0.71875000000000000       0.93750000000000000        0.0000000000000000     
  0.75000000000000000       0.93750000000000000        0.0000000000000000     
  0.62500000000000000       0.96875000000000000        0.0000000000000000     
  0.65625000000000000       0.96875000000000000        0.0000000000000000     
  0.68750000000000000       0.96875000000000000        0.0000000000000000     
  0.71875000000000000       0.96875000000000000        0.0000000000000000     
  0.75000000000000000       0.96875000000000000        0.0000000000000000     
  0.62500000000000000        1.0000000000000000        0.0000000000000000     
  0.65625000000000000        1.0000000000000000        0.0000000000000000     
  0.68750000000000000        1.0000000000000000        0.0000000000000000     
  0.71875000000000000        1.0000000000000000        0.0000000000000000     
  0.75000000000000000        1.0000000000000000        0.0000000000000000     
  0.75000000000000000       0.87500000000000000        0.0000000000000000     
  0.78125000000000000       0.87500000000000000        0.0000000000000000     
  0.81250000000000000       0.87500000000000000        0.0000000000000000     
  0.84375000000000000       0.87500000000000000        0.0000000000000000     
  0.87500000000000000       0.87500000000000000        0.0000000000000000     
  0.75000000000000000       0.90625000000000000        0.0000000000000000     
  0.78125000000000000       0.90625000000000000        0.0000000000000000     
  0.81250000000000000       0.90625000000000000        0.0000000000000000     
  0.84375000000000000       0.90625000000000000        0.0000000000000000     
  0.87500000000000000       0.90625000000000000        0.0000000000000000     
  0.75000000000000000       0.93750000000000000        0.0000000000000000     
  0.78125000000000000       0.93750000000000000        0.0000000000000000     
  0.81250000000000000       0.93750000000000000        0.0000000000000000     
  0.84375000000000000       0.93750000000000000        0.0000000000000000     
  0.87500000000000000       0.93750000000000000        0.0000000000000000     
  0.75000000000000000       0.96875000000000000        0.0000000000000000     
  0.78125000000000000       0.96875000000000000        0.0000000000000000     
  0.81250000000000000       0.96875000000000000        0.0000000000000000     
  0.84375000000000000       0.96875000000000000        0.0000000000000000     
  0.87500000000000000       0.96875000000000000        0.0000000000000000     
  0.75000000000000000        1.0000000000000000        0.0000000000000000     
  0.78125000000000000        1.0000000000000000        0.0000000000000000     
  0.81250000000000000        1.0000000000000000        0.0000000000000000     
  0.84375000000000000        1.0000000000000000        0.0000000000000000     
  0.87500000000000000        1.0000000000000000        0.0000000000000000     
  0.87500000000000000       0.87500000000000000        0.0000000000000000     
  0.90625000000000000       0.87500000000000000        0.0000000000000000     
  0.93750000000000000       0.87500000000000000        0.0000000000000000     
  0.96875000000000000       0.87500000000000000        0.0000000000000000     
   1.0000000000000000       0.87500000000000000        0.0000000000000000     
  0.87500000000000000       0.90625000000000000        0.0000000000000000     
  0.90625000000000000       0.90625000000000000        0.0000000000000000     
  0.93750000000000000       0.90625000000000000        0.0000000000000000     
  0.96875000000000000       0.90625000000000000        0.0000000000000000     
   1.0000000000000000       0.90625000000000000        0.0000000000000000     
  0.87500000000000000       0.93750000000000000        0.0000000000000000     
  0.90625000000000000       0.93750000000000000        0.0000000000000000     
  0.93750000000000000       0.93750000000000000        0.0000000000000000     
  0.96875000000000000       0.93750000000000000        0.0000000000000000     
   1.0000000000000000       0.93750000000000000        0.0000000000000000     
  0.87500000000000000       0.96875000000000000        0.0000000000000000     
  0.90625000000000000       0.96875000000000000        0.0000000000000000     
  0.93750000000000000       0.96875000000000000        0.0000000000000000     
  0.96875000000000000       0.96875000000000000        0.0000000000000000     
   1.0000000000000000       0.96875000000000000        0.0000000000000000     
  0.87500000000000000        1.0000000000000000        0.0000000000000000     
  0.90625000000000000        1.0000000000000000        0.0000000000000000     
  0.93750000000000000        1.0000000000000000        0.0000000000000000     
  0.96875000000000000        1.0000000000000000        0.0000000000000000     
   1.0000000000000000        1.0000000000000000        0.0000000000000000     
 </DataArray>
 </Points>
 <Cells>
 <DataArray  type="Int32"  Name="connectivity"  format="ascii">
           0           1           6           5
           1           2           7           6
           2           3           8           7
           3           4           9           8
           5           6          11          10
           6           7          12          11
           7           8          13          12
           8           9          14          13
          10          11          16          15
          11          12          17          16
          12          13          18          17
          13          14          19          18
          15          16          21          20
          16          17          22          21
          17          18          23          22
          18          19          24          23
          25          26          31          30
          26          27          32          31
          27          28          33          32
          28          29          34          33
          30          31          36          35
          31          32          37          36
          32          33          38          37
          33          34          39          38
          35          36          41          40
          36          37          42          41
          37          38          43          42
          38          39          44          43
          40          41          46          45
          41          42          47          46
          42          43          48          47
          43          44          49          48
          50          51          56          55
          51          52          57          56
          52          53          58          57
          53          54          59          58
          55          56          61          60
          56          57          62          61
          57          58          63          62
          58          59          64          63
          60          61          66          65
          61          62          67          66
          62          63          68          67
          63          64          69          68
          65          66          71          70
          66          67          72          71
          67          68          73          72
          68          69          74          73
          75          76          81          80
          76          77          82          81
          77          78          83          82
          78          79          84          83
          80          81          86          85
          81          82          87          86
          82          83          88          87
          83          84          89          88
          85          86          91          90
          86          87          92          91
          87          88          93          92
          88          89          94          93
          90          91          96          95
          91          92          97          96
          92          93          98          97
          93          94          99          98
         100         101         106         105
         101         102         107         106
         102         103         108         107
         103         104         109         108
         105         106         111         110
         106         107         112         111
         107         108         113         112
         108         109         114         113
         110         111         116         115
         111         112         117         116
         112         113         118         117
         113         114         119         118
         115         116         121         120
         116         117         122         121
         117         118         123         122
         118         119         124         123
         125         126         131         130
         126         127         132         131
         127         128         133         132
         128         129         134         133
         130         131         136         135
         131         132         137         136
         132         133         138         137
         133         134         139         138
         135         136         141         140
         136         137         142         141
         137         138         143         142
         138         139         144         143
         140         141         146         145
         141         142         147         146
         142         143         148         147
         143         144         149         148
         150         151         156         155
         151         152         157         156
         152         153         158         157
         153         154         159         158
         155         156         161         160
         156         157         162         161
         157         158         163         162
         158         159         164         163
         160         161         166         165
         161         162         167         166
         162         163         168         167
         163         164         169         168
         165         166         171         170
         166         167         172         171
         167         168         173         172
         168         169         174         173
         175         176         181         180
         176         177         182         181
         177         178         183         182
         178         179         184         183
         180         181         186         185
         181         182         187         186
         182         183         188         187
         183         184         189         188
         185         186         191         190
         186         187         192         191
         187         188         193         192
         188         189         194         193
         190         191         196         195
         191         192         197         196
         192         193         198         197
         193         194         199         198
         200         201         206         205
         201         202         207         206
         202         203         208         207
         203         204         209         208
         205         206         211         210
         206         207         212         211
         207         208         213         212
         208         209         214         213
         210         211         216         215
         211         212         217         216
         212         213         218         217
         213         214         219         218
         215         216         221         220
         216         217         222         221
         217         218         223         222
         218         219         224         223
         225         226         231         230
         226         227         232         231
         227         228         233         232
         228         229         234         233
         230         231         236         235
         231         232         237         236
         232         233         238         237
         233         234         239         238
         235         236         241         240
         236         237         242         241
         237         238         243         242
         238         239         244         243
         240         241         246         245
         241         242         247         246
         242         243         248         247
         243         244         249         248
         250         251         256         255
         251         252         257         256
         252         253         258         257
         253         254         259         258
         255         256         261         260
         256         257         262         261
         257         258         263         262
         258         259         264         263
         260         261         266         265
         261         262         267         266
         262         263         268         267
         263         264         269         268
         265         266         271         270
         266         267         272         271
         267         268         273         272
         268         269         274         273
         275         276         281         280
         276         277         282         281
         277         278         283         282
         278         279         284         283
         280         281         286         285
         281         282         287         286
         282         283         288         287
         283         284         289         288
         285         286         291         290
         286         287         292         291
         287         288         293         292
         288         289         294         293
         290         291         296         295
         291         292         297         296
         292         293         298         297
         293         294         299         298
         300         301         306         305
         301         302         307         306
         302         303         308         307
         303         304         309         308
         305         306         311         310
         306         307         312         311
         307         308         313         312
         308         309         314         313
         310         311         316         315
         311         312         317         316
         312         313         318         317
         313         314         319         318
         315         316         321         320
         316         317         322         321
         317         318         323         322
         318         319         324         323
         325         326         331         330
         326         327         332         331
         327         328         333         332
         328         329         334         333
         330         331         336         335
         331         332         337         336
         332         333         338         337
         333         334         339         338
         335         336         341         340
         336         337         342         341
         337         338         343         342
         338         339         344         343
         340         341         346         345
         341         342         347         346
         342         343         348         347
         343         344         349         348
         350         351         356         355
         351         352         357         356
         352         353         358         357
         353         354         359         358
         355         356         361         360
         356         357         362         361
         357         358         363         362
         358         359         364         363
         360         361         366         365
         361         362         367         366
         362         363         368         367
         363         364         369         368
         365         366         371         370
         366         367         372         371
         367         368         373         372
         368         369         374         373
         375         376         381         380
         376         377         382         381
         377         378         383         382
         378         379         384         383
         380         381         386         385
         381         382         387         386
         382         383         388         387
         383         384         389         388
         385         386         391         390
         386         387         392         391
         387         388         393         392
         388         389         394         393
         390         391         396         395
         391         392         397         396
         392         393         398         397
         393         394         399         398
         400         401         406         405
         401         402         407         406
         402         403         408         407
         403         404         409         408
         405         406         411         410
         406         407         412         411
         407         408         413         412
         408         409         414         413
         410         411         416         415
         411         412         417         416
         412         413         418         417
         413         414         419         418
         415         416         421         420
         416         417         422         421
         417         418         423         422
         418         419         424         423
         425         426         431         430
         426         427         432         431
         427         428         433         432
         428         429         434         433
         430         431         436         435
         431         432         437         436
         432         433         438         437
         433         434         439         438
         435         436         441         440
         436         437         442         441
         437         438         443         442
         438         439         444         443
         440         441         446         445
         441         442         447         446
         442         443         448         447
         443         444         449         448
         450         451         456         455
         451         452         457         456
         452         453         458         457
         453         454         459         458
         455         456         461         460
         456         457         462         461
         457         458         463         462
         458         459         464         463
         460         461         466         465
         461         462         467         466
         462         463         468         467
         463         464         469         468
         465         466         471         470
         466         467         472         471
         467         468         473         472
         468         469         474         473
         475         476         481         480
         476         477         482         481
         477         478         483         482
         478         479         484         483
         480         481         486         485
         481         482         487         486
         482         483         488         487
         483         484         489         488
         485         486         491         490
         486         487         492         491
         487         488         493         492
         488         489         494         493
         490         491         496         495
         491         492         497         496
         492         493         498         497
         493         494         499         498
         500         501         506         505
         501         502         507         506
         502         503         508         507
         503         504         509         508
         505         506         511         510
         506         507         512         511
         507         508         513         512
         508         509         514         513
         510         511         516         515
         511         512         517         516
         512         513         518         517
         513         514         519         518
         515         516         521         520
         516         517         522         521
         517         518         523         522
         518         519         524         523
         525         526         531         530
         526         527         532         531
         527         528         533         532
         528         529         534         533
         530         531         536         535
         531         532         537         536
         532         533         538         537
         533         534         539         538
         535         536         541         540
         536         537         542         541
         537         538         543         542
         538         539         544         543
         540         541         546         545
         541         542         547         546
         542         543         548         547
         543         544         549         548
         550         551         556         555
         551         552         557         556
         552         553         558         557
         553         554         559         558
         555         556         561         560
         556         557         562         561
         557         558         563         562
         558         559         564         563
         560         561         566         565
         561         562         567         566
         562         563         568         567
         563         564         569         568
         565         566         571         570
         566         567         572         571
         567         568         573         572
         568         569         574         573
         575         576         581         580
         576         577         582         581
         577         578         583         582
         578         579         584         583
         580         581         586         585
         581         582         587         586
         582         583         588         587
         583         584         589         588
         585         586         591         590
         586         587         592         591
         587         588         593         592
         588         589         594         593
         590         591         596         595
         591         592         597         596
         592         593         598         597
         593         594         599         598
         600         601         606         605
         601         602         607         606
         602         603         608         607
         603         604         609         608
         605         606         611         610
         606         607         612         611
         607         608         613         612
         608         609         614         613
         610         611         616         615
         611         612         617         616
         612         613         618         617
         613         614         619         618
         615         616         621         620
         616         617         622         621
         617         618         623         622
         618         619         624         623
         625         626         631         630
         626         627         632         631
         627         628         633         632
         628         629         634         633
         630         631         636         635
         631         632         637         636
         632         633         638         637
         633         634         639         638
         635         636         641         640
         636         637         642         641
         637         638         643         642
         638         639         644         643
         640         641         646         645
         641         642         647         646
         642         643         648         647
         643         644         649         648
         650         651         656         655
         651         652         657         656
         652         653         658         657
         653         654         659         658
         655         656         661         660
         656         657         662         661
         657         658         663         662
         658         659         664         663
         660         661         666         665
         661         662         667         666
         662         663         668         667
         663         664         669         668
         665         666         671         670
         666         667         672         671
         667         668         673         672
         668         669         674         673
         675         676         681         680
         676         677         682         681
         677         678         683         682
         678         679         684         683
         680         681         686         685
         681         682         687         686
         682         683         688         687
         683         684         689         688
         685         686         691         690
         686         687         692         691
         687         688         693         692
         688         689         694         693
         690         691         696         695
         691         692         697         696
         692         693         698         697
         693         694         699         698
         700         701         706         705
         701         702         707         706
         702         703         708         707
         703         704         709         708
         705         706         711         710
         706         707         712         711
         707         708         713         712
         708         709         714         713
         710         711         716         715
         711         712         717         716
         712         713         718         717
         713         714         719         718
         715         716         721         720
         716         717         722         721
         717         718         723         722
         718         719         724         723
         725         726         731         730
         726         727         732         731
         727         728         733         732
         728         729         734         733
         730         731         736         735
         731         732         737         736
         732         733         738         737
         733         734         739         738
         735         736         741         740
         736         737         742         741
         737         738         743         742
         738         739         744         743
         740         741         746         745
         741         742         747         746
         742         743         748         747
         743         744         749         748
         750         751         756         755
         751         752         757         756
         752         753         758         757
         753         754         759         758
         755         756         761         760
         756         757         762         761
         757         758         763         762
         758         759         764         763
         760         761         766         765
         761         762         767         766
         762         763         768         767
         763         764         769         768
         765         766         771         770
         766         767         772         771
         767         768         773         772
         768         769         774         773
         775         776         781         780
         776         777         782         781
         777         778         783         782
         778         779         784         783
         780         781         786         785
         781         782         787         786
         782         783         788         787
         783         784         789         788
         785         786         791         790
         786         787         792         791
         787         788         793         792
         788         789         794         793
         790         791         796         795
         791         792         797         796
         792         793         798         797
         793         794         799         798
         800         801         806         805
         801         802         807         806
         802         803         808         807
         803         804         809         808
         805         806         811         810
         806         807         812         811
         807         808         813         812
         808         809         814         813
         810         811         816         815
         811         812         817         816
         812         813         818         817
         813         814         819         818
         815         816         821         820
         816         817         822         821
         817         818         823         822
         818         819         824         823
         825         826         831         830
         826         827         832         831
         827         828         833         832
         828         829         834         833
         830         831         836         835
         831         832         837         836
         832         833         838         837
         833         834         839         838
         835         836         841         840
         836         837         842         841
         837         838         843         842
         838         839         844         843
         840         841         846         845
         841         842         847         846
         842         843         848         847
         843         844         849         848
         850         851         856         855
         851         852         857         856
         852         853         858         857
         853         854         859         858
         855         856         861         860
         856         857         862         861
         857         858         863         862
         858         859         864         863
         860         861         866         865
         861         862         867         866
         862         863         868         867
         863         864         869         868
         865         866         871         870
         866         867         872         871
         867         868         873         872
         868         869         874         873
         875         876         881         880
         876         877         882         881
         877         878         883         882
         878         879         884         883
         880         881         886         885
         881         882         887         886
         882         883         888         887
         883         884         889         888
         885         886         891         890
         886         887         892         891
         887         888         893         892
         888         889         894         893
         890         891         896         895
         891         892         897         896
         892         893         898         897
         893         894         899         898
         900         901         906         905
         901         902         907         906
         902         903         908         907
         903         904         909         908
         905         906         911         910
         906         907         912         911
         907         908         913         912
         908         909         914         913
         910         911         916         915
         911         912         917         916
         912         913         918         917
         913         914         919         918
         915         916         921         920
         916         917         922         921
         917         918         923         922
         918         919         924         923
         925         926         931         930
         926         927         932         931
         927         928         933         932
         928         929         934         933
         930         931         936         935
         931         932         937         936
         932         933         938         937
         933         934         939         938
         935         936         941         940
         936         937         942         941
         937         938         943         942
         938         939         944         943
         940         941         946         945
         941         942         947         946
         942         943         948         947
         943         944         949         948
         950         951         956         955
         951         952         957         956
         952         953         958         957
         953         954         959         958
         955         956         961         960
         956         957         962         961
         957         958         963         962
         958         959         964         963
         960         961         966         965
         961         962         967         966
         962         963         968         967
         963         964         969         968
         965         966         971         970
         966         967         972         971
         967         968         973         972
         968         969         974         973
         975         976         981         980
         976         977         982         981
         977         978         983         982
         978         979         984         983
         980         981         986         985
         981         982         987         986
         982         983         988         987
         983         984         989         988
         985         986         991         990
         986         987         992         991
         987         988         993         992
         988         989         994         993
         990         991         996         995
         991         992         997         996
         992         993         998         997
         993         994         999         998
        1000        1001        1006        1005
        1001        1002        1007        1006
        1002        1003        1008        1007
        1003        1004        1009        1008
        1005        1006        1011        1010
        1006        1007        1012        1011
        1007        1008        1013        1012
        1008        1009        1014        1013
        1010        1011        1016        1015
        1011        1012        1017        1016
        1012        1013        1018        1017
        1013        1014        1019        1018
        1015        1016        1021        1020
        1016        1017        1022        1021
        1017        1018        1023        1022
        1018        1019        1024        1023
        1025        1026        1031        1030
        1026        1027        1032        1031
        1027        1028        1033        1032
        1028        1029        1034        1033
        1030        1031        1036        1035
        1031        1032        1037        1036
        1032        1033        1038        1037
        1033        1034        1039        1038
        1035        1036        1041        1040
        1036        1037        1042        1041
        1037        1038        1043        1042
        1038        1039        1044        1043
        1040        1041        1046        1045
        1041        1042        1047        1046
        1042        1043        1048        1047
        1043        1044        1049        1048
        1050        1051        1056        1055
        1051        1052        1057        1056
        1052        1053        1058        1057
        1053        1054        1059        1058
        1055        1056        1061        1060
        1056        1057        1062        1061
        1057        1058        1063        1062
        1058        1059        1064        1063
        1060        1061        1066        1065
        1061        1062        1067        1066
        1062        1063        1068        1067
        1063        1064        1069        1068
        1065        1066        1071        1070
        1066        1067        1072        1071
        1067        1068        1073        1072
        1068        1069        1074        1073
        1075        1076        1081        1080
        1076        1077        1082        1081
        1077        1078        1083        1082
        1078        1079        1084        1083
        1080        1081        1086        1085
        1081        1082        1087        1086
        1082        1083        1088        1087
        1083        1084        1089        1088
        1085        1086        1091        1090
        1086        1087        1092        1091
        1087        1088        1093        1092
        1088        1089        1094        1093
        1090        1091        1096        1095
        1091        1092        1097        1096
        1092        1093        1098        1097
        1093        1094        1099        1098
        1100        1101        1106        1105
        1101        1102        1107        1106
        1102        1103        1108        1107
        1103        1104        1109        1108
        1105        1106        1111        1110
        1106        1107        1112        1111
        1107        1108        1113        1112
        1108        1109        1114        1113
        1110        1111        1116        1115
        1111        1112        1117        1116
        1112        1113        1118        1117
        1113        1114        1119        1118
        1115        1116        1121        1120
        1116        1117        1122        1121
        1117        1118        1123        1122
        1118        1119        1124        1123
        1125        1126        1131        1130
        1126        1127        1132        1131
        1127        1128        1133        1132
        1128        1129        1134        1133
        1130        1131        1136        1135
        1131        1132        1137        1136
        1132        1133        1138        1137
        1133        1134        1139        1138
        1135        1136        1141        1140
        1136        1137        1142        1141
        1137        1138        1143        1142
        1138        1139        1144        1143
        1140        1141        1146        1145
        1141        1142        1147        1146
        1142        1143        1148        1147
        1143        1144        1149        1148
        1150        1151        1156        1155
        1151        1152        1157        1156
        1152        1153        1158        1157
        1153        1154        1159        1158
        1155        1156        1161        1160
        1156        1157        1162        1161
        1157        1158        1163        1162
        1158        1159        1164        1163
        1160        1161        1166        1165
        1161        1162        1167        1166
        1162        1163        1168        1167
        1163        1164        1169        1168
        1165        1166        1171        1170
        1166        1167        1172        1171
        1167        1168        1173        1172
        1168        1169        1174        1173
        1175        1176        1181        1180
        1176        1177        1182        1181
        1177        1178        1183        1182
        1178        1179        1184        1183
        1180        1181        1186        1185
        1181        1182        1187        1186
        1182        1183        1188        1187
        1183        1184        1189        1188
        1185        1186        1191        1190
        1186        1187        1192        1191
        1187        1188        1193        1192
        1188        1189        1194        1193
        1190        1191        1196        1195
        1191        1192        1197        1196
        1192        1193        1198        1197
        1193        1194        1199        1198
        1200        1201        1206        1205
        1201        1202        1207        1206
        1202        1203        1208        1207
        1203        1204        1209        1208
        1205        1206        1211        1210
        1206        1207        1212        1211
        1207        1208        1213        1212
        1208        1209        1214        1213
        1210        1211        1216        1215
        1211        1212        1217        1216
        1212        1213        1218        1217
        1213        1214        1219        1218
        1215        1216        1221        1220
        1216        1217        1222        1221
        1217        1218        1223        1222
        1218        1219        1224        1223
        1225        1226        1231        1230
        1226        1227        1232        1231
        1227        1228        1233        1232
        1228        1229        1234        1233
        1230        1231        1236        1235
        1231        1232        1237        1236
        1232        1233        1238        1237
        1233        1234        1239        1238
        1235        1236        1241        1240
        1236        1237        1242        1241
        1237        1238        1243        1242
        1238        1239        1244        1243
        1240        1241        1246        1245
        1241        1242        1247        1246
        1242        1243        1248        1247
        1243        1244        1249        1248
        1250        1251        1256        1255
        1251        1252        1257        1256
        1252        1253        1258        1257
        1253        1254        1259        1258
        1255        1256        1261        1260
        1256        1257        1262        1261
        1257        1258        1263        1262
        1258        1259        1264        1263
        1260        1261        1266        1265
        1261        1262        1267        1266
        1262        1263        1268        1267
        1263        1264        1269        1268
        1265        1266        1271        1270
        1266        1267        1272        1271
        1267        1268        1273        1272
        1268        1269        1274        1273
        1275        1276        1281        1280
        1276        1277        1282        1281
        1277        1278        1283        1282
        1278        1279        1284        1283
        1280        1281        1286        1285
        1281        1282        1287        1286
        1282        1283        1288        1287
        1283        1284        1289        1288
        1285        1286        1291        1290
        1286        1287        1292        1291
        1287        1288        1293        1292
        1288        1289        1294        1293
        1290        1291        1296        1295
        1291        1292        1297        1296
        1292        1293        1298        1297
        1293        1294        1299        1298
        1300        1301        1306        1305
        1301        1302        1307        1306
        1302        1303        1308        1307
        1303        1304        1309        1308
        1305        1306        1311        1310
        1306        1307        1312        1311
        1307        1308        1313        1312
        1308        1309        1314        1313
        1310        1311        1316        1315
        1311        1312        1317        1316
        1312        1313        1318        1317
        1313        1314        1319        1318
        1315        1316        1321        1320
        1316        1317        1322        1321
        1317        1318        1323        1322
        1318        1319        1324        1323
        1325        1326        1331        1330
        1326        1327        1332        1331
        1327        1328        1333        1332
        1328        1329        1334        1333
        1330        1331        1336        1335
        1331        1332        1337        1336
        1332        1333        1338        1337
        1333        1334        1339        1338
        1335        1336        1341        1340
        1336        1337        1342        1341
        1337        1338        1343        1342
        1338        1339        1344        1343
        1340        1341        1346        1345
        1341        1342        1347        1346
        1342        1343        1348        1347
        1343        1344        1349        1348
        1350        1351        1356        1355
        1351        1352        1357        1356
        1352        1353        1358        1357
        1353        1354        1359        1358
        1355        1356        1361        1360
        1356        1357        1362        1361
        1357        1358        1363        1362
        1358        1359        1364        1363
        1360        1361        1366        1365
        1361        1362        1367        1366
        1362        1363        1368        1367
        1363        1364        1369        1368
        1365        1366        1371        1370
        1366        1367        1372        1371
        1367        1368        1373        1372
        1368        1369        1374        1373
        1375        1376        1381        1380
        1376        1377        1382        1381
        1377        1378        1383        1382
        1378        1379        1384        1383
        1380        1381        1386        1385
        1381        1382        1387        1386
        1382        1383        1388        1387
        1383        1384        1389        1388
        1385        1386        1391        1390
        1386        1387        1392        1391
        1387        1388        1393        1392
        1388        1389        1394        1393
        1390        1391        1396        1395
        1391        1392        1397        1396
        1392        1393        1398        1397
        1393        1394        1399        1398
        1400        1401        1406        1405
        1401        1402        1407        1406
        1402        1403        1408        1407
        1403        1404        1409        1408
        1405        1406        1411        1410
        1406        1407        1412        1411
        1407        1408        1413        1412
        1408        1409        1414        1413
        1410        1411        1416        1415
        1411        1412        1417        1416
        1412        1413        1418        1417
        1413        1414        1419        1418
        1415        1416        1421        1420
        1416        1417        1422        1421
        1417        1418        1423        1422
        1418        1419        1424        1423
        1425        1426        1431        1430
        1426        1427        1432        1431
        1427        1428        1433        1432
        1428        1429        1434        1433
        1430        1431        1436        1435
        1431        1432        1437        1436
        1432        1433        1438        1437
        1433        1434        1439        1438
        1435        1436        1441        1440
        1436        1437        1442        1441
        1437        1438        1443        1442
        1438        1439        1444        1443
        1440        1441        1446        1445
        1441        1442        1447        1446
        1442        1443        1448        1447
        1443        1444        1449        1448
        1450        1451        1456        1455
        1451        1452        1457        1456
        1452        1453        1458        1457
        1453        1454        1459        1458
        1455        1456        1461        1460
        1456        1457        1462        1461
        1457        1458        1463        1462
        1458        1459        1464        1463
        1460        1461        1466        1465
        1461        1462        1467        1466
        1462        1463        1468        1467
        1463        1464        1469        1468
        1465        1466        1471        1470
        1466        1467        1472        1471
        1467        1468        1473        1472
        1468        1469        1474        1473
        1475        1476        1481        1480
        1476        1477        1482        1481
        1477        1478        1483        1482
        1478        1479        1484        1483
        1480        1481        1486        1485
        1481        1482        1487        1486
        1482        1483        1488        1487
        1483        1484        1489        1488
        1485        1486        1491        1490
        1486        1487        1492        1491
        1487        1488        1493        1492
        1488        1489        1494        1493
        1490        1491        1496        1495
        1491        1492        1497        1496
        1492        1493        1498        1497
        1493        1494        1499        1498
        1500        1501        1506        1505
        1501        1502        1507        1506
        1502        1503        1508        1507
        1503        1504        1509        1508
        1505        1506        1511        1510
        1506        1507        1512        1511
        1507        1508        1513        1512
        1508        1509        1514        1513
        1510        1511        1516        1515
        1511        1512        1517        1516
        1512        1513        1518        1517
        1513        1514        1519        1518
        1515        1516        1521        1520
        1516        1517        1522        1521
        1517        1518        1523        1522
        1518        1519        1524        1523
        1525        1526        1531        1530
        1526        1527        1532        1531
        1527        1528        1533        1532
        1528        1529        1534        1533
        1530        1531        1536        1535
        1531        1532        1537        1536
        1532        1533        1538        1537
        1533        1534        1539        1538
        1535        1536        1541        1540
        1536        1537        1542        1541
        1537        1538        1543        1542
        1538        1539        1544        1543
        1540        1541        1546        1545
        1541        1542        1547        1546
        1542        1543        1548        1547
        1543        1544        1549        1548
        1550        1551        1556        1555
        1551        1552        1557        1556
        1552        1553        1558        1557
        1553        1554        1559        1558
        1555        1556        1561        1560
        1556        1557        1562        1561
        1557        1558        1563        1562
        1558        1559        1564        1563
        1560        1561        1566        1565
        1561        1562        1567        1566
        1562        1563        1568        1567
        1563        1564        1569        1568
        1565        1566        1571        1570
        1566        1567        1572        1571
        1567        1568        1573        1572
        1568        1569        1574        1573
        1575        1576        1581        1580
        1576        1577        1582        1581
        1577        1578        1583        1582
        1578        1579        1584        1583
        1580        1581        1586        1585
        1581        1582        1587        1586
        1582        1583        1588        1587
        1583        1584        1589        1588
        1585        1586        1591        1590
        1586        1587        1592        1591
        1587        1588        1593        1592
        1588        1589        1594        1593
        1590        1591        1596        1595
        1591        1592        1597        1596
        1592        1593        1598        1597
        1593        1594        1599        1598
 </DataArray>
 <DataArray  type="Int32"  Name="offsets"  format="ascii"> 
           4
           8
          12
          16
          20
          24
          28
          32
          36
          40
          44
          48
          52
          56
          60
          64
          68
          72
          76
          80
          84
          88
          92
          96
         100
         104
         108
         112
         116
         120
         124
         128
         132
         136
         140
         144
         148
         152
         156
         160
         164
         168
         172
         176
         180
         184
         188
         192
         196
         200
         204
         208
         212
         216
         220
         224
         228
         232
         236
         240
         244
         248
         252
         256
         260
         264
         268
         272
         276
         280
         284
         288
         292
         296
         300
         304
         308
         312
         316
         320
         324
         328
         332
         336
         340
         344
         348
         352
         356
         360
         364
         368
         372
         376
         380
         384
         388
         392
         396
         400
         404
         408
         412
         416
         420
         424
         428
         432
         436
         440
         444
         448
         452
         456
         460
         464
         468
         472
         476
         480
         484
         488
         492
         496
         500
         504
         508
         512
         516
         520
         524
         528
         532
         536
         540
         544
         548
         552
         556
         560
         564
         568
         572
         576
         580
         584
         588
         592
         596
         600
         604
         608
         612
         616
         620
         624
         628
         632
         636
         640
         644
         648
         652
         656
         660
         664
         668
         672
         676
         680
         684
         688
         692
         696
         700
         704
         708
         712
         716
         720
         724
         728
         732
         736
         740
         744
         748
         752
         756
         760
         764
         768
         772
         776
         780
         784
         788
         792
         796
         800
         804
         808
         812
         816
         820
         824
         828
         832
         836
         840
         844
         848
         852
         856
         860
         864
         868
         872
         876
         880
         884
         888
         892
         896
         900
         904
         908
         912
         916
         920
         924
         928
         932
         936
         940
         944
         948
         952
         956
         960
         964
         968
         972
         976
         980
         984
         988
         992
         996
        1000
        1004
        1008
        1012
        1016
        1020
        1024
        1028
        1032
        1036
        1040
        1044
        1048
        1052
        1056
        1060
        1064
        1068
        1072
        1076
        1080
        1084
        1088
        1092
        1096
        1100
        1104
        1108
        1112
        1116
        1120
        1124
        1128
        1132
        1136
        1140
        1144
        1148
        1152
        1156
        1160
        1164
        1168
        1172
        1176
        1180
        1184
        1188
        1192
        1196
        1200
        1204
        1208
        1212
        1216
        1220
        1224
        1228
        1232
        1236
        1240
        1244
        1248
        1252
        1256
        1260
        1264
        1268
        1272
        1276
        1280
        1284
        1288
        1292
        1296
        1300
        1304
        1308
        1312
        1316
        1320
        1324
        1328
        1332
        1336
        1340
        1344
        1348
        1352
        1356
        1360
        1364
        1368
        1372
        1376
        1380
        1384
        1388
        1392
        1396
        1400
        1404
        1408
        1412
        1416
        1420
        1424
        1428
        1432
        1436
        1440
        1444
        1448
        1452
        1456
        1460
        1464
        1468
        1472
        1476
        1480
        1484
        1488
        1492
        1496
        1500
        1504
        1508
        1512
        1516
        1520
        1524
        1528
        1532
        1536
        1540
        1544
        1548
        1552
        1556
        1560
        1564
        1568
        1572
        1576
        1580
        1584
        1588
        1592
        1596
        1600
        1604
        1608
        1612
        1616
        1620
        1624
        1628
        1632
        1636
        1640
        1644
        1648
        1652
        1656
        1660
        1664
        1668
        1672
        1676
        1680
        1684
        1688
        1692
        1696
        1700
        1704
        1708
        1712
        1716
        1720
        1724
        1728
        1732
        1736
        1740
        1744
        1748
        1752
        1756
        1760
        1764
        1768
        1772
        1776
        1780
        1784
        1788
        1792
        1796
        1800
        1804
        1808
        1812
        1816
        1820
        1824
        1828
        1832
        1836
        1840
        1844
        1848
        1852
        1856
        1860
        1864
        1868
        1872
        1876
        1880
        1884
        1888
        1892
        1896
        1900
        1904
        1908
        1912
        1916
        1920
        1924
        1928
        1932
        1936
        1940
        1944
        1948
        1952
        1956
        1960
        1964
        1968
        1972
        1976
        1980
        1984
        1988
        1992
        1996
        2000
        2004
        2008
        2012
        2016
        2020
        2024
        2028
        2032
        2036
        2040
        2044
        2048
        2052
        2056
        2060
        2064
        2068
        2072
        2076
        2080
        2084
        2088
        2092
        2096
        2100
        2104
        2108
        2112
        2116
        2120
        2124
        2128
        2132
        2136
        2140
        2144
        2148
        2152
        2156
        2160
        2164
        2168
        2172
        2176
        2180
        2184
        2188
        2192
        2196
        2200
        2204
        2208
        2212
        2216
        2220
        2224
        2228
        2232
        2236
        2240
        2244
        2248
        2252
        2256
        2260
        2264
        2268
        2272
        2276
        2280
        2284
        2288
        2292
        2296
        2300
        2304
        2308
        2312
        2316
        2320
        2324
        2328
        2332
        2336
        2340
        2344
        2348
        2352
        2356
        2360
        2364
        2368
        2372
        2376
        2380
        2384
        2388
        2392
        2396
        2400
        2404
        2408
        2412
        2416
        2420
        2424
        2428
        2432
        2436
        2440
        2444
        2448
        2452
        2456
        2460
        2464
        2468
        2472
        2476
        2480
        2484
        2488
        2492
        2496
        2500
        2504
        2508
        2512
        2516
        2520
        2524
        2528
        2532
        2536
        2540
        2544
        2548
        2552
        2556
        2560
        2564
        2568
        2572
        2576
        2580
        2584
        2588
        2592
        2596
        2600
        2604
        2608
        2612
        2616
        2620
        2624
        2628
        2632
        2636
        2640
        2644
        2648
        2652
        2656
        2660
        2664
        2668
        2672
        2676
        2680
        2684
        2688
        2692
        2696
        2700
        2704
        2708
        2712
        2716
        2720
        2724
        2728
        2732
        2736
        2740
        2744
        2748
        2752
        2756
        2760
        2764
        2768
        2772
        2776
        2780
        2784
        2788
        2792
        2796
        2800
        2804
        2808
        2812
        2816
        2820
        2824
        2828
        2832
        2836
        2840
        2844
        2848
        2852
        2856
        2860
        2864
        2868
        2872
        2876
        2880
        2884
        2888
        2892
        2896
        2900
        2904
        2908
        2912
        2916
        2920
        2924
        2928
        2932
        2936
        2940
        2944
        2948
        2952
        2956
        2960
        2964
        2968
        2972
        2976
        2980
        2984
        2988
        2992
        2996
        3000
        3004
        3008
        3012
        3016
        3020
        3024
        3028
        3032
        3036
        3040
        3044
        3048
        3052
        3056
        3060
        3064
        3068
        3072
        3076
        3080
        3084
        3088
        3092
        3096
        3100
        3104
        3108
        3112
        3116
        3120
        3124
        3128
        3132
        3136
        3140
        3144
        3148
        3152
        3156
        3160
        3164
        3168
        3172
        3176
        3180
        3184
        3188
        3192
        3196
        3200
        3204
        3208
        3212
        3216
        3220
        3224
        3228
        3232
        3236
        3240
        3244
        3248
        3252
        3256
        3260
        3264
        3268
        3272
        3276
        3280
        3284
        3288
        3292
        3296
        3300
        3304
        3308
        3312
        3316
        3320
        3324
        3328
        3332
        3336
        3340
        3344
        3348
        3352
        3356
        3360
        3364
        3368
        3372
        3376
        3380
        3384
        3388
        3392
        3396
        3400
        3404
        3408
        3412
        3416
        3420
        3424
        3428
        3432
        3436
        3440
        3444
        3448
        3452
        3456
        3460
        3464
        3468
        3472
        3476
        3480
        3484
        3488
        3492
        3496
        3500
        3504
        3508
        3512
        3516
        3520
        3524
        3528
        3532
        3536
        3540
        3544
        3548
        3552
        3556
        3560
        3564
        3568
        3572
        3576
        3580
        3584
        3588
        3592
        3596
        3600
        3604
        3608
        3612
        3616
        3620
        3624
        3628
        3632
        3636
        3640
        3644
        3648
        3652
        3656
        3660
        3664
        3668
        3672
        3676
        3680
        3684
        3688
        3692
        3696
        3700
        3704
        3708
        3712
        3716
        3720
        3724
        3728
        3732
        3736
        3740
        3744
        3748
        3752
        3756
        3760
        3764
        3768
        3772
        3776
        3780
        3784
        3788
        3792
        3796
        3800
        3804
        3808
        3812
        3816
        3820
        3824
        3828
        3832
        3836
        3840
        3844
        3848
        3852
        3856
        3860
        3864
        3868
        3872
        3876
        3880
        3884
        3888
        3892
        3896
        3900
        3904
        3908
        3912
        3916
        3920
        3924
        3928
        3932
        3936
        3940
        3944
        3948
        3952
        3956
        3960
        3964
        3968
        3972
        3976
        3980
        3984
        3988
        3992
        3996
        4000
        4004
        4008
        4012
        4016
        4020
        4024
        4028
        4032
        4036
        4040
        4044
        4048
        4052
        4056
        4060
        4064
        4068
        4072
        4076
        4080
        4084
        4088
        4092
        4096
 </DataArray>
 <DataArray  type="UInt8"  Name="types"  format="ascii">
 9
 9
 9
 9
 9
 9
 9
 9
 9
 9
 9
 9
 9
 9
 9
 9
 9
 9
 9
 9
 9
 9
 9
 9
 9
 9
 9
 9
 9
 9
 9
 9
 9
 9
 9
 9
 9
 9
 9
 9
 9
 9
 9
 9
 9
 9
 9
 9
 9
 9
 9
 9
 9
 9
 9
 9
 9
 9
 9
 9
 9
 9
 9
 9
 9
 9
 9
 9
 9
 9
 9
 9
 9
 9
 9
 9
 9
 9
 9
 9
 9
 9
 9
 9
 9
 9
 9
 9
 9
 9
 9
 9
 9
 9
 9
 9
 9
 9
 9
 9
 9
 9
 9
 9
 9
 9
 9
 9
 9
 9
 9
 9
 9
 9
 9
 9
 9
 9
 9
 9
 9
 9
 9
 9
 9
 9
 9
 9
 9
 9
 9
 9
 9
 9
 9
 9
 9
 9
 9
 9
 9
 9
 9
 9
 9
 9
 9
 9
 9
 9
 9
 9
 9
 9
 9
 9
 9
 9
 9
 9
 9
 9
 9
 9
 9
 9
 9
 9
 9
 9
 9
 9
 9
 9
 9
 9
 9
 9
 9
 9
 9
 9
 9
 9
 9
 9
 9
 9
 9
 9
 9
 9
 9
 9
 9
 9
 9
 9
 9
 9
 9
 9
 9
 9
 9
 9
 9
 9
 9
 9
 9
 9
 9
 9
 9
 9
 9
 9
 9
 9
 9
 9
 9
 9
 9
 9
 9
 9
 9
 9
 9
 9
 9
 9
 9
 9
 9
 9
 9
 9
 9
 9
 9
 9
 9
 9
 9
 9
 9
 9
 9
 9
 9
 9
 9
 9
 9
 9
 9
 9
 9
 9
 9
 9
 9
 9
 9
 9
 9
 9
 9
 9
 9
 9
 9
 9
 9
 9
 9
 9
 9
 9
 9
 9
 9
 9
 9
 9
 9
 9
 9
 9
 9
 9
 9
 9
 9
 9
 9
 9
 9
 9
 9
 9
 9
 9
 9
 9
 9
 9
 9
 9
 9
 9
 9
 9
 9
 9
 9
 9
 9
 9
 9
 9
 9
 9
 9
 9
 9
 9
 9
 9
 9
 9
 9
 9
 9
 9
 9
 9
 9
 9
 9
 9
 9
 9
 9
 9
 9
 9
 9
 9
 9
 9
 9
 9
 9
 9
 9
 9
 9
 9
 9
 9
 9
 9
 9
 9
 9
 9
 9
 9
 9
 9
 9
 9
 9
 9
 9
 9
 9
 9
 9
 9
 9
 9
 9
 9
 9
 9
 9
 9
 9
 9
 9
 9
 9
 9
 9
 9
 9
 9
 9
 9
 9
 9
 9
 9
 9
 9
 9
 9
 9
 9
 9
 9
 9
 9
 9
 9
 9
 9
 9
 9
 9
 9
 9
 9
 9
 9
 9
 9
 9
 9
 9
 9
 9
 9
 9
 9
 9
 9
 9
 9
 9
 9
 9
 9
 9
 9
 9
 9
 9
 9
 9
 9
 9
 9
 9
 9
 9
 9
 9
 9
 9
 9
 9
 9
 9
 9
 9
 9
 9
 9
 9
 9
 9
 9
 9
 9
 9
 9
 9
 9
 9
 9
 9
 9
 9
 9
 9
 9
 9
 9
 9
 9
 9
 9
 9
 9
 9
 9
 9
 9
 9
 9
 9
 9
 9
 9
 9
 9
 9
 9
 9
 9
 9
 9
 9
 9
 9
 9
 9
 9
 9
 9
 9
 9
 9
 9
 9
 9
 9
 9
 9
 9
 9
 9
 9
 9
 9
 9
 9
 9
 9
 9
 9
 9
 9
 9
 9
 9
 9
 9
 9
 9
 9
 9
 9
 9
 9
 9
 9
 9
 9
 9
 9
 9
 9
 9
 9
 9
 9
 9
 9
 9
 9
 9
 9
 9
 9
 9
 9
 9
 9
 9
 9
 9
 9
 9
 9
 9
 9
 9
 9
 9
 9
 9
 9
 9
 9
 9
 9
 9
 9
 9
 9
 9
 9
 9
 9
 9
 9
 9
 9
 9
 9
 9
 9
 9
 9
 9
 9
 9
 9
 9
 9
 9
 9
 9
 9
 9
 9
 9
 9
 9
 9
 9
 9
 9
 9
 9
 9
 9
 9
 9
 9
 9
 9
 9
 9
 9
 9
 9
 9
 9
 9
 9
 9
 9
 9
 9
 9
 9
 9
 9
 9
 9
 9
 9
 9
 9
 9
 9
 9
 9
 9
 9
 9
 9
 9
 9
 9
 9
 9
 9
 9
 9
 9
 9
 9
 9
 9
 9
 9
 9
 9
 9
 9
 9
 9
 9
 9
 9
 9
 9
 9
 9
 9
 9
 9
 9
 9
 9
 9
 9
 9
 9
 9
 9
 9
 9
 9
 9
 9
 9
 9
 9
 9
 9
 9
 9
 9
 9
 9
 9
 9
 9
 9
 9
 9
 9
 9
 9
 9
 9
 9
 9
 9
 9
 9
 9
 9
 9
 9
 9
 9
 9
 9
 9
 9
 9
 9
 9
 9
 9
 9
 9
 9
 9
 9
 9
 9
 9
 9
 9
 9
 9
 9
 9
 9
 9
 9
 9
 9
 9
 9
 9
 9
 9
 9
 9
 9
 9
 9
 9
 9
 9
 9
 9
 9
 9
 9
 9
 9
 9
 9
 9
 9
 9
 9
 9
 9
 9
 9
 9
 9
 9
 9
 9
 9
 9
 9
 9
 9
 9
 9
 9
 9
 9
 9
 9
 9
 9
 9
 9
 9
 9
 9
 9
 9
 9
 9
 9
 9
 9
 9
 9
 9
 9
 9
 9
 9
 9
 9
 9
 9
 9
 9
 9
 9
 9
 9
 9
 9
 9
 9
 9
 9
 9
 9
 9
 9
 9
 9
 9
 9
 9
 9
 9
 9
 9
 9
 9
 9
 9
 9
 9
 9
 9
 9
 9
 9
 9
 9
 9
 9
 9
 9
 9
 9
 9
 9
 9
 9
 9
 9
 9
 9
 9
 9
 9
 9
 9
 9
 9
 9
 9
 9
 9
 9
 9
 9
 9
 9
 9
 9
 9
 9
 9
 9
 9
 9
 9
 9
 9
 9
 9
 9
 9
 9
 9
 9
 9
 9
 9
 9
 9
 9
 9
 9
 9
 9
 9
 9
 9
 9
 9
 9
 9
 9
 9
 9
 9
 9
 9
 9
 9
 9
 9
 9
 9
 9
 9
 9
 9
 9
 9
 9
 9
 9
 9
 9
 9
 9
 9
 9
 9
 9
 9
 9
 9
 9
 9
 9
 9
 9
 9
 9
 9
 9
 9
 9
 9
 9
 9
 9
 9
 9
 9
 9
 9
 9
 9
 9
 9
 9
 9
 9
 9
 9
 9
 9
 9
 </DataArray>
 </Cells> 
 <PointData>
 <DataArray  type="Float64" Name="disp" NumberOfComponents="3" format="ascii">
   0.0000000000000000        0.0000000000000000        0.0000000000000000     
   6.0968091956290502E-003   3.7896517440480751E-003   0.0000000000000000     
   1.1668193276525931E-002   7.3220462637111627E-003   0.0000000000000000     
   1.6714152242690641E-002   1.0597183558989262E-002   0.0000000000000000     
   2.1234686094123184E-002   1.3615063629882376E-002   0.0000000000000000     
   0.0000000000000000        0.0000000000000000        0.0000000000000000     
   4.8923259251884808E-003   3.0209176447981850E-003   0.0000000000000000     
   9.5763461076028185E-003   6.0580260703406398E-003   0.0000000000000000     
   1.4052060547243016E-002   9.1113252766273634E-003   0.0000000000000000     
   1.8319469244109071E-002   1.2180815263658360E-002   0.0000000000000000     
   0.0000000000000000        0.0000000000000000        0.0000000000000000     
   3.9548912655703889E-003   2.4235233885060172E-003   0.0000000000000000     
   7.9135208236606313E-003   5.0597917142505295E-003   0.0000000000000000     
   1.1875888674270727E-002   7.9088049772335373E-003   0.0000000000000000     
   1.5841994817400677E-002   1.0970563177455039E-002   0.0000000000000000     
   0.0000000000000000        0.0000000000000000        0.0000000000000000     
   3.2845052167747766E-003   1.9974689751715720E-003   0.0000000000000000     
   6.6797174246993694E-003   4.3273431954408319E-003   0.0000000000000000     
   1.0185636623773774E-002   6.9896226608077809E-003   0.0000000000000000     
   1.3802262813997998E-002   9.9843073712724204E-003   0.0000000000000000     
   0.0000000000000000        0.0000000000000000        0.0000000000000000     
   2.8811677788016425E-003   1.7427544047948485E-003   0.0000000000000000     
   5.8749359107190301E-003   3.8606805139115474E-003   0.0000000000000000     
   8.9813043957521627E-003   6.3537783273500967E-003   0.0000000000000000     
   1.2200273233901040E-002   9.2220478451104978E-003   0.0000000000000000     
   2.1234686094123184E-002   1.3615063629882376E-002   0.0000000000000000     
   2.5442589183387619E-002   1.6606778567884378E-002   0.0000000000000000     
   2.9550655863048007E-002   1.9803420464489158E-002   0.0000000000000000     
   3.3558886133104350E-002   2.3204989319696705E-002   0.0000000000000000     
   3.7467279993556646E-002   2.6811485133507028E-002   0.0000000000000000     
   1.8319469244109071E-002   1.2180815263658360E-002   0.0000000000000000     
   2.2416707562643558E-002   1.5335141981426815E-002   0.0000000000000000     
   2.6381910867289034E-002   1.8642951379925918E-002   0.0000000000000000     
   3.0215079158045520E-002   2.2104243459155685E-002   0.0000000000000000     
   3.3916212434912989E-002   2.5719018219116100E-002   0.0000000000000000     
   1.5841994817400677E-002   1.0970563177455039E-002   0.0000000000000000     
   1.9740003410459558E-002   1.4204046057672870E-002   0.0000000000000000     
   2.3498078610856458E-002   1.7568233360644864E-002   0.0000000000000000     
   2.7116220418591373E-002   2.1063125086371016E-002   0.0000000000000000     
   3.0594428833664311E-002   2.4688721234851333E-002   0.0000000000000000     
   1.3802262813997998E-002   9.9843073712724204E-003   0.0000000000000000     
   1.7412476726835636E-002   1.3213490796622554E-002   0.0000000000000000     
   2.0899159093750279E-002   1.6579266406645976E-002   0.0000000000000000     
   2.4262309914741934E-002   2.0081634201342704E-002   0.0000000000000000     
   2.7501929189810610E-002   2.3720594180712727E-002   0.0000000000000000     
   1.2200273233901040E-002   9.2220478451104978E-003   0.0000000000000000     
   1.5434127511771782E-002   1.2363476198275854E-002   0.0000000000000000     
   1.8585152315970497E-002   1.5676050517929269E-002   0.0000000000000000     
   2.1653347646497199E-002   1.9159770804070740E-002   0.0000000000000000     
   2.4638713503351874E-002   2.2814637056700275E-002   0.0000000000000000     
   3.7467279993556646E-002   2.6811485133507028E-002   0.0000000000000000     
   4.1280280350889972E-002   3.0617937464377992E-002   0.0000000000000000     
   4.5002330111589425E-002   3.4619375870767480E-002   0.0000000000000000     
   4.8633429275654991E-002   3.8815800352675477E-002   0.0000000000000000     
   5.2173577843086683E-002   4.3207210910102004E-002   0.0000000000000000     
   3.3916212434912989E-002   2.5719018219116100E-002   0.0000000000000000     
   3.7508700827591342E-002   2.9516077574464228E-002   0.0000000000000000     
   4.1015934465780446E-002   3.3524223439857150E-002   0.0000000000000000     
   4.4437913349480308E-002   3.7743455815294834E-002   0.0000000000000000     
   4.7774637478690915E-002   4.2173774700777308E-002   0.0000000000000000     
   3.0594428833664311E-002   2.4688721234851333E-002   0.0000000000000000     
   3.3962401980755265E-002   2.8489729410565677E-002   0.0000000000000000     
   3.7249837984544246E-002   3.2510857217993919E-002   0.0000000000000000     
   4.0456736845031246E-002   3.6752104657136062E-002   0.0000000000000000     
   4.3583098562216260E-002   4.1213471727992092E-002   0.0000000000000000     
   2.7501929189810610E-002   2.3720594180712727E-002   0.0000000000000000     
   3.0641383810381746E-002   2.7538892972682329E-002   0.0000000000000000     
   3.3704040667880818E-002   3.1579277205177801E-002   0.0000000000000000     
   3.6689899762307798E-002   3.5841746878199139E-002   0.0000000000000000     
   3.9598961093662725E-002   4.0326301991746340E-002   0.0000000000000000     
   2.4638713503351874E-002   2.2814637056700275E-002   0.0000000000000000     
   2.7545646316470780E-002   2.6663568260814181E-002   0.0000000000000000     
   3.0378542515790152E-002   3.0729483401408790E-002   0.0000000000000000     
   3.3137402101309998E-002   3.5012382478484094E-002   0.0000000000000000     
   3.5822225073030317E-002   3.9512265492040080E-002   0.0000000000000000     
   5.2173577843086683E-002   4.3207210910102004E-002   0.0000000000000000     
   5.5619374972157694E-002   4.7798879981956227E-002   0.0000000000000000     
   5.8967419821141231E-002   5.2596080007147335E-002   0.0000000000000000     
   6.2217712390037268E-002   5.7598810985675326E-002   0.0000000000000000     
   6.5370252678845844E-002   6.2807072917540202E-002   0.0000000000000000     
   4.7774637478690915E-002   4.2173774700777308E-002   0.0000000000000000     
   5.1020952700406665E-002   4.6808943906803485E-002   0.0000000000000000     
   5.4171704861621928E-002   5.1642727243872276E-002   0.0000000000000000     
   5.7226893962336725E-002   5.6675124711983681E-002   0.0000000000000000     
   6.0186520002551050E-002   6.1906136311137706E-002   0.0000000000000000     
   4.3583098562216260E-002   4.1213471727992092E-002   0.0000000000000000     
   4.6623611963988343E-002   4.5882444681689380E-002   0.0000000000000000     
   4.9572965878236543E-002   5.0746509769355262E-002   0.0000000000000000     
   5.2431160304960832E-002   5.5805666990989759E-002   0.0000000000000000     
   5.5198195244161238E-002   6.1059916346592844E-002   0.0000000000000000     
   3.9598961093662725E-002   4.0326301991746340E-002   0.0000000000000000     
   4.2427352762902742E-002   4.5019382306613911E-002   0.0000000000000000     
   4.5171202870985042E-002   4.9907427583596321E-002   0.0000000000000000     
   4.7830511417909581E-002   5.4990437822693555E-002   0.0000000000000000     
   5.0405278403676389E-002   6.0268413023905641E-002   0.0000000000000000     
   3.5822225073030317E-002   3.9512265492040080E-002   0.0000000000000000     
   3.8432175097149877E-002   4.4219756781577087E-002   0.0000000000000000     
   4.0966415839867425E-002   4.9125480686595425E-002   0.0000000000000000     
   4.3424947301182980E-002   5.4229437207095096E-002   0.0000000000000000     
   4.5807769481096529E-002   5.9531626343076086E-002   0.0000000000000000     
   6.5370252678845844E-002   6.2807072917540202E-002   0.0000000000000000     
   6.8430536427856070E-002   6.8206198352453395E-002   0.0000000000000000     
   7.1404059377357124E-002   7.3781519840126306E-002   0.0000000000000000     
   7.4290821527348977E-002   7.9533037380558919E-002   0.0000000000000000     
   7.7090822877831672E-002   8.5460750973751262E-002   0.0000000000000000     
   6.0186520002551050E-002   6.1906136311137706E-002   0.0000000000000000     
   6.3058330299094356E-002   6.7326384503910972E-002   0.0000000000000000     
   6.5850072168796112E-002   7.2926491752880060E-002   0.0000000000000000     
   6.8561745611656330E-002   7.8706458058045034E-002   0.0000000000000000     
   7.1193350627674984E-002   8.4666283419405852E-002   0.0000000000000000     
   5.5198195244161238E-002   6.1059916346592844E-002   0.0000000000000000     
   5.7882251338076098E-002   6.6502617645817219E-002   0.0000000000000000     
   6.0491509228943793E-002   7.2127130698315570E-002   0.0000000000000000     
   6.3025968916764333E-002   7.7933455504087881E-002   0.0000000000000000     
   6.5485630401537695E-002   8.3921592063134154E-002   0.0000000000000000     
   5.0405278403676389E-002   6.0268413023905641E-002   0.0000000000000000     
   5.2902299544801308E-002   6.5734897778172180E-002   0.0000000000000000     
   5.5328370557800190E-002   7.1383436676432793E-002   0.0000000000000000     
   5.7683491442673020E-002   7.7214029718687446E-002   0.0000000000000000     
   5.9967662199419819E-002   8.3226676904936195E-002   0.0000000000000000     
   4.5807769481096529E-002   5.9531626343076086E-002   0.0000000000000000     
   4.8118474919269995E-002   6.5023224900975826E-002   0.0000000000000000     
   5.0360656155365280E-002   7.0695409687231703E-002   0.0000000000000000     
   5.2534313189382391E-002   7.6548180701843771E-002   0.0000000000000000     
   5.4639446021321335E-002   8.2581537944811961E-002   0.0000000000000000     
   7.7090822877831672E-002   8.5460750973751262E-002   0.0000000000000000     
   7.9792885836753563E-002   9.1557400579948808E-002   0.0000000000000000     
   8.2385832812063090E-002   9.7815726159397015E-002   0.0000000000000000     
   8.4869663803760251E-002  0.10423572771209591        0.0000000000000000     
   8.7244378811845047E-002  0.11081740523804548        0.0000000000000000     
   7.1193350627674984E-002   8.4666283419405852E-002   0.0000000000000000     
   7.3732266598204574E-002   9.0795578040952590E-002   0.0000000000000000     
   7.6165872904597573E-002   9.7083952126675366E-002   0.0000000000000000     
   7.8494169546853940E-002  0.10353140567657418        0.0000000000000000     
   8.0717156524973716E-002  0.11013793869064897        0.0000000000000000     
   6.5485630401537695E-002   8.3921592063134154E-002   0.0000000000000000     
   6.7858257319832777E-002   9.0079533753268215E-002   0.0000000000000000     
   7.0131613308218377E-002   9.6395273952303878E-002   0.0000000000000000     
   7.2305698366694565E-002  0.10286881266024120        0.0000000000000000     
   7.4380512495261286E-002  0.10950014987708009        0.0000000000000000     
   5.9967662199419819E-002   8.3226676904936195E-002   0.0000000000000000     
   6.2170858001638137E-002   8.9409267716895682E-002   0.0000000000000000     
   6.4283054022925584E-002   9.5749691636282608E-002   0.0000000000000000     
   6.6304250263282086E-002  0.10224794866309699        0.0000000000000000     
   6.8234446722707703E-002  0.10890403879733879        0.0000000000000000     
   5.4639446021321335E-002   8.2581537944811961E-002   0.0000000000000000     
   5.6670068643620702E-002   8.8784779931834992E-002   0.0000000000000000     
   5.8620195048719105E-002   9.5147205178611527E-002   0.0000000000000000     
   6.0489825236616550E-002  0.10166881368514154        0.0000000000000000     
   6.2278959207313037E-002  0.10834960545142508        0.0000000000000000     
   8.7244378811845047E-002  0.11081740523804548        0.0000000000000000     
   8.9522354781831071E-002  0.11754463410241417        0.0000000000000000     
   9.1715968659231942E-002  0.12440128967037047        0.0000000000000000     
   9.3825220444047647E-002  0.13138737194191430        0.0000000000000000     
   9.5850110136278172E-002  0.13850288091704577        0.0000000000000000     
   8.0717156524973716E-002  0.11013793869064897        0.0000000000000000     
   8.2849838950616261E-002  0.11688985737905809        0.0000000000000000     
   8.4907221935440896E-002  0.12377346795195975        0.0000000000000000     
   8.6889305479447621E-002  0.13078877040935394        0.0000000000000000     
   8.8796089582636448E-002  0.13793576475124067        0.0000000000000000     
   7.4380512495261286E-002  0.10950014987708009        0.0000000000000000     
   7.6370794781533191E-002  0.11627670736012866        0.0000000000000000     
   7.8291284313124876E-002  0.12318590686669488        0.0000000000000000     
   8.0141981090036341E-002  0.13022774839677875        0.0000000000000000     
   8.1922885112267613E-002  0.13740223195038032        0.0000000000000000     
   6.8234446722707703E-002  0.10890403879733879        0.0000000000000000     
   7.0085222274581846E-002  0.11570518404562581        0.0000000000000000     
   7.1868155792283880E-002  0.12263860641457583        0.0000000000000000     
   7.3583247275813835E-002  0.12970430590418880        0.0000000000000000     
   7.5230496725171653E-002  0.13690228251446479        0.0000000000000000     
   6.2278959207313037E-002  0.10834960545142508        0.0000000000000000     
   6.3993121429762254E-002  0.11517528743554961        0.0000000000000000     
   6.5637836372917924E-002  0.12213156659560261        0.0000000000000000     
   6.7213104036780033E-002  0.12921844293158408        0.0000000000000000     
   6.8718924421348596E-002  0.13643591644349398        0.0000000000000000     
   9.5850110136278172E-002  0.13850288091704577        0.0000000000000000     
   9.7781953221841855E-002  0.14574041501785173        0.0000000000000000     
   9.9612065186656995E-002  0.15309257266641915        0.0000000000000000     
  0.10134044603072358       0.16055935386274806        0.0000000000000000     
  0.10296709575404160       0.16814075860683844        0.0000000000000000     
   8.8796089582636448E-002  0.13793576475124067        0.0000000000000000     
   9.0613151803991682E-002  0.14520370655535089        0.0000000000000000     
   9.2326069702497640E-002  0.15258185139941549        0.0000000000000000     
   9.3934843278154309E-002  0.16007019928343452        0.0000000000000000     
   9.5439472530961675E-002  0.16766875020740796        0.0000000000000000     
   8.1922885112267613E-002  0.13740223195038032        0.0000000000000000     
   8.3619535493900068E-002  0.14469760920389019        0.0000000000000000     
   8.5217471349015111E-002  0.15210213183369886        0.0000000000000000     
   8.6716692677612728E-002  0.15961579983980642        0.0000000000000000     
   8.8117199479692959E-002  0.16723861322221281        0.0000000000000000     
   7.5230496725171653E-002  0.13690228251446479        0.0000000000000000     
   7.6801104291567002E-002  0.14422212296346967        0.0000000000000000     
   7.8286270126209409E-002  0.15165341396926929        0.0000000000000000     
   7.9685994229098889E-002  0.15919615553186373        0.0000000000000000     
   8.1000276600235441E-002  0.16685034765125298        0.0000000000000000     
   6.8718924421348596E-002  0.13643591644349398        0.0000000000000000     
   7.0157858196992454E-002  0.14377724783408927        0.0000000000000000     
   7.1532466034080505E-002  0.15123569780612681        0.0000000000000000     
   7.2842747932612736E-002  0.15881126635960652        0.0000000000000000     
   7.4088703892589147E-002  0.16650395349452846        0.0000000000000000     
   0.0000000000000000        0.0000000000000000        0.0000000000000000     
   2.8811677788016425E-003   1.7427544047948485E-003   0.0000000000000000     
   5.8749359107190301E-003   3.8606805139115474E-003   0.0000000000000000     
   8.9813043957521627E-003   6.3537783273500967E-003   0.0000000000000000     
   1.2200273233901040E-002   9.2220478451104978E-003   0.0000000000000000     
   0.0000000000000000        0.0000000000000000        0.0000000000000000     
   2.6111104884045627E-003   1.5867178172367983E-003   0.0000000000000000     
   5.2913399350014434E-003   3.5525083598332364E-003   0.0000000000000000     
   8.0406883397906425E-003   5.8973716277893138E-003   0.0000000000000000     
   1.0859155702772160E-002   8.6213076211050337E-003   0.0000000000000000     
   0.0000000000000000        0.0000000000000000        0.0000000000000000     
   2.3405648823371125E-003   1.4566973523583715E-003   0.0000000000000000     
   4.7210931508284357E-003   3.2955314233764593E-003   0.0000000000000000     
   7.1415848054739691E-003   5.5165022130542612E-003   0.0000000000000000     
   9.6020398462737123E-003   8.1196097213917795E-003   0.0000000000000000     
   0.0000000000000000        0.0000000000000000        0.0000000000000000     
   2.0695309605992919E-003   1.3526930101595684E-003   0.0000000000000000     
   4.1641955582000052E-003   3.0897497045412150E-003   0.0000000000000000     
   6.2839937928021406E-003   5.2111700831449408E-003   0.0000000000000000     
   8.4289256644056957E-003   7.7169541459707431E-003   0.0000000000000000     
   0.0000000000000000        0.0000000000000000        0.0000000000000000     
   1.7980087231911010E-003   1.2747047906403891E-003   0.0000000000000000     
   3.6206471571161546E-003   2.9351632033275052E-003   0.0000000000000000     
   5.4679153017751598E-003   4.9813752380613490E-003   0.0000000000000000     
   7.3398131571681168E-003   7.4133408948419202E-003   0.0000000000000000     
   1.2200273233901040E-002   9.2220478451104978E-003   0.0000000000000000     
   1.5434127511771782E-002   1.2363476198275854E-002   0.0000000000000000     
   1.8585152315970497E-002   1.5676050517929269E-002   0.0000000000000000     
   2.1653347646497199E-002   1.9159770804070740E-002   0.0000000000000000     
   2.4638713503351874E-002   2.2814637056700275E-002   0.0000000000000000     
   1.0859155702772160E-002   8.6213076211050337E-003   0.0000000000000000     
   1.3693463235435294E-002   1.1642113506553605E-002   0.0000000000000000     
   1.6490332149269354E-002   1.4877586450908255E-002   0.0000000000000000     
   1.9249762444274333E-002   1.8327726454168979E-002   0.0000000000000000     
   2.1971754120450229E-002   2.1992533516335778E-002   0.0000000000000000     
   9.6020398462737123E-003   8.1196097213917795E-003   0.0000000000000000     
   1.2078991367993478E-002   1.1037513965376639E-002   0.0000000000000000     
   1.4548972465399077E-002   1.4202874961996471E-002   0.0000000000000000     
   1.7011983138490512E-002   1.7615692711251268E-002   0.0000000000000000     
   1.9468023387267781E-002   2.1275967213141032E-002   0.0000000000000000     
   8.4289256644056957E-003   7.7169541459707431E-003   0.0000000000000000     
   1.0590711909446323E-002   1.0549677574744955E-002   0.0000000000000000     
   1.2761073264359676E-002   1.3651916051193905E-002   0.0000000000000000     
   1.4940009729145743E-002   1.7023669575317597E-002   0.0000000000000000     
   1.7127521303804533E-002   2.0664938147116032E-002   0.0000000000000000     
   7.3398131571681168E-003   7.4133408948419202E-003   0.0000000000000000     
   9.2286248597938415E-003   1.0178604334658550E-002   0.0000000000000000     
   1.1126634546151142E-002   1.3224709718500571E-002   0.0000000000000000     
   1.3033842216240024E-002   1.6551657046367980E-002   0.0000000000000000     
   1.4950247870060482E-002   2.0159446318260780E-002   0.0000000000000000     
   2.4638713503351874E-002   2.2814637056700275E-002   0.0000000000000000     
   2.7545646316470780E-002   2.6663568260814181E-002   0.0000000000000000     
   3.0378542515790152E-002   3.0729483401408790E-002   0.0000000000000000     
   3.3137402101309998E-002   3.5012382478484094E-002   0.0000000000000000     
   3.5822225073030317E-002   3.9512265492040080E-002   0.0000000000000000     
   2.1971754120450229E-002   2.1992533516335778E-002   0.0000000000000000     
   2.4639909530451573E-002   2.5870140783923603E-002   0.0000000000000000     
   2.7237831026932877E-002   2.9958681403447412E-002   0.0000000000000000     
   2.9765518609894161E-002   3.4258155374907208E-002   0.0000000000000000     
   3.2222972279335398E-002   3.8768562698302970E-002   0.0000000000000000     
   1.9468023387267781E-002   2.1275967213141032E-002   0.0000000000000000     
   2.1888893483753332E-002   2.5164996050972950E-002   0.0000000000000000     
   2.4246393699969612E-002   2.9264076808054193E-002   0.0000000000000000     
   2.6540524035916620E-002   3.3573209484384789E-002   0.0000000000000000     
   2.8771284491594357E-002   3.8092394079964717E-002   0.0000000000000000     
   1.7127521303804533E-002   2.0664938147116032E-002   0.0000000000000000     
   1.9292598176376061E-002   2.4548134061962212E-002   0.0000000000000000     
   2.1404230534900346E-002   2.8645669615229151E-002   0.0000000000000000     
   2.3462418379377389E-002   3.2957544806916851E-002   0.0000000000000000     
   2.5467161709807191E-002   3.7483759637025299E-002   0.0000000000000000     
   1.4950247870060482E-002   2.0159446318260780E-002   0.0000000000000000     
   1.6851023608319755E-002   2.4019554816891393E-002   0.0000000000000000     
   1.8711341531725083E-002   2.8103459824972265E-002   0.0000000000000000     
   2.0531201640276463E-002   3.2411161342503381E-002   0.0000000000000000     
   2.2310603933973893E-002   3.6942659369484737E-002   0.0000000000000000     
   3.5822225073030317E-002   3.9512265492040080E-002   0.0000000000000000     
   3.8432175097149877E-002   4.4219756781577087E-002   0.0000000000000000     
   4.0966415839867425E-002   4.9125480686595425E-002   0.0000000000000000     
   4.3424947301182980E-002   5.4229437207095096E-002   0.0000000000000000     
   4.5807769481096529E-002   5.9531626343076086E-002   0.0000000000000000     
   3.2222972279335398E-002   3.8768562698302970E-002   0.0000000000000000     
   3.4612066120139791E-002   4.3485721498143143E-002   0.0000000000000000     
   3.6934674217190523E-002   4.8405449898936123E-002   0.0000000000000000     
   3.9190796570487581E-002   5.3527747900681918E-002   0.0000000000000000     
   4.1380433180030970E-002   5.8852615503380522E-002   0.0000000000000000     
   2.8771284491594357E-002   3.8092394079964717E-002   0.0000000000000000     
   3.0941012985282602E-002   4.2819429847876317E-002   0.0000000000000000     
   3.3052047435261134E-002   4.7752116041201956E-002   0.0000000000000000     
   3.5104387841529937E-002   5.2890452659941620E-002   0.0000000000000000     
   3.7098034204089032E-002   5.8234439704095309E-002   0.0000000000000000     
   2.5467161709807191E-002   3.7483759637025299E-002   0.0000000000000000     
   2.7419015692578295E-002   4.2220881830776630E-002   0.0000000000000000     
   2.9318535494079249E-002   4.7165479113392923E-002   0.0000000000000000     
   3.1165721114310051E-002   5.2317551484874179E-002   0.0000000000000000     
   3.2960572553270708E-002   5.7677098945220433E-002   0.0000000000000000     
   2.2310603933973893E-002   3.6942659369484737E-002   0.0000000000000000     
   2.4046074242026868E-002   4.1690077446844061E-002   0.0000000000000000     
   2.5734138393644881E-002   4.6645539115509019E-002   0.0000000000000000     
   2.7374796388827932E-002   5.1809044375479639E-002   0.0000000000000000     
   2.8968048227576017E-002   5.7180593226755894E-002   0.0000000000000000     
   4.5807769481096529E-002   5.9531626343076086E-002   0.0000000000000000     
   4.8118474919269995E-002   6.5023224900975826E-002   0.0000000000000000     
   5.0360656155365280E-002   7.0695409687231703E-002   0.0000000000000000     
   5.2534313189382391E-002   7.6548180701843771E-002   0.0000000000000000     
   5.4639446021321335E-002   8.2581537944811961E-002   0.0000000000000000     
   4.1380433180030970E-002   5.8852615503380522E-002   0.0000000000000000     
   4.3503948221379478E-002   6.4368170355525653E-002   0.0000000000000000     
   4.5561705870091895E-002   7.0062530105610976E-002   0.0000000000000000     
   4.7553706126168230E-002   7.5935694753636568E-002   0.0000000000000000     
   4.9479948989608460E-002   8.1987664299602359E-002   0.0000000000000000     
   3.7098034204089032E-002   5.8234439704095309E-002   0.0000000000000000     
   3.9031890211027098E-002   6.3770305483119141E-002   0.0000000000000000     
   4.0904859550432868E-002   6.9484278306469249E-002   0.0000000000000000     
   4.2716942222306292E-002   7.5376358174145647E-002   0.0000000000000000     
   4.4468138226647413E-002   8.1446545086148306E-002   0.0000000000000000     
   3.2960572553270708E-002   5.7677098945220433E-002   0.0000000000000000     
   3.4702300888212863E-002   6.3229630283756305E-002   0.0000000000000000     
   3.6390117196388169E-002   6.8960654289806494E-002   0.0000000000000000     
   3.8024021477796620E-002   7.4870170963370980E-002   0.0000000000000000     
   3.9604013732438201E-002   8.0958180304449776E-002   0.0000000000000000     
   2.8968048227576017E-002   5.7180593226755894E-002   0.0000000000000000     
   3.0515180252936772E-002   6.2746144757437144E-002   0.0000000000000000     
   3.2017478807957828E-002   6.8491658055622712E-002   0.0000000000000000     
   3.3474943892639171E-002   7.4417133121312595E-002   0.0000000000000000     
   3.4887575506980815E-002   8.0522569954506795E-002   0.0000000000000000     
   5.4639446021321335E-002   8.2581537944811961E-002   0.0000000000000000     
   5.6670068643620702E-002   8.8784779931834992E-002   0.0000000000000000     
   5.8620195048719105E-002   9.5147205178611527E-002   0.0000000000000000     
   6.0489825236616550E-002  0.10166881368514154        0.0000000000000000     
   6.2278959207313037E-002  0.10834960545142508        0.0000000000000000     
   4.9479948989608460E-002   8.1987664299602359E-002   0.0000000000000000     
   5.1338195503906912E-002   8.8209433532743214E-002   0.0000000000000000     
   5.3126206712557869E-002   9.4591997242294001E-002   0.0000000000000000     
   5.4843982615561351E-002  0.10113535542825473        0.0000000000000000     
   5.6491523212917331E-002  0.10783950809062537        0.0000000000000000     
   4.4468138226647413E-002   8.1446545086148306E-002   0.0000000000000000     
   4.6157544840623219E-002   8.7686591654277501E-002   0.0000000000000000     
   4.7784259341400702E-002   9.4088250490333508E-002   0.0000000000000000     
   4.9348281728979870E-002  0.10065152159431638        0.0000000000000000     
   5.0849612003360717E-002  0.10737640496622607        0.0000000000000000     
   3.9604013732438201E-002   8.0958180304449776E-002   0.0000000000000000     
   4.1128116653769642E-002   8.7216254296437826E-002   0.0000000000000000     
   4.2594352935247611E-002   9.3635964922730047E-002   0.0000000000000000     
   4.4002722576872134E-002  0.10021731218332651        0.0000000000000000     
   4.5353225578643172E-002  0.10696029607822716        0.0000000000000000     
   3.4887575506980815E-002   8.0522569954506795E-002   0.0000000000000000     
   3.6249910943346154E-002   8.6798421459224173E-002   0.0000000000000000     
   3.7556487494098588E-002   9.3235140539483632E-002   0.0000000000000000     
   3.8807305159238109E-002   9.9832727195285104E-002   0.0000000000000000     
   4.0002363938764725E-002  0.10659118142662863        0.0000000000000000     
   6.2278959207313037E-002  0.10834960545142508        0.0000000000000000     
   6.3993121429762254E-002  0.11517528743554961        0.0000000000000000     
   6.5637836372917924E-002  0.12213156659560261        0.0000000000000000     
   6.7213104036780033E-002  0.12921844293158408        0.0000000000000000     
   6.8718924421348596E-002  0.13643591644349398        0.0000000000000000     
   5.6491523212917331E-002  0.10783950809062537        0.0000000000000000     
   5.8068671829673763E-002  0.11468850922277686        0.0000000000000000     
   5.9575271790878556E-002  0.12166641281808004        0.0000000000000000     
   6.1011323096531719E-002  0.12877321887653492        0.0000000000000000     
   6.2376825746633238E-002  0.13600892739814152        0.0000000000000000     
   5.0849612003360717E-002  0.10737640496622607        0.0000000000000000     
   5.2286053056915707E-002  0.11424634110018431        0.0000000000000000     
   5.3655407782017328E-002  0.12124477049031285        0.0000000000000000     
   5.4957676178665586E-002  0.12837169313661168        0.0000000000000000     
   5.6192858246860468E-002  0.13562710903908079        0.0000000000000000     
   4.5353225578643172E-002  0.10696029607822716        0.0000000000000000     
   4.6645265111488123E-002  0.11384878306777201        0.0000000000000000     
   4.7878244346334267E-002  0.12086663961230107        0.0000000000000000     
   4.9052163283181648E-002  0.12801386571181436        0.0000000000000000     
   5.0167021922030229E-002  0.13529046136631187        0.0000000000000000     
   4.0002363938764725E-002  0.10659118142662863        0.0000000000000000     
   4.1146307993390960E-002  0.11349583512553993        0.0000000000000000     
   4.2243781483829346E-002  0.12053202018404470        0.0000000000000000     
   4.3294784410079876E-002  0.12769973660214298        0.0000000000000000     
   4.4299316772142563E-002  0.13499898437983468        0.0000000000000000     
   6.8718924421348596E-002  0.13643591644349398        0.0000000000000000     
   7.0157858196992454E-002  0.14377724783408927        0.0000000000000000     
   7.1532466034080505E-002  0.15123569780612681        0.0000000000000000     
   7.2842747932612736E-002  0.15881126635960652        0.0000000000000000     
   7.4088703892589147E-002  0.16650395349452846        0.0000000000000000     
   6.2376825746633238E-002  0.13600892739814152        0.0000000000000000     
   6.3684646646655560E-002  0.14337035768083572        0.0000000000000000     
   6.4947652702071035E-002  0.15085432902255350        0.0000000000000000     
   6.6165843912879704E-002  0.15846084142329483        0.0000000000000000     
   6.7339220279081541E-002  0.16618989488305971        0.0000000000000000     
   5.6192858246860468E-002  0.13562710903908079        0.0000000000000000     
   5.7376319077035338E-002  0.14300882636879561        0.0000000000000000     
   5.8523423759623570E-002  0.15051465329683161        0.0000000000000000     
   5.9634172294625185E-002  0.15814458982318877        0.0000000000000000     
   6.0708564682040153E-002  0.16589863594786711        0.0000000000000000     
   5.0167021922030229E-002  0.13529046136631187        0.0000000000000000     
   5.1232875488131810E-002  0.14269265389796895        0.0000000000000000     
   5.2259779206738126E-002  0.15021667062896110        0.0000000000000000     
   5.3247733077849170E-002  0.15786251155928835        0.0000000000000000     
   5.4196737101464977E-002  0.16563017668895066        0.0000000000000000     
   4.4299316772142563E-002  0.13499898437983468        0.0000000000000000     
   4.5254315879944967E-002  0.14242184026835575        0.0000000000000000     
   4.6156719043414667E-002  0.14996038101894210        0.0000000000000000     
   4.7006526262551689E-002  0.15761460663159360        0.0000000000000000     
   4.7803737537356006E-002  0.16538451710631036        0.0000000000000000     
   0.0000000000000000        0.0000000000000000        0.0000000000000000     
   1.7980087231911010E-003   1.2747047906403891E-003   0.0000000000000000     
   3.6206471571161546E-003   2.9351632033275052E-003   0.0000000000000000     
   5.4679153017751598E-003   4.9813752380613490E-003   0.0000000000000000     
   7.3398131571681168E-003   7.4133408948419202E-003   0.0000000000000000     
   0.0000000000000000        0.0000000000000000        0.0000000000000000     
   1.5343273222513470E-003   1.2156339231605029E-003   0.0000000000000000     
   3.0978916095984015E-003   2.8172819171752577E-003   0.0000000000000000     
   4.6906928620411631E-003   4.8049439820442644E-003   0.0000000000000000     
   6.3127310795796322E-003   7.1786201177675242E-003   0.0000000000000000     
   0.0000000000000000        0.0000000000000000        0.0000000000000000     
   1.2868159099188369E-003   1.1683816370795796E-003   0.0000000000000000     
   2.6033725776682666E-003   2.7216158435244002E-003   0.0000000000000000     
   3.9496700032482885E-003   4.6597026193344613E-003   0.0000000000000000     
   5.3257081866589029E-003   6.9826419645097632E-003   0.0000000000000000     
   0.0000000000000000        0.0000000000000000        0.0000000000000000     
   1.0554744861935716E-003   1.1329479323976190E-003   0.0000000000000000     
   2.1370900613257504E-003   2.6481649823749320E-003   0.0000000000000000     
   3.2448467253965371E-003   4.5456511499319396E-003   0.0000000000000000     
   4.3787444784059316E-003   6.8254064350686400E-003   0.0000000000000000     
   0.0000000000000000        0.0000000000000000        0.0000000000000000     
   8.4030305107555007E-004   1.1093328091146210E-003   0.0000000000000000     
   1.6990440605708526E-003   2.5969293337268539E-003   0.0000000000000000     
   2.5762230284859075E-003   4.4627895738366986E-003   0.0000000000000000     
   3.4718399548207147E-003   6.7069135294441536E-003   0.0000000000000000     
   7.3398131571681168E-003   7.4133408948419202E-003   0.0000000000000000     
   9.2286248597938415E-003   1.0178604334658550E-002   0.0000000000000000     
   1.1126634546151142E-002   1.3224709718500571E-002   0.0000000000000000     
   1.3033842216240024E-002   1.6551657046367980E-002   0.0000000000000000     
   1.4950247870060482E-002   2.0159446318260780E-002   0.0000000000000000     
   6.3127310795796322E-003   7.1786201177675242E-003   0.0000000000000000     
   7.9511910212929637E-003   9.8886677229361002E-003   0.0000000000000000     
   9.5932574462603143E-003   1.2885444196141065E-002   0.0000000000000000     
   1.1238930354481685E-002   1.6168949537382415E-002   0.0000000000000000     
   1.2888209745957072E-002   1.9739183746660151E-002   0.0000000000000000     
   5.3257081866589029E-003   6.9826419645097632E-003   0.0000000000000000     
   6.7168711962006392E-003   9.6442412173962846E-003   0.0000000000000000     
   8.1085431001740246E-003   1.2598307716340001E-002   0.0000000000000000     
   9.5007238985790610E-003   1.5844841461340912E-002   0.0000000000000000     
   1.0893413591415744E-002   1.9383842452399019E-002   0.0000000000000000     
   4.3787444784059316E-003   6.8254064350686400E-003   0.0000000000000000     
   5.5256653845168644E-003   9.4453248180390980E-003   0.0000000000000000     
   6.6724915078922708E-003   1.2363300279097378E-002   0.0000000000000000     
   7.8192228485321497E-003   1.5579332818243474E-002   0.0000000000000000     
   8.9658594064365004E-003   1.9093422435477393E-002   0.0000000000000000     
   3.4718399548207147E-003   6.7069135294441536E-003   0.0000000000000000     
   4.3775735862416421E-003   9.2919185248645439E-003   0.0000000000000000     
   5.2851026694150545E-003   1.2180421884413194E-002   0.0000000000000000     
   6.1944272043409536E-003   1.5372423608090100E-002   0.0000000000000000     
   7.1055471910193378E-003   1.8867923695895263E-002   0.0000000000000000     
   1.4950247870060482E-002   2.0159446318260780E-002   0.0000000000000000     
   1.6851023608319755E-002   2.4019554816891393E-002   0.0000000000000000     
   1.8711341531725083E-002   2.8103459824972265E-002   0.0000000000000000     
   2.0531201640276463E-002   3.2411161342503381E-002   0.0000000000000000     
   2.2310603933973893E-002   3.6942659369484737E-002   0.0000000000000000     
   1.2888209745957072E-002   1.9739183746660151E-002   0.0000000000000000     
   1.4525421975650188E-002   2.3570051885419097E-002   0.0000000000000000     
   1.6134893398524738E-002   2.7635459015104093E-002   0.0000000000000000     
   1.7716624014580729E-002   3.1935405135715127E-002   0.0000000000000000     
   1.9270613823818155E-002   3.6469890247252189E-002   0.0000000000000000     
   1.0893413591415744E-002   1.9383842452399019E-002   0.0000000000000000     
   1.2277045474433122E-002   2.3190418837203915E-002   0.0000000000000000     
   1.3642052843380232E-002   2.7239678763445175E-002   0.0000000000000000     
   1.4988435698257075E-002   3.1531622231122811E-002   0.0000000000000000     
   1.6316194039063651E-002   3.6066249240236818E-002   0.0000000000000000     
   8.9658594064365004E-003   1.9093422435477393E-002   0.0000000000000000     
   1.0105894104668559E-002   2.2880655672245839E-002   0.0000000000000000     
   1.1232819866291557E-002   2.6916119069995529E-002   0.0000000000000000     
   1.2346636691305502E-002   3.1199812628726457E-002   0.0000000000000000     
   1.3447344579710384E-002   3.5731736348438625E-002   0.0000000000000000     
   7.1055471910193378E-003   1.8867923695895263E-002   0.0000000000000000     
   8.0119678663564987E-003   2.2640762390544879E-002   0.0000000000000000     
   8.9071944672587215E-003   2.6664779934755144E-002   0.0000000000000000     
   9.7912269937260078E-003   3.0939976328526051E-002   0.0000000000000000     
   1.0664065445758356E-002   3.5466351571857610E-002   0.0000000000000000     
   2.2310603933973893E-002   3.6942659369484737E-002   0.0000000000000000     
   2.4046074242026868E-002   4.1690077446844061E-002   0.0000000000000000     
   2.5734138393644881E-002   4.6645539115509019E-002   0.0000000000000000     
   2.7374796388827932E-002   5.1809044375479639E-002   0.0000000000000000     
   2.8968048227576017E-002   5.7180593226755894E-002   0.0000000000000000     
   1.9270613823818155E-002   3.6469890247252189E-002   0.0000000000000000     
   2.0789381388865626E-002   4.1225811052732611E-002   0.0000000000000000     
   2.2265445272351754E-002   4.6190064255173691E-002   0.0000000000000000     
   2.3698805474276545E-002   5.1362649854575428E-002   0.0000000000000000     
   2.5089461994639989E-002   5.6743567850937815E-002   0.0000000000000000     
   1.6316194039063651E-002   3.6066249240236818E-002   0.0000000000000000     
   1.7616129888331857E-002   4.0826877005096310E-002   0.0000000000000000     
   1.8879045268593599E-002   4.5796822740010380E-002   0.0000000000000000     
   2.0104940179848874E-002   5.0976086444979057E-002   0.0000000000000000     
   2.1293814622097677E-002   5.6364668120002306E-002   0.0000000000000000     
   1.3447344579710384E-002   3.5731736348438625E-002   0.0000000000000000     
   1.4526319740425571E-002   4.0493275303935143E-002   0.0000000000000000     
   1.5574938382370411E-002   4.5465814570019095E-002   0.0000000000000000     
   1.6593200505544910E-002   5.0649354146690508E-002   0.0000000000000000     
   1.7581106109949066E-002   5.6043894033949361E-002   0.0000000000000000     
   1.0664065445758356E-002   3.5466351571857610E-002   0.0000000000000000     
   1.1519950945146755E-002   4.0225005949249097E-002   0.0000000000000000     
   1.2353124613682192E-002   4.5197039745199827E-002   0.0000000000000000     
   1.3163586451364662E-002   5.0382452959709792E-002   0.0000000000000000     
   1.3951336458194172E-002   5.5781245592778993E-002   0.0000000000000000     
   2.8968048227576017E-002   5.7180593226755894E-002   0.0000000000000000     
   3.0515180252936772E-002   6.2746144757437144E-002   0.0000000000000000     
   3.2017478807957828E-002   6.8491658055622712E-002   0.0000000000000000     
   3.3474943892639171E-002   7.4417133121312595E-002   0.0000000000000000     
   3.4887575506980815E-002   8.0522569954506795E-002   0.0000000000000000     
   2.5089461994639989E-002   5.6743567850937815E-002   0.0000000000000000     
   2.6440902161481646E-002   6.2319421469874715E-002   0.0000000000000000     
   2.7756613302841050E-002   6.8076813936999978E-002   0.0000000000000000     
   2.9036595418718201E-002   7.4015745252313581E-002   0.0000000000000000     
   3.0280848509113112E-002   8.0136215415815559E-002   0.0000000000000000     
   2.1293814622097677E-002   5.6364668120002306E-002   0.0000000000000000     
   2.2449840470130308E-002   6.1949032986782102E-002   0.0000000000000000     
   2.3577189598737062E-002   6.7715646267020341E-002   0.0000000000000000     
   2.4675862007917937E-002   7.3664507960717052E-002   0.0000000000000000     
   2.5745857697672930E-002   7.9795618067872262E-002   0.0000000000000000     
   1.7581106109949066E-002   5.6043894033949361E-002   0.0000000000000000     
   1.8541995178882758E-002   6.1634979308159275E-002   0.0000000000000000     
   1.9479207695645862E-002   6.7408155045683829E-002   0.0000000000000000     
   2.0392743660238365E-002   7.3363421246523036E-002   0.0000000000000000     
   2.1282603072660292E-002   7.9500777910676890E-002   0.0000000000000000     
   1.3951336458194172E-002   5.5781245592778993E-002   0.0000000000000000     
   1.4717366287739002E-002   6.1377260434006251E-002   0.0000000000000000     
   1.5462667593567448E-002   6.7154340272990429E-002   0.0000000000000000     
   1.6187240375679507E-002   7.3112485109731493E-002   0.0000000000000000     
   1.6891084634075178E-002   7.9251694944229456E-002   0.0000000000000000     
   3.4887575506980815E-002   8.0522569954506795E-002   0.0000000000000000     
   3.6249910943346154E-002   8.6798421459224173E-002   0.0000000000000000     
   3.7556487494098588E-002   9.3235140539483632E-002   0.0000000000000000     
   3.8807305159238109E-002   9.9832727195285104E-002   0.0000000000000000     
   4.0002363938764725E-002  0.10659118142662863        0.0000000000000000     
   3.0280848509113112E-002   8.0136215415815559E-002   0.0000000000000000     
   3.1480521271507730E-002   8.6427560678869975E-002   0.0000000000000000     
   3.2626762403384024E-002   9.2879117292840915E-002   0.0000000000000000     
   3.3719571904741993E-002   9.9490885257728368E-002   0.0000000000000000     
   3.4758949775581638E-002  0.10626286457353232        0.0000000000000000     
   2.5745857697672930E-002   7.9795618067872262E-002   0.0000000000000000     
   2.6777541200409309E-002   8.6098139491608577E-002   0.0000000000000000     
   2.7761277048534306E-002   9.2561235135048631E-002   0.0000000000000000     
   2.8697065242047924E-002   9.9184904998192464E-002   0.0000000000000000     
   2.9584905780950171E-002  0.10596914908104003        0.0000000000000000     
   2.1282603072660292E-002   7.9500777910676890E-002   0.0000000000000000     
   2.2140970730050887E-002   8.5810157897439968E-002   0.0000000000000000     
   2.2960031429549430E-002   9.2281494066106806E-002   0.0000000000000000     
   2.3739785171155912E-002   9.8914786416677405E-002   0.0000000000000000     
   2.4480231954870348E-002  0.10571003494915177        0.0000000000000000     
   1.6891084634075178E-002   7.9251694944229456E-002   0.0000000000000000     
   1.7570809860432472E-002   8.5563615896364159E-002   0.0000000000000000     
   1.8223025546429395E-002   9.2039894086015414E-002   0.0000000000000000     
   1.8847731692065956E-002   9.8680529513183193E-002   0.0000000000000000     
   1.9444928297342151E-002  0.10548552217786754        0.0000000000000000     
   4.0002363938764725E-002  0.10659118142662863        0.0000000000000000     
   4.1146307993390960E-002  0.11349583512553993        0.0000000000000000     
   4.2243781483829346E-002  0.12053202018404470        0.0000000000000000     
   4.3294784410079876E-002  0.12769973660214298        0.0000000000000000     
   4.4299316772142563E-002  0.13499898437983468        0.0000000000000000     
   3.4758949775581638E-002  0.10626286457353232        0.0000000000000000     
   3.5754499526874588E-002  0.11318163343594484        0.0000000000000000     
   3.6715824669592487E-002  0.12023377004065793        0.0000000000000000     
   3.7642925203735342E-002  0.12741927438767162        0.0000000000000000     
   3.8535801129303146E-002  0.13473814647698584        0.0000000000000000     
   2.9584905780950171E-002  0.10596914908104003        0.0000000000000000     
   3.0435157536189313E-002  0.11290031416144350        0.0000000000000000     
   3.1258179378713613E-002  0.11996474701725494        0.0000000000000000     
   3.2053971308523069E-002  0.12716244764847437        0.0000000000000000     
   3.2822533325617707E-002  0.13449341605510179        0.0000000000000000     
   2.4480231954870348E-002  0.10571003494915177        0.0000000000000000     
   2.5188282021335138E-002  0.11265187730203591        0.0000000000000000     
   2.5870845611192714E-002  0.11972495111383573        0.0000000000000000     
   2.6527922724443081E-002  0.12692925638455130        0.0000000000000000     
   2.7159513361086230E-002  0.13426479311418257        0.0000000000000000     
   1.9444928297342151E-002  0.10548552217786754        0.0000000000000000     
   2.0013872982312067E-002  0.11243632285772204        0.0000000000000000     
   2.0553823367029801E-002  0.11951438233040031        0.0000000000000000     
   2.1064779451495354E-002  0.12671970059590235        0.0000000000000000     
   2.1546741235708721E-002  0.13405227765422820        0.0000000000000000     
   4.4299316772142563E-002  0.13499898437983468        0.0000000000000000     
   4.5254315879944967E-002  0.14242184026835575        0.0000000000000000     
   4.6156719043414667E-002  0.14996038101894210        0.0000000000000000     
   4.7006526262551689E-002  0.15761460663159360        0.0000000000000000     
   4.7803737537356006E-002  0.16538451710631036        0.0000000000000000     
   3.8535801129303146E-002  0.13473814647698584        0.0000000000000000     
   3.9380584908263530E-002  0.14217989989695234        0.0000000000000000     
   4.0163409002584152E-002  0.14973404823592285        0.0000000000000000     
   4.0884273412264978E-002  0.15740059149389732        0.0000000000000000     
   4.1543178137306028E-002  0.16517952967087579        0.0000000000000000     
   3.2822533325617707E-002  0.13449341605510179        0.0000000000000000     
   3.3551627228876245E-002  0.14195034720075503        0.0000000000000000     
   3.4229014817177446E-002  0.14952593604905187        0.0000000000000000     
   3.4854696090521324E-002  0.15722018259999235        0.0000000000000000     
   3.5428671048907866E-002  0.16503308685357648        0.0000000000000000     
   2.7159513361086230E-002  0.13426479311418257        0.0000000000000000     
   2.7767442841783087E-002  0.14173318217976380        0.0000000000000000     
   2.8353536487194585E-002  0.14933604445832918        0.0000000000000000     
   2.8917794297320724E-002  0.15707337994987869        0.0000000000000000     
   2.9460216272161499E-002  0.16494518865441238        0.0000000000000000     
   2.1546741235708721E-002  0.13405227765422820        0.0000000000000000     
   2.2028031746984068E-002  0.14152840483397866        0.0000000000000000     
   2.2536974012635550E-002  0.14916437346375472        0.0000000000000000     
   2.3073568032663177E-002  0.15696018354355637        0.0000000000000000     
   2.3637813807066935E-002  0.16491583507338359        0.0000000000000000     
   0.0000000000000000        0.0000000000000000        0.0000000000000000     
   8.4030305107555007E-004   1.1093328091146210E-003   0.0000000000000000     
   1.6990440605708526E-003   2.5969293337268539E-003   0.0000000000000000     
   2.5762230284859075E-003   4.4627895738366986E-003   0.0000000000000000     
   3.4718399548207147E-003   6.7069135294441536E-003   0.0000000000000000     
   0.0000000000000000        0.0000000000000000        0.0000000000000000     
   6.3238837408047591E-004   1.0938927527134996E-003   0.0000000000000000     
   1.2747247565188806E-003   2.5619301881367081E-003   0.0000000000000000     
   1.9270091473152140E-003   4.4041123062696251E-003   0.0000000000000000     
   2.5892415464694759E-003   6.6204391071122510E-003   0.0000000000000000     
   0.0000000000000000        0.0000000000000000        0.0000000000000000     
   4.2281722472405146E-004   1.0829842486771673E-003   0.0000000000000000     
   8.4962233028514121E-004   2.5371888361610364E-003   0.0000000000000000     
   1.2804153166832690E-003   4.3626137624516066E-003   0.0000000000000000     
   1.7151961839184352E-003   6.5592590275488786E-003   0.0000000000000000     
   0.0000000000000000        0.0000000000000000        0.0000000000000000     
   2.1158960300627681E-004   1.0766072970056246E-003   0.0000000000000000     
   4.2373678186963427E-004   2.5227052777998383E-003   0.0000000000000000     
   6.3644153659007247E-004   4.3382939423826416E-003   0.0000000000000000     
   8.4970386716759136E-004   6.5233732907540327E-003   0.0000000000000000     
   0.0000000000000000        0.0000000000000000        0.0000000000000000     
  -1.2944910728480399E-006   1.0747618976988717E-003   0.0000000000000000     
  -2.9318887276399454E-006   2.5184795130531149E-003   0.0000000000000000     
  -4.9121929643754724E-006   4.3311528460627299E-003   0.0000000000000000     
  -7.2354037830550276E-006   6.5127818967277169E-003   0.0000000000000000     
   3.4718399548207147E-003   6.7069135294441536E-003   0.0000000000000000     
   4.3775735862416421E-003   9.2919185248645439E-003   0.0000000000000000     
   5.2851026694150545E-003   1.2180421884413194E-002   0.0000000000000000     
   6.1944272043409536E-003   1.5372423608090100E-002   0.0000000000000000     
   7.1055471910193378E-003   1.8867923695895263E-002   0.0000000000000000     
   2.5892415464694759E-003   6.6204391071122510E-003   0.0000000000000000     
   3.2584477733686606E-003   9.1779297782524725E-003   0.0000000000000000     
   3.9316536473997616E-003   1.2043603507278178E-002   0.0000000000000000     
   4.6088591685627791E-003   1.5217460294189361E-002   0.0000000000000000     
   5.2900643368577098E-003   1.8699500138986028E-002   0.0000000000000000     
   1.7151961839184352E-003   6.5592590275488786E-003   0.0000000000000000     
   2.1541399178916141E-003   9.0972660185827323E-003   0.0000000000000000     
   2.5974215045037785E-003   1.1946776122683049E-002   0.0000000000000000     
   3.0450409437549307E-003   1.5107789339849832E-002   0.0000000000000000     
   3.4969982356450689E-003   1.8580305670083081E-002   0.0000000000000000     
   8.4970386716759136E-004   6.5233732907540327E-003   0.0000000000000000     
   1.0646500198104995E-003   9.0499272458553232E-003   0.0000000000000000     
   1.2824062407271060E-003   1.1889939730627816E-002   0.0000000000000000     
   1.5029725299174107E-003   1.5043410745071517E-002   0.0000000000000000     
   1.7263488873814131E-003   1.8510340289186418E-002   0.0000000000000000     
  -7.2354037830550276E-006   6.5127818967277169E-003   0.0000000000000000     
  -1.0021920874681256E-005   9.0359134600702419E-003   0.0000000000000000     
  -1.3392143930256558E-005   1.1873094331112471E-002   0.0000000000000000     
  -1.7346072949781713E-005   1.5024324509854407E-002   0.0000000000000000     
  -2.1883707933256281E-005   1.8489603996296046E-002   0.0000000000000000     
   7.1055471910193378E-003   1.8867923695895263E-002   0.0000000000000000     
   8.0119678663564987E-003   2.2640762390544879E-002   0.0000000000000000     
   8.9071944672587215E-003   2.6664779934755144E-002   0.0000000000000000     
   9.7912269937260078E-003   3.0939976328526051E-002   0.0000000000000000     
   1.0664065445758356E-002   3.5466351571857610E-002   0.0000000000000000     
   5.2900643368577098E-003   1.8699500138986028E-002   0.0000000000000000     
   5.9680064001413208E-003   2.2462007195386303E-002   0.0000000000000000     
   6.6354226062703726E-003   2.6477265617108305E-002   0.0000000000000000     
   7.2923129552448646E-003   3.0745275404152041E-002   0.0000000000000000     
   7.9386774470647965E-003   3.5266036556517499E-002   0.0000000000000000     
   3.4969982356450689E-003   1.8580305670083081E-002   0.0000000000000000     
   3.9467493466674095E-003   2.2335658290055373E-002   0.0000000000000000     
   4.3877502433151677E-003   2.6345180376439296E-002   0.0000000000000000     
   4.8200009255883434E-003   3.0608871929234855E-002   0.0000000000000000     
   5.2435013934869368E-003   3.5126732948442041E-002   0.0000000000000000     
   1.7263488873814131E-003   1.8510340289186418E-002   0.0000000000000000     
   1.9481967059347624E-003   2.2261715674552103E-002   0.0000000000000000     
   2.1641773783931065E-003   2.6268524212748130E-002   0.0000000000000000     
   2.3742909047564445E-003   3.0530765903774511E-002   0.0000000000000000     
   2.5785372850247773E-003   3.5048440747631228E-002   0.0000000000000000     
  -2.1883707933256281E-005   1.8489603996296046E-002   0.0000000000000000     
  -2.7651522056620003E-005   2.2240179348876475E-002   0.0000000000000000     
  -3.5295988495812270E-005   2.6247297126034796E-002   0.0000000000000000     
  -4.4817107250833019E-005   3.0510957327770989E-002   0.0000000000000000     
  -5.6214878321682272E-005   3.5031159954085067E-002   0.0000000000000000     
   1.0664065445758356E-002   3.5466351571857610E-002   0.0000000000000000     
   1.1519950945146755E-002   4.0225005949249097E-002   0.0000000000000000     
   1.2353124613682192E-002   4.5197039745199827E-002   0.0000000000000000     
   1.3163586451364662E-002   5.0382452959709792E-002   0.0000000000000000     
   1.3951336458194172E-002   5.5781245592778993E-002   0.0000000000000000     
   7.9386774470647965E-003   3.5266036556517499E-002   0.0000000000000000     
   8.5720090460817810E-003   4.0020830279686635E-002   0.0000000000000000     
   9.1898007166474303E-003   4.4990937779141378E-002   0.0000000000000000     
   9.7920524587617446E-003   5.0176359054881749E-002   0.0000000000000000     
   1.0378764272424724E-002   5.5577094106907726E-002   0.0000000000000000     
   5.2435013934869368E-003   3.5126732948442041E-002   0.0000000000000000     
   5.6574795868170090E-003   3.9879509633896179E-002   0.0000000000000000     
   6.0611634453846212E-003   4.4847948185432564E-002   0.0000000000000000     
   6.4545529691897724E-003   5.0032048603051216E-002   0.0000000000000000     
   6.8376481582324644E-003   5.5431810886752114E-002   0.0000000000000000     
   2.5785372850247773E-003   3.5048440747631228E-002   0.0000000000000000     
   2.7763625673524386E-003   3.9801044011877715E-002   0.0000000000000000     
   2.9672127998937618E-003   4.4768070964073370E-002   0.0000000000000000     
   3.1510879826487470E-003   4.9949521604218172E-002   0.0000000000000000     
   3.3279881156173933E-003   5.5345395932312164E-002   0.0000000000000000     
  -5.6214878321682272E-005   3.5031159954085067E-002   0.0000000000000000     
  -7.1342012311930076E-005   3.9785433413631256E-002   0.0000000000000000     
  -9.2051219825147455E-005   4.4751306115063776E-002   0.0000000000000000     
  -1.1834250086133281E-004   4.9928778058382653E-002   0.0000000000000000     
  -1.5021585542048747E-004   5.5317849243587860E-002   0.0000000000000000     
   1.3951336458194172E-002   5.5781245592778993E-002   0.0000000000000000     
   1.4717366287739002E-002   6.1377260434006251E-002   0.0000000000000000     
   1.5462667593567448E-002   6.7154340272990429E-002   0.0000000000000000     
   1.6187240375679507E-002   7.3112485109731493E-002   0.0000000000000000     
   1.6891084634075178E-002   7.9251694944229456E-002   0.0000000000000000     
   1.0378764272424724E-002   5.5577094106907726E-002   0.0000000000000000     
   1.0948793187893081E-002   6.1175588792552617E-002   0.0000000000000000     
   1.1500996235423534E-002   6.6954288969149747E-002   0.0000000000000000     
   1.2035373415016083E-002   7.2913194636699097E-002   0.0000000000000000     
   1.2551924726670724E-002   7.9052305795200686E-002   0.0000000000000000     
   6.8376481582324644E-003   5.5431810886752114E-002   0.0000000000000000     
   7.2091152705390351E-003   6.1029676812027957E-002   0.0000000000000000     
   7.5676205641358237E-003   6.6808088154371434E-002   0.0000000000000000     
   7.9131640390228321E-003   7.2767044913782525E-002   0.0000000000000000     
   8.2457456952000595E-003   7.8906547090261250E-002   0.0000000000000000     
   3.3279881156173933E-003   5.5345395932312164E-002   0.0000000000000000     
   3.4983325356768642E-003   6.0939524492432270E-002   0.0000000000000000     
   3.6625405797043190E-003   6.6715737828655489E-002   0.0000000000000000     
   3.8206122476997588E-003   7.2674035940981790E-002   0.0000000000000000     
   3.9725475396631847E-003   7.8814418829411176E-002   0.0000000000000000     
  -1.5021585542048747E-004   5.5317849243587860E-002   0.0000000000000000     
  -1.8355501669343034E-004   6.0905131833765565E-002   0.0000000000000000     
  -2.1424371787098008E-004   6.6677237992001884E-002   0.0000000000000000     
  -2.4228195895313766E-004   7.2634167718296852E-002   0.0000000000000000     
  -2.6766973993990113E-004   7.8775921012650435E-002   0.0000000000000000     
   1.6891084634075178E-002   7.9251694944229456E-002   0.0000000000000000     
   1.7570809860432472E-002   8.5563615896364159E-002   0.0000000000000000     
   1.8223025546429395E-002   9.2039894086015414E-002   0.0000000000000000     
   1.8847731692065956E-002   9.8680529513183193E-002   0.0000000000000000     
   1.9444928297342151E-002  0.10548552217786754        0.0000000000000000     
   1.2551924726670724E-002   7.9052305795200686E-002   0.0000000000000000     
   1.3051734073335685E-002   8.5364877436078956E-002   0.0000000000000000     
   1.3535885357959191E-002   9.1844164550758361E-002   0.0000000000000000     
   1.4004378580541247E-002   9.8490167139238916E-002   0.0000000000000000     
   1.4457213741081845E-002  0.10530288520152059        0.0000000000000000     
   8.2457456952000595E-003   7.8906547090261250E-002   0.0000000000000000     
   8.5684188505421623E-003   8.5220306464282081E-002   0.0000000000000000     
   8.8842368229238040E-003   9.1702034816319514E-002   0.0000000000000000     
   9.1931996123449777E-003   9.8351732146373563E-002   0.0000000000000000     
   9.4953072188056903E-003  0.10516939845444420        0.0000000000000000     
   3.9725475396631847E-003   7.8814418829411176E-002   0.0000000000000000     
   4.1208641920519032E-003   8.5129902980973560E-002   0.0000000000000000     
   4.2680799413232261E-003   9.1613504882698898E-002   0.0000000000000000     
   4.4141947874771544E-003   9.8265224534587151E-002   0.0000000000000000     
   4.5592087305136846E-003  0.10508506193663836        0.0000000000000000     
  -2.6766973993990113E-004   7.8775921012650435E-002   0.0000000000000000     
  -2.9092990213509351E-004   8.5093666986153421E-002   0.0000000000000000     
  -3.1258528684253566E-004   9.1578574749896502E-002   0.0000000000000000     
  -3.3263589406222743E-004   9.8230644303879705E-002   0.0000000000000000     
  -3.5108172379416831E-004  0.10504987564810306        0.0000000000000000     
   1.9444928297342151E-002  0.10548552217786754        0.0000000000000000     
   2.0013872982312067E-002  0.11243632285772204        0.0000000000000000     
   2.0553823367029801E-002  0.11951438233040031        0.0000000000000000     
   2.1064779451495354E-002  0.12671970059590235        0.0000000000000000     
   2.1546741235708721E-002  0.13405227765422820        0.0000000000000000     
   1.4457213741081845E-002  0.10530288520152059        0.0000000000000000     
   1.4885357038860734E-002  0.11226021005361032        0.0000000000000000     
   1.5279774673157661E-002  0.11934003301151504        0.0000000000000000     
   1.5640466643972631E-002  0.12654235407523470        0.0000000000000000     
   1.5967432951305635E-002  0.13386717324476935        0.0000000000000000     
   9.4953072188056903E-003  0.10516939845444420        0.0000000000000000     
   9.7761608107217804E-003  0.11213009811480919        0.0000000000000000     
   1.0021361556509100E-002  0.11920889550174629        0.0000000000000000     
   1.0230909456167649E-002  0.12640579061525548        0.0000000000000000     
   1.0404804509697423E-002  0.13372078345533681        0.0000000000000000     
   4.5592087305136846E-003  0.10508506193663836        0.0000000000000000     
   4.6862842978952100E-003  0.11204598704131860        0.0000000000000000     
   4.7785840170841178E-003  0.11912096980109406        0.0000000000000000     
   4.8361078880804114E-003  0.12631001021596472        0.0000000000000000     
   4.8588559108840865E-003  0.13361310828593059        0.0000000000000000     
  -3.5108172379416831E-004  0.10504987564810306        0.0000000000000000     
  -3.8427249961898221E-004  0.11200787683313856        0.0000000000000000     
  -4.4855794511728655E-004  0.11907625590955835        0.0000000000000000     
  -5.4393806028908513E-004  0.12625501287736238        0.0000000000000000     
  -6.7041284513437568E-004  0.13354414773655066        0.0000000000000000     
   2.1546741235708721E-002  0.13405227765422820        0.0000000000000000     
   2.2028031746984068E-002  0.14152840483397866        0.0000000000000000     
   2.2536974012635550E-002  0.14916437346375472        0.0000000000000000     
   2.3073568032663177E-002  0.15696018354355637        0.0000000000000000     
   2.3637813807066935E-002  0.16491583507338359        0.0000000000000000     
   1.5967432951305635E-002  0.13386717324476935        0.0000000000000000     
   1.6313442561984696E-002  0.14134361089438466        0.0000000000000000     
   1.6731264442837821E-002  0.14900078739834646        0.0000000000000000     
   1.7220898593865015E-002  0.15683870275665462        0.0000000000000000     
   1.7782345015066280E-002  0.16485735696930923        0.0000000000000000     
   1.0404804509697423E-002  0.13372078345533681        0.0000000000000000     
   1.0603723904290478E-002  0.14118639609196684        0.0000000000000000     
   1.0888344827138866E-002  0.14883515059512215        0.0000000000000000     
   1.1258667278242585E-002  0.15666704696480271        0.0000000000000000     
   1.1714691257601634E-002  0.16468208520100858        0.0000000000000000     
   4.8588559108840865E-003  0.13361310828593059        0.0000000000000000     
   4.8988757739014200E-003  0.14105676042672513        0.0000000000000000     
   5.0082151655386842E-003  0.14866746305408182        0.0000000000000000     
   5.1868740857958775E-003  0.15644521616800061        0.0000000000000000     
   5.4348525346730042E-003  0.16439001976848161        0.0000000000000000     
  -6.7041284513437568E-004  0.13354414773655066        0.0000000000000000     
  -8.0110182918248117E-004  0.14095470389865958        0.0000000000000000     
  -9.0912454196272457E-004  0.14849772477522552        0.0000000000000000     
  -9.9448098347510111E-004  0.15617321036624843        0.0000000000000000     
  -1.0571711537196169E-003  0.16398116067172835        0.0000000000000000     
   0.0000000000000000        0.0000000000000000        0.0000000000000000     
  -1.2944910728480399E-006   1.0747618976988717E-003   0.0000000000000000     
  -2.9318887276399454E-006   2.5184795130531149E-003   0.0000000000000000     
  -4.9121929643754724E-006   4.3311528460627299E-003   0.0000000000000000     
  -7.2354037830550276E-006   6.5127818967277169E-003   0.0000000000000000     
   0.0000000000000000        0.0000000000000000        0.0000000000000000     
  -2.1411662581756659E-004   1.0774208321426121E-003   0.0000000000000000     
  -4.2944669909379663E-004   2.5244157830206278E-003   0.0000000000000000     
  -6.4599021982869012E-004   4.3409848526340467E-003   0.0000000000000000     
  -8.6374718802224675E-004   6.5271280409828691E-003   0.0000000000000000     
   0.0000000000000000        0.0000000000000000        0.0000000000000000     
  -4.2515836953212243E-004   1.0845568817225500E-003   0.0000000000000000     
  -8.5487066681595118E-004   2.5404183288021383E-003   0.0000000000000000     
  -1.2891368918514861E-003   4.3675843412387646E-003   0.0000000000000000     
  -1.7279570446387268E-003   6.5660549190324291E-003   0.0000000000000000     
   0.0000000000000000        0.0000000000000000        0.0000000000000000     
  -6.3441972221651554E-004   1.0961700464386856E-003   0.0000000000000000     
  -1.2792037918941035E-003   2.5664871503976471E-003   0.0000000000000000     
  -1.9343522090327632E-003   4.4109513118768843E-003   0.0000000000000000     
  -2.5998649736324953E-003   6.6295625308763970E-003   0.0000000000000000     
   0.0000000000000000        0.0000000000000000        0.0000000000000000     
  -8.4190068387074587E-004   1.1122603262910186E-003   0.0000000000000000     
  -1.7024460743282534E-003   2.6026222478071535E-003   0.0000000000000000     
  -2.5816361713725221E-003   4.4710857645484043E-003   0.0000000000000000     
  -3.4794709750035520E-003   6.7176508765147726E-003   0.0000000000000000     
  -7.2354037830550276E-006   6.5127818967277169E-003   0.0000000000000000     
  -1.0021920874681256E-005   9.0359134600702419E-003   0.0000000000000000     
  -1.3392143930256558E-005   1.1873094331112471E-002   0.0000000000000000     
  -1.7346072949781713E-005   1.5024324509854407E-002   0.0000000000000000     
  -2.1883707933256281E-005   1.8489603996296046E-002   0.0000000000000000     
  -8.6374718802224675E-004   6.5271280409828691E-003   0.0000000000000000     
  -1.0840760256389250E-003   9.0547230734979636E-003   0.0000000000000000     
  -1.3083351546431820E-003   1.1895647675610193E-002   0.0000000000000000     
  -1.5365245750350183E-003   1.5049901847319563E-002   0.0000000000000000     
  -1.7686442868144340E-003   1.8517485588626068E-002   0.0000000000000000     
  -1.7279570446387268E-003   6.5660549190324291E-003   0.0000000000000000     
  -2.1717124159572276E-003   9.1058544984089530E-003   0.0000000000000000     
  -2.6207842965865428E-003   1.1957007515594156E-002   0.0000000000000000     
  -3.0751726865266712E-003   1.5119513970588036E-002   0.0000000000000000     
  -3.5348775857776136E-003   1.8593373863390602E-002   0.0000000000000000     
  -2.5998649736324953E-003   6.6295625308763970E-003   0.0000000000000000     
  -3.2729310918295901E-003   9.1893077348032121E-003   0.0000000000000000     
  -3.9507395697603387E-003   1.2057173851064357E-002   0.0000000000000000     
  -4.6332904074247398E-003   1.5233160879659832E-002   0.0000000000000000     
  -5.3205836048227954E-003   1.8717268820589637E-002   0.0000000000000000     
  -3.4794709750035520E-003   6.7176508765147726E-003   0.0000000000000000     
  -4.3877320532560117E-003   9.3050827826807424E-003   0.0000000000000000     
  -5.2982009741645696E-003   1.2196146682020801E-002   0.0000000000000000     
  -6.2108777377292250E-003   1.5390842574534944E-002   0.0000000000000000     
  -7.1257623439499786E-003   1.8889170460223176E-002   0.0000000000000000     
  -2.1883707933256281E-005   1.8489603996296046E-002   0.0000000000000000     
  -2.7651522056620003E-005   2.2240179348876475E-002   0.0000000000000000     
  -3.5295988495812270E-005   2.6247297126034796E-002   0.0000000000000000     
  -4.4817107250833019E-005   3.0510957327770989E-002   0.0000000000000000     
  -5.6214878321682272E-005   3.5031159954085067E-002   0.0000000000000000     
  -1.7686442868144340E-003   1.8517485588626068E-002   0.0000000000000000     
  -2.0015323024153539E-003   2.2270264693771132E-002   0.0000000000000000     
  -2.2320266342717044E-003   2.6280104956996186E-002   0.0000000000000000     
  -2.4601272823834850E-003   3.0547006378301222E-002   0.0000000000000000     
  -2.6858342467506961E-003   3.5070968957686237E-002   0.0000000000000000     
  -3.5348775857776136E-003   1.8593373863390602E-002   0.0000000000000000     
  -3.9941826002500578E-003   2.2351187089978703E-002   0.0000000000000000     
  -4.4473713358546881E-003   2.6365553546329211E-002   0.0000000000000000     
  -4.8944437925915098E-003   3.0636473232442125E-002   0.0000000000000000     
  -5.3353999704605195E-003   3.5163946148317443E-002   0.0000000000000000     
  -5.3205836048227954E-003   1.8717268820589637E-002   0.0000000000000000     
  -6.0056024155607287E-003   2.2482946537499177E-002   0.0000000000000000     
  -6.6813300932447653E-003   2.6503642894033862E-002   0.0000000000000000     
  -7.3477666378749052E-003   3.0779357890193700E-002   0.0000000000000000     
  -8.0049120494511492E-003   3.5310091525978686E-002   0.0000000000000000     
  -7.1257623439499786E-003   1.8889170460223176E-002   0.0000000000000000     
  -8.0357917483473689E-003   2.2665543036332562E-002   0.0000000000000000     
  -8.9339029064419342E-003   2.6694373000110145E-002   0.0000000000000000     
  -9.8200958182336727E-003   3.0975660351555946E-002   0.0000000000000000     
  -1.0694370483722590E-002   3.5509405090669952E-002   0.0000000000000000     
  -5.6214878321682272E-005   3.5031159954085067E-002   0.0000000000000000     
  -7.1342012311930076E-005   3.9785433413631256E-002   0.0000000000000000     
  -9.2051219825147455E-005   4.4751306115063776E-002   0.0000000000000000     
  -1.1834250086133281E-004   4.9928778058382653E-002   0.0000000000000000     
  -1.5021585542048747E-004   5.5317849243587860E-002   0.0000000000000000     
  -2.6858342467506961E-003   3.5070968957686237E-002   0.0000000000000000     
  -2.9120407593408795E-003   3.9827845756899807E-002   0.0000000000000000     
  -3.1416400521215759E-003   4.4793489837690485E-002   0.0000000000000000     
  -3.3746321250927853E-003   4.9967901200058271E-002   0.0000000000000000     
  -3.6110169782545098E-003   5.5351079844003170E-002   0.0000000000000000     
  -5.3353999704605195E-003   3.5163946148317443E-002   0.0000000000000000     
  -5.7721402808991887E-003   3.9923448959426372E-002   0.0000000000000000     
  -6.2065651353449929E-003   4.4890458331240120E-002   0.0000000000000000     
  -6.6386745337979301E-003   5.0064974263758666E-002   0.0000000000000000     
  -7.0684684762580023E-003   5.5446996756982017E-002   0.0000000000000000     
  -8.0049120494511492E-003   3.5310091525978686E-002   0.0000000000000000     
  -8.6516405769868597E-003   4.0072243021210957E-002   0.0000000000000000     
  -9.2868264694953989E-003   4.5042211595712679E-002   0.0000000000000000     
  -9.9104697269767651E-003   5.0219997249483832E-002   0.0000000000000000     
  -1.0522570349430962E-002   5.5605599982524435E-002   0.0000000000000000     
  -1.0694370483722590E-002   3.5509405090669952E-002   0.0000000000000000     
  -1.1550541647603890E-002   4.0274227942253556E-002   0.0000000000000000     
  -1.2382424054572792E-002   4.5248749631108170E-002   0.0000000000000000     
  -1.3190017704629294E-002   5.0432970157233782E-002   0.0000000000000000     
  -1.3973322597773397E-002   5.5826889520630391E-002   0.0000000000000000     
  -1.5021585542048747E-004   5.5317849243587860E-002   0.0000000000000000     
  -1.8355501669343034E-004   6.0905131833765565E-002   0.0000000000000000     
  -2.1424371787098008E-004   6.6677237992001884E-002   0.0000000000000000     
  -2.4228195895313766E-004   7.2634167718296852E-002   0.0000000000000000     
  -2.6766973993990113E-004   7.8775921012650435E-002   0.0000000000000000     
  -3.6110169782545098E-003   5.5351079844003170E-002   0.0000000000000000     
  -3.8435283675402267E-003   6.0932316677316634E-002   0.0000000000000000     
  -4.0649000488834188E-003   6.6700902607790130E-002   0.0000000000000000     
  -4.2751320222840809E-003   7.2656837635423646E-002   0.0000000000000000     
  -4.4742242877422187E-003   7.8800121760217223E-002   0.0000000000000000     
  -7.0684684762580023E-003   5.5446996756982017E-002   0.0000000000000000     
  -7.4885684978319060E-003   6.1026896864374326E-002   0.0000000000000000     
  -7.8915961336263364E-003   6.6795045639399683E-002   0.0000000000000000     
  -8.2775513836412969E-003   7.2751443082058109E-002   0.0000000000000000     
  -8.6464342478767865E-003   7.8896089192349611E-002   0.0000000000000000     
  -1.0522570349430962E-002   5.5605599982524435E-002   0.0000000000000000     
  -1.1118675407568461E-002   6.1188872394938615E-002   0.0000000000000000     
  -1.1694331972099736E-002   6.6959667086830571E-002   0.0000000000000000     
  -1.2249540043024783E-002   7.2917984058200241E-002   0.0000000000000000     
  -1.2784299620343605E-002   7.9063823309047668E-002   0.0000000000000000     
  -1.3973322597773397E-002   5.5826889520630391E-002   0.0000000000000000     
  -1.4733849096749900E-002   6.1418243269009534E-002   0.0000000000000000     
  -1.5473107564303618E-002   6.7194766950082752E-002   0.0000000000000000     
  -1.6191098000434542E-002   7.3156460563850029E-002   0.0000000000000000     
  -1.6887820405142678E-002   7.9303324110311380E-002   0.0000000000000000     
  -2.6766973993990113E-004   7.8775921012650435E-002   0.0000000000000000     
  -2.9092990213509351E-004   8.5093666986153421E-002   0.0000000000000000     
  -3.1258528684253566E-004   9.1578574749896502E-002   0.0000000000000000     
  -3.3263589406222743E-004   9.8230644303879705E-002   0.0000000000000000     
  -3.5108172379416831E-004  0.10504987564810306        0.0000000000000000     
  -4.4742242877422187E-003   7.8800121760217223E-002   0.0000000000000000     
  -4.6656283569362078E-003   8.5120015286428902E-002   0.0000000000000000     
  -4.8527957415444309E-003   9.1605778518316874E-002   0.0000000000000000     
  -5.0357264415668871E-003   9.8257411455881086E-002   0.0000000000000000     
  -5.2144204570035765E-003  0.10507491409912156        0.0000000000000000     
  -8.6464342478767865E-003   7.8896089192349611E-002   0.0000000000000000     
  -9.0018960972688186E-003   8.5217364688407363E-002   0.0000000000000000     
  -9.3475883027534026E-003   9.1703650288364497E-002   0.0000000000000000     
  -9.6835108643305457E-003   9.8354945992221096E-002   0.0000000000000000     
  -1.0009663782000243E-002  0.10517125179997711        0.0000000000000000     
  -1.2784299620343605E-002   7.9063823309047668E-002   0.0000000000000000     
  -1.3299733123132923E-002   8.5385715192088776E-002   0.0000000000000000     
  -1.3796962970469456E-002   9.1872190060039466E-002   0.0000000000000000     
  -1.4275989162353203E-002   9.8523247912899792E-002   0.0000000000000000     
  -1.4736811698784163E-002  0.10533888875066970        0.0000000000000000     
  -1.6887820405142678E-002   7.9303324110311380E-002   0.0000000000000000     
  -1.7559139434528526E-002   8.5625066797473143E-002   0.0000000000000000     
  -1.8200919744692585E-002   9.2111397833341754E-002   0.0000000000000000     
  -1.8813161335634859E-002   9.8762317217917145E-002   0.0000000000000000     
  -1.9395864207355350E-002  0.10557782495119934        0.0000000000000000     
  -3.5108172379416831E-004  0.10504987564810306        0.0000000000000000     
  -3.8427249961898221E-004  0.11200787683313856        0.0000000000000000     
  -4.4855794511728655E-004  0.11907625590955835        0.0000000000000000     
  -5.4393806028908513E-004  0.12625501287736238        0.0000000000000000     
  -6.7041284513437568E-004  0.13354414773655066        0.0000000000000000     
  -5.2144204570035765E-003  0.10507491409912156        0.0000000000000000     
  -5.4029322470768104E-003  0.11202976614271748        0.0000000000000000     
  -5.6153162710088998E-003  0.11909344728134807        0.0000000000000000     
  -5.8515725287998435E-003  0.12626595751501335        0.0000000000000000     
  -6.1117010204496426E-003  0.13354729684371322        0.0000000000000000     
  -1.0009663782000243E-002  0.10517125179997711        0.0000000000000000     
  -1.0337117609734296E-002  0.11212565362250373        0.0000000000000000     
  -1.0676942901504505E-002  0.11919123737067214        0.0000000000000000     
  -1.1029139657310873E-002  0.12636800304448237        0.0000000000000000     
  -1.1393707877153395E-002  0.13365595064393443        0.0000000000000000     
  -1.4736811698784163E-002  0.10533888875066970        0.0000000000000000     
  -1.5186828587591437E-002  0.11229553927249729        0.0000000000000000     
  -1.5633437836604102E-002  0.11936962617753055        0.0000000000000000     
  -1.6076639445822164E-002  0.12656114946576955        0.0000000000000000     
  -1.6516433415245634E-002  0.13387010913721428        0.0000000000000000     
  -1.9395864207355350E-002  0.10557782495119934        0.0000000000000000     
  -1.9952065180648237E-002  0.11253942309269813        0.0000000000000000     
  -2.0484801076307697E-002  0.11962861370192329        0.0000000000000000     
  -2.0994071894333739E-002  0.12684539677887482        0.0000000000000000     
  -2.1479877634726356E-002  0.13418977232355278        0.0000000000000000     
  -6.7041284513437568E-004  0.13354414773655066        0.0000000000000000     
  -8.0110182918248117E-004  0.14095470389865958        0.0000000000000000     
  -9.0912454196272457E-004  0.14849772477522552        0.0000000000000000     
  -9.9448098347510111E-004  0.15617321036624843        0.0000000000000000     
  -1.0571711537196169E-003  0.16398116067172835        0.0000000000000000     
  -6.1117010204496426E-003  0.13354729684371322        0.0000000000000000     
  -6.3957376702941972E-003  0.14093240162232135        0.0000000000000000     
  -6.7037184026694126E-003  0.14841620820571128        0.0000000000000000     
  -7.0356432175752801E-003  0.15599871659388298        0.0000000000000000     
  -7.3915121150118068E-003  0.16367992678683649        0.0000000000000000     
  -1.1393707877153395E-002  0.13365595064393443        0.0000000000000000     
  -1.1784560514766706E-002  0.14104202871226162        0.0000000000000000     
  -1.2215610523885439E-002  0.14851318579269721        0.0000000000000000     
  -1.2686857904509586E-002  0.15606942188524123        0.0000000000000000     
  -1.3198302656639151E-002  0.16371073698989369        0.0000000000000000     
  -1.6516433415245634E-002  0.13387010913721428        0.0000000000000000     
  -1.6967570362600003E-002  0.14128358516848033        0.0000000000000000     
  -1.7444800905610798E-002  0.14878865753618326        0.0000000000000000     
  -1.7948125044278018E-002  0.15638532624032322        0.0000000000000000     
  -1.8477542778601651E-002  0.16407359128090002        0.0000000000000000     
  -2.1479877634726356E-002  0.13418977232355278        0.0000000000000000     
  -2.1944767213794094E-002  0.14165707099097749        0.0000000000000000     
  -2.2391289547845507E-002  0.14924262343616954        0.0000000000000000     
  -2.2819444636880570E-002  0.15694642965912883        0.0000000000000000     
  -2.3229232480899305E-002  0.16476848965985547        0.0000000000000000     
   0.0000000000000000        0.0000000000000000        0.0000000000000000     
  -8.4190068387074587E-004   1.1122603262910186E-003   0.0000000000000000     
  -1.7024460743282534E-003   2.6026222478071535E-003   0.0000000000000000     
  -2.5816361713725221E-003   4.4710857645484043E-003   0.0000000000000000     
  -3.4794709750035520E-003   6.7176508765147726E-003   0.0000000000000000     
   0.0000000000000000        0.0000000000000000        0.0000000000000000     
  -1.0565727714644303E-003   1.1363862058022163E-003   0.0000000000000000     
  -2.1392934297701301E-003   2.6547062825680689E-003   0.0000000000000000     
  -3.2481619749170996E-003   4.5549602302975582E-003   0.0000000000000000     
  -4.3831784069053399E-003   6.8371480489906851E-003   0.0000000000000000     
   0.0000000000000000        0.0000000000000000        0.0000000000000000     
  -1.2874075019671854E-003   1.1721061694949463E-003   0.0000000000000000     
  -2.6044417738714637E-003   2.7286219162178053E-003   0.0000000000000000     
  -3.9511028157128347E-003   4.6695472401685765E-003   0.0000000000000000     
  -5.3273906274912989E-003   6.9948821413472620E-003   0.0000000000000000     
   0.0000000000000000        0.0000000000000000        0.0000000000000000     
  -1.5344048753790115E-003   1.2194202173692078E-003   0.0000000000000000     
  -3.0978911066322536E-003   2.8243691487563616E-003   0.0000000000000000     
  -4.6904586937597274E-003   4.8148467941614608E-003   0.0000000000000000     
  -6.3121076367614309E-003   7.1908531535845067E-003   0.0000000000000000     
   0.0000000000000000        0.0000000000000000        0.0000000000000000     
  -1.7975648916999085E-003   1.2783283494250015E-003   0.0000000000000000     
  -3.6196414280525004E-003   2.9419479801837379E-003   0.0000000000000000     
  -5.4662296090577768E-003   4.9908588922762094E-003   0.0000000000000000     
  -7.3373294347157366E-003   7.4250610857024158E-003   0.0000000000000000     
  -3.4794709750035520E-003   6.7176508765147726E-003   0.0000000000000000     
  -4.3877320532560117E-003   9.3050827826807424E-003   0.0000000000000000     
  -5.2982009741645696E-003   1.2196146682020801E-002   0.0000000000000000     
  -6.2108777377292250E-003   1.5390842574534944E-002   0.0000000000000000     
  -7.1257623439499786E-003   1.8889170460223176E-002   0.0000000000000000     
  -4.3831784069053399E-003   6.8371480489906851E-003   0.0000000000000000     
  -5.5312540162528040E-003   9.4594886009171236E-003   0.0000000000000000     
  -6.6793000934774532E-003   1.2380200748346551E-002   0.0000000000000000     
  -7.8273166385792823E-003   1.5599284491278969E-002   0.0000000000000000     
  -8.9753036515582939E-003   1.9116739829714374E-002   0.0000000000000000     
  -5.3273906274912989E-003   6.9948821413472620E-003   0.0000000000000000     
  -6.7186356968362794E-003   9.6588341483879389E-003   0.0000000000000000     
  -8.1101685113772019E-003   1.2615610789924677E-002   0.0000000000000000     
  -9.5019890711140666E-003   1.5865212065957486E-002   0.0000000000000000     
  -1.0894097376046869E-002   1.9407637976486362E-002   0.0000000000000000     
  -6.3121076367614309E-003   7.1908531535845067E-003   0.0000000000000000     
  -7.9498770950064395E-003   9.9031194250931848E-003   0.0000000000000000     
  -9.5908062278638202E-003   1.2902376806755185E-002   0.0000000000000000     
  -1.1234895035333576E-002   1.6188625298570507E-002   0.0000000000000000     
  -1.2882143517415706E-002   1.9761864900539144E-002   0.0000000000000000     
  -7.3373294347157366E-003   7.4250610857024158E-003   0.0000000000000000     
  -9.2249782107632784E-003   1.0192344431032865E-002   0.0000000000000000     
  -1.1121213242937305E-002   1.3240498798838067E-002   0.0000000000000000     
  -1.3026034531237813E-002   1.6569524189118019E-002   0.0000000000000000     
  -1.4939442075664805E-002   2.0179420601872722E-002   0.0000000000000000     
  -7.1257623439499786E-003   1.8889170460223176E-002   0.0000000000000000     
  -8.0357917483473689E-003   2.2665543036332562E-002   0.0000000000000000     
  -8.9339029064419342E-003   2.6694373000110145E-002   0.0000000000000000     
  -9.8200958182336727E-003   3.0975660351555946E-002   0.0000000000000000     
  -1.0694370483722590E-002   3.5509405090669952E-002   0.0000000000000000     
  -8.9753036515582939E-003   1.9116739829714374E-002   0.0000000000000000     
  -1.0115492456215156E-002   2.2907509293755044E-002   0.0000000000000000     
  -1.1240114376350540E-002   2.6946535413503274E-002   0.0000000000000000     
  -1.2349169411964442E-002   3.1233818188959043E-002   0.0000000000000000     
  -1.3442657563056865E-002   3.5769357620122372E-002   0.0000000000000000     
  -1.0894097376046869E-002   1.9407637976486362E-002   0.0000000000000000     
  -1.2275446396769273E-002   2.3217378017042836E-002   0.0000000000000000     
  -1.3634989103874930E-002   2.7268921683158448E-002   0.0000000000000000     
  -1.4972725497363846E-002   3.1562268974833198E-002   0.0000000000000000     
  -1.6288655577236015E-002   3.6097419892067086E-002   0.0000000000000000     
  -1.2882143517415706E-002   1.9761864900539144E-002   0.0000000000000000     
  -1.4515653570009713E-002   2.3595149206195928E-002   0.0000000000000000     
  -1.6118527089015105E-002   2.7661531809075678E-002   0.0000000000000000     
  -1.7690764074431872E-002   3.1961012709178394E-002   0.0000000000000000     
  -1.9232364526260027E-002   3.6493591906504086E-002   0.0000000000000000     
  -1.4939442075664805E-002   2.0179420601872722E-002   0.0000000000000000     
  -1.6836113975936488E-002   2.4040822861214322E-002   0.0000000000000000     
  -1.8690728331771059E-002   2.8124365791254963E-002   0.0000000000000000     
  -2.0503285143168536E-002   3.2430049391994648E-002   0.0000000000000000     
  -2.2273784410128901E-002   3.6957873663433359E-002   0.0000000000000000     
  -1.0694370483722590E-002   3.5509405090669952E-002   0.0000000000000000     
  -1.1550541647603890E-002   4.0274227942253556E-002   0.0000000000000000     
  -1.2382424054572792E-002   4.5248749631108170E-002   0.0000000000000000     
  -1.3190017704629294E-002   5.0432970157233782E-002   0.0000000000000000     
  -1.3973322597773397E-002   5.5826889520630391E-002   0.0000000000000000     
  -1.3442657563056865E-002   3.5769357620122372E-002   0.0000000000000000     
  -1.4509862072758097E-002   4.0534960547693656E-002   0.0000000000000000     
  -1.5540066184198426E-002   4.5512433812373312E-002   0.0000000000000000     
  -1.6533269897377849E-002   5.0701777414161341E-002   0.0000000000000000     
  -1.7489473212296366E-002   5.6102991353057727E-002   0.0000000000000000     
  -1.6288655577236015E-002   3.6097419892067086E-002   0.0000000000000000     
  -1.7570620432457294E-002   4.0859997662670747E-002   0.0000000000000000     
  -1.8806461151993539E-002   4.5835625514454831E-002   0.0000000000000000     
  -1.9996177735844757E-002   5.1024303447419331E-002   0.0000000000000000     
  -2.1139770184010948E-002   5.6426031461564261E-002   0.0000000000000000     
  -1.9232364526260027E-002   3.6493591906504086E-002   0.0000000000000000     
  -2.0732816726701474E-002   4.1249339287184834E-002   0.0000000000000000     
  -2.2181608957958142E-002   4.6218324737352726E-002   0.0000000000000000     
  -2.3578741220030029E-002   5.1400548257007780E-002   0.0000000000000000     
  -2.4924213512917133E-002   5.6796009846149992E-002   0.0000000000000000     
  -2.2273784410128901E-002   3.6957873663433359E-002   0.0000000000000000     
  -2.3996450955490644E-002   4.1702985421235898E-002   0.0000000000000000     
  -2.5665509602092230E-002   4.6660531481066997E-002   0.0000000000000000     
  -2.7280960349933658E-002   5.1830511842926669E-002   0.0000000000000000     
  -2.8842803199014923E-002   5.7212926506814914E-002   0.0000000000000000     
  -1.3973322597773397E-002   5.5826889520630391E-002   0.0000000000000000     
  -1.4733849096749900E-002   6.1418243269009534E-002   0.0000000000000000     
  -1.5473107564303618E-002   6.7194766950082752E-002   0.0000000000000000     
  -1.6191098000434542E-002   7.3156460563850029E-002   0.0000000000000000     
  -1.6887820405142678E-002   7.9303324110311380E-002   0.0000000000000000     
  -1.7489473212296366E-002   5.6102991353057727E-002   0.0000000000000000     
  -1.8415999257414922E-002   6.1701298148060781E-002   0.0000000000000000     
  -1.9320171161194444E-002   6.7481920318168770E-002   0.0000000000000000     
  -2.0201988923634947E-002   7.3444857863381730E-002   0.0000000000000000     
  -2.1061452544736414E-002   7.9590110783699652E-002   0.0000000000000000     
  -2.1139770184010948E-002   5.6426031461564261E-002   0.0000000000000000     
  -2.2247035581602220E-002   6.2024325693566064E-002   0.0000000000000000     
  -2.3327771013728685E-002   6.7802702280101185E-002   0.0000000000000000     
  -2.4381976480390363E-002   7.3761161221169658E-002   0.0000000000000000     
  -2.5409651981587233E-002   7.9899702516771462E-002   0.0000000000000000     
  -2.4924213512917133E-002   5.6796009846149992E-002   0.0000000000000000     
  -2.6226958069311791E-002   6.2387325905525384E-002   0.0000000000000000     
  -2.7495907121906350E-002   6.8157112835879968E-002   0.0000000000000000     
  -2.8731060670700789E-002   7.4105370637213785E-002   0.0000000000000000     
  -2.9932418715695130E-002   8.0232099309526794E-002   0.0000000000000000     
  -2.8842803199014923E-002   5.7212926506814914E-002   0.0000000000000000     
  -3.0355766720543641E-002   6.2790298783938742E-002   0.0000000000000000     
  -3.1824579485727415E-002   6.8545151985505121E-002   0.0000000000000000     
  -3.3249241494566234E-002   7.4477486111514113E-002   0.0000000000000000     
  -3.4629752747060108E-002   8.0587301161965663E-002   0.0000000000000000     
  -1.6887820405142678E-002   7.9303324110311380E-002   0.0000000000000000     
  -1.7559139434528526E-002   8.5625066797473143E-002   0.0000000000000000     
  -1.8200919744692585E-002   9.2111397833341754E-002   0.0000000000000000     
  -1.8813161335634859E-002   9.8762317217917145E-002   0.0000000000000000     
  -1.9395864207355350E-002  0.10557782495119934        0.0000000000000000     
  -2.1061452544736414E-002   7.9590110783699652E-002   0.0000000000000000     
  -2.1889359540705439E-002   8.5908832760210663E-002   0.0000000000000000     
  -2.2676507427748616E-002   9.2392177474002857E-002   0.0000000000000000     
  -2.3422896205865931E-002   9.9040144925076290E-002   0.0000000000000000     
  -2.4128525875057389E-002  0.10585273511343089        0.0000000000000000     
  -2.5409651981587233E-002   7.9899702516771462E-002   0.0000000000000000     
  -2.6399637950913501E-002   8.6210426335951426E-002   0.0000000000000000     
  -2.7340774821963367E-002   9.2685432847754379E-002   0.0000000000000000     
  -2.8233062594736832E-002   9.9324722052180334E-002   0.0000000000000000     
  -2.9076501269233886E-002  0.10612829394922929        0.0000000000000000     
  -2.9932418715695130E-002   8.0232099309526794E-002   0.0000000000000000     
  -3.1089974665152700E-002   8.6529847524695502E-002   0.0000000000000000     
  -3.2193721927336848E-002   9.2991163954596334E-002   0.0000000000000000     
  -3.3243660502247557E-002   9.9616048599229304E-002   0.0000000000000000     
  -3.4239790389884846E-002  0.10640450145859444        0.0000000000000000     
  -3.4629752747060108E-002   8.0587301161965663E-002   0.0000000000000000     
  -3.5960369683423046E-002   8.6867096326442836E-002   0.0000000000000000     
  -3.7235348743869044E-002   9.3309370794528682E-002   0.0000000000000000     
  -3.8454689928398116E-002   9.9914124566223214E-002   0.0000000000000000     
  -3.9618393237010260E-002  0.10668135764152642        0.0000000000000000     
  -1.9395864207355350E-002  0.10557782495119934        0.0000000000000000     
  -1.9952065180648237E-002  0.11253942309269813        0.0000000000000000     
  -2.0484801076307697E-002  0.11962861370192329        0.0000000000000000     
  -2.0994071894333739E-002  0.12684539677887482        0.0000000000000000     
  -2.1479877634726356E-002  0.13418977232355278        0.0000000000000000     
  -2.4128525875057389E-002  0.10585273511343089        0.0000000000000000     
  -2.4792391018573837E-002  0.11281655662347320        0.0000000000000000     
  -2.5413486219666125E-002  0.11991821803960956        0.0000000000000000     
  -2.5991811478334251E-002  0.12715771936184003        0.0000000000000000     
  -2.6527366794578223E-002  0.13453506059016457        0.0000000000000000     
  -2.9076501269233886E-002  0.10612829394922929        0.0000000000000000     
  -2.9867369731037405E-002  0.11308619140518929        0.0000000000000000     
  -3.0601946865730239E-002  0.12018845728634853        0.0000000000000000     
  -3.1280232673312404E-002  0.12743509159270691        0.0000000000000000     
  -3.1902227153783887E-002  0.13482609432426446        0.0000000000000000     
  -3.4239790389884846E-002  0.10640450145859444        0.0000000000000000     
  -3.5177001318038935E-002  0.11334832743784647        0.0000000000000000     
  -3.6050183014500047E-002  0.12043933144214013        0.0000000000000000     
  -3.6859335479268188E-002  0.12767751347147549        0.0000000000000000     
  -3.7604458712343358E-002  0.13506287352585239        0.0000000000000000     
  -3.9618393237010260E-002  0.10668135764152642        0.0000000000000000     
  -4.0721285779578419E-002  0.11360296472144471        0.0000000000000000     
  -4.1758194665975537E-002  0.12067084050698444        0.0000000000000000     
  -4.2729119896201609E-002  0.12788498499814571        0.0000000000000000     
  -4.3634061470256634E-002  0.13524539819492842        0.0000000000000000     
  -2.1479877634726356E-002  0.13418977232355278        0.0000000000000000     
  -2.1944767213794094E-002  0.14165707099097749        0.0000000000000000     
  -2.2391289547845507E-002  0.14924262343616954        0.0000000000000000     
  -2.2819444636880570E-002  0.15694642965912883        0.0000000000000000     
  -2.3229232480899305E-002  0.16476848965985547        0.0000000000000000     
  -2.6527366794578223E-002  0.13453506059016457        0.0000000000000000     
  -2.7010804106825229E-002  0.14205270438570419        0.0000000000000000     
  -2.7432775353502477E-002  0.14971311340957980        0.0000000000000000     
  -2.7793280534609964E-002  0.15751628766179138        0.0000000000000000     
  -2.8092319650147687E-002  0.16546222714233896        0.0000000000000000     
  -3.1902227153783887E-002  0.13482609432426446        0.0000000000000000     
  -3.2460334080169656E-002  0.14236070355861138        0.0000000000000000     
  -3.2946957225494664E-002  0.15003815737333792        0.0000000000000000     
  -3.3362096589758895E-002  0.15785845576844398        0.0000000000000000     
  -3.3705752172962379E-002  0.16582159874392957        0.0000000000000000     
  -3.7604458712343358E-002  0.13506287352585239        0.0000000000000000     
  -3.8293357133827380E-002  0.14258106850969918        0.0000000000000000     
  -3.8933835163822060E-002  0.15021775532744391        0.0000000000000000     
  -3.9525892802327392E-002  0.15797293397908665        0.0000000000000000     
  -4.0069530049343390E-002  0.16584660446462735        0.0000000000000000     
  -4.3634061470256634E-002  0.13524539819492842        0.0000000000000000     
  -4.4509873267798393E-002  0.14271379923896749        0.0000000000000000     
  -4.5393409168484659E-002  0.15025190727189777        0.0000000000000000     
  -4.6284669172315426E-002  0.15785972229371936        0.0000000000000000     
  -4.7183653279290701E-002  0.16553724430443217        0.0000000000000000     
   0.0000000000000000        0.0000000000000000        0.0000000000000000     
  -1.7975648916999085E-003   1.2783283494250015E-003   0.0000000000000000     
  -3.6196414280525004E-003   2.9419479801837379E-003   0.0000000000000000     
  -5.4662296090577768E-003   4.9908588922762094E-003   0.0000000000000000     
  -7.3373294347157366E-003   7.4250610857024158E-003   0.0000000000000000     
   0.0000000000000000        0.0000000000000000        0.0000000000000000     
  -2.0686135313743013E-003   1.3560361718969027E-003   0.0000000000000000     
  -4.1623010260053370E-003   3.0960267778485564E-003   0.0000000000000000     
  -6.2810624838931066E-003   5.2199718178549612E-003   0.0000000000000000     
  -8.4248979050376097E-003   7.7278712919161162E-003   0.0000000000000000     
   0.0000000000000000        0.0000000000000000        0.0000000000000000     
  -2.3392767748466152E-003   1.4597492910194869E-003   0.0000000000000000     
  -4.7184781883638956E-003   3.3012739090994376E-003   0.0000000000000000     
  -7.1376042405518411E-003   5.5245738542398521E-003   0.0000000000000000     
  -9.5966549314104518E-003   8.1296491264407286E-003   0.0000000000000000     
   0.0000000000000000        0.0000000000000000        0.0000000000000000     
  -2.6095546221168507E-003   1.5894677067927548E-003   0.0000000000000000     
  -5.2881729151281771E-003   3.5576893739363825E-003   0.0000000000000000     
  -8.0358548790339778E-003   5.9046650014308840E-003   0.0000000000000000     
  -1.0852600513834257E-002   8.6303945892762593E-003   0.0000000000000000     
   0.0000000000000000        0.0000000000000000        0.0000000000000000     
  -2.8794470731850069E-003   1.7451914192167053E-003   0.0000000000000000     
  -5.8713852062981806E-003   3.8652731723593904E-003   0.0000000000000000     
  -8.9758143993395219E-003   6.3602452594280559E-003   0.0000000000000000     
  -1.2192734652309028E-002   9.2301076804227004E-003   0.0000000000000000     
  -7.3373294347157366E-003   7.4250610857024158E-003   0.0000000000000000     
  -9.2249782107632784E-003   1.0192344431032865E-002   0.0000000000000000     
  -1.1121213242937305E-002   1.3240498798838067E-002   0.0000000000000000     
  -1.3026034531237813E-002   1.6569524189118019E-002   0.0000000000000000     
  -1.4939442075664805E-002   2.0179420601872722E-002   0.0000000000000000     
  -8.4248979050376097E-003   7.7278712919161162E-003   0.0000000000000000     
  -1.0585207398671317E-002   1.0562394003538618E-002   0.0000000000000000     
  -1.2753391074026703E-002   1.3666208756229066E-002   0.0000000000000000     
  -1.4929448931103760E-002   1.7039315549987461E-002   0.0000000000000000     
  -1.7113380969902496E-002   2.0681714384813796E-002   0.0000000000000000     
  -9.5966549314104518E-003   8.1296491264407286E-003   0.0000000000000000     
  -1.2071833013295072E-002   1.1049152979942084E-002   0.0000000000000000     
  -1.4539341238561054E-002   1.4215738668983922E-002   0.0000000000000000     
  -1.6999179607208394E-002   1.7629406193566254E-002   0.0000000000000000     
  -1.9451348119237096E-002   2.1290155553689065E-002   0.0000000000000000     
  -1.0852600513834257E-002   8.6303945892762593E-003   0.0000000000000000     
  -1.3684855054634544E-002   1.1652621360243259E-002   0.0000000000000000     
  -1.6479063736540366E-002   1.4889088537102635E-002   0.0000000000000000     
  -1.9235226559551722E-002   1.8339796119854392E-002   0.0000000000000000     
  -2.1953343523668626E-002   2.2004744108498526E-002   0.0000000000000000     
  -1.2192734652309028E-002   9.2301076804227004E-003   0.0000000000000000     
  -1.5424273522689722E-002   1.2372799144442146E-002   0.0000000000000000     
  -1.8572558567964630E-002   1.5686258360585209E-002   0.0000000000000000     
  -2.1637589788133745E-002   1.9170485328851884E-002   0.0000000000000000     
  -2.4619367183197068E-002   2.2825480049242182E-002   0.0000000000000000     
  -1.4939442075664805E-002   2.0179420601872722E-002   0.0000000000000000     
  -1.6836113975936488E-002   2.4040822861214322E-002   0.0000000000000000     
  -1.8690728331771059E-002   2.8124365791254963E-002   0.0000000000000000     
  -2.0503285143168536E-002   3.2430049391994648E-002   0.0000000000000000     
  -2.2273784410128901E-002   3.6957873663433359E-002   0.0000000000000000     
  -1.7113380969902496E-002   2.0681714384813796E-002   0.0000000000000000     
  -1.9274484888660834E-002   2.4565104495104535E-002   0.0000000000000000     
  -2.1382058385616742E-002   2.8661185115256151E-002   0.0000000000000000     
  -2.3436101460770190E-002   3.2969956245268627E-002   0.0000000000000000     
  -2.5436614114121195E-002   3.7491417885141973E-002   0.0000000000000000     
  -1.9451348119237096E-002   2.1290155553689065E-002   0.0000000000000000     
  -2.1868423582294030E-002   2.5178699620873102E-002   0.0000000000000000     
  -2.4222982804026065E-002   2.9275751266639095E-002   0.0000000000000000     
  -2.6515025784433200E-002   3.3581310490987046E-002   0.0000000000000000     
  -2.8744552523515432E-002   3.8095377293916960E-002   0.0000000000000000     
  -2.1953343523668626E-002   2.2004744108498526E-002   0.0000000000000000     
  -2.4617930056836060E-002   2.5881608238520003E-002   0.0000000000000000     
  -2.7213501586999044E-002   2.9968064245403797E-002   0.0000000000000000     
  -2.9740058114157558E-002   3.4264112129149905E-002   0.0000000000000000     
  -3.2197599638311626E-002   3.8769751889758314E-002   0.0000000000000000     
  -2.4619367183197068E-002   2.2825480049242182E-002   0.0000000000000000     
  -2.7523004312286933E-002   2.6673830348045255E-002   0.0000000000000000     
  -3.0353614734535666E-002   3.0738124051550249E-002   0.0000000000000000     
  -3.3111198449943278E-002   3.5018361159757184E-002   0.0000000000000000     
  -3.5795755458509763E-002   3.9514541672666048E-002   0.0000000000000000     
  -2.2273784410128901E-002   3.6957873663433359E-002   0.0000000000000000     
  -2.3996450955490644E-002   4.1702985421235898E-002   0.0000000000000000     
  -2.5665509602092230E-002   4.6660531481066997E-002   0.0000000000000000     
  -2.7280960349933658E-002   5.1830511842926669E-002   0.0000000000000000     
  -2.8842803199014923E-002   5.7212926506814914E-002   0.0000000000000000     
  -2.5436614114121195E-002   3.7491417885141973E-002   0.0000000000000000     
  -2.7382801836201336E-002   4.2224537362830751E-002   0.0000000000000000     
  -2.9273870117542192E-002   4.7168282006289482E-002   0.0000000000000000     
  -3.1109818958143777E-002   5.2322651815518186E-002   0.0000000000000000     
  -3.2890648358006078E-002   5.7687646790516869E-002   0.0000000000000000     
  -2.8744552523515432E-002   3.8095377293916960E-002   0.0000000000000000     
  -3.0913148086210079E-002   4.2817596409976171E-002   0.0000000000000000     
  -3.3022397537454444E-002   4.7747612573712024E-002   0.0000000000000000     
  -3.5072300877248538E-002   5.2885425785124514E-002   0.0000000000000000     
  -3.7062858105592338E-002   5.8231036044213653E-002   0.0000000000000000     
  -3.2197599638311626E-002   3.8769751889758314E-002   0.0000000000000000     
  -3.4587489705516873E-002   4.3482162562672184E-002   0.0000000000000000     
  -3.6911091861828976E-002   4.8398523183334631E-002   0.0000000000000000     
  -3.9168406107247915E-002   5.3518833751745667E-002   0.0000000000000000     
  -4.1359432441773709E-002   5.8843094267905294E-002   0.0000000000000000     
  -3.5795755458509763E-002   3.9514541672666048E-002   0.0000000000000000     
  -3.8405826694121729E-002   4.4218235820918772E-002   0.0000000000000000     
  -4.0939953090665789E-002   4.9121013835157303E-002   0.0000000000000000     
  -4.3398134648141934E-002   5.4222875715381633E-002   0.0000000000000000     
  -4.5780371366550179E-002   5.9523821461591769E-002   0.0000000000000000     
  -2.8842803199014923E-002   5.7212926506814914E-002   0.0000000000000000     
  -3.0355766720543641E-002   6.2790298783938742E-002   0.0000000000000000     
  -3.1824579485727415E-002   6.8545151985505121E-002   0.0000000000000000     
  -3.3249241494566234E-002   7.4477486111514113E-002   0.0000000000000000     
  -3.4629752747060108E-002   8.0587301161965663E-002   0.0000000000000000     
  -3.2890648358006078E-002   5.7687646790516869E-002   0.0000000000000000     
  -3.4616586043274396E-002   6.3246548861803573E-002   0.0000000000000000     
  -3.6287859740094026E-002   6.8982639959896369E-002   0.0000000000000000     
  -3.7904469448464970E-002   7.4895920084795259E-002   0.0000000000000000     
  -3.9466415168387239E-002   8.0986389236500228E-002   0.0000000000000000     
  -3.7062858105592338E-002   5.8231036044213653E-002   0.0000000000000000     
  -3.8992540545480667E-002   6.3769380672117321E-002   0.0000000000000000     
  -4.0859819519908316E-002   6.9485396989973372E-002   0.0000000000000000     
  -4.2664695028875300E-002   7.5379084997781814E-002   0.0000000000000000     
  -4.4407167072381591E-002   8.1450444695542676E-002   0.0000000000000000     
  -4.1359432441773709E-002   5.8843094267905294E-002   0.0000000000000000     
  -4.3483630227162451E-002   6.4358794214879972E-002   0.0000000000000000     
  -4.5540458825170285E-002   7.0053423075736143E-002   0.0000000000000000     
  -4.7529918235797185E-002   7.5926980850473821E-002   0.0000000000000000     
  -4.9452008459043170E-002   8.1979467539093021E-002   0.0000000000000000     
  -4.5780371366550179E-002   5.9523821461591769E-002   0.0000000000000000     
  -4.8089855088319762E-002   6.5014789490091512E-002   0.0000000000000000     
  -5.0329777655879919E-002   7.0686718217184669E-002   0.0000000000000000     
  -5.2500139069230664E-002   7.6539607642871266E-002   0.0000000000000000     
  -5.4600939328371970E-002   8.2573457767151248E-002   0.0000000000000000     
  -3.4629752747060108E-002   8.0587301161965663E-002   0.0000000000000000     
  -3.5960369683423046E-002   8.6867096326442836E-002   0.0000000000000000     
  -3.7235348743869044E-002   9.3309370794528682E-002   0.0000000000000000     
  -3.8454689928398116E-002   9.9914124566223214E-002   0.0000000000000000     
  -3.9618393237010260E-002  0.10668135764152642        0.0000000000000000     
  -3.9466415168387239E-002   8.0986389236500228E-002   0.0000000000000000     
  -4.0972445535960120E-002   8.7245995674727586E-002   0.0000000000000000     
  -4.2421309187282930E-002   9.3666687659193615E-002   0.0000000000000000     
  -4.3813006122355662E-002  0.10024846518989833        0.0000000000000000     
  -4.5147536341178317E-002  0.10699132826684173        0.0000000000000000     
  -4.4407167072381591E-002   8.1450444695542676E-002   0.0000000000000000     
  -4.6087824752999537E-002   8.7690368503083857E-002   0.0000000000000000     
  -4.7707257173301452E-002   9.4089748840233300E-002   0.0000000000000000     
  -4.9265464333287351E-002  0.10064858570699095        0.0000000000000000     
  -5.0762446232957205E-002  0.10736687910335690        0.0000000000000000     
  -4.9452008459043170E-002   8.1979467539093021E-002   0.0000000000000000     
  -5.1306507334541306E-002   8.8200214811511676E-002   0.0000000000000000     
  -5.3093192701924634E-002   9.4578554337647697E-002   0.0000000000000000     
  -5.4812064561193176E-002  0.10111448611750114        0.0000000000000000     
  -5.6463122912346918E-002  0.10780801015107197        0.0000000000000000     
  -5.4600939328371970E-002   8.2573457767151248E-002   0.0000000000000000     
  -5.6628493280585390E-002   8.8775534600011002E-002   0.0000000000000000     
  -5.8579115773152446E-002   9.5133104151436859E-002   0.0000000000000000     
  -6.0452806806073137E-002  0.10164616642142882        0.0000000000000000     
  -6.2249566379347449E-002  0.10831472140998688        0.0000000000000000     
  -3.9618393237010260E-002  0.10668135764152642        0.0000000000000000     
  -4.0721285779578419E-002  0.11360296472144471        0.0000000000000000     
  -4.1758194665975537E-002  0.12067084050698444        0.0000000000000000     
  -4.2729119896201609E-002  0.12788498499814571        0.0000000000000000     
  -4.3634061470256634E-002  0.13524539819492842        0.0000000000000000     
  -4.5147536341178317E-002  0.10699132826684173        0.0000000000000000     
  -4.6420730465208122E-002  0.11388664076182251        0.0000000000000000     
  -4.7628419115902293E-002  0.12092576654663939        0.0000000000000000     
  -4.8770602293260815E-002  0.12810870562129237        0.0000000000000000     
  -4.9847279997283715E-002  0.13543545798578144        0.0000000000000000     
  -5.0762446232957205E-002  0.10736687910335690        0.0000000000000000     
  -5.2195842724480308E-002  0.11423589306481842        0.0000000000000000     
  -5.3563293660025900E-002  0.12124689162686285        0.0000000000000000     
  -5.4864799039593994E-002  0.12839987478949019        0.0000000000000000     
  -5.6100358863184582E-002  0.13569484255270042        0.0000000000000000     
  -5.6463122912346918E-002  0.10780801015107197        0.0000000000000000     
  -5.8046622557394949E-002  0.11465072163043244        0.0000000000000000     
  -5.9562818298346351E-002  0.12163421574765486        0.0000000000000000     
  -6.1011710135201118E-002  0.12875849250273916        0.0000000000000000     
  -6.2393298067959263E-002  0.13602355189568541        0.0000000000000000     
  -6.2249566379347449E-002  0.10831472140998688        0.0000000000000000     
  -6.3973069963952078E-002  0.11513112645866458        0.0000000000000000     
  -6.5626993030863653E-002  0.12208773890901539        0.0000000000000000     
  -6.7211335580082215E-002  0.12918455876103932        0.0000000000000000     
  -6.8726097611607737E-002  0.13642158601473639        0.0000000000000000     
  -4.3634061470256634E-002  0.13524539819492842        0.0000000000000000     
  -4.4509873267798393E-002  0.14271379923896749        0.0000000000000000     
  -4.5393409168484659E-002  0.15025190727189777        0.0000000000000000     
  -4.6284669172315426E-002  0.15785972229371936        0.0000000000000000     
  -4.7183653279290701E-002  0.16553724430443217        0.0000000000000000     
  -4.9847279997283715E-002  0.13543545798578144        0.0000000000000000     
  -5.0922190939970136E-002  0.14284528539303928        0.0000000000000000     
  -5.2059073833319293E-002  0.15027744959599854        0.0000000000000000     
  -5.3257928677331146E-002  0.15773195059465925        0.0000000000000000     
  -5.4518755472005728E-002  0.16520878838902131        0.0000000000000000     
  -5.6100358863184582E-002  0.13569484255270042        0.0000000000000000     
  -5.7342618608230055E-002  0.14306191661853743        0.0000000000000000     
  -5.8664223752162750E-002  0.15043121868904502        0.0000000000000000     
  -6.0065174294982676E-002  0.15780274876422323        0.0000000000000000     
  -6.1545470236689839E-002  0.16517650684407198        0.0000000000000000     
  -6.2393298067959263E-002  0.13602355189568541        0.0000000000000000     
  -6.3771156272578122E-002  0.14336369291546203        0.0000000000000000     
  -6.5208858925015045E-002  0.15071321455103731        0.0000000000000000     
  -6.6706406025270046E-002  0.15807211680241140        0.0000000000000000     
  -6.8263797573343069E-002  0.16544039966958424        0.0000000000000000     
  -6.8726097611607737E-002  0.13642158601473639        0.0000000000000000     
  -7.0207803933014359E-002  0.14375061428381297        0.0000000000000000     
  -7.1692979351876171E-002  0.15112343718197543        0.0000000000000000     
  -7.3181623868193185E-002  0.15854005470922375        0.0000000000000000     
  -7.4673737481965402E-002  0.16600046686555797        0.0000000000000000     
   0.0000000000000000        0.0000000000000000        0.0000000000000000     
  -2.8794470731850069E-003   1.7451914192167053E-003   0.0000000000000000     
  -5.8713852062981806E-003   3.8652731723593904E-003   0.0000000000000000     
  -8.9758143993395219E-003   6.3602452594280559E-003   0.0000000000000000     
  -1.2192734652309028E-002   9.2301076804227004E-003   0.0000000000000000     
   0.0000000000000000        0.0000000000000000        0.0000000000000000     
  -3.2827282907969008E-003   1.9995753262031400E-003   0.0000000000000000     
  -6.6759802132481914E-003   4.3313215047160701E-003   0.0000000000000000     
  -1.0179755767353868E-002   6.9952385355387912E-003   0.0000000000000000     
  -1.3794054953113939E-002   9.9913264186713060E-003   0.0000000000000000     
   0.0000000000000000        0.0000000000000000        0.0000000000000000     
  -3.9531724376983485E-003   2.4252743256638590E-003   0.0000000000000000     
  -7.9098230873524914E-003   5.0631305713540299E-003   0.0000000000000000     
  -1.1869951948962426E-002   7.9135687370705150E-003   0.0000000000000000     
  -1.5833559022528157E-002   1.0976588822813315E-002   0.0000000000000000     
   0.0000000000000000        0.0000000000000000        0.0000000000000000     
  -4.8907795138893491E-003   3.0222884175988623E-003   0.0000000000000000     
  -9.5729138286110797E-003   6.0607003722732708E-003   0.0000000000000000     
  -1.4046402944165190E-002   9.1152358640232255E-003   0.0000000000000000     
  -1.8311246860551685E-002   1.2185894892848725E-002   0.0000000000000000     
   0.0000000000000000        0.0000000000000000        0.0000000000000000     
  -6.0955495193699043E-003   3.7906176020081504E-003   0.0000000000000000     
  -1.1665252437023960E-002   7.3240309074737910E-003   0.0000000000000000     
  -1.6709108752962165E-002   1.0600239916396921E-002   0.0000000000000000     
  -2.1227118467184523E-002   1.3619244628777543E-002   0.0000000000000000     
  -1.2192734652309028E-002   9.2301076804227004E-003   0.0000000000000000     
  -1.5424273522689722E-002   1.2372799144442146E-002   0.0000000000000000     
  -1.8572558567964630E-002   1.5686258360585209E-002   0.0000000000000000     
  -2.1637589788133745E-002   1.9170485328851884E-002   0.0000000000000000     
  -2.4619367183197068E-002   2.2825480049242182E-002   0.0000000000000000     
  -1.3794054953113939E-002   9.9913264186713060E-003   0.0000000000000000     
  -1.7401729778469457E-002   1.3221648150409587E-002   0.0000000000000000     
  -2.0885632251361495E-002   1.6588266727049609E-002   0.0000000000000000     
  -2.4245762371790037E-002   2.0091182148591378E-002   0.0000000000000000     
  -2.7482120139755099E-002   2.3730394415034901E-002   0.0000000000000000     
  -1.5833559022528157E-002   1.0976588822813315E-002   0.0000000000000000     
  -1.9728865182982582E-002   1.4211130196016417E-002   0.0000000000000000     
  -2.3484091305258591E-002   1.7576132224113823E-002   0.0000000000000000     
  -2.7099237389356195E-002   2.1071594907105522E-002   0.0000000000000000     
  -3.0574303435275382E-002   2.4697518244991525E-002   0.0000000000000000     
  -1.8311246860551685E-002   1.2185894892848725E-002   0.0000000000000000     
  -2.2405679736229089E-002   1.5341245281262636E-002   0.0000000000000000     
  -2.6367935729655925E-002   1.8649854851777833E-002   0.0000000000000000     
  -3.0198014840832205E-002   2.2111723604394312E-002   0.0000000000000000     
  -3.3895917069757919E-002   2.5726851539112076E-002   0.0000000000000000     
  -2.1227118467184523E-002   1.3619244628777543E-002   0.0000000000000000     
  -2.5432173438208982E-002   1.6611993406148256E-002   0.0000000000000000     
  -2.9537165524553499E-002   1.9809434610041660E-002   0.0000000000000000     
  -3.3542094726218073E-002   2.3211568240457753E-002   0.0000000000000000     
  -3.7446961043202706E-002   2.6818394297396540E-002   0.0000000000000000     
  -2.4619367183197068E-002   2.2825480049242182E-002   0.0000000000000000     
  -2.7523004312286933E-002   2.6673830348045255E-002   0.0000000000000000     
  -3.0353614734535666E-002   3.0738124051550249E-002   0.0000000000000000     
  -3.3111198449943278E-002   3.5018361159757184E-002   0.0000000000000000     
  -3.5795755458509763E-002   3.9514541672666048E-002   0.0000000000000000     
  -2.7482120139755099E-002   2.3730394415034901E-002   0.0000000000000000     
  -3.0618478638521386E-002   2.7548418378533158E-002   0.0000000000000000     
  -3.3678610951353619E-002   3.1587768891239182E-002   0.0000000000000000     
  -3.6662517078251793E-002   3.5848445953152952E-002   0.0000000000000000     
  -3.9570197019215908E-002   4.0330449564274486E-002   0.0000000000000000     
  -3.0574303435275382E-002   2.4697518244991525E-002   0.0000000000000000     
  -3.3939185325414158E-002   2.8498424759068046E-002   0.0000000000000000     
  -3.7223778942170549E-002   3.2518836970631293E-002   0.0000000000000000     
  -4.0428084285544529E-002   3.6758754879681263E-002   0.0000000000000000     
  -4.3552101355536110E-002   4.1218178486217970E-002   0.0000000000000000     
  -3.3895917069757919E-002   2.5726851539112076E-002   0.0000000000000000     
  -3.7485124372965278E-002   2.9523849489649898E-002   0.0000000000000000     
  -4.0989118706986460E-002   3.3531328289726575E-002   0.0000000000000000     
  -4.4407900071821486E-002   3.7749287939342110E-002   0.0000000000000000     
  -4.7741468467470363E-002   4.2177728438496494E-002   0.0000000000000000     
  -3.7446961043202706E-002   2.6818394297396540E-002   0.0000000000000000     
  -4.1256295781174700E-002   3.0624692570278732E-002   0.0000000000000000     
  -4.4974630245801360E-002   3.4625242848525056E-002   0.0000000000000000     
  -4.8601964437082687E-002   3.8820045132135501E-002   0.0000000000000000     
  -5.2138298355018681E-002   4.3209099421110064E-002   0.0000000000000000     
  -3.5795755458509763E-002   3.9514541672666048E-002   0.0000000000000000     
  -3.8405826694121729E-002   4.4218235820918772E-002   0.0000000000000000     
  -4.0939953090665789E-002   4.9121013835157303E-002   0.0000000000000000     
  -4.3398134648141934E-002   5.4222875715381633E-002   0.0000000000000000     
  -4.5780371366550179E-002   5.9523821461591769E-002   0.0000000000000000     
  -3.9570197019215908E-002   4.0330449564274486E-002   0.0000000000000000     
  -4.2396999271313560E-002   4.5020849877484274E-002   0.0000000000000000     
  -4.5138272331612349E-002   4.9906717045662831E-002   0.0000000000000000     
  -4.7794016200112290E-002   5.4988051068810162E-002   0.0000000000000000     
  -5.0364230876813361E-002   6.0264851946926261E-002   0.0000000000000000     
  -4.3552101355536110E-002   4.1218178486217970E-002   0.0000000000000000     
  -4.6589847656381314E-002   4.5885038425137019E-002   0.0000000000000000     
  -4.9535340692316167E-002   5.0747265331334016E-002   0.0000000000000000     
  -5.2388580463340662E-002   5.5804859204808994E-002   0.0000000000000000     
  -5.5149566969454840E-002   6.1057820045561921E-002   0.0000000000000000     
  -4.7741468467470363E-002   4.2177728438496494E-002   0.0000000000000000     
  -5.0984371849324972E-002   4.6810801463877005E-002   0.0000000000000000     
  -5.4131158172777208E-002   5.1642658692170870E-002   0.0000000000000000     
  -5.7181827437827092E-002   5.6673300123378130E-002   0.0000000000000000     
  -6.0136379644474602E-002   6.1902725757498757E-002   0.0000000000000000     
  -5.2138298355018681E-002   4.3209099421110064E-002   0.0000000000000000     
  -5.5580571850144547E-002   4.7798138993704213E-002   0.0000000000000000     
  -5.8925724772995507E-002   5.2592897128173381E-002   0.0000000000000000     
  -6.2173757123571538E-002   5.7593373824517576E-002   0.0000000000000000     
  -6.5324668901872662E-002   6.2799569082736789E-002   0.0000000000000000     
  -4.5780371366550179E-002   5.9523821461591769E-002   0.0000000000000000     
  -4.8089855088319762E-002   6.5014789490091512E-002   0.0000000000000000     
  -5.0329777655879919E-002   7.0686718217184669E-002   0.0000000000000000     
  -5.2500139069230664E-002   7.6539607642871266E-002   0.0000000000000000     
  -5.4600939328371970E-002   8.2573457767151248E-002   0.0000000000000000     
  -5.0364230876813361E-002   6.0264851946926261E-002   0.0000000000000000     
  -5.2856023389798217E-002   6.5730670606789193E-002   0.0000000000000000     
  -5.5276500767149482E-002   7.1379057975177046E-002   0.0000000000000000     
  -5.7625663008867171E-002   7.7210014052089812E-002   0.0000000000000000     
  -5.9903510114951271E-002   8.3223538837527505E-002   0.0000000000000000     
  -5.5149566969454840E-002   6.1057820045561921E-002   0.0000000000000000     
  -5.7826943392443417E-002   6.6499741674010224E-002   0.0000000000000000     
  -6.0429352914091197E-002   7.2124217910571345E-002   0.0000000000000000     
  -6.2956795534398161E-002   7.7931248755245222E-002   0.0000000000000000     
  -6.5409271253364321E-002   8.3920834208031939E-002   0.0000000000000000     
  -6.0136379644474602E-002   6.1902725757498757E-002   0.0000000000000000     
  -6.3002615096255390E-002   6.7322002691754618E-002   0.0000000000000000     
  -6.5788334096705064E-002   7.2922198023367538E-002   0.0000000000000000     
  -6.8493536645823638E-002   7.8703311752337496E-002   0.0000000000000000     
  -7.1118222743611140E-002   8.4665343878664548E-002   0.0000000000000000     
  -6.5324668901872662E-002   6.2799569082736789E-002   0.0000000000000000     
  -6.8383038501234117E-002   6.8197453660022361E-002   0.0000000000000000     
  -7.1353444314991105E-002   7.3772998313565652E-002   0.0000000000000000     
  -7.4235886343143639E-002   7.9526203043366633E-002   0.0000000000000000     
  -7.7030364585691707E-002   8.5457067849425319E-002   0.0000000000000000     
  -5.4600939328371970E-002   8.2573457767151248E-002   0.0000000000000000     
  -5.6628493280585390E-002   8.8775534600011002E-002   0.0000000000000000     
  -5.8579115773152446E-002   9.5133104151436859E-002   0.0000000000000000     
  -6.0452806806073137E-002  0.10164616642142882        0.0000000000000000     
  -6.2249566379347449E-002  0.10831472140998688        0.0000000000000000     
  -5.9903510114951271E-002   8.3223538837527505E-002   0.0000000000000000     
  -6.2102387188334253E-002   8.9405322581712507E-002   0.0000000000000000     
  -6.4214639331948584E-002   9.5741055534867212E-002   0.0000000000000000     
  -6.6240266545794263E-002  0.10223073769699166        0.0000000000000000     
  -6.8179268829871270E-002  0.10887436906808583        0.0000000000000000     
  -6.5409271253364321E-002   8.3920834208031939E-002   0.0000000000000000     
  -6.7776793654990286E-002   9.0078573469746806E-002   0.0000000000000000     
  -7.0049376323276707E-002   9.6390065741205261E-002   0.0000000000000000     
  -7.2227019258223571E-002  0.10285531102240732        0.0000000000000000     
  -7.4309722459830849E-002  0.10947430931335292        0.0000000000000000     
  -7.1118222743611140E-002   8.4665343878664548E-002   0.0000000000000000     
  -7.3651712680553524E-002   9.0795287264113927E-002   0.0000000000000000     
  -7.6083326747136845E-002   9.7080134770451021E-002   0.0000000000000000     
  -7.8413064943361060E-002  0.10351988639767576        0.0000000000000000     
  -8.0640927269226184E-002  0.11011454214578817        0.0000000000000000     
  -7.7030364585691707E-002   8.5457067849425319E-002   0.0000000000000000     
  -7.9727144265023947E-002   9.1555463964813871E-002   0.0000000000000000     
  -8.2316490603528969E-002   9.7811262622604436E-002   0.0000000000000000     
  -8.4798403601206745E-002  0.10422446382279699        0.0000000000000000     
  -8.7172883258057277E-002  0.11079506756539156        0.0000000000000000     
  -6.2249566379347449E-002  0.10831472140998688        0.0000000000000000     
  -6.3973069963952078E-002  0.11513112645866458        0.0000000000000000     
  -6.5626993030863653E-002  0.12208773890901539        0.0000000000000000     
  -6.7211335580082215E-002  0.12918455876103932        0.0000000000000000     
  -6.8726097611607737E-002  0.13642158601473639        0.0000000000000000     
  -6.8179268829871270E-002  0.10887436906808583        0.0000000000000000     
  -7.0038783707308025E-002  0.11566481845021459        0.0000000000000000     
  -7.1825948701232892E-002  0.12259495464544289        0.0000000000000000     
  -7.3540763811645857E-002  0.12966477765377069        0.0000000000000000     
  -7.5183229038546961E-002  0.13687428747519798        0.0000000000000000     
  -7.4309722459830849E-002  0.10947430931335292        0.0000000000000000     
  -7.6307362550619179E-002  0.11623950850578234        0.0000000000000000     
  -7.8229816153109116E-002  0.12314335649143580        0.0000000000000000     
  -8.0077083267300661E-002  0.13018585327031326        0.0000000000000000     
  -8.1849163893193841E-002  0.13736699884241485        0.0000000000000000     
  -8.0640927269226184E-002  0.11011454214578817        0.0000000000000000     
  -8.2778806493885526E-002  0.11685519662536779        0.0000000000000000     
  -8.4838595386492327E-002  0.12373294444699412        0.0000000000000000     
  -8.6820293947046642E-002  0.13074778561066716        0.0000000000000000     
  -8.8723902175548389E-002  0.13789972011638696        0.0000000000000000     
  -8.7172883258057277E-002  0.11079506756539156        0.0000000000000000     
  -8.9453115537107067E-002  0.11751188280897093        0.0000000000000000     
  -9.1652286401382566E-002  0.12436371851211785        0.0000000000000000     
  -9.3770395850883745E-002  0.13135057467483230        0.0000000000000000     
  -9.5807443885610633E-002  0.13847245129711436        0.0000000000000000     
  -6.8726097611607737E-002  0.13642158601473639        0.0000000000000000     
  -7.0207803933014359E-002  0.14375061428381297        0.0000000000000000     
  -7.1692979351876171E-002  0.15112343718197543        0.0000000000000000     
  -7.3181623868193185E-002  0.15854005470922375        0.0000000000000000     
  -7.4673737481965402E-002  0.16600046686555797        0.0000000000000000     
  -7.5183229038546961E-002  0.13687428747519798        0.0000000000000000     
  -7.6760602653836774E-002  0.14419484503356952        0.0000000000000000     
  -7.8280142929415958E-002  0.15159781125273000        0.0000000000000000     
  -7.9741849865284542E-002  0.15908318613267947        0.0000000000000000     
  -8.1145723461442471E-002  0.16665096967341789        0.0000000000000000     
  -8.1849163893193841E-002  0.13736699884241485        0.0000000000000000     
  -8.3537593499343449E-002  0.14466854947471086        0.0000000000000000     
  -8.5133907554304333E-002  0.15207226143417180        0.0000000000000000     
  -8.6638106058076453E-002  0.15957813472079771        0.0000000000000000     
  -8.8050189010659849E-002  0.16718616933458852        0.0000000000000000     
  -8.8723902175548389E-002  0.13789972011638696        0.0000000000000000     
  -9.0538776469534357E-002  0.14517172760723698        0.0000000000000000     
  -9.2254273226541228E-002  0.15254678772630087        0.0000000000000000     
  -9.3870392446568959E-002  0.16002490047357851        0.0000000000000000     
  -9.5387134129617593E-002  0.16760606584906998        0.0000000000000000     
  -9.5807443885610633E-002  0.13847245129711436        0.0000000000000000     
  -9.7764151564409513E-002  0.14570437943114795        0.0000000000000000     
  -9.9641239946126642E-002  0.15302139012911711        0.0000000000000000     
 -0.10143870903076202       0.16042348339102186        0.0000000000000000     
 -0.10315655881831566       0.16791065921686216        0.0000000000000000     
 </DataArray>
 <DataArray  type="Float64" Name="stress" NumberOfComponents="3" format="ascii">
   13417892050.275450        4025367615.0826349        2893499339.9930353     
   11768493219.258389        1890092245.9783144        1715457641.3566313     
   10316513596.330711        412880903.83861351        810393449.39595246     
   9061953181.4924240       -406266411.33646631        178306764.11099818     
   8004811974.7435217       -567349699.54692411       -180802414.49823222     
   10542021197.170393        3162606359.1511178        2224853357.1146216     
   9670161864.7281246        1589565338.0980616        1445947621.0271921     
   8947050469.1513100        512350773.26318550        862425296.84820151     
   8372687010.4399481       -69037335.353510857        474286384.57764995     
   7947071488.5940418       -154598987.75202894        281530884.21553832     
   8340442273.7099857        2502132682.1129956        1711126833.1471529     
   8024425026.2216930        1424816785.0249591        1274573909.8474436     
   7808484444.3749228        681089773.40866160        955810303.68888724     
   7692620528.1696730        270951647.26410198        754836014.67148495     
   7676833277.6059456        194402406.59128237        671651042.79523587     
   6813155279.8942280        2043946583.9682684        1352319768.0906293     
   6831282703.7390966        1395846586.7590070        1201336507.8173852     
   6900815522.0015516        919097904.27504301        1090548469.9180100     
   7021753734.6815977        613700536.51637697        1019955654.3925012     
   7194097341.7792330        479654483.48300910        989558061.24086094     
   5960160215.7231188        1788048064.7169356        1148432161.9450507     
   6090734897.2803307        1502654743.3002038        1226235414.9370186     
   6224043702.0311985        1226375165.8623290        1266639795.5355685     
   6360086629.9757233        959209332.40331113        1269645303.7407002     
   6498863681.1139059        701157242.92315078        1235251939.5524147     
   8004811974.7435217       -567349699.54692411       -180802414.49823222     
   7923508344.5160751       -199408778.83917952       -78492507.855294347     
   7800569859.5806284        29749292.841894150       -8932423.0272072908     
   7635996519.9371796        120124515.49629736        27877839.986032151     
   7429788325.5857286        71716889.124027729        31938281.184419498     
   7947071488.5940418       -154598987.75202894        281530884.21553832     
   7745007687.1558781        16879096.343715191        280449357.54073977     
   7519453676.5700283        110056483.28048611        264562790.96762457     
   7270409456.8364820        124933173.05828476        233871184.49619830     
   6997875027.9552469        61509165.677108765        188374538.12645656     
   7676833277.6059456        194402406.59128237        671651042.79523587     
   7405280110.4328833        184798895.71777344        588346835.95639551     
   7128381379.6724415        157376839.55298710        508182371.13577503     
   6846137085.3246155        112136238.09692144        431157648.33337611     
   6558547227.3894043        49077091.349581003        357272667.54919678     
   7194097341.7792330        479654483.48300910        989558061.24086094     
   6904325614.3470869        304350619.28298783        845199927.39167225     
   6627352968.8878670        171710361.65938854        721926317.47724044     
   6363179405.4015741        81733710.612206697        619737231.49756312     
   6111804923.8882084        34420666.141447306        538632669.45263958     
   6498863681.1139059        701157242.92315078        1235251939.5524147     
   6242144198.8984900        375534267.03936481        1051008631.8465723     
   6016368444.2163086        153057049.59969449        905794629.99202096     
   5821536417.0673618        33725590.604141474        799609933.98875904     
   5657648117.4516506        17539890.052705050        732454543.83678830     
   7429788325.5857286        71716889.124027729        31938281.184419498     
   7227724658.9327078       -19744847.929206848        14566528.320235040     
   7038088724.5763760       -69780810.660147190        1762128.7778816519     
   6860880522.5167274       -78390999.068807602       -6474917.4426401900     
   6696100052.7537680       -45575413.155173779       -10144610.341327444     
   6997875027.9552469        61509165.677108765        188374538.12645656     
   6816273879.2690239        1802432.1208853722        179936067.91618654     
   6642627086.8292513       -31389780.613841057        175342565.09000531     
   6476934650.6359310       -38067472.527059555        174594029.64790404     
   6319196570.6890545       -18230643.618795872        177690461.58989665     
   6558547227.3894043        49077091.349581003        357272667.54919678     
   6395344636.8478518        20506173.343726397        352548541.26756585     
   6235623026.5025120        3538522.6585841179        350946996.43227279     
   6079382396.3533850       -1825860.7058491707        352468033.04332775     
   5926622746.4004688        4413023.2504189014        357111651.10072315     
   6111804923.8882084        34420666.141447306        538632669.45263958     
   5964936931.6691952        36366375.739326715        532403948.37436950     
   5817076543.5961571        35004099.157121181        528575422.80469614     
   5668223759.6690931        30333836.394836903        527147092.74362183     
   5518378579.8880062        22355587.452471733        528118958.19114137     
   5657648117.4516506        17539890.052705050        732454543.83678830     
   5525050763.7330513        49383039.307676315        719502289.23660278     
   5386987638.1101875        63006948.881778955        708227844.20726907     
   5243458740.5830622        58411618.775007486        698631208.74879062     
   5094464071.1516752        35597048.987361670        690712382.86115956     
   6696100052.7537680       -45575413.155173779       -10144610.341327444     
   6520456381.1354408       -5439725.9897203445       -3344116.3530272096     
   6339360182.8083925        16520872.146660805        4255424.6941429051     
   6152811457.7726336        20306381.254013300        12654012.800175212     
   5960810206.0281572        5916801.3322947025        21851647.965078682     
   6319196570.6890545       -18230643.618795872        177690461.58989665     
   6142034418.8317890        2832437.3933675289        174716135.97253823     
   5961568552.7129097        12883137.533487320        174176072.22480342     
   5777798972.3324242        11921456.801584959        176070270.34670600     
   5590725677.6903210       -52604.802374601364        180398730.33824050     
   5926622746.4004688        4413023.2504189014        357111651.10072315     
   5752614156.6207342        7805110.8042345047        346869453.73265356     
   5577450665.0264940        7347525.6430311203        340696733.04497749     
   5401132271.6177492        3040267.7668135166        338593489.03769743     
   5223658976.3944960       -5116662.8244302273        340559721.71081686     
   5518378579.8880062        22355587.452471733        528118958.19114137     
   5352195594.5022774        9478294.2428827286        513115836.92731851     
   5187006519.7491465       -85963.524706125259        503817407.15465891     
   5022811355.6286125       -6337185.8502976894        500223668.87316066     
   4859610102.1406860       -9275372.7338836193        502334622.08281940     
   5094464071.1516752        35597048.987361670        690712382.86115956     
   4940778732.4764156        7851987.7093100548        673455285.55654228     
   4790236116.8808632       -9417329.9697248936        663538094.55384910     
   4642836224.3650188       -16210904.049738646        660960809.85308278     
   4498579054.9288740       -12528734.530743837        665723431.45424187     
   5960810206.0281572        5916801.3322947025        21851647.965078682     
   5790703429.1880989       -5836671.2757740021        12519691.317849271     
   5623456496.5352020       -8057329.9266448021        8654895.6091588773     
   5459069408.0694742       -745174.62028050423        10257260.839000773     
   5297542163.7909107        16099794.643296480        17326787.007378485     
   5590725677.6903210       -52604.802374601364        180398730.33824050     
   5435581138.5538969       -4763136.8045487404        174302899.18611243     
   5282213876.0637341       -3549413.3191862106        172624026.72766235     
   5130623890.2198439        3588565.6537473202        175362112.96287602     
   4980811181.0222225        16650800.114243031        182517157.89175779     
   5223658976.3944960       -5116662.8244302273        340559721.71081686     
   5080476097.1192245       -3684427.5734651089        336437020.58942026     
   4937987926.9493246        63504.695390701294        335681075.91682619     
   4796194465.8847961        6127133.9821667671        338291887.69302803     
   4655095713.9256344        14506460.286825895        344269455.91803885     
   4859610102.1406860       -9275372.7338836193        502334622.08281940     
   4725388304.8840895       -2600543.5825200081        498922055.52776724     
   4590778649.1919737        2781424.1170911789        497826043.17664844     
   4455781135.0643272        6870530.3649451733        499046585.02946478     
   4320395762.5011549        9666775.1610383987        502583681.08621973     
   4498579054.9288740       -12528734.530743837        665723431.45424187     
   4370317761.8484869       -1511484.8317134380        661758004.00115192     
   4240586042.7916765        4604344.9459013939        659058928.50713181     
   4109383897.7584424        5818754.8021035194        657626204.97218013     
   3976711326.7487831        2131744.7368862629        657459833.39629853     
   5297542163.7909107        16099794.643296480        17326787.007378485     
   5089247931.8929071        20127983.435778141        17400645.552218840     
   4878893844.2570324        17289986.435360909        19461048.417114865     
   4666479900.8832788        7585803.6420171261        23507995.602064639     
   4452006101.7716417       -8984564.9442760944        29541487.107061118     
   4980811181.0222225        16650800.114243031        182517157.89175779     
   4778017296.4413881        14653035.319060326        178353301.05183506     
   4573996258.3083220        8564758.6830852032        177824540.96376815     
   4368748066.6230326       -1614029.7936260700        180930877.62754005     
   4162272721.3855047       -15883330.111125708        187672311.04316583     
   4655095713.9256344        14506460.286825895        344269455.91803885     
   4462512326.4671011        7895786.8454985619        336839369.57660913     
   4269534487.6419864       -29724.484438419342        334692932.41882294     
   4076162197.4502797       -9270073.7030150890        337830144.44468009     
   3882395455.8919892       -19825260.810198784        346251005.65418267     
   4320395762.5011549        9666775.1610383987        502583681.08621973     
   4142733021.9700480       -143761.98489928246        492858851.12653184     
   3965508532.2580042       -8493463.0672924519        490066222.78228796     
   3788722293.3650193       -15382328.086152315        494205796.05348223     
   3612374305.2910976       -20810357.041476250        505277570.94011569     
   3976711326.7487831        2131744.7368862629        657459833.39629853     
   3818679382.9502316       -9465611.1721148491        646411745.70160854     
   3661918392.1563907       -16826457.065417767        643944412.05415869     
   3506428354.3672552       -19950792.943040133        650057832.45394158     
   3352209269.5828280       -18838618.804967165        664752006.90096021     
   4452006101.7716417       -8984564.9442760944        29541487.107061118     
   4289655351.6081743       -10236339.610792160        16756101.328101287     
   4129154575.3596997       -5321534.5606780052        11976107.240494983     
   3970503773.0262327        5759850.2061285973        15201504.844252456     
   3813702944.6077499        23007814.689561129        26432294.139366020     
   4162272721.3855047       -15883330.111125708        187672311.04316583     
   4019010870.6266398       -11506411.406124115        178696342.52783087     
   3876766615.6258721       -3737506.8407969475        175099821.85431829     
   3735539956.3831959        7423383.5848453045        176882749.02263707     
   3595330892.8986077        21976259.870768785        184045124.03278083     
   3882395455.8919892       -19825260.810198784        346251005.65418267     
   3750719807.8247752       -12070457.747565269        340113346.55275232     
   3619229377.3587565       -3698262.6809439659        336729191.44361258     
   3487924164.4939318        5291324.3896598816        336098540.32676739     
   3356804169.2303004        14898303.464236259        338221393.20222878     
   3612374305.2910976       -20810357.041476250        505277570.94011569     
   3484782163.2025867       -11928478.635091782        501007113.40287042     
   3356542860.5583792       -5203802.0810422897        496864216.00838512     
   3227656397.3584580       -636327.37936520576        492848878.75667286     
   3098122773.6028314        1773945.4699639082        488961101.64772600     
   3352209269.5828280       -18838618.804967165        664752006.90096021     
   3221197936.7600799       -11080474.068705440        661377643.07818365     
   3088707065.2247262       -8254125.0411405563        655504895.54864049     
   2954736654.9767628       -10359571.722265720        647133764.31233120     
   2819286706.0161982       -17396814.112067819        636264249.36925995     
   3813702944.6077499        23007814.689561129        26432294.139366020     
   3619249202.1797881        25907846.053746939        28395251.414594132     
   3420933139.2985296        15933475.906955004        25680275.409532934     
   3218754755.9639702       -6915295.7508409023        18287366.124198429     
   3012714052.1761274       -42638468.919591546        6216523.5585887050     
   3595330892.8986077        21976259.870768785        184045124.03278083     
   3393904220.4899011        17077684.743877411        178585447.47065786     
   3190743797.1128139        6399939.7223668098        174239590.31695384     
   2985849622.7673349       -10056975.193781018        171007552.57168472     
   2779221697.4534683       -32293060.004564285        168889334.23483324     
   3356804169.2303004        14898303.464236259        338221393.20222878     
   3164952431.6657143        7165481.2937340736        327822413.86848891     
   2973495512.6176543        748720.84497117996        324329006.63187325     
   2782433412.0861006       -4351977.8821110725        327741171.49239010     
   2591766130.0710511       -8136614.8874778748        338058908.45000076     
   3098122773.6028314        1773945.4699639082        488961101.64772600     
   2932393835.7072220       -3828764.2966953516        476106150.60809278     
   2769188285.8130260       -1020180.7252978086        475948524.35427755     
   2608506123.9202533        10199696.184160233        488488222.88628042     
   2450347350.0288954        29830866.431700230        513725246.20410341     
   2819286706.0161982       -17396814.112067819        636264249.36925995     
   2696228432.6144128       -15905052.027423501        623436657.68945527     
   2577822116.6989512        1093235.0116266012        629098143.48416293     
   2464067758.2698002        33598047.005071402        653248706.75338566     
   2354965357.3269944        81609383.952954888        695888347.49713540     
   5960160215.7231188        1788048064.7169356        1148432161.9450507     
   6090734897.2803307        1502654743.3002038        1226235414.9370186     
   6224043702.0311985        1226375165.8623290        1266639795.5355685     
   6360086629.9757233        959209332.40331113        1269645303.7407002     
   6498863681.1139059        701157242.92315078        1235251939.5524147     
   5436239492.1671810        1630871847.6501544        1031764766.4420763     
   5491540556.5930557        1372847396.6388988        1112088171.0899839     
   5549045933.2489357        1122170653.0609951        1165591772.5520940     
   5608755622.1348200        878841616.91644359        1192275570.8284066     
   5670669623.2507124        642860288.20524454        1192139565.9189219     
   4896175520.1969395        1468852656.0590818        934618333.31336403     
   4906428879.5132484        1247264849.0598340        1016843776.8262848     
   4918356740.0959120        1031258712.9484336        1082828486.3610284     
   4931959101.9449301        820834247.72487962        1132572461.9175949     
   4947235965.0602999        615991453.38917255        1166075703.4959848     
   4339968299.8123913        1301990489.9437172        856992862.55891418     
   4335399866.0409079        1125907100.5630093        940502232.14592123     
   4331976122.5721264        953639345.52464318        1018349936.9623717     
   4329697069.4060507        785187224.82861924        1090535977.0082657     
   4328562706.5426750        620550738.47493696        1157060352.2836025     
   3767617831.0135379        1130285349.3040614        798888354.17872655     
   3778453516.1760359        1008774151.1484250        883063537.04889321     
   3789904080.6775837        889312550.78962529        972156124.35612381     
   3801969524.5181832        771900548.22766232        1066166116.1004175     
   3814649847.6978331        656538143.46253610        1165093512.2817752     
   6498863681.1139059        701157242.92315078        1235251939.5524147     
   6242144198.8984900        375534267.03936481        1051008631.8465723     
   6016368444.2163086        153057049.59969449        905794629.99202096     
   5821536417.0673618        33725590.604141474        799609933.98875904     
   5657648117.4516506        17539890.052705050        732454543.83678830     
   5670669623.2507124        642860288.20524454        1192139565.9189219     
   5520936555.5630026        383357223.08565736        1071191145.6092013     
   5395354593.8206902        204357844.45072031        978252220.44699705     
   5293923738.0237703        105862152.30043435        913322790.43230891     
   5216643988.1722488        87870146.634799480        876402855.56513572     
   4947235965.0602999        615991453.38917255        1166075703.4959848     
   4873004138.4609451        413162747.00197792        1100497445.3965733     
   4816130796.2191420        268195655.13996792        1051908871.7409034     
   4776615938.3348999        181090177.80314398        1020309982.5289747     
   4754459564.8082075        151846314.99150443        1005700777.7607883     
   4328562706.5426750        620550738.47493696        1157060352.2836025     
   4298346947.5923138        464950838.78832746        1138927531.2086868     
   4278697051.4116716        344570481.66743839        1126764583.8737385     
   4269613018.0007448        259409667.11226845        1120571510.2787578     
   4271094847.3595319        209468395.12281752        1120348310.4237425     
   3814649847.6978331        656538143.46253610        1165093512.2817752     
   3796964982.9571152        538721498.44470584        1186481403.0455425     
   3783053359.3982739        433482324.03313017        1202819356.8455031     
   3772914977.0213084        340820620.22780859        1214107373.6816561     
   3766549835.8262186        260736387.02874100        1220345453.5540016     
   5657648117.4516506        17539890.052705050        732454543.83678830     
   5525050763.7330513        49383039.307676315        719502289.23660278     
   5386987638.1101875        63006948.881778955        708227844.20726907     
   5243458740.5830622        58411618.775007486        698631208.74879062     
   5094464071.1516752        35597048.987361670        690712382.86115956     
   5216643988.1722488        87870146.634799480        876402855.56513572     
   5081148388.7791958        85715195.186169386        852699712.39170039     
   4943458920.1964407        76247346.438526869        832935055.44482124     
   4803575582.4239807        59466600.391864538        817108884.72449815     
   4661498375.4618130        35372957.046190262        805221200.23073101     
   4754459564.8082075        151846314.99150443        1005700777.7607883     
   4622524795.8998632        117630985.68702078        975063965.84775102     
   4491668060.5163698        87009101.465379000        950626316.81697476     
   4361889358.6577291        59980662.326577663        932387830.66846049     
   4233188690.3239412        36545668.270618677        920348507.40220559     
   4271094847.3595319        209468395.12281752        1120348310.4237425     
   4149179985.0950489        145130410.81022739        1086595049.6047549     
   4031615059.0699754        95292213.962332964        1061301628.3237314     
   3918400069.2843113        59953804.579138041        1044468046.5806750     
   3809535015.7380552        39115182.660642147        1036094304.3755842     
   3766549835.8262186        260736387.02874100        1220345453.5540016     
   3661113956.3647528        168213470.55578804        1187292963.6627109     
   3563299915.8572536        101096683.92939019        1164960989.9650927     
   3473107714.3037205        59386027.149546385        1153349532.4611425     
   3390537351.7041545        43081500.216259599        1152458591.1508636     
   5094464071.1516752        35597048.987361670        690712382.86115956     
   4940778732.4764156        7851987.7093100548        673455285.55654228     
   4790236116.8808632       -9417329.9697248936        663538094.55384910     
   4642836224.3650188       -16210904.049738646        660960809.85308278     
   4498579054.9288740       -12528734.530743837        665723431.45424187     
   4661498375.4618130        35372957.046190262        805221200.23073101     
   4527406267.5110922        13908023.900596619        792267725.08278513     
   4395661774.1324749        268472.66201281548        785596799.23660731     
   4266264895.3259668       -5545696.6695420742        785208422.69219184     
   4139215631.0915623       -3534484.0940787792        791102595.44954777     
   4233188690.3239412        36545668.270618677        920348507.40220559     
   4115668793.0972986        20454557.257332563        910771027.81873465     
   3999701401.9351630        9538466.4590733051        906418740.53687000     
   3885286516.8375378        3797395.8758416176        907291645.55661488     
   3772424137.8044171        3231345.5076332092        913389742.87796175     
   3809535015.7380552        39115182.660642147        1036094304.3755842     
   3705566309.2350368        27491587.779533625        1028965193.7643907     
   3602355000.2889261        18392651.421453238        1026003918.4546400     
   3499901088.8997278        11818373.586411953        1027210478.4463392     
   3398204575.0674386        7768754.2743971348        1032584873.7394886     
   3390537351.7041545        43081500.216259599        1152458591.1508636     
   3297098815.9243054        35019115.467191577        1146850222.9197440     
   3203622569.1937680        26831027.549159527        1144352332.9899170     
   3110108611.5125422        18517236.462169051        1144964921.3613760     
   3016556942.8806257        10077742.206207752        1148687988.0341232     
   4498579054.9288740       -12528734.530743837        665723431.45424187     
   4370317761.8484869       -1511484.8317134380        661758004.00115192     
   4240586042.7916765        4604344.9459013939        659058928.50713181     
   4109383897.7584424        5818754.8021035194        657626204.97218013     
   3976711326.7487831        2131744.7368862629        657459833.39629853     
   4139215631.0915623       -3534484.0940787792        791102595.44954777     
   4014484604.5228209        1542740.2144339085        783998730.08772063     
   3888968957.0742974        4004561.5903320312        779714877.48128855     
   3762668688.7459855        3850980.0336050987        778251037.63024867     
   3635583799.5378852        1081995.5442514420        779607210.53460634     
   3772424137.8044171        3231345.5076332092        913389742.87796175     
   3655662408.5939651        3700253.6796231270        903947545.55347848     
   3538801863.6003652        3839775.9077904224        898879021.78071404     
   3421842502.8236160        3649912.1921262741        898184171.55966544     
   3304784326.2637229        3130662.5326421261        901862994.89033520     
   3398204575.0674386        7768754.2743971348        1032584873.7394886     
   3293851174.0619125        4961055.5638537407        1021604450.3984251     
   3190084762.3698802        4109987.8982830048        1016551361.4054042     
   3086905339.9913406        5215551.2776840925        1017425606.7604252     
   2984312906.9262891        8277745.7020522356        1024227186.4634879     
   3016556942.8806257        10077742.206207752        1148687988.0341232     
   2929050900.9266710        5325145.8671246767        1136969444.6225610     
   2842817653.3828487        4815197.5618152618        1132731896.3553648     
   2757857200.2491517        8547897.2902603149        1135975343.2325368     
   2674169541.5255866        16523245.052478552        1146699785.2540689     
   3976711326.7487831        2131744.7368862629        657459833.39629853     
   3818679382.9502316       -9465611.1721148491        646411745.70160854     
   3661918392.1563907       -16826457.065417767        643944412.05415869     
   3506428354.3672552       -19950792.943040133        650057832.45394158     
   3352209269.5828280       -18838618.804967165        664752006.90096021     
   3635583799.5378852        1081995.5442514420        779607210.53460634     
   3499043066.0383286       -4547826.6436793804        772360297.73323560     
   3363271073.5870314       -7615178.6707549095        771687207.94822574     
   3228267822.1839967       -8120060.5369515419        777587941.17957151     
   3094033311.8292193       -6062472.2422903776        790062497.42728794     
   3304784326.2637229        3130662.5326421261        901862994.89033520     
   3184000714.4035168        1748147.4678709507        897831343.03309357     
   3063483631.6351266        1254062.7091512680        898366583.16133785     
   2943233077.9585481        1648408.2564702034        903468715.27507019     
   2823249053.3737888        2931184.1098400354        913137739.37429130     
   2984312906.9262891        8277745.7020522356        1024227186.4634879     
   2873552328.0457964        9422311.1625548601        1022824881.6011916     
   2762556066.3006735        9781267.0742875338        1023982537.6935021     
   2651324121.6909170        9354613.4372395277        1027700154.7404327     
   2539856494.2165265        8142350.2514177561        1033977732.7419714     
   2674169541.5255866        16523245.052478552        1146699785.2540689     
   2567697906.9651694        18474664.440365434        1147340913.4375219     
   2460488377.5836759        17966434.424664974        1148535071.5447164     
   2352540953.3811026        14998555.005362272        1150282259.5756519     
   2243855634.3574448        9571026.1824561357        1152582477.5303259     
   3352209269.5828280       -18838618.804967165        664752006.90096021     
   3221197936.7600799       -11080474.068705440        661377643.07818365     
   3088707065.2247262       -8254125.0411405563        655504895.54864049     
   2954736654.9767628       -10359571.722265720        647133764.31233120     
   2819286706.0161982       -17396814.112067819        636264249.36925995     
   3094033311.8292193       -6062472.2422903776        790062497.42728794     
   2959189110.1731510       -4031748.8987441063        782708807.85530031     
   2823679052.5936127       -4220545.3000924587        776226853.97814441     
   2687503139.0906096       -6628861.4463294744        770616635.79581797     
   2550661369.6641407       -11256697.337455511        765878153.30833590     
   2823249053.3737888        2931184.1098400354        913137739.37429130     
   2694200895.4603977        2123159.8334726095        902754020.64041758     
   2565300564.4126830        1807891.7760144472        896612157.00297737     
   2436548060.2306337        1985379.9374536276        894712148.46197784     
   2307943382.9142632        2655624.3178091049        897053995.01741362     
   2539856494.2165265        8142350.2514177561        1033977732.7419714     
   2426233292.6218271        7384252.1279493570        1021513281.4335380     
   2313571600.6819358        9831186.1871645451        1016660804.6231441     
   2201871418.3968554        15483152.429095984        1019420302.3107911     
   2091132745.7665915        24340150.853732944        1029791774.4964780     
   2243855634.3574448        9571026.1824561357        1152582477.5303259     
   2155286301.6574354        11751527.984669924        1138986590.2346671     
   2068492161.4013753        19849337.933390379        1136372796.8386459     
   1983473213.5892606        33864456.028589725        1144741097.3422713     
   1900229458.2211022        53796882.270311356        1164091491.7455318     
   2819286706.0161982       -17396814.112067819        636264249.36925995     
   2696228432.6144128       -15905052.027423501        623436657.68945527     
   2577822116.6989512        1093235.0116266012        629098143.48416293     
   2464067758.2698002        33598047.005071402        653248706.75338566     
   2354965357.3269944        81609383.952954888        695888347.49713540     
   2550661369.6641407       -11256697.337455511        765878153.30833590     
   2468888456.2809958        2981930.2023873329        762041540.10641217     
   2389328084.5034876        24595696.427686572        768532234.33925951     
   2311980254.3316293        53584601.338469982        785350236.00688672     
   2236844965.7654071        89948644.934713602        812495545.10929644     
   2307943382.9142632        2655624.3178091049        897053995.01741362     
   2244136486.5790806        22645314.421640277        899362375.09923112     
   2180102715.9688525        41878756.941998005        903836292.57609236     
   2115842071.0835898        60355951.878888011        910475747.44798148     
   2051354551.9232755        78076899.232295513        919280739.71492100     
   2091132745.7665915        24340150.853732944        1029791774.4964780     
   2021972523.5086782        43085100.630358100        1035399162.6679116     
   1950146011.0950460        52942416.554553151        1035010318.1946507     
   1875653208.5256848        53912098.626346231        1028625241.0766889     
   1798494115.8006053        45994146.845722795        1016243931.3140246     
   1900229458.2211022        53796882.270311356        1164091491.7455318     
   1802396567.0697863        64301288.828518867        1170151902.8124573     
   1699457969.8820632        57786675.265363574        1162054311.1949408     
   1591413666.6579342        34253041.580864668        1139798716.8929796     
   1478263657.3973954       -6299612.2250120044        1103385119.9065816     
   3767617831.0135379        1130285349.3040614        798888354.17872655     
   3778453516.1760359        1008774151.1484250        883063537.04889321     
   3789904080.6775837        889312550.78962529        972156124.35612381     
   3801969524.5181832        771900548.22766232        1066166116.1004175     
   3814649847.6978331        656538143.46253610        1165093512.2817752     
   3206418650.8029742        961925595.24089229        755170624.78772461     
   3234455908.7790685        868266545.21534336        851479053.74879766     
   3262207998.4339876        773656934.11921501        949674638.56093812     
   3289674919.7677336        678096761.95250750        1049757379.2241457     
   3316856672.7803073        581586028.71522141        1151727275.7384205     
   2683665296.1832948        805099588.85498846        720705491.00083137     
   2720246273.8701377        736695331.02867270        828097110.44921541     
   2755642035.5755816        664340353.26436186        934345637.16266990     
   2789852581.2996278        588034655.56205583        1039451071.1411952     
   2822877911.0422754        507778237.92175484        1143413412.3847914     
   2199357767.1544991        659807330.14634967        695492952.81804705     
   2235824611.4492445        614060508.58841312        812917707.15014589     
   2270206192.1023669        561362808.22506595        926169120.16131926     
   2302502509.1138654        501714229.05630720        1035247191.8515670     
   2332713562.4837418        435114771.08213824        1140151922.2208896     
   1753496063.7165868        526048819.11497605        679533010.23937130     
   1781190921.5163879        500362077.89456487        805940843.85158968     
   1805900468.0143411        464724299.00132668        925145087.55688608     
   1827624703.2104466        419135482.43526173        1037145741.3552608     
   1846363627.1047032        363595628.19636953        1141942805.2467132     
   3814649847.6978331        656538143.46253610        1165093512.2817752     
   3796964982.9571152        538721498.44470584        1186481403.0455425     
   3783053359.3982739        433482324.03313017        1202819356.8455031     
   3772914977.0213084        340820620.22780859        1214107373.6816561     
   3766549835.8262186        260736387.02874100        1220345453.5540016     
   3316856672.7803073        581586028.71522141        1151727275.7384205     
   3291657949.7163987        474508792.34314418        1179718306.9958177     
   3270138443.1197004        379695610.86176395        1204501059.1270874     
   3252298152.9902101        297146484.27107942        1226075532.1322308     
   3238137079.3279295        226861412.57109213        1244441726.0112443     
   2822877911.0422754        507778237.92175484        1143413412.3847914     
   2795427209.1914062        413018974.05629951        1177897888.6353734     
   2771561699.0930786        330210349.36598265        1211015743.5975084     
   2751281380.7472935        259352363.85080576        1242766977.2711957     
   2734586254.1540499        200445017.51076841        1273151589.6564341     
   2332713562.4837418        435114771.08213824        1140151922.2208896     
   2308272761.3821387        354252043.58417296        1181020147.9642112     
   2287323127.3184099        285026539.54578775        1222363410.2567654     
   2269864660.2925563        227438258.96698654        1264181709.0985518     
   2255897360.3045764        181487201.84776568        1306475044.4895687     
   1846363627.1047032        363595628.19636953        1141942805.2467132     
   1830194606.2885947        298208000.92676252        1189085084.9823306     
   1817422727.7956927        244144181.40117848        1238544059.1048589     
   1808047991.6259985        201404169.61961943        1290319727.6142993     
   1802070397.7795117        169987965.58208507        1344412090.5106499     
   3766549835.8262186        260736387.02874100        1220345453.5540016     
   3661113956.3647528        168213470.55578804        1187292963.6627109     
   3563299915.8572536        101096683.92939019        1164960989.9650927     
   3473107714.3037205        59386027.149546385        1153349532.4611425     
   3390537351.7041545        43081500.216259599        1152458591.1508636     
   3238137079.3279295        226861412.57109213        1244441726.0112443     
   3162664993.7527094        152828957.62582922        1226694326.6057739     
   3093170342.4763942        98721283.676917672        1217008453.6435087     
   3029653125.4989824        64538390.724352241        1215384107.1244488     
   2972113342.8204756        50280278.768136978        1221821287.0485933     
   2734586254.1540499        200445017.51076841        1273151589.6564341     
   2681480848.8923182        142623890.02136767        1268790808.6392097     
   2632708473.2744274        99246194.678109884        1269832564.3147259     
   2588269127.3003817        70311931.480997801        1276276856.6829829     
   2548162810.9701772        55821100.430028915        1288123685.7439804     
   2255897360.3045764        181487201.84776568        1306475044.4895687     
   2217561521.7835751        137598267.74239802        1313582409.7630193     
   2181914308.2513556        102671416.93297172        1323433321.9787471     
   2148955719.7079182        76706649.419483662        1336027781.1367490     
   2118685756.1532614        59703965.201933622        1351365787.2370267     
   1802070397.7795117        169987965.58208507        1344412090.5106499     
   1770907012.4264853        137752090.78892720        1361069129.9772036     
   1740787847.4071798        108996950.44150388        1377810726.6355686     
   1711712902.7215941        83722544.539812505        1394636880.4857430     
   1683682178.3697281        61928873.083855689        1411547591.5277312     
   3390537351.7041545        43081500.216259599        1152458591.1508636     
   3297098815.9243054        35019115.467191577        1146850222.9197440     
   3203622569.1937680        26831027.549159527        1144352332.9899170     
   3110108611.5125422        18517236.462169051        1144964921.3613760     
   3016556942.8806257        10077742.206207752        1148687988.0341232     
   2972113342.8204756        50280278.768136978        1221821287.0485933     
   2886193915.7900085        37185750.659166574        1214854026.1759326     
   2800677808.6273355        25435622.109510660        1211721480.6614888     
   2715565021.3324614        15029893.119180799        1212423650.5052550     
   2630855553.9053831        5968563.6881694794        1216960535.7072365     
   2548162810.9701772        55821100.430028915        1288123685.7439804     
   2471831741.4231620        38315203.581372499        1280312068.1846797     
   2396345022.5624280        23623809.020319343        1277059403.0405161     
   2321702654.3879728        11746916.746867776        1278365690.3114922     
   2247904636.8998022        2684526.7610239983        1284230929.9976063     
   2118685756.1532614        59703965.201933622        1351365787.2370267     
   2054012292.8237681        38407474.233814478        1343224348.9459817     
   1990624210.9990430        21395588.281584024        1340366100.1270006     
   1928521510.6790833        8668307.3452372551        1342791040.7800839     
   1867704191.8638887        225631.42477917671        1350499170.9052279     
   1683682178.3697281        61928873.083855689        1411547591.5277312     
   1632735569.9918308        37462562.616498053        1403590868.4598436     
   1583515373.9371834        18750959.893308043        1401641571.9209430     
   1536021590.2057860        5794064.9142836928        1405699701.9110315     
   1490254218.7976427       -1408122.3205621243        1415765258.4301074     
   3016556942.8806257        10077742.206207752        1148687988.0341232     
   2929050900.9266710        5325145.8671246767        1136969444.6225610     
   2842817653.3828487        4815197.5618152618        1132731896.3553648     
   2757857200.2491517        8547897.2902603149        1135975343.2325368     
   2674169541.5255866        16523245.052478552        1146699785.2540689     
   2630855553.9053831        5968563.6881694794        1216960535.7072365     
   2561425347.1696253        3200304.3220356703        1206611558.1251783     
   2492718826.1863923        2844330.7976460457        1202228150.1112995     
   2424735990.9556804        4900643.1149991751        1203810311.6656063     
   2357476841.4774895        9369241.2740850449        1211358042.7880898     
   2247904636.8998022        2684526.7610239983        1284230929.9976063     
   2192220478.0217147        601668.15968358517        1274610891.4778438     
   2136710896.2385428       -899266.79193770885        1269440996.9500759     
   2081375891.5502863       -1818278.0938454866        1268721246.4143057     
   2026215463.9569426       -2155365.7460384369        1272451639.8705335     
   1867704191.8638887        225631.42477917671        1350499170.9052279     
   1821436293.4829450       -2470762.6199226379        1340967444.6805527     
   1774793863.5393040       -6415595.2069433928        1334370436.8716893     
   1727776902.0329742       -11608866.336265445        1330708147.4786351     
   1680385408.9639504       -18050576.007896185        1329980576.5013957     
   1490254218.7976427       -1408122.3205621243        1415765258.4301074     
   1449072793.5533090       -6016988.0167930722        1405681217.7333088     
   1406967728.0886762       -13704654.447356939        1397016469.8761373     
   1363939022.4037418       -24471121.612256825        1389771014.8585925     
   1319986676.4985073       -38316389.511492670        1383944852.6806757     
   2674169541.5255866        16523245.052478552        1146699785.2540689     
   2567697906.9651694        18474664.440365434        1147340913.4375219     
   2460488377.5836759        17966434.424664974        1148535071.5447164     
   2352540953.3811026        14998555.005362272        1150282259.5756519     
   2243855634.3574448        9571026.1824561357        1152582477.5303259     
   2357476841.4774895        9369241.2740850449        1211358042.7880898     
   2253182562.4470119        3684079.8231140375        1207581095.6634433     
   2148795441.1292458       -2310555.9188171625        1206688295.3701291     
   2044315477.5242009       -8614665.9516766071        1208679641.9081466     
   1939742671.6318707       -15228250.275489092        1213555135.2775037     
   2026215463.9569426       -2155365.7460384369        1272451639.8705335     
   1930758874.4781013       -13479007.829377174        1265009178.7272093     
   1835854495.2457712       -22961949.091009617        1262781981.3228164     
   1741502326.2599578       -30604189.530921221        1265770047.6573532     
   1647702367.5206547       -36405729.149130106        1273973377.7308214     
   1680385408.9639504       -18050576.007896185        1329980576.5013957     
   1600426843.0584474       -33014598.517082751        1319625162.6288249     
   1521665539.9332533       -43987745.091910064        1316816129.4027812     
   1444101499.5883677       -50970015.732364953        1321553476.8232656     
   1367734722.0237920       -53961410.438465238        1333837204.8902733     
   1319986676.4985073       -38316389.511492670        1383944852.6806757     
   1262186468.1880467       -54922692.240015686        1371429047.3682864     
   1206228575.1916857       -65387943.921536088        1368790739.6100245     
   1152112997.5094373       -69712144.556015074        1376029929.4058826     
   1099839735.1412914       -67895294.143488407        1393146616.7558603     
   2243855634.3574448        9571026.1824561357        1152582477.5303259     
   2155286301.6574354        11751527.984669924        1138986590.2346671     
   2068492161.4013753        19849337.933390379        1136372796.8386459     
   1983473213.5892606        33864456.028589725        1144741097.3422713     
   1900229458.2211022        53796882.270311356        1164091491.7455318     
   1939742671.6318707       -15228250.275489092        1213555135.2775037     
   1875922923.7259874       -8923248.4147830009        1203601849.8180790     
   1812652722.8031592       -786423.27722108364        1200752804.9025328     
   1749932068.8633828        9182225.1371804476        1205008000.5308681     
   1687760961.9066637        20982696.828433514        1216367436.7030864     
   1647702367.5206547       -36405729.149130106        1273973377.7308214     
   1597552623.3924468       -29300101.534855485        1266232774.4032474     
   1546726780.7863989       -24448135.513388991        1261718558.2637944     
   1495224839.7025061       -21849831.084738791        1260430729.3124652     
   1443046800.1407704       -21505188.248890758        1262369287.5492630     
   1367734722.0237920       -53961410.438465238        1333837204.8902733     
   1320175400.6568093       -49379031.375559449        1326879363.9901733     
   1270714335.3510892       -51135798.775115073        1319270056.9224331     
   1219351526.1066225       -59231712.637154877        1311009283.6870594     
   1166086972.9234231       -73666772.961643040        1302097044.2840514     
   1099839735.1412914       -67895294.143488407        1393146616.7558603     
   1043791255.5190787       -69160037.936893046        1385541618.5788505     
   984615386.49723005       -80849413.062416852        1373407300.8784487     
   922312128.07574427       -102963419.52006549        1356743663.6546538     
   856881480.25462091       -135502057.30984157        1335550706.9074636     
   1900229458.2211022        53796882.270311356        1164091491.7455318     
   1802396567.0697863        64301288.828518867        1170151902.8124573     
   1699457969.8820632        57786675.265363574        1162054311.1949408     
   1591413666.6579342        34253041.580864668        1139798716.8929796     
   1478263657.3973954       -6299612.2250120044        1103385119.9065816     
   1687760961.9066637        20982696.828433514        1216367436.7030864     
   1567817093.2755427        17711783.085944891        1215955609.0590622     
   1448814079.6846232        17577052.810794771        1215872259.9536364     
   1330751921.1339023        20578506.002980828        1216117389.3868053     
   1213630617.6233776        26716142.662466347        1216690997.3585613     
   1443046800.1407704       -21505188.248890758        1262369287.5492630     
   1342381900.3813813       -26134438.386586070        1262539542.4503262     
   1248704416.7387924       -7472301.4682855010        1277524757.1130204     
   1162014349.2130053        34481222.506027341        1307324931.5373533     
   1082311697.8040226        99726133.536343575        1351940065.7233047     
   1166086972.9234231       -73666772.961643040        1302097044.2840514     
   1126090988.3872917       -67237375.589108109        1309903702.9862497     
   1099128981.0445623       -17361387.571888447        1347011802.6731081     
   1085200950.8952434        75961191.090022802        1413421343.3446398     
   1084306897.9393311        212730360.39662325        1509132325.0008304     
   856881480.25462091       -135502057.30984157        1335550706.9074636     
   918944357.29327822       -105597028.52160054        1358048090.6668255     
   1000087772.6019404       -12090205.500008225        1424333396.6338885     
   1100311726.1806159        145018411.75495550        1534406624.8086579     
   1219616218.0293026        365728823.24329525        1688267775.1911290     
   1753496063.7165868        526048819.11497605        679533010.23937130     
   1781190921.5163879        500362077.89456487        805940843.85158968     
   1805900468.0143411        464724299.00132668        925145087.55688608     
   1827624703.2104466        419135482.43526173        1037145741.3552608     
   1846363627.1047032        363595628.19636953        1141942805.2467132     
   1323775373.8581343        397132612.15744025        669651996.08023024     
   1336425693.2441084        375633089.95327693        791794841.27453911     
   1346846900.0070252        346703192.33892238        908602273.20753741     
   1355038994.1468849        310342919.31437683        1020074291.8792264     
   1361001975.6636872        266552270.87964043        1126210897.2896051     
   887890885.56771672        266367265.67031503        662676243.15604913     
   890834314.09875572        250656256.75006694        781436331.72437072     
   892304828.68552792        230035534.68226373        896729183.67699432     
   892302429.32803380        204505099.46690524        1008554799.0139199     
   890827116.02627313        174064951.10399204        1116913177.7351480     
   445842598.84533417        133752779.65360026        658605751.46682847     
   444416784.08032936        125431578.28493495        774865315.20108509     
   442274254.04984897        114721326.03135046        889525818.96525609     
   439415008.75389284        101622022.89284685        1002587262.7593416     
   435839048.19246078        86133668.869423985        1114049646.5833411     
  -2369486.3090133821       -710845.89270401467        657440521.01256788     
  -2826896.8111700336       -40945.442118952982        772081791.70468259     
  -3244823.9000115693        760566.38618281321        886992179.07232356     
  -3623267.5755382008        1693689.5922010124        1002171683.1154909     
  -3962227.8377496088        2758424.1759366253        1117620303.8341849     
   1846363627.1047032        363595628.19636953        1141942805.2467132     
   1830194606.2885947        298208000.92676252        1189085084.9823306     
   1817422727.7956927        244144181.40117848        1238544059.1048589     
   1808047991.6259985        201404169.61961943        1290319727.6142993     
   1802070397.7795117        169987965.58208507        1344412090.5106499     
   1361001975.6636872        266552270.87964043        1126210897.2896051     
   1354566697.8944085        219503603.33778191        1181439039.4397159     
   1350664791.2176607        180899506.10436064        1237605914.2248418     
   1349296255.6334443        150739979.17937714        1294711521.6449831     
   1350461091.1417589        129025022.56283075        1352755861.7001402     
   890827116.02627313        174064951.10399204        1116913177.7351480     
   890188547.72697818        144174133.21682814        1179219449.1972966     
   891219579.28953874        119848648.20251501        1241086491.5425646     
   893920210.71395481        101088496.06105360        1302514304.7709517     
   898290442.00022590        87893676.792442828        1363502888.8824599     
   435839048.19246078        86133668.869423985        1114049646.5833411     
   437060155.78630435        72219590.563900977        1182426314.2550724     
   439087092.01132709        60991607.695641980        1248985791.0580270     
   441919856.86752993        52449720.264649302        1313728076.9922056     
   445558450.35491151        46593928.270919785        1376653172.0576077     
  -3962227.8377496088        2758424.1759366253        1117620303.8341849     
  -4818477.9276133431        3639975.3790007671        1191059634.6130440     
  -5732670.6169735119        4328384.5837436281        1261303812.7712302     
  -6704805.9058302473        4823651.7901647836        1328352838.3087447     
  -7734883.7941834554        5125776.9982638350        1392206711.2255864     
   1802070397.7795117        169987965.58208507        1344412090.5106499     
   1770907012.4264853        137752090.78892720        1361069129.9772036     
   1740787847.4071798        108996950.44150388        1377810726.6355686     
   1711712902.7215941        83722544.539812505        1394636880.4857430     
   1683682178.3697281        61928873.083855689        1411547591.5277312     
   1350461091.1417589        129025022.56283075        1352755861.7001402     
   1322718634.8298655        103915653.97903359        1370786569.2676382     
   1295922659.4554272        81961221.853419840        1389719625.1651139     
   1270073165.0184426        63161726.185984850        1409555029.3925664     
   1245170151.5189121        47517166.976731539        1430292781.9499950     
   898290442.00022590        87893676.792442828        1363502888.8824599     
   876305460.83851075        70611778.250720441        1382793235.2552590     
   855169221.21798503        56159018.179627210        1403803721.0962021     
   834881723.13864803        44535396.579164386        1426534346.4052889     
   815442966.60049927        35740913.449330419        1450985111.1825171     
   445558450.35491151        46593928.270919785        1376653172.0576077     
   431667490.45242029        37840463.603984416        1397089127.9400666     
   418527532.69485313        31590339.420127705        1420063014.4288340     
   406138577.08220971        27843555.719351545        1445574831.5239117     
   394500623.61448854        26600112.501648962        1473624579.2252972     
  -7734883.7941834554        5125776.9982638350        1392206711.2255864     
  -11195276.328404088        5601710.0388317686        1413674247.3220603     
  -14002406.113967534        8255185.5749231447        1438497505.1630094     
  -16156273.150872098        13086203.606544379        1466676484.7484336     
  -17656877.439119630        20094764.133689057        1498211186.0783327     
   1683682178.3697281        61928873.083855689        1411547591.5277312     
   1632735569.9918308        37462562.616498053        1403590868.4598436     
   1583515373.9371834        18750959.893308043        1401641571.9209430     
   1536021590.2057860        5794064.9142836928        1405699701.9110315     
   1490254218.7976427       -1408122.3205621243        1415765258.4301074     
   1245170151.5189121        47517166.976731539        1430292781.9499950     
   1210522417.5578961        31480262.528557479        1426127949.8932199     
   1176597040.6151552        17851214.807968378        1426548039.4698620     
   1143394020.6906905        6630023.8149671555        1431553050.6799183     
   1110913357.7845030       -2183310.4504458308        1441142983.5233932     
   815442966.60049927        35740913.449330419        1450985111.1825171     
   793029807.35473311        26914125.109855294        1449440772.2810500     
   770334949.82226670        17148342.481378853        1451058850.1174276     
   747358394.00310051        6443565.5639038384        1455839344.6916494     
   724100139.89723480       -5200205.6425688565        1463782256.0037181     
   394500623.61448854        26600112.501648962        1473624579.2252972     
   380257739.38233840        23764150.360378385        1473529335.6233330     
   364729101.55851501        16642342.913530424        1475174003.8636420     
   347914710.14301437        5234690.1610917598        1478558583.9462247     
   329814565.13583887       -10458807.896929830        1483683075.8710818     
  -17656877.439119630        20094764.133689057        1498211186.0783327     
  -27793786.359285265        22030338.280137025        1498393639.9200671     
  -40220504.176100828        16333216.104419226        1498893500.7085032     
  -54937030.889567584        3003397.6065304540        1499710768.4436424     
  -71943366.499685109       -17959117.213527560        1500845443.1254828     
   1490254218.7976427       -1408122.3205621243        1415765258.4301074     
   1449072793.5533090       -6016988.0167930722        1405681217.7333088     
   1406967728.0886762       -13704654.447356939        1397016469.8761373     
   1363939022.4037418       -24471121.612256825        1389771014.8585925     
   1319986676.4985073       -38316389.511492670        1383944852.6806757     
   1110913357.7845030       -2183310.4504458308        1441142983.5233932     
   1073888572.9111104       -11513705.225826383        1428533112.0155284     
   1036699349.3140785       -21392229.080007315        1418790946.9716401     
   999345686.99340737       -31818882.012982547        1411916488.3917284     
   961827585.94909763       -42793664.024758160        1407909736.2757959     
   724100139.89723480       -5200205.6425688565        1463782256.0037181     
   695370320.03578699       -18010632.104795158        1449532288.7642219     
   667235262.94735885       -28838515.990289569        1439598441.6130531     
   639694968.63195157       -37683857.299046308        1433980714.5502141     
   612749437.08956695       -44546656.031063348        1432679107.5757022     
   329814565.13583887       -10458807.896929830        1483683075.8710818     
   313518034.92733753       -25507768.653704405        1468678747.9793921     
   298575468.98851728       -36043515.178207442        1459438953.8003819     
   284986867.31937671       -42066047.470445007        1455963693.3340504     
   272752229.91992027       -43575365.530404970        1458252966.5804002     
  -71943366.499685109       -17959117.213527560        1500845443.1254828     
  -71668282.414236560       -34005114.872546047        1485972489.6610379     
  -69280032.562449157       -43007226.643769033        1478312483.5336227     
  -64778616.944317907       -44965452.527178690        1477865424.7432380     
  -58164035.559843592       -39879792.522778459        1484631313.2898850     
   1319986676.4985073       -38316389.511492670        1383944852.6806757     
   1262186468.1880467       -54922692.240015686        1371429047.3682864     
   1206228575.1916857       -65387943.921536088        1368790739.6100245     
   1152112997.5094373       -69712144.556015074        1376029929.4058826     
   1099839735.1412914       -67895294.143488407        1393146616.7558603     
   961827585.94909763       -42793664.024758160        1407909736.2757959     
   929372625.93109035       -50765267.019467413        1399188090.7079527     
   898060722.24716532       -54926682.233908117        1398092669.4108410     
   867891874.89732385       -55277909.668067634        1404623472.3844631     
   838866083.88156855       -51818949.321942627        1418780499.6288173     
   612749437.08956695       -44546656.031063348        1432679107.5757022     
   599207515.98290682       -45813222.106292129        1426935819.6090431     
   586109392.23030615       -45600463.667988122        1426567482.6297259     
   573455065.83176696       -43908380.716146499        1431574096.6377532     
   561244536.78728724       -40736973.250770986        1441955661.6331272     
   272752229.91992027       -43575365.530404970        1458252966.5804002     
   271691138.34349668       -40066557.500480756        1454672234.0715594     
   270374585.14111054       -37409288.223765835        1454215179.2666776     
   268802570.31275940       -35603557.700267255        1456881802.1657503     
   266975093.85845053       -34649365.929960981        1462672102.7687798     
  -58164035.559843592       -39879792.522778459        1484631313.2898850     
  -53176506.987141982       -33525273.202042937        1482397334.0955069     
  -49143699.020422399       -30353155.901246462        1481035759.3216965     
  -46065611.659693904       -30363440.620420471        1480546588.9684560     
  -43942244.904944390       -33556127.359525107        1480929823.0357792     
   1099839735.1412914       -67895294.143488407        1393146616.7558603     
   1043791255.5190787       -69160037.936893046        1385541618.5788505     
   984615386.49723005       -80849413.062416852        1373407300.8784487     
   922312128.07574427       -102963419.52006549        1356743663.6546538     
   856881480.25462091       -135502057.30984157        1335550706.9074636     
   838866083.88156855       -51818949.321942627        1418780499.6288173     
   770841504.21305740       -62723301.932428807        1402868543.4107673     
   699917598.08248508       -83292076.083116382        1384498047.1767418     
   626094365.48984313       -113525271.77403635        1363669010.9267471     
   549371806.43513393       -153422889.00518528        1340381434.6607783     
   561244536.78728724       -40736973.250770986        1441955661.6331272     
   487160369.95083177       -59505980.814813405        1418002820.8011954     
   410404939.58988047       -87179200.127173245        1393662219.4607136     
   330978245.70443368       -123756631.18785301        1368933857.6116841     
   248880288.29448766       -169238273.99686176        1343817735.2541039     
   266975093.85845053       -34649365.929960981        1462672102.7687798     
   192747852.73239583       -59508074.584067330        1430944450.7501359     
   116077411.01941571       -92510785.194590092        1400899817.7303634     
   36963768.719510145       -133657497.76153058        1372538203.7094648     
  -44593074.167320587       -182948212.28489104        1345859608.6874394     
  -43942244.904944390       -33556127.359525107        1480929823.0357792     
  -112396047.44224818       -62729583.240183666        1441693433.2575896     
  -183064987.62890738       -99286831.285360277        1406210841.9856920     
  -255949065.46492246       -143227871.49505568        1374482049.2200887     
  -331048280.95029485       -194552703.86927676        1346507054.9607797     
   856881480.25462091       -135502057.30984157        1335550706.9074636     
   918944357.29327822       -105597028.52160054        1358048090.6668255     
   1000087772.6019404       -12090205.500008225        1424333396.6338885     
   1100311726.1806159        145018411.75495550        1534406624.8086579     
   1219616218.0293026        365728823.24329525        1688267775.1911290     
   549371806.43513393       -153422889.00518528        1340381434.6607783     
   697560125.46317351       -119060354.69241974        1369590022.4800611     
   853122642.24056935       -60117161.215134740        1420232372.9624257     
   1016059356.7673215        23406691.426673234        1492308486.1078868     
   1186370269.0434394        131511203.23302802        1585818361.9164271     
   248880288.29448766       -169238273.99686176        1343817735.2541039     
   419325022.04157829       -149578942.34068608        1366080129.8592138     
   585437613.01737714       -144360086.58881471        1387422127.5827971     
   747218061.22188437       -153581706.74125195        1407843728.4248462     
   904666366.65510428       -177243802.79797405        1427344932.3853810     
  -44593074.167320587       -182948212.28489104        1345859608.6874394     
   84239047.028496161       -197152791.46639192        1347518412.8042824     
   197032684.93236995       -264818981.62103558        1325902660.4949846     
   293787839.54429996       -385946782.74882132        1281012351.7595434     
   374504510.86429811       -560536194.84972405        1212847486.5979643     
  -331048280.95029485       -194552703.86927676        1346507054.9607797     
  -307697799.57608271       -261781902.06956339        1313904871.3152690     
  -312092142.01445478       -421493846.31179678        1235673971.6990049     
  -344231308.26542753       -673688536.59603226        1111814356.1119761     
  -404115298.32898271       -1018365972.9222099        942326024.55419648     
  -2369486.3090133821       -710845.89270401467        657440521.01256788     
  -2826896.8111700336       -40945.442118952982        772081791.70468259     
  -3244823.9000115693        760566.38618281321        886992179.07232356     
  -3623267.5755382008        1693689.5922010124        1002171683.1154909     
  -3962227.8377496088        2758424.1759366253        1117620303.8341849     
  -450482430.77957261       -135144729.23387179        659175709.12608767     
  -449942720.58376414       -125579631.51239794        775588395.53034580     
  -448659638.80764806       -113536628.52323206        890446243.34884548     
  -446633185.45122427       -99015720.266374126        1003749252.5815871     
  -443863360.51449281       -82016906.741823852        1115497423.2285700     
  -892233295.45059037       -267669988.63517711        663806473.14020741     
  -895907765.30334496       -250773083.86677292        782811778.11810064     
  -898134975.40879917       -229051979.94070134        898438289.24895048     
  -898914925.76695347       -202506676.85696235        1010686006.5327573     
  -898247616.37780714       -171137174.61555544        1119554929.9695208     
  -1327622080.3220665       -398286624.09661996        671332813.05492747     
  -1340722030.9699125       -375621302.50524396        793751939.46794713     
  -1351670833.7034652       -345785487.86622483        910968316.77263856     
  -1360468488.5227253       -308779180.17956316        1022981944.9690020     
  -1367114995.4276924       -264602379.44525850        1129792824.0570376     
  -1756648785.3940012       -526994635.61820042        681754728.87024760     
  -1784385517.5834665       -500124287.42781097        808408879.57988524     
  -1809267213.6916459       -463737152.29980308        928036325.91990948     
  -1831293873.7185402       -417833230.23417729        1040637067.8903213     
  -1850465497.6641490       -362412521.23093283        1146211105.4911199     
  -3962227.8377496088        2758424.1759366253        1117620303.8341849     
  -4818477.9276133431        3639975.3790007671        1191059634.6130440     
  -5732670.6169735119        4328384.5837436281        1261303812.7712302     
  -6704805.9058302473        4823651.7901647836        1328352838.3087447     
  -7734883.7941834554        5125776.9982638350        1392206711.2255864     
  -443863360.51449281       -82016906.741823852        1115497423.2285700     
  -446880691.11488891       -66920810.529303953        1184059989.9857638     
  -450751220.09837914       -54668708.927097812        1250875060.1225774     
  -455474947.46496290       -45260601.935203567        1315942633.6390100     
  -461051873.21464038       -38696489.553621307        1379262710.5350623     
  -898247616.37780714       -171137174.61555544        1119554929.9695208     
  -899289867.48790216       -140585685.39333019        1182312934.2908528     
  -901980572.76468813       -115529043.39340860        1244771097.9920964     
  -906319732.20816576       -95967248.615791142        1306929421.0732508     
  -912307345.81833386       -81900301.060476780        1368787903.5343161     
  -1367114995.4276924       -264602379.44525850        1129792824.0570376     
  -1362046007.0466528       -217354649.21307799        1185818467.5283115     
  -1359420728.6159012       -178252618.81519192        1242991926.3797879     
  -1359239160.1354380       -147296288.25159919        1301313200.6114669     
  -1361501301.6052639       -124485657.52230269        1360782290.2233496     
  -1850465497.6641490       -362412521.23093283        1146211105.4911199     
  -1835149109.7911406       -297227701.98854637        1194576589.6981382     
  -1823071687.6520185       -242839435.19244522        1245537545.2856510     
  -1814233231.2467821       -199247720.84263057        1299093972.2536583     
  -1808633740.5754313       -166452558.93910110        1355245870.6021602     
  -7734883.7941834554        5125776.9982638350        1392206711.2255864     
  -11195276.328404088        5601710.0388317686        1413674247.3220603     
  -14002406.113967534        8255185.5749231447        1438497505.1630094     
  -16156273.150872098        13086203.606544379        1466676484.7484336     
  -17656877.439119630        20094764.133689057        1498211186.0783327     
  -461051873.21464038       -38696489.553621307        1379262710.5350623     
  -453710795.73795527       -29545807.263250843        1401632599.4498513     
  -446366298.59847617       -20383726.096900508        1426953724.4939847     
  -439018381.79620188       -11210246.054566979        1455226085.6674619     
  -431667045.33113509       -2025367.1362570524        1486449682.9702840     
  -912307345.81833386       -81900301.060476780        1368787903.5343161     
  -895320471.51683116       -64421571.476129353        1391301995.0005803     
  -878980020.63839936       -49097586.635350108        1416362836.9810572     
  -863285993.18303514       -35928346.538130164        1443970429.4757469     
  -848238389.15074193       -24913851.184479266        1474124772.4846499     
  -1361501301.6052639       -124485657.52230269        1360782290.2233496     
  -1336024303.6650341       -99025582.599807084        1382682433.9742475     
  -1311843572.2337368       -77886396.040422320        1406724842.6242259     
  -1288959107.3113716       -61068097.844144762        1432909516.1732879     
  -1267370908.8979406       -48570688.010978878        1461236454.6214302     
  -1808633740.5754313       -166452558.93910110        1355245870.6021602     
  -1775822292.1825612       -133357840.63428169        1375773916.3708506     
  -1744956953.3844886       -106750154.31212008        1398039741.4234917     
  -1716037724.1812112       -86629499.972608507        1422043345.7600839     
  -1689064604.5727324       -72995877.615758121        1447784729.3806269     
  -17656877.439119630        20094764.133689057        1498211186.0783327     
  -27793786.359285265        22030338.280137025        1498393639.9200671     
  -40220504.176100828        16333216.104419226        1498893500.7085032     
  -54937030.889567584        3003397.6065304540        1499710768.4436424     
  -71943366.499685109       -17959117.213527560        1500845443.1254828     
  -431667045.33113509       -2025367.1362570524        1486449682.9702840     
  -437170435.12862593        1343793.4247278869        1484943733.4462714     
  -443969091.05829382        395400.21178919077        1486353794.8204126     
  -452063013.12013787       -4870546.7750696838        1490679867.0927091     
  -461452201.31415832       -14454047.535850465        1497921950.2631602     
  -848238389.15074193       -24913851.184479266        1474124772.4846499     
  -841683677.10712469       -17883729.393433243        1472090719.4867764     
  -835429688.43120861       -11856018.828055650        1475571281.3385110     
  -829476423.12299681       -6830719.4883597195        1484566458.0398512     
  -823823881.18248487       -2807831.3743301630        1499076249.5907977     
  -1267370908.8979406       -48570688.010978878        1461236454.6214302     
  -1241333512.2947812       -35652230.174339414        1459834598.0415850     
  -1214602296.2948475       -20421041.015121877        1466545960.2627971     
  -1187177260.8981419       -2877120.5333307385        1481370541.2850676     
  -1159058406.1046648        16979531.271032870        1504308341.1083972     
  -1689064604.5727324       -72995877.615758121        1447784729.3806269     
  -1636119940.6915932       -51961708.917991042        1448175369.1106935     
  -1581486914.6492076       -25299666.349399507        1459277831.5932713     
  -1525165526.4455771        6990250.0900059342        1481092116.8283591     
  -1467155776.0806971        44908040.400243461        1513618224.8159602     
  -71943366.499685109       -17959117.213527560        1500845443.1254828     
  -71668282.414236560       -34005114.872546047        1485972489.6610379     
  -69280032.562449157       -43007226.643769033        1478312483.5336227     
  -64778616.944317907       -44965452.527178690        1477865424.7432380     
  -58164035.559843592       -39879792.522778459        1484631313.2898850     
  -461452201.31415832       -14454047.535850465        1497921950.2631602     
  -440285075.81145841       -15191093.359023243        1493468042.8240576     
  -418033962.75113499       -12314847.323449969        1494339154.0990758     
  -394698862.13318902       -5825309.4291357100        1500535284.0882146     
  -370279773.95761824        4277520.3239285201        1512056432.7914743     
  -823823881.18248487       -2807831.3743301630        1499076249.5907977     
  -787158796.04227209        10145850.104429543        1503840680.2668655     
  -750438901.55315638        23282229.412866563        1512042201.0341456     
  -713664197.71513653        36601306.550984293        1523680811.8926368     
  -676834684.52821195        50103081.518784761        1538756512.8423414     
  -1159058406.1046648        16979531.271032870        1504308341.1083972     
  -1112289443.1066811        42005715.517800748        1517090401.9894645     
  -1066494848.9685135        63784003.565181553        1531421624.3388326     
  -1021674623.6901608        82314395.413181305        1547302008.1565034     
  -977828767.27162242        97596891.061798513        1564731553.4424770     
  -1467155776.0806971        44908040.400243461        1513618224.8159602     
  -1415677017.0046847        80388502.881091952        1533217207.9918520     
  -1366201804.9972055        109190475.13349950        1552477424.0131366     
  -1318730140.0582621        131313957.15745187        1571398872.8798146     
  -1273262022.1878505        146758948.95296699        1589981554.5918865     
  -58164035.559843592       -39879792.522778459        1484631313.2898850     
  -53176506.987141982       -33525273.202042937        1482397334.0955069     
  -49143699.020422399       -30353155.901246462        1481035759.3216965     
  -46065611.659693904       -30363440.620420471        1480546588.9684560     
  -43942244.904944390       -33556127.359525107        1480929823.0357792     
  -370279773.95761824        4277520.3239285201        1512056432.7914743     
  -360223799.34174275        10682654.361271009        1511885746.3258820     
  -350848797.98534447        14817877.533691958        1514729779.7690971     
  -342154769.88842046        16683189.841198578        1520588533.1211245     
  -334141715.05096769        16278591.283798605        1529462006.3819611     
  -676834684.52821195        50103081.518784761        1538756512.8423414     
  -655589362.47418749        58395100.691219240        1540968491.0097916     
  -634751266.33312523        65329700.153779417        1548337504.5742965     
  -614320396.10502779        70906879.906456769        1560863553.5358534     
  -594296751.78989458        75126639.949252903        1578546637.8944626     
  -977828767.27162242        97596891.061798513        1564731553.4424770     
  -939273196.38446832        109612065.78782296        1569645568.1472371     
  -900851104.06376791        121182311.95900166        1581858933.7372913     
  -862562490.30952024        132307629.57534111        1601371650.2126422     
  -824407355.12172568        142988018.63683343        1628183717.5732880     
  -1273262022.1878505        146758948.95296699        1589981554.5918865     
  -1211275301.0725894        164333549.65107292        1597916977.7382183     
  -1149148311.1772723        182375712.94936621        1615294067.2580860     
  -1086881052.5018930        200885438.84786487        1642112823.1514924     
  -1024473525.0464604        219862727.34654289        1678373245.4184344     
  -43942244.904944390       -33556127.359525107        1480929823.0357792     
  -112396047.44224818       -62729583.240183666        1441693433.2575896     
  -183064987.62890738       -99286831.285360277        1406210841.9856920     
  -255949065.46492246       -143227871.49505568        1374482049.2200887     
  -331048280.95029485       -194552703.86927676        1346507054.9607797     
  -334141715.05096769        16278591.283798605        1529462006.3819611     
  -385648644.07466948       -2628875.4318655431        1501177134.3179874     
  -436901109.50916362       -20688130.183505222        1479805445.8739517     
  -487899111.35445750       -37899172.971144542        1465346941.0498555     
  -538642649.61054516       -54262003.794761047        1457801619.8457017     
  -594296751.78989458        75126639.949252903        1578546637.8944626     
  -619829992.68957829        69193206.781713009        1564094484.9896939     
  -642639168.76149666        72339989.706723034        1559714900.8185081     
  -662724280.00565135        84566988.724278867        1565407885.3809047     
  -680085326.42204046        105874203.83438781        1581173438.6768892     
  -824407355.12172568        142988018.63683343        1628183717.5732880     
  -814940093.28697634        152736663.40054482        1630445485.2727077     
  -800279165.38590133        179797528.38534164        1645939206.8193591     
  -780424571.41850615        224170613.59120560        1674664882.2132413     
  -755376311.38478935        285855919.01814401        1716622511.4543469     
  -1024473525.0464604        219862727.34654289        1678373245.4184344     
  -970978945.86686659        248001494.42462230        1700230135.1670318     
  -909821099.38238931        301684485.85231447        1738478363.8765023     
  -840999985.59302545        380911701.62962800        1793117931.5468488     
  -764515604.49877918        485683141.75654781        1864148838.1780677     
  -331048280.95029485       -194552703.86927676        1346507054.9607797     
  -307697799.57608271       -261781902.06956339        1313904871.3152690     
  -312092142.01445478       -421493846.31179678        1235673971.6990049     
  -344231308.26542753       -673688536.59603226        1111814356.1119761     
  -404115298.32898271       -1018365972.9222099        942326024.55419648     
  -538642649.61054516       -54262003.794761047        1457801619.8457017     
  -596908945.72922885       -95240862.660837248        1434628680.5220239     
  -670172035.55823362       -186209033.89464897        1388244550.0205195     
  -758431919.09755027       -327166517.49616778        1318649228.3411934     
  -861688596.34718478       -518113313.46541286        1225842715.4840319     
  -680085326.42204046        105874203.83438781        1581173438.6768892     
  -755918329.19668508        110360705.55358419        1582302445.4610326     
  -834000095.57936788        107351328.57931960        1582637785.8602767     
  -914330625.57009721        96846072.911566377        1582179459.8746202     
  -996909919.16886461        78844938.550347567        1580927467.5040717     
  -755376311.38478935        285855919.01814401        1716622511.4543469     
  -784725949.97844386        355022802.57372069        1756926166.1322908     
  -803576322.07786846        459187241.11006790        1818853679.2182720     
  -811927427.68306136        598349234.62718678        1902405050.7122879     
  -809779266.79402709        772508783.12505996        2007580280.6143205     
  -764515604.49877918        485683141.75654781        1864148838.1780677     
  -683331808.07451010        638745428.39956498        1958499842.5358043     
  -578900715.05373442        869298703.69760323        2096892230.0945044     
  -451222325.43645346        1177342967.6506567        2279326000.8541627     
  -300296639.22266924        1562878220.2587283        2505801154.8147845     
  -1756648785.3940012       -526994635.61820042        681754728.87024760     
  -1784385517.5834665       -500124287.42781097        808408879.57988524     
  -1809267213.6916459       -463737152.29980308        928036325.91990948     
  -1831293873.7185402       -417833230.23417729        1040637067.8903213     
  -1850465497.6641490       -362412521.23093283        1146211105.4911199     
  -2201667856.9715242       -660500357.09145725        698155768.85198617     
  -2237896801.9083447       -613917031.09673297        815704417.65106332     
  -2272129374.5190058       -560679130.68147612        929198150.75155640     
  -2304365574.8035069       -500786655.84568632        1038636968.1534654     
  -2334605402.7618470       -434239606.58936369        1144020869.8567905     
  -2685033741.3597665       -805510122.40792990        723619481.26596153     
  -2721264074.2695732       -736666571.17656016        831060853.77349818     
  -2756356698.6083465       -664030658.04174340        937419099.25347948     
  -2790311614.3760858       -587602383.00347936        1042694217.7059064     
  -2823128821.5727906       -507381746.06176847        1146886209.1307786     
  -3206746438.5587254       -962023931.56761754        758145866.11217344     
  -3234487334.6671510       -868372907.66729224        854478187.94718969     
  -3261949185.9596682       -773791734.38060486        952699171.42568016     
  -3289131992.4362779       -678280411.70755649        1052808816.5476445     
  -3316035754.0969787       -581838939.64814639        1154807123.3130832     
  -3766805948.5684037       -1130041784.5705211        801734923.39062202     
  -3777566583.1010790       -1009036040.5689291        885956420.17213786     
  -3788906836.5729718       -889962359.69806123        975038367.26815701     
  -3800826708.9840817       -772820741.95791674        1068980764.6786791     
  -3813326200.3344083       -657611187.34849715        1167783612.4037044     
  -1850465497.6641490       -362412521.23093283        1146211105.4911199     
  -1835149109.7911406       -297227701.98854637        1194576589.6981382     
  -1823071687.6520185       -242839435.19244522        1245537545.2856510     
  -1814233231.2467821       -199247720.84263057        1299093972.2536583     
  -1808633740.5754313       -166452558.93910110        1355245870.6021602     
  -2334605402.7618470       -434239606.58936369        1144020869.8567905     
  -2310325742.6214895       -353496411.70753962        1186024266.7479131     
  -2289466433.3594518       -284154386.42011118        1228736622.7012470     
  -2272027474.9757314       -226213530.72707939        1272157937.7167931     
  -2258008867.4703302       -179673844.62844419        1316288211.7945507     
  -2823128821.5727906       -507381746.06176847        1146886209.1307786     
  -2795275924.3601770       -412697186.09903419        1182315902.7041659     
  -2771024763.1703153       -330018412.87880623        1216568043.0214820     
  -2750375338.0032067       -259345426.40108633        1249642630.0827274     
  -2733327648.8588500       -200678226.66587353        1281539663.8879015     
  -3316035754.0969787       -581838939.64814639        1154807123.3130832     
  -3289999655.0072017       -474830025.16302955        1183451497.5668969     
  -3267746677.0846114       -380431514.56853020        1209031806.2463567     
  -3249276820.3292065       -298643407.86465085        1231548049.3514628     
  -3234590084.7409878       -229465705.05138993        1251000226.8822155     
  -3813326200.3344083       -657611187.34849715        1167783612.4037044     
  -3794496934.5625639       -539894928.89952695        1189431051.3361056     
  -3779632175.1023383       -435393691.48928487        1206127912.3758702     
  -3768731921.9537301       -344107475.11777222        1217874195.5229981     
  -3761796175.1167431       -266036279.78498924        1224669900.7774894     
  -1808633740.5754313       -166452558.93910110        1355245870.6021602     
  -1775822292.1825612       -133357840.63428169        1375773916.3708506     
  -1744956953.3844886       -106750154.31212008        1398039741.4234917     
  -1716037724.1812112       -86629499.972608507        1422043345.7600839     
  -1689064604.5727324       -72995877.615758121        1447784729.3806269     
  -2258008867.4703302       -179673844.62844419        1316288211.7945507     
  -2214604199.2923040       -134619678.30582464        1325590499.2124295     
  -2174571271.2103348       -100804645.63673151        1338543765.3308330     
  -2137910083.2244217       -78228746.621161222        1355148010.1497595     
  -2104620635.3345673       -66891981.259118319        1375403233.6692114     
  -2733327648.8588500       -200678226.66587353        1281539663.8879015     
  -2673863476.8483114       -142024727.11124790        1277952957.3701653     
  -2619196675.4350939       -99362462.881016970        1279930428.9695261     
  -2569327244.6191931       -72691433.975181937        1287472078.6859834     
  -2524255184.4006119       -62011640.393744707        1300577906.5195401     
  -3234590084.7409878       -229465705.05138993        1251000226.8822155     
  -3153600124.8505855       -155572987.05054867        1232861290.8440573     
  -3078833166.0587659       -102423606.04497635        1222199732.3395710     
  -3010289208.3655248       -70017562.034671903        1219015551.3687541     
  -2947968251.7708640       -58354855.019629955        1223308747.9316101     
  -3761796175.1167431       -266036279.78498924        1224669900.7774894     
  -3653814143.2991266       -175264458.12373364        1190315499.6341064     
  -3553480743.0813518       -109988075.12861013        1165351675.4409678     
  -3460795974.4634180       -70207130.799627662        1149778428.1980734     
  -3375759837.4453249       -55921625.136782169        1143595757.9054239     
  -1689064604.5727324       -72995877.615758121        1447784729.3806269     
  -1636119940.6915932       -51961708.917991042        1448175369.1106935     
  -1581486914.6492076       -25299666.349399507        1459277831.5932713     
  -1525165526.4455771        6990250.0900059342        1481092116.8283591     
  -1467155776.0806971        44908040.400243461        1513618224.8159602     
  -2104620635.3345673       -66891981.259118319        1375403233.6692114     
  -2027264392.1052134       -45840386.031058908        1374645196.5775530     
  -1948847535.4188139       -21253412.612846613        1381949453.1865578     
  -1869370065.2753665        6868938.9955276251        1397316003.4962268     
  -1788831981.6748734        38526668.794049740        1420744847.5065601     
  -2524255184.4006119       -62011640.393744707        1300577906.5195401     
  -2430057444.8283210       -43213643.536974430        1297938819.1179225     
  -2335426840.5031843       -22972764.170717716        1300712496.3651206     
  -2240363371.4251990       -1289002.2949702740        1308898938.2611361     
  -2144867037.5943711        21837642.090261459        1322498144.8059676     
  -2947968251.7708640       -58354855.019629955        1223308747.9316101     
  -2844499098.8609138       -44081481.435734987        1218056236.7318010     
  -2741224829.9023166       -30457721.023018599        1215566961.1289606     
  -2638145444.8950748       -17483573.781484365        1215840921.1230891     
  -2535260943.8391852       -5159039.7111233473        1218878116.7141869     
  -3375759837.4453249       -55921625.136782169        1143595757.9054239     
  -3270589354.2029924       -48443899.727341056        1134997449.4191885     
  -3166241503.6162148       -43708283.169751167        1126512847.4780748     
  -3062716285.6849899       -41714775.464002728        1118141952.0820830     
  -2960013700.4093199       -42463376.610101223        1109884763.2312157     
  -1467155776.0806971        44908040.400243461        1513618224.8159602     
  -1415677017.0046847        80388502.881091952        1533217207.9918520     
  -1366201804.9972055        109190475.13349950        1552477424.0131366     
  -1318730140.0582621        131313957.15745187        1571398872.8798146     
  -1273262022.1878505        146758948.95296699        1589981554.5918865     
  -1788831981.6748734        38526668.794049740        1420744847.5065601     
  -1739470651.2855806        59997932.188584328        1427351069.6339972     
  -1691719455.5229805        76102080.160808325        1435900159.7154067     
  -1645578394.3870728        86839112.710725307        1446392117.7507923     
  -1601047467.8778572        92209029.838335276        1458826943.7401454     
  -2144867037.5943711        21837642.090261459        1322498144.8059676     
  -2091104178.4387114        31255393.634404302        1316570587.0670993     
  -2038558041.4679050        36617404.562375546        1314867532.3907835     
  -1987228626.6819513        37923674.874173403        1317388980.7770188     
  -1937115934.0808468        35174204.569802046        1324134932.2258079     
  -2535260943.8391852       -5159039.7111233473        1218878116.7141869     
  -2470577598.4640779       -5839112.7814469337        1200875760.2911606     
  -2406717562.8319798       -9263551.6618021727        1189379542.0392661     
  -2343680836.9428940       -15432356.352195263        1184389461.9585035     
  -2281467420.7968154       -24345526.852616429        1185905520.0488725     
  -2960013700.4093199       -42463376.610101223        1109884763.2312157     
  -2877890911.3616772       -51285587.058964133        1080266589.3061793     
  -2796198019.6152072       -61540788.511731267        1059436188.6608566     
  -2714935025.1699038       -73228980.968385458        1047393561.2952427     
  -2634101928.0257688       -86350164.428940535        1044138707.2093415     
  -1273262022.1878505        146758948.95296699        1589981554.5918865     
  -1211275301.0725894        164333549.65107292        1597916977.7382183     
  -1149148311.1772723        182375712.94936621        1615294067.2580860     
  -1086881052.5018930        200885438.84786487        1642112823.1514924     
  -1024473525.0464604        219862727.34654289        1678373245.4184344     
  -1601047467.8778572        92209029.838335276        1458826943.7401454     
  -1518537517.1538110        106383901.79300791        1462732864.2159600     
  -1436124301.5420067        120236323.37353826        1473768770.8042488     
  -1353807821.0424378        133766294.57994419        1491934663.5050147     
  -1271588075.6551163        146973815.41220260        1517230542.3182499     
  -1937115934.0808468        35174204.569802046        1324134932.2258079     
  -1840687554.4939082        43967907.557276011        1323734845.4900928     
  -1744592913.9115095        51649147.196282625        1328153064.6057882     
  -1648832012.3336506        58217923.486819863        1337389589.5728955     
  -1553404849.7603335        63674236.428895533        1351444420.3914151     
  -2281467420.7968154       -24345526.852616429        1185905520.0488725     
  -2177725413.0928855       -22914433.056124449        1180922921.5606124     
  -2074554148.2857878       -23385815.582413793        1178446948.6626992     
  -1971953626.3755295       -25759674.431501031        1178477601.3551350     
  -1869923847.3621101       -30036009.603378534        1181014879.6379175     
  -2634101928.0257688       -86350164.428940535        1044138707.2093415     
  -2529651092.9507308       -94263120.047170162        1034297092.4275218     
  -2426008004.6648321       -104868564.96252918        1024650422.9749867     
  -2323172663.1680751       -118166499.17502594        1015198698.8517350     
  -2221145068.4604473       -134156922.68462074        1005941920.0577722     
  -1024473525.0464604        219862727.34654289        1678373245.4184344     
  -970978945.86686659        248001494.42462230        1700230135.1670318     
  -909821099.38238931        301684485.85231447        1738478363.8765023     
  -840999985.59302545        380911701.62962800        1793117931.5468488     
  -764515604.49877918        485683141.75654781        1864148838.1780677     
  -1271588075.6551163        146973815.41220260        1517230542.3182499     
  -1182519403.1065211        170141759.05956149        1532373554.1376548     
  -1088141416.5445523        211007416.08482385        1559637027.3025064     
  -988454115.96920896        269570786.48800832        1599020961.8128078     
  -883457501.38049078        345831870.26910448        1650525357.6685531     
  -1553404849.7603335        63674236.428895533        1351444420.3914151     
  -1440964591.3153796        78210604.403739691        1357127275.4415290     
  -1325568972.1485670        102598174.78478140        1370659714.2216668     
  -1207217992.2598860        136836947.57205075        1392041736.7318265     
  -1085911651.6493461        180926922.76551461        1421273342.9720078     
  -1869923847.3621101       -30036009.603378534        1181014879.6379175     
  -1746314510.4934473       -27791969.542851686        1174491299.0786512     
  -1622103766.1944342       -23543238.047818601        1171546424.6339808     
  -1497291614.4650633       -17289815.118265271        1172180256.3039064     
  -1371878055.3053453       -9031700.7542166114        1176392794.0884264     
  -2221145068.4604473       -134156922.68462074        1005941920.0577722     
  -2098569160.6407173       -147865962.78019202        984465625.04902422     
  -1977745798.6821527       -167416822.41297644        962297158.53944910     
  -1858674982.5847383       -192809501.58292782        939436520.52904439     
  -1741356712.3484833       -224044000.29008275        915883711.01780808     
  -764515604.49877918        485683141.75654781        1864148838.1780677     
  -683331808.07451010        638745428.39956498        1958499842.5358043     
  -578900715.05373442        869298703.69760323        2096892230.0945044     
  -451222325.43645346        1177342967.6506567        2279326000.8541627     
  -300296639.22266924        1562878220.2587283        2505801154.8147845     
  -883457501.38049078        345831870.26910448        1650525357.6685531     
  -732468172.62496400        455746813.14106393        1721533274.9684811     
  -573696260.18554759        591603701.62598836        1812153451.7309690     
  -407141764.06225175        753402535.72384298        1922385887.9560080     
  -232804684.25506610        941143315.43466115        2052230583.6436098     
  -1085911651.6493461        180926922.76551461        1421273342.9720078     
  -934914286.95799887        226755272.94779855        1450896008.1494002     
  -791599051.49538946        246976525.70095158        1475701809.0509462     
  -655965945.26151407        241590681.02499181        1495690745.6766424     
  -528014968.25638050        210597738.91990566        1510862818.0264978     
  -1371878055.3053453       -9031700.7542166114        1176392794.0884264     
  -1290670151.0736203       -48229192.180247664        1146588042.0785608     
  -1232609088.9832566       -164582824.07748279        1087537302.0544446     
  -1197694869.0342441       -358092596.44588715        999240574.01607835     
  -1185927491.2265983       -628758509.28551757        881697857.96346056     
  -1741356712.3484833       -224044000.29008275        915883711.01780808     
  -1799735764.9718270       -369206582.24307287        808609376.75596213     
  -1896726372.6491487       -643074347.70932806        647659930.74145949     
  -2032328535.3804455       -1045647296.6888366        433035372.97429824     
  -2206542253.1657262       -1576925429.1816072        164735703.45448402     
  -3766805948.5684037       -1130041784.5705211        801734923.39062202     
  -3777566583.1010790       -1009036040.5689291        885956420.17213786     
  -3788906836.5729718       -889962359.69806123        975038367.26815701     
  -3800826708.9840817       -772820741.95791674        1068980764.6786791     
  -3813326200.3344083       -657611187.34849715        1167783612.4037044     
  -4338095577.4859266       -1301428673.2457781        859612766.67288172     
  -4333582147.0174856       -1125910540.1745396        943131653.42837512     
  -4330181458.1212435       -954101545.67730117        1020959588.5464603     
  -4327893510.7972012       -786001689.75406373        1093096572.0271368     
  -4326718305.0453606       -621610972.40482676        1159542603.8704052     
  -4893498631.4084206       -1468049589.4225261        937005509.53052676     
  -4903857998.6586094       -1247063126.0975649        1019199809.8548509     
  -4915863230.1139812       -1031562876.7898812        1085151756.5898554     
  -4929514325.7745342       -821548841.49947393        1134861349.7355397     
  -4944811285.6402750       -617021020.22634542        1168328589.2919040     
  -5433015110.3358850       -1629904533.1007657        1033913151.9635578     
  -5488394138.0244522       -1372493798.3380063        1114160889.4515660     
  -5545952152.5511827       -1122346353.0358005        1167614871.3983426     
  -5605689153.9160805       -879462197.19414842        1194275097.8038876     
  -5667605142.1191444       -643841330.81305075        1194141568.6682017     
  -5956645014.2683220       -1786993504.2804966        1150335693.9719741     
  -6087190565.1150122       -1502202556.8958626        1228014892.2185192     
  -6220448225.4328508       -1226451974.4150596        1268348932.9719212     
  -6356417995.2218399       -959741756.83808672        1271337816.2321804     
  -6495099874.4819775       -702071904.16494536        1236981541.9992964     
  -3813326200.3344083       -657611187.34849715        1167783612.4037044     
  -3794496934.5625639       -539894928.89952695        1189431051.3361056     
  -3779632175.1023383       -435393691.48928487        1206127912.3758702     
  -3768731921.9537301       -344107475.11777222        1217874195.5229981     
  -3761796175.1167431       -266036279.78498924        1224669900.7774894     
  -4326718305.0453606       -621610972.40482676        1159542603.8704052     
  -4295156681.4765644       -466010797.49012053        1141470521.2730424     
  -4274288778.6078420       -346056358.24233019        1129400695.6892638     
  -4264114596.4391961       -261747654.66145778        1123333127.1190693     
  -4264634134.9706240       -213084686.74749899        1123267815.5624578     
  -4944811285.6402750       -617021020.22634542        1168328589.2919040     
  -4869223490.2567530       -414148784.64057112        1102686235.0449121     
  -4811058629.9617605       -269352999.34990096        1053998972.7177248     
  -4770316704.7553015       -182633664.35433412        1022266802.3103414     
  -4746997714.6373720       -153990779.65387034        1007489723.8227621     
  -5667605142.1191444       -643841330.81305075        1194141568.6682017     
  -5516697360.9031267       -384308890.35087752        1073078192.6517147     
  -5389941729.1640949       -205283614.81199527        979922743.46125233     
  -5287338246.9020500       -106765504.19640326        914675221.09681547     
  -5208886914.1169939       -88754558.504103661        877335625.55840278     
  -6495099874.4819775       -702071904.16494536        1236981541.9992964     
  -6237578293.4156876       -376491114.62104034        1052646394.0934496     
  -6010938076.2148438       -153848204.62861514        907172007.91984820     
  -5815179222.8794422       -34143174.187667370        800558383.47849107     
  -5650301733.4094830       -17376023.298195839        732805520.76937926     
  -3761796175.1167431       -266036279.78498924        1224669900.7774894     
  -3653814143.2991266       -175264458.12373364        1190315499.6341064     
  -3553480743.0813518       -109988075.12861013        1165351675.4409678     
  -3460795974.4634180       -70207130.799627662        1149778428.1980734     
  -3375759837.4453249       -55921625.136782169        1143595757.9054239     
  -4264634134.9706240       -213084686.74749899        1123267815.5624578     
  -4143100892.6416993       -150568578.52008295        1088182568.8928518     
  -4025882299.2465358       -102434633.40519452        1060651302.6125867     
  -3912978354.7851262       -68682851.402828455        1040674016.7216603     
  -3804389059.2574763       -49313232.512991190        1028250711.2200742     
  -4746997714.6373720       -153990779.65387034        1007489723.8227621     
  -4617160680.5425844       -121304610.48392844        975563278.07069755     
  -4488304312.7154703       -91887328.872901678        949354216.14706886     
  -4360428611.1560335       -65738934.820791721        928862538.05187464     
  -4233533575.8642683       -42859428.327595234        914088243.78511560     
  -5208886914.1169939       -88754558.504103661        877335625.55840278     
  -5075993507.0017805       -87472554.015264511        852457627.16764283     
  -4940746783.4881582       -78346161.531734705        831460416.04441428     
  -4803146743.5761299       -61375381.053508043        814343992.18871546     
  -4663193387.2656908       -36560212.580585480        801108355.60054898     
  -5650301733.4094830       -17376023.298195839        732805520.76937926     
  -5519599372.0192871       -49072409.114096880        718865616.18368876     
  -5383209711.5646009       -61811131.381696463        706969902.30462348     
  -5241132752.0454216       -55592190.100985289        697118379.13218486     
  -5093368493.4617529       -30415585.271972179        689311046.66637301     
  -3375759837.4453249       -55921625.136782169        1143595757.9054239     
  -3270589354.2029924       -48443899.727341056        1134997449.4191885     
  -3166241503.6162148       -43708283.169751167        1126512847.4780748     
  -3062716285.6849899       -41714775.464002728        1118141952.0820830     
  -2960013700.4093199       -42463376.610101223        1109884763.2312157     
  -3804389059.2574763       -49313232.512991190        1028250711.2200742     
  -3695338240.1395187       -38574922.851185799        1019138581.0811335     
  -3587755035.5856872       -32728661.736476660        1012145175.6277771     
  -3481639445.5959830       -31774449.168856859        1007270494.8600041     
  -3376991470.1704054       -35712285.148328066        1004514538.7778167     
  -4233533575.8642683       -42859428.327595234        914088243.78511560     
  -4114873797.6122179       -27141947.435884237        903709813.10013306     
  -3998326615.8328671       -18466454.786514759        897455125.24119592     
  -3883892030.5262218       -16832950.379483223        895324180.20830512     
  -3771570041.6922760       -22241434.214794636        897316978.00146031     
  -4663193387.2656908       -36560212.580585480        801108355.60054898     
  -4529196026.6210852       -14144973.481428146        788711145.47618675     
  -4397956244.3577604       -921662.31986713409        782442696.31833446     
  -4269474040.4757085        3109720.9041101933        782303008.12698770     
  -4143749414.9749322       -2050823.8094928265        788292080.90215015     
  -5093368493.4617529       -30415585.271972179        689311046.66637301     
  -4938304927.1661329        415999.01216721535        674142578.20929492     
  -4786643921.1603603        19905715.663470745        667107888.85918701     
  -4638385475.4444408        28053564.681940079        668206978.61604893     
  -4493529590.0183716        24859546.067568541        677439847.47988153     
  -2960013700.4093199       -42463376.610101223        1109884763.2312157     
  -2877890911.3616772       -51285587.058964133        1080266589.3061793     
  -2796198019.6152072       -61540788.511731267        1059436188.6608566     
  -2714935025.1699038       -73228980.968385458        1047393561.2952427     
  -2634101928.0257688       -86350164.428940535        1044138707.2093415     
  -3376991470.1704054       -35712285.148328066        1004514538.7778167     
  -3274008069.2406645       -42283808.120766044        981496373.33260942     
  -3170964294.1715446       -48654083.961956143        965217669.71474707     
  -3067860144.9630542       -54823112.671910524        955678427.92423069     
  -2964695621.6151924       -60790894.250618935        952878647.96106017     
  -3771570041.6922760       -22241434.214794636        897316978.00146031     
  -3653578347.3157592       -28317965.241400719        881470804.38337922     
  -3535036007.3593292       -32559011.001620054        870315781.14027905     
  -3415943021.8229847       -34964571.495466232        863851908.27215683     
  -3296299390.7067318       -35534646.722941995        862079185.77901626     
  -4143749414.9749322       -2050823.8094928265        788292080.90215015     
  -4016601745.5869756       -9388058.4208683968        780189882.45849383     
  -3888413159.1785598       -13255569.630717754        774730522.93744850     
  -3759183655.7496924       -13653357.439061403        771914002.33901954     
  -3628913235.3003707       -10581421.845888615        771740320.66320217     
  -4493529590.0183716        24859546.067568541        677439847.47988153     
  -4363078264.0543013        14505912.340830326        677653607.55794549     
  -4231095749.6292334        9256240.1507568359        678461895.10625660     
  -4097582046.7431741        9110529.4973158836        679864710.12481928     
  -3962537155.3961205        14068780.380525351        681862052.61362565     
  -2634101928.0257688       -86350164.428940535        1044138707.2093415     
  -2529651092.9507308       -94263120.047170162        1034297092.4275218     
  -2426008004.6648321       -104868564.96252918        1024650422.9749867     
  -2323172663.1680751       -118166499.17502594        1015198698.8517350     
  -2221145068.4604473       -134156922.68462074        1005941920.0577722     
  -2964695621.6151924       -60790894.250618935        952878647.96106017     
  -2856698759.6343403       -66668338.314924240        942588314.99700606     
  -2749658555.7986736       -75734642.863179564        934361016.27261746     
  -2643575010.1081996       -87989807.895418286        928196751.78789723     
  -2538448122.5629139       -103433833.41160524        924095521.54284334     
  -3296299390.7067318       -35534646.722941995        862079185.77901626     
  -3179419104.9332442       -37775360.167252541        851166404.71732867     
  -3063644388.6610079       -43701305.282378435        844184746.80569041     
  -2948975241.8900108       -53312482.068313479        841134212.04410350     
  -2835411664.6202559       -66608890.525054097        842014800.43256450     
  -3628913235.3003707       -10581421.845888615        771740320.66320217     
  -3497812128.8474550       -7584185.6041798592        760031361.58849156     
  -3367965503.2518344       -8768552.2201280594        754121614.57420647     
  -3239373358.5135088       -14134521.693719745        754011079.62036157     
  -3112035694.6324787       -23682094.024966121        759699756.72694373     
  -3962537155.3961205        14068780.380525351        681862052.61362565     
  -3811877831.3769603        23905185.374305964        669183185.61049116     
  -3662621899.5711541        29063616.323581934        664171619.57817078     
  -3514769359.9786949        29544073.228367805        666827354.51666391     
  -3368320212.5995827        25346556.088657379        677150390.42597437     
  -2221145068.4604473       -134156922.68462074        1005941920.0577722     
  -2098569160.6407173       -147865962.78019202        984465625.04902422     
  -1977745798.6821527       -167416822.41297644        962297158.53944910     
  -1858674982.5847383       -192809501.58292782        939436520.52904439     
  -1741356712.3484833       -224044000.29008275        915883711.01780808     
  -2538448122.5629139       -103433833.41160524        924095521.54284334     
  -2416883627.3004136       -117453878.55134308        908263877.49998164     
  -2296674980.6655064       -135993419.11639285        892418165.69335163     
  -2177822182.6581864       -159052455.10673761        876558386.12295151     
  -2060325233.2784631       -186630986.52239591        860684538.78878284     
  -2835411664.6202559       -66608890.525054097        842014800.43256450     
  -2712921142.6662412       -80358708.934332967        832290620.79475307     
  -2591389772.1062531       -97305698.657031178        823230477.13022947     
  -2470817552.9402905       -117449859.69314408        814834369.43899596     
  -2351204485.1683507       -140791192.04267788        807102297.72105753     
  -3112035694.6324787       -23682094.024966121        759699756.72694373     
  -2986681706.7382078       -36580453.929159760        756545854.93333995     
  -2861890173.0043941       -51353661.034887433        754734092.85007966     
  -2737661093.4310427       -68001715.342155218        754264470.47717535     
  -2613994468.0181417       -86524616.850929260        755136987.81461656     
  -3368320212.5995827        25346556.088657379        677150390.42597437     
  -3238165319.5163088        13880886.464164495        681029579.91573298     
  -3108176183.3599286        1862693.7500398159        686929012.85290527     
  -2978352804.1304417       -10708022.053735495        694848689.23748779     
  -2848695181.8278503       -23831260.947162390        704788609.06947756     
  -1741356712.3484833       -224044000.29008275        915883711.01780808     
  -1799735764.9718270       -369206582.24307287        808609376.75596213     
  -1896726372.6491487       -643074347.70932806        647659930.74145949     
  -2032328535.3804455       -1045647296.6888366        433035372.97429824     
  -2206542253.1657262       -1576925429.1816072        164735703.45448402     
  -2060325233.2784631       -186630986.52239591        860684538.78878284     
  -2223147557.4483638       -332751582.84736180        741875545.76692843     
  -2407325867.8331475       -550058799.88861299        596621766.62468076     
  -2612860164.4328146       -838552637.64614534        424923201.36204159     
  -2839750447.2473702       -1198233096.1199574        226779849.97900859     
  -2351204485.1683507       -140791192.04267788        807102297.72105753     
  -2540669150.5069103       -264529523.62624872        696890142.91813648     
  -2734234233.2212601       -401935913.12912536        587463527.62708652     
  -2931899733.3114047       -553010360.55131042        478822451.84791070     
  -3133665650.7773385       -717752865.89280522        370966915.58059889     
  -2613994468.0181417       -86524616.850929260        755136987.81461656     
  -2752300544.1474700       -164540404.57974517        673653168.20957601     
  -2877451468.8134904       -198705687.43087971        620185213.74866998     
  -2989447242.0162096       -189020465.40434825        594733124.43190134     
  -3088287863.7556338       -135484738.50014436        597296900.25925934     
  -2848695181.8278503       -23831260.947162390        704788609.06947756     
  -2858041738.3700418       -32784225.707838893        672164621.64125669     
  -2836977574.6098418        59631877.206124663        694786824.98943722     
  -2785502690.5472450        253417047.79474342        772655219.11400819     
  -2703617086.1822596        548571286.05800390        905769804.01497924     
  -5956645014.2683220       -1786993504.2804966        1150335693.9719741     
  -6087190565.1150122       -1502202556.8958626        1228014892.2185192     
  -6220448225.4328508       -1226451974.4150596        1268348932.9719212     
  -6356417995.2218399       -959741756.83808672        1271337816.2321804     
  -6495099874.4819775       -702071904.16494536        1236981541.9992964     
  -6809599595.5404787       -2042879878.6621435        1353961772.3433187     
  -6827557283.1444874       -1395387594.7540789        1202804728.6902382     
  -6896882908.3343229       -919121769.46544266        1091898582.7500341     
  -7017576471.1099882       -614082402.79623652        1021243334.5227062     
  -7189637971.4714832       -480269494.74645901        990838984.00825381     
  -8337090106.4871063       -2501127031.9461317        1712480023.8651338     
  -8020756915.9740915       -1424422507.0523341        1275721605.5119686     
  -7804447491.1615839       -681130534.49356318        956810140.07769883     
  -7688161832.0495872       -271251114.26982069        755745627.56232369     
  -7671899938.6380939       -194784246.38110495        672528067.96584427     
  -10539116547.108204       -3161734964.1324611        2225890448.5374198     
  -9666789463.6038246       -1589307293.7906272        1446765522.6837101     
  -8943141973.9146347       -512478269.49941969        863083604.95491517     
  -8368174078.0406342        68752108.741161823        474844695.35103422     
  -7941885775.9818163        154383840.93111658        282048793.87206739     
  -13415678917.403770       -4024703675.2211313        2894193046.3601761     
  -11765654926.033689       -1890041954.9689605        1715936480.2054632     
  -10312966356.593475       -413164974.48301411        810718977.38168311     
  -9057613209.0831280        405927266.23670721        178540537.88883656     
  -7999595483.5026474        567234767.19020510       -180598838.27307716     
  -6495099874.4819775       -702071904.16494536        1236981541.9992964     
  -6237578293.4156876       -376491114.62104034        1052646394.0934496     
  -6010938076.2148438       -153848204.62861514        907172007.91984820     
  -5815179222.8794422       -34143174.187667370        800558383.47849107     
  -5650301733.4094830       -17376023.298195839        732805520.76937926     
  -7189637971.4714832       -480269494.74645901        990838984.00825381     
  -6899422926.8838015       -305029068.55384207        846405654.67770505     
  -6621964414.1665030       -172310415.26248312        722954311.71243191     
  -6357262433.3195782       -82113534.872381926        620484955.11243343     
  -6105316984.3430300       -34438427.383538008        538997584.87770927     
  -7671899938.6380939       -194784246.38110495        672528067.96584427     
  -7400073645.8632269       -185208848.14003563        589142194.53817070     
  -7122879052.9636688       -157739116.15000391        508859532.10880196     
  -6840316159.9394226       -112375050.41101170        431680080.67773795     
  -6552384966.7904882       -49116650.923055649        357603840.24497998     
  -7941885775.9818163        154383840.93111658        282048793.87206739     
  -7739530450.3539610       -17030453.379622459        280856013.67484581     
  -7513681992.6063442       -110134307.29117823        264887669.10895973     
  -7264340402.7389774       -124927720.80355310        234143760.17440817     
  -6991505680.7518539       -61410693.916745663        188624286.87119231     
  -7999595483.5026474        567234767.19020510       -180598838.27307716     
  -7917793340.3559980        199506115.72739983       -78452887.912270531     
  -7794373233.0945292       -29495988.686002731       -8961277.2870967537     
  -7629335161.7182417       -119771546.05000734        27875993.602440245     
  -7422679126.2271290       -71320556.364604950        32058924.756343063     
  -5650301733.4094830       -17376023.298195839        732805520.76937926     
  -5519599372.0192871       -49072409.114096880        718865616.18368876     
  -5383209711.5646009       -61811131.381696463        706969902.30462348     
  -5241132752.0454216       -55592190.100985289        697118379.13218486     
  -5093368493.4617529       -30415585.271972179        689311046.66637301     
  -6105316984.3430300       -34438427.383538008        538997584.87770927     
  -5959503284.3516645       -36240350.723621130        532132970.98229676     
  -5812562177.4130192       -34284250.906109810        527949550.88673705     
  -5664493663.5270977       -28570127.931013346        526447324.59103447     
  -5515297742.6939030       -19097981.798328876        527626292.09518635     
  -6552384966.7904882       -49116650.923055649        357603840.24497998     
  -6389639919.3601532       -20478109.135976553        352494642.90309441     
  -6230327357.0997534       -3281184.5820219517        350703642.45429176     
  -6074447280.0092926        2474122.7388060093        352230838.89857417     
  -5921999688.0887699       -3212187.1735007763        357076232.23594260     
  -6991505680.7518539       -61410693.916745663        188624286.87119231     
  -6810009277.0447521       -1785684.3511657715        179950631.94608334     
  -6636505250.6248026        31198067.590569973        175232177.00728616     
  -6470993601.4920053        37540561.908460379        174468922.05480316     
  -6313474329.6463633        17241798.602506399        177660867.08863211     
  -7422679126.2271290       -71320556.364604950        32058924.756343063     
  -7220611357.4054642        19836923.630810738        14500938.111260345     
  -7031095857.9881630        69153505.611676216        1535154.5457173006     
  -6854132627.9752350        76629189.577972889       -6838425.9402807057     
  -6689721667.3666744        42263975.529701233       -10619803.346740158     
  -5093368493.4617529       -30415585.271972179        689311046.66637301     
  -4938304927.1661329        415999.01216721535        674142578.20929492     
  -4786643921.1603603        19905715.663470745        667107888.85918701     
  -4638385475.4444408        28053564.681940079        668206978.61604893     
  -4493529590.0183716        24859546.067568541        677439847.47988153     
  -5515297742.6939030       -19097981.798328876        527626292.09518635     
  -5346497966.9074049       -3818890.0227134228        514060253.21677524     
  -5178874528.2943802        7539077.8413362503        506515786.95711112     
  -5012427426.8548222        14975921.793816090        504992893.31619263     
  -4847156662.5887403        18491641.834722042        509491572.29402310     
  -5921999688.0887699       -3212187.1735007763        357076232.23594260     
  -5745498578.4920349       -5296050.6105976105        347709883.23863858     
  -5567947582.9523907       -3880294.2380006313        342252900.37185699     
  -5389346701.4698353        1035081.9443018436        340705283.63560688     
  -5209695934.0443668        9450077.9363021851        343067033.02987558     
  -6313474329.6463633        17241798.602506399        177660867.08863211     
  -6135306761.9200249       -4015482.7514939308        175091468.27487904     
  -5953863085.1343946       -14352400.574525356        174319229.10343421     
  -5769143299.2894773       -13768954.866606951        175344149.57428175     
  -5581147404.3852701       -2265145.6277129650        178166229.68743837     
  -6689721667.3666744        42263975.529701233       -10619803.346740158     
  -6515922517.1913662        22813.554609775543       -3794991.6744939303     
  -6336621034.8403940       -23877241.168260574        2714773.1518253894     
  -6151817220.3137484       -29436188.638890028        8909491.1322346944     
  -5961511073.6114340       -16654028.857289791        14789162.266714690     
  -4493529590.0183716        24859546.067568541        677439847.47988153     
  -4363078264.0543013        14505912.340830326        677653607.55794549     
  -4231095749.6292334        9256240.1507568359        678461895.10625660     
  -4097582046.7431741        9110529.4973158836        679864710.12481928     
  -3962537155.3961205        14068780.380525351        681862052.61362565     
  -4847156662.5887403        18491641.834722042        509491572.29402310     
  -4712211940.3891058        11890514.445231915        508474236.60079014     
  -4576762772.0998201        6970874.0212485790        509452869.07914448     
  -4440809157.7208881        3732720.5627620220        512427469.72908688     
  -4304351097.2523088        2176054.0697669983        517398038.55061966     
  -5209695934.0443668        9450077.9363021851        343067033.02987558     
  -5066253699.3196316        7802691.7709162235        339620735.46544176     
  -4923333760.8765869        4414317.9998927116        339571846.77393889     
  -4780936118.7152405       -715043.37679147720        342920366.95536363     
  -4639060772.8355875       -7585392.3591172695        349666296.00971979     
  -5581147404.3852701       -2265145.6277129650        178166229.68743837     
  -5425203540.8458872        2242444.3178715706        171093104.15190369     
  -5270808715.9595356        1586572.0866758823        168818828.19063848     
  -5117962929.7262297       -4232762.3213386536        171343401.80364445     
  -4966666182.1459560       -15215558.906128883        178666824.99091575     
  -5961511073.6114340       -16654028.857289791        14789162.266714690     
  -5789061464.9678507       -4790227.9138653278        2891342.6601760397     
  -5619187637.3486557       -1512363.7183799744       -2806186.6707510413     
  -5451889590.7538462       -6820436.2708523273       -2303425.7260723975     
  -5287167325.1834183       -20714445.571275234        4399625.4942224585     
  -3962537155.3961205        14068780.380525351        681862052.61362565     
  -3811877831.3769603        23905185.374305964        669183185.61049116     
  -3662621899.5711541        29063616.323581934        664171619.57817078     
  -3514769359.9786949        29544073.228367805        666827354.51666391     
  -3368320212.5995827        25346556.088657379        677150390.42597437     
  -4304351097.2523088        2176054.0697669983        517398038.55061966     
  -4135614125.0917645        10233077.418853521        505556796.16054916     
  -3967427742.0970306        16454803.548573971        500364762.51873046     
  -3799791948.2681131        20841232.458914757        501821937.62517130     
  -3632706743.6050005        23392364.149889946        509928321.47986549     
  -4639060772.8355875       -7585392.3591172695        349666296.00971979     
  -4455154987.4552546       -2180401.1311984062        339657615.12149793     
  -4270946988.1931925        4231969.7024796009        335280050.75897908     
  -4086436775.0494099        11651720.141901016        336533602.92215466     
  -3901624348.0239010        20078850.187077999        343418271.61103314     
  -4966666182.1459560       -15215558.906128883        178666824.99091575     
  -4770500418.4674292       -13335250.275854111        171485642.49334735     
  -4573179637.8596382       -7604885.2147061825        168917484.29891303     
  -4374703840.3225880        1975536.2773132324        170962350.40762511     
  -4175073025.8562698        15406014.200211525        177620240.81947246     
  -5287167325.1834183       -20714445.571275234        4399625.4942224585     
  -5081650418.1282930       -23231470.015120029        1040878.2760886236     
  -4874125691.0963602       -19055761.202956438        1277063.1385415727     
  -4664593144.0876379       -8187319.1348216534        5108180.0815705778     
  -4453052777.1021137        9373856.1893231869        12534229.105186047     
  -3368320212.5995827        25346556.088657379        677150390.42597437     
  -3238165319.5163088        13880886.464164495        681029579.91573298     
  -3108176183.3599286        1862693.7500398159        686929012.85290527     
  -2978352804.1304417       -10708022.053735495        694848689.23748779     
  -2848695181.8278503       -23831260.947162390        704788609.06947756     
  -3632706743.6050005        23392364.149889946        509928321.47986549     
  -3496262249.3815684        15168090.418583393        511862027.33167547     
  -3360311029.0409317        5299570.4113161564        515865630.02238178     
  -3224853082.5830793       -6213195.8719158173        521939129.55198705     
  -3089888410.0080132       -19370208.431095600        530082525.92049271     
  -3901624348.0239010        20078850.187077999        343418271.61103314     
  -3758748385.8274860        15138532.398803473        343024390.70968032     
  -3616693214.4697547        7462245.1482608318        344750060.03871059     
  -3475458833.9507141       -2950011.5645885468        348595279.59813350     
  -3335045244.2703490       -16098237.739680529        354560049.38793957     
  -4175073025.8562698        15406014.200211525        177620240.81947246     
  -4025623728.8540497        13792212.404827118        174516670.04974464     
  -3877322739.6464067        8350717.9608461857        173582302.90189013     
  -3730170058.2333488       -918469.13175129890        174817139.37591487     
  -3584165684.6148658       -14015348.872926235        178221179.47181609     
  -4453052777.1021137        9373856.1893231869        12534229.105186047     
  -4296888278.4612560        11129130.436671257        6338865.3518719599     
  -4142199604.5708857        7964988.8490834236        2362358.6119266762     
  -3988986755.4309916       -118568.57343006134        604708.88533418288     
  -3837249731.0415521       -13121541.830802917        1065916.1721194598     
  -2848695181.8278503       -23831260.947162390        704788609.06947756     
  -2858041738.3700418       -32784225.707838893        672164621.64125669     
  -2836977574.6098418        59631877.206124663        694786824.98943722     
  -2785502690.5472450        253417047.79474342        772655219.11400819     
  -2703617086.1822596        548571286.05800390        905769804.01497924     
  -3089888410.0080132       -19370208.431095600        530082525.92049271     
  -2976562637.6435876       -11751008.031087399        514609554.90569752     
  -2844764767.4255819        57441851.880872726        534429377.23635578     
  -2694494799.3539834        188208371.30480397        589541992.91247129     
  -2525752733.4287887        380548550.24071538        679947401.93404281     
  -3335045244.2703490       -16098237.739680529        354560049.38793957     
  -3156056849.9448652       -9009784.2626720667        342309701.92962950     
  -2970534980.2145910        19856920.563642740        345398750.38582695     
  -2778479635.0795364        70501876.739228129        363827194.75654787     
  -2579890814.5396972        142925084.26409304        397595035.04177177     
  -3584165684.6148658       -14015348.872926235        178221179.47181609     
  -3396524375.2738609       -24560554.402547359        155265062.71305004     
  -3214288212.9768777       -53122916.745578527        127694944.43785927     
  -3037457197.7239084       -99702435.901983976        95510824.646236718     
  -2866031329.5149751       -164299111.87183690        58712703.338188089     
  -3837249731.0415521       -13121541.830802917        1065916.1721194598     
  -3697965213.6305890       -58403318.450755596       -46524362.744033456     
  -3576024465.7124462       -161497660.04678583       -118682040.60756248     
  -3471427487.2871256       -322404566.61887050       -215407117.41847017     
  -3384174278.3546290       -541124038.16706634       -336699593.17673093     
 </DataArray>
 <DataArray  type="Float64" Name="VM" NumberOfComponents="1" format="ascii">
   12936324001.785362     
   11342606769.492449     
   10213307230.979897     
   9276906540.7423439     
   8308940765.2623682     
   10131433462.745962     
   9324145425.1002522     
   8829468804.1830006     
   8447456697.3260956     
   8040288192.3392191     
   7983646860.9908218     
   7737039508.7396488     
   7671945887.8772182     
   7672993510.2815485     
   7670235457.5034838     
   6492871730.6895142     
   6588551938.1739922     
   6759538345.0352249     
   6963715131.7064362     
   7174405857.7434196     
   5658644893.5650120     
   5891834269.6876640     
   6117420415.4797430     
   6332939888.0560808     
   6538170030.4233265     
   8308940765.2623682     
   8026222566.7597990     
   7785753212.2511711     
   7576802352.6626282     
   7394397658.4336891     
   8040288192.3392191     
   7751816288.6834297     
   7479084957.8577795     
   7220126995.9554853     
   6974959478.7140379     
   7670235457.5034838     
   7385275388.0327492     
   7105736724.5083599     
   6831702439.4989948     
   6563383818.6050491     
   7174405857.7434196     
   6914050510.6426544     
   6661594364.0388842     
   6413179319.8845854     
   6165658705.3550081     
   6538170030.4233265     
   6330490389.5135565     
   6144970288.6820068     
   5967681045.1308899     
   5789604849.9938011     
   7394397658.4336891     
   7237661257.6073494     
   7073237950.7929726     
   6900419099.2507029     
   6719026663.1829081     
   6974959478.7140379     
   6822494993.8122635     
   6665300112.1747551     
   6503087063.7345552     
   6335811106.4355841     
   6563383818.6050491     
   6414248272.6612148     
   6263420274.8447094     
   6110866951.8526068     
   5956618883.4778557     
   6165658705.3550081     
   6017909426.6273994     
   5871469936.0260124     
   5726377033.6310101     
   5582684321.2133417     
   5789604849.9938011     
   5639931866.6102905     
   5494447021.4890242     
   5353059804.0654097     
   5215815777.2835493     
   6719026663.1829081     
   6523180516.7642403     
   6331120203.6795282     
   6142722541.4218473     
   5957974225.7427769     
   6335811106.4355841     
   6148070842.2532196     
   5962774001.1470556     
   5779898400.9462376     
   5599476655.0719290     
   5956618883.4778557     
   5780024741.9539547     
   5604931064.4178391     
   5431367675.1666584     
   5259402034.0484066     
   5582684321.2133417     
   5420813723.1875124     
   5259940919.4333277     
   5100115265.3553457     
   4941456393.6187000     
   5215815777.2835493     
   5072788904.3456707     
   4930761643.4473515     
   4789787380.3252363     
   4650085488.1324606     
   5957974225.7427769     
   5793664551.2081680     
   5627509454.0093184     
   5459470940.6295233     
   5289595777.7719460     
   5599476655.0719290     
   5446338212.0324030     
   5292441965.1908016     
   5137816502.3686600     
   4982545566.0267773     
   5259402034.0484066     
   5115617186.7228441     
   4972067632.2327948     
   4828815193.6157713     
   4685953687.0233498     
   4941456393.6187000     
   4805034820.4221783     
   4669687328.6699476     
   4535478103.8258076     
   4402490177.8674841     
   4650085488.1324606     
   4518855636.1871452     
   4389321368.8602333     
   4261522621.8070679     
   4135519373.0383182     
   5289595777.7719460     
   5079303268.8860598     
   4870388513.8651733     
   4662869404.8953018     
   4456798906.0484133     
   4982545566.0267773     
   4780698823.4279680     
   4580087843.4858656     
   4380778642.1699343     
   4182886554.5229006     
   4685953687.0233498     
   4496579349.2260141     
   4308724837.9065275     
   4122542678.6961827     
   3938277072.0364442     
   4402490177.8674841     
   4229841843.4868264     
   4059495740.4490485     
   3891741346.5132637     
   3727032635.0373602     
   4135519373.0383182     
   3983979467.4090633     
   3836083910.7768002     
   3692305434.4300184     
   3553378471.9976325     
   4456798906.0484133     
   4294880730.3598948     
   4131869981.7585125     
   3967714346.7950206     
   3802526862.1189847     
   4182886554.5229006     
   4036659797.0029793     
   3890475889.3450274     
   3744388607.9134312     
   3598540410.0059776     
   3938277072.0364442     
   3802676549.9096289     
   3667748555.8765311     
   3533563912.4831138     
   3400224497.7771401     
   3727032635.0373602     
   3597004524.0727715     
   3467635503.6960397     
   3338939969.8607140     
   3210937689.0735641     
   3553378471.9976325     
   3424060817.9751101     
   3294652340.3761220     
   3165048523.1709037     
   3035164471.9339981     
   3802526862.1189847     
   3606700420.5665116     
   3413284121.3538585     
   3222373647.5961628     
   3034277088.3991628     
   3598540410.0059776     
   3399499340.3429008     
   3201803347.2674065     
   3005521332.0201354     
   2810771509.7491126     
   3400224497.7771401     
   3211961929.4891896     
   3025725982.2554917     
   2841884330.4304357     
   2661063238.0894890     
   3210937689.0735641     
   3047984073.4315405     
   2889776958.3605838     
   2737455843.3094392     
   2593016952.8250513     
   3035164471.9339981     
   2911838625.9320617     
   2798149981.2409968     
   2696325740.7750635     
   2610194711.1785192     
   5658644893.5650120     
   5891834269.6876640     
   6117420415.4797430     
   6332939888.0560808     
   6538170030.4233265     
   5151722862.7528391     
   5311581760.9581852     
   5468090506.3689165     
   5618350066.2551908     
   5760894483.6525249     
   4643149439.6919003     
   4755103729.3632202     
   4868180554.0562201     
   4979741926.1165447     
   5087861213.8214731     
   4133184840.4950595     
   4223237460.8379207     
   4319191132.1268759     
   4419386723.9731340     
   4522367910.2759504     
   3623351164.6786871     
   3717813020.4314899     
   3823493569.8733063     
   3940328783.5865526     
   4068225822.4536161     
   6538170030.4233265     
   6330490389.5135565     
   6144970288.6820068     
   5967681045.1308899     
   5789604849.9938011     
   5760894483.6525249     
   5652748332.9408674     
   5560572138.4798632     
   5475297684.7701054     
   5391377772.4760876     
   5087861213.8214731     
   5053396174.3507042     
   5029405156.1726732     
   5010683848.2013807     
   4994026236.9401379     
   4522367910.2759504     
   4537060007.2861261     
   4556364762.9549999     
   4577810758.0065165     
   4599674970.1050329     
   4068225822.4536161     
   4109120542.0195522     
   4147268510.5665770     
   4181785389.1553884     
   4211951283.1413493     
   5789604849.9938011     
   5639931866.6102905     
   5494447021.4890242     
   5353059804.0654097     
   5215815777.2835493     
   5391377772.4760876     
   5250826107.9666109     
   5113513131.7307119     
   4979480206.9590626     
   4848821600.4118233     
   4994026236.9401379     
   4867244559.4897547     
   4743722982.0310392     
   4623428235.0473490     
   4506400058.7369919     
   4599674970.1050329     
   4491842783.8215303     
   4388382675.2673693     
   4288970863.8108292     
   4193512918.5844641     
   4211951283.1413493     
   4128582835.9321795     
   4051973759.6549330     
   3981255487.7132277     
   3916122128.6195264     
   5215815777.2835493     
   5072788904.3456707     
   4930761643.4473515     
   4789787380.3252363     
   4650085488.1324606     
   4848821600.4118233     
   4724161101.6427927     
   4601320395.5540447     
   4480442291.1208115     
   4361797619.6336327     
   4506400058.7369919     
   4398121805.4697990     
   4292357868.2240801     
   4189301392.5271592     
   4089235476.0366411     
   4193512918.5844641     
   4099562619.1106000     
   4008627583.0973778     
   3920914213.3616610     
   3836684693.2815838     
   3916122128.6195264     
   3834373711.2740026     
   3755873769.2492108     
   3680809946.2363510     
   3609400164.6908355     
   4650085488.1324606     
   4518855636.1871452     
   4389321368.8602333     
   4261522621.8070679     
   4135519373.0383182     
   4361797619.6336327     
   4237199280.1254902     
   4114898278.2550735     
   3995024976.3976321     
   3877744093.7815223     
   4089235476.0366411     
   3975137476.1814137     
   3864388134.6151686     
   3757224298.5267162     
   3653947682.2137532     
   3836684693.2815838     
   3736865819.0346313     
   3641933069.7395749     
   3552235417.7091870     
   3468229036.9372368     
   3609400164.6908355     
   3527303285.5304894     
   3452128519.4705501     
   3384316100.0004239     
   3324459503.1837749     
   4135519373.0383182     
   3983979467.4090633     
   3836083910.7768002     
   3692305434.4300184     
   3553378471.9976325     
   3877744093.7815223     
   3748180544.0166454     
   3622673826.9198046     
   3501702702.4122148     
   3385916807.7304254     
   3653947682.2137532     
   3542682721.3501515     
   3435444554.4368815     
   3332647472.6822009     
   3234799829.9217348     
   3468229036.9372368     
   3371769338.6493392     
   3278781954.6977692     
   3189562324.0435286     
   3104446289.3301787     
   3324459503.1837749     
   3239621893.4293904     
   3157137639.9527559     
   3077147544.2655106     
   2999807129.4474220     
   3553378471.9976325     
   3424060817.9751101     
   3294652340.3761220     
   3165048523.1709037     
   3035164471.9339981     
   3385916807.7304254     
   3256784669.8677301     
   3129326294.4160056     
   3003678103.3371992     
   2880003506.2696552     
   3234799829.9217348     
   3114144701.0583911     
   2997978076.7563815     
   2886773701.5097113     
   2781114577.0062337     
   3104446289.3301787     
   2999869122.3930821     
   2903577556.3106828     
   2816387547.6667070     
   2739332658.3924747     
   2999807129.4474220     
   2917523023.2915792     
   2848161691.0308590     
   2792747766.7730584     
   2752610884.4959879     
   3035164471.9339981     
   2911838625.9320617     
   2798149981.2409968     
   2696325740.7750635     
   2610194711.1785192     
   2880003506.2696552     
   2798245695.9592447     
   2724454411.6396513     
   2659804963.7665901     
   2605918651.5437050     
   2781114577.0062337     
   2722572358.9189482     
   2667219867.5850124     
   2615267693.4764700     
   2566947473.6508117     
   2739332658.3924747     
   2686869293.4777136     
   2629898476.7300687     
   2567892274.2210903     
   2500446265.6589756     
   2752610884.4959879     
   2691586529.4383750     
   2616180676.4635782     
   2525209558.8048625     
   2418055372.0289006     
   3623351164.6786871     
   3717813020.4314899     
   3823493569.8733063     
   3940328783.5865526     
   4068225822.4536161     
   3135750829.2844968     
   3253040377.6663923     
   3379698506.6137705     
   3515256754.6418405     
   3659258141.9549565     
   2692187987.0484009     
   2827667155.9889364     
   2970392606.8580379     
   3119280007.9028616     
   3273417963.3655601     
   2296192340.9709234     
   2446539596.8885856     
   2601523159.8605690     
   2759211290.4891133     
   2918170405.9394999     
   1953035229.5685554     
   2116691958.8440659     
   2281595854.7657981     
   2444765451.5647631     
   2604233244.7050290     
   4068225822.4536161     
   4109120542.0195522     
   4147268510.5665770     
   4181785389.1553884     
   4211951283.1413493     
   3659258141.9549565     
   3697763630.2228284     
   3734807275.4332290     
   3769497841.6993189     
   3801091306.6421509     
   3273417963.3655601     
   3315533710.4279132     
   3357837423.6231709     
   3399510381.5628467     
   3439876583.1914186     
   2918170405.9394999     
   2969904557.0767431     
   3023847936.2249928     
   3079322304.0333652     
   3135797367.6097617     
   2604233244.7050290     
   2671054408.2512889     
   2742424607.4805102     
   2817840977.3422346     
   2896956153.2020731     
   4211951283.1413493     
   4128582835.9321795     
   4051973759.6549330     
   3981255487.7132277     
   3916122128.6195264     
   3801091306.6421509     
   3749239479.0761600     
   3703432953.5317640     
   3663183029.9757633     
   3628372763.9331980     
   3439876583.1914186     
   3414341552.2698216     
   3393691447.2182183     
   3377683005.5861559     
   3366273361.3902173     
   3135797367.6097617     
   3131752864.4335332     
   3130766440.9731417     
   3132725027.5484548     
   3137589588.9795070     
   2896956153.2020731     
   2910097708.2143145     
   2923622631.8472018     
   2937464493.6242785     
   2951567741.4870009     
   3916122128.6195264     
   3834373711.2740026     
   3755873769.2492108     
   3680809946.2363510     
   3609400164.6908355     
   3628372763.9331980     
   3556934596.9579477     
   3489700992.3929567     
   3426896256.9147315     
   3368785089.1302004     
   3366273361.3902173     
   3306706586.9470506     
   3252546527.1130466     
   3204032595.3632050     
   3161454593.6662011     
   3137589588.9795070     
   3091004232.2422786     
   3051261344.3755651     
   3018578585.5474229     
   2993232636.8501210     
   2951567741.4870009     
   2918263936.7711267     
   2893436951.6435366     
   2877233227.2204556     
   2869866178.1718059     
   3609400164.6908355     
   3527303285.5304894     
   3452128519.4705501     
   3384316100.0004239     
   3324459503.1837749     
   3368785089.1302004     
   3304609972.0035772     
   3246940512.9251552     
   3196085680.2996268     
   3152437468.8391581     
   3161454593.6662011     
   3111014427.9677534     
   3066251305.7724156     
   3027354328.7101111     
   2994548465.9314637     
   2993232636.8501210     
   2952408792.1005445     
   2915982538.5818577     
   2884052329.8631258     
   2856728526.1489549     
   2869866178.1718059     
   2834852073.1177578     
   2802497647.3289185     
   2772849803.2783575     
   2745964340.8590508     
   3324459503.1837749     
   3239621893.4293904     
   3157137639.9527559     
   3077147544.2655106     
   2999807129.4474220     
   3152437468.8391581     
   3072995384.8898783     
   2998429926.6551347     
   2929100631.4810677     
   2865400603.3545914     
   2994548465.9314637     
   2924855705.1256399     
   2863022663.7837205     
   2809552575.8893681     
   2765006107.8881946     
   2856728526.1489549     
   2799915213.5209856     
   2754332900.9018364     
   2720504316.4974513     
   2699033172.4157381     
   2745964340.8590508     
   2703314032.3384867     
   2675612085.4445457     
   2663252806.2161684     
   2666740265.4974689     
   2999807129.4474220     
   2917523023.2915792     
   2848161691.0308590     
   2792747766.7730584     
   2752610884.4959879     
   2865400603.3545914     
   2807468255.3921828     
   2759086428.4552431     
   2720737240.6563034     
   2692993276.0284901     
   2765006107.8881946     
   2722109044.7389412     
   2684506880.6901197     
   2652338970.9364977     
   2625758592.8736911     
   2699033172.4157381     
   2663140420.5407815     
   2627494858.9507565     
   2592062276.4392591     
   2556845248.4160948     
   2666740265.4974689     
   2631662719.5022020     
   2591206766.2247314     
   2545286947.3848205     
   2493953278.3007040     
   2752610884.4959879     
   2691586529.4383750     
   2616180676.4635782     
   2525209558.8048625     
   2418055372.0289006     
   2692993276.0284901     
   2620351014.3793917     
   2551262700.3624234     
   2486114192.5543747     
   2425324813.0408864     
   2625758592.8736911     
   2572891925.6665511     
   2542608457.2007737     
   2537458188.2288151     
   2560592700.1251454     
   2556845248.4160948     
   2548697768.4355106     
   2582787395.1612544     
   2663508537.8200359     
   2796918264.9947691     
   2493953278.3007040     
   2546670592.6428804     
   2664317899.0063543     
   2852255571.7050538     
   3118640205.1934662     
   1953035229.5685554     
   2116691958.8440659     
   2281595854.7657981     
   2444765451.5647631     
   2604233244.7050290     
   1652175101.9504478     
   1818225880.1346784     
   1985929965.6448185     
   2152573187.8051271     
   2316387549.4200644     
   1392916396.3507943     
   1570047566.5672588     
   1748208260.6828766     
   1925381497.7480214     
   2100308291.4783194     
   1207608110.9872670     
   1399551438.9492340     
   1591162391.8899810     
   1781657094.3135428     
   1970572027.0373893     
   1138722332.8957202     
   1337287836.0769267     
   1536319938.1814206     
   1735818648.5513251     
   1935783993.1887231     
   2604233244.7050290     
   2671054408.2512889     
   2742424607.4805102     
   2817840977.3422346     
   2896956153.2020731     
   2316387549.4200644     
   2402726599.4095883     
   2491523753.1825666     
   2582394975.6280966     
   2675069084.4298968     
   2100308291.4783194     
   2203759332.8266435     
   2307100260.8520994     
   2410099109.9658079     
   2512591759.6789551     
   1970572027.0373893     
   2087838334.1300614     
   2202188307.5056558     
   2313549208.6857538     
   2421870119.7146940     
   1935783993.1887231     
   2062988891.3673270     
   2184659775.7917266     
   2300796460.5363359     
   2411398832.5557580     
   2896956153.2020731     
   2910097708.2143145     
   2923622631.8472018     
   2937464493.6242785     
   2951567741.4870009     
   2675069084.4298968     
   2694457150.0680981     
   2715488848.4927402     
   2738136478.9446363     
   2762381573.1505537     
   2512591759.6789551     
   2539167420.9168677     
   2568742383.0526619     
   2601313097.0655260     
   2636883263.7794766     
   2421870119.7146940     
   2454996602.6988254     
   2492524566.2179422     
   2534457584.1577721     
   2580804670.7447677     
   2411398832.5557580     
   2448600428.5477052     
   2491626983.5204926     
   2540484881.0628648     
   2595184126.4011884     
   2951567741.4870009     
   2918263936.7711267     
   2893436951.6435366     
   2877233227.2204556     
   2869866178.1718059     
   2762381573.1505537     
   2744042775.7667279     
   2732913006.6809559     
   2729074114.9541693     
   2732624749.3880811     
   2636883263.7794766     
   2628861464.4146967     
   2626255012.8528910     
   2629101562.9810143     
   2637439857.7683630     
   2580804670.7447677     
   2578757508.9441352     
   2579854523.6791778     
   2584116344.1857820     
   2591579230.9122167     
   2595184126.4011884     
   2595654182.9256120     
   2596649104.6134067     
   2598189612.4926467     
   2600349490.1597886     
   2869866178.1718059     
   2834852073.1177578     
   2802497647.3289185     
   2772849803.2783575     
   2745964340.8590508     
   2732624749.3880811     
   2699602605.0671387     
   2671382363.4827933     
   2648023190.3151445     
   2629588029.6800728     
   2637439857.7683630     
   2607646427.7919998     
   2585074012.5205197     
   2569754456.9496598     
   2561728028.3972611     
   2591579230.9122167     
   2564759860.9400110     
   2547762613.4956732     
   2540564143.4343266     
   2543163976.8499012     
   2600349490.1597886     
   2574528757.3561416     
   2561228845.5558171     
   2560383565.4572811     
   2571972840.5285306     
   2745964340.8590508     
   2703314032.3384867     
   2675612085.4445457     
   2663252806.2161684     
   2666740265.4974689     
   2629588029.6800728     
   2605124254.0843391     
   2592845316.2429380     
   2592907345.0457978     
   2605506666.2100816     
   2561728028.3972611     
   2548928721.1292601     
   2545115877.4175134     
   2550327689.5865698     
   2564610443.1458874     
   2543163976.8499012     
   2536635775.5967569     
   2535516072.6661558     
   2539804425.4223485     
   2549501095.8372808     
   2571972840.5285306     
   2568009831.8180847     
   2565588726.2064095     
   2564702687.4392300     
   2565354132.5272255     
   2666740265.4974689     
   2631662719.5022020     
   2591206766.2247314     
   2545286947.3848205     
   2493953278.3007040     
   2605506666.2100816     
   2559414193.1129284     
   2511100223.3650141     
   2460637963.8040462     
   2408215386.0084100     
   2564610443.1458874     
   2510388643.7824397     
   2457375499.9170885     
   2405776958.7233596     
   2355895027.0460253     
   2549501095.8372808     
   2488969478.0506639     
   2433173138.3347850     
   2382384203.6218090     
   2336945576.2451239     
   2565354132.5272255     
   2498991232.7526078     
   2440795263.5105672     
   2391018155.1616135     
   2349953431.0088558     
   2493953278.3007040     
   2546670592.6428804     
   2664317899.0063543     
   2852255571.7050538     
   3118640205.1934662     
   2408215386.0084100     
   2492217434.6720672     
   2614172834.1537409     
   2773102189.7816477     
   2968704812.0785112     
   2355895027.0460253     
   2420630969.5995364     
   2494576384.5114222     
   2577353892.6208038     
   2668730742.4495440     
   2336945576.2451239     
   2347337006.4903579     
   2331347799.5038290     
   2296003184.0880952     
   2253303101.0295181     
   2349953431.0088558     
   2293838707.8165402     
   2173518838.9447427     
   2012173014.1777625     
   1858164731.6236863     
   1138722332.8957202     
   1337287836.0769267     
   1536319938.1814206     
   1735818648.5513251     
   1935783993.1887231     
   1209899185.3266490     
   1402257869.4550166     
   1594343210.1178761     
   1785384915.0332100     
   1974928013.7873440     
   1396717760.1870441     
   1574563796.8144839     
   1753558019.5595708     
   1931703738.9174011     
   2107753039.9335041     
   1656653779.2484262     
   1823499272.2457585     
   1992180541.5492663     
   2160002528.9399972     
   2325203523.3583789     
   1957590954.6275363     
   2121866205.1386914     
   2287625371.0379839     
   2451901903.9605155     
   2612725248.1239958     
   1935783993.1887231     
   2062988891.3673270     
   2184659775.7917266     
   2300796460.5363359     
   2411398832.5557580     
   1974928013.7873440     
   2092909292.9625921     
   2208073502.1769152     
   2320346078.6385722     
   2429675293.7626371     
   2107753039.9335041     
   2212611791.9983606     
   2317558245.2164426     
   2422362832.8000607     
   2526862695.2906027     
   2325203523.3583789     
   2413475015.5255704     
   2504508972.9712749     
   2597934669.3289266     
   2693488520.9724393     
   2612725248.1239958     
   2681734344.6455622     
   2755710253.4204907     
   2834183388.8186569     
   2916827875.7882667     
   2411398832.5557580     
   2448600428.5477052     
   2491626983.5204926     
   2540484881.0628648     
   2595184126.4011884     
   2429675293.7626371     
   2467193348.8669910     
   2509810860.6001258     
   2557535959.9251533     
   2610376263.2802391     
   2526862695.2906027     
   2560319249.1789956     
   2598097709.8492556     
   2640206226.2989058     
   2686657349.6395826     
   2693488520.9724393     
   2719907822.0810695     
   2749808980.5034671     
   2783185163.9143119     
   2820047337.2601743     
   2916827875.7882667     
   2934752273.6569510     
   2955256553.3921294     
   2978296909.7724600     
   3003866633.4063568     
   2595184126.4011884     
   2595654182.9256120     
   2596649104.6134067     
   2598189612.4926467     
   2600349490.1597886     
   2610376263.2802391     
   2608999987.8098092     
   2612475275.6265869     
   2620794210.6302576     
   2633968053.8638091     
   2686657349.6395826     
   2682322138.7757697     
   2687026289.0995474     
   2700782216.2270055     
   2723613283.6444912     
   2820047337.2601743     
   2809141296.3887658     
   2811253007.9060030     
   2826545332.4338861     
   2855208524.2728543     
   3003866633.4063568     
   2980974436.4059687     
   2974929446.6232595     
   2986258798.3472190     
   3015554722.7218876     
   2600349490.1597886     
   2574528757.3561416     
   2561228845.5558171     
   2560383565.4572811     
   2571972840.5285306     
   2633968053.8638091     
   2622734010.6115737     
   2620859505.4812350     
   2628372176.7240314     
   2645307780.8223195     
   2723613283.6444912     
   2722557378.3651681     
   2727634020.7149477     
   2738902505.4583592     
   2756418297.3155417     
   2855208524.2728543     
   2861881315.2765422     
   2871456346.1271348     
   2883942395.1733432     
   2899355411.4562936     
   3015554722.7218876     
   3029302379.1754284     
   3042723223.0790863     
   3055706704.4826374     
   3068178774.8090868     
   2571972840.5285306     
   2568009831.8180847     
   2565588726.2064095     
   2564702687.4392300     
   2565354132.5272255     
   2645307780.8223195     
   2644072423.5329828     
   2647967560.2661314     
   2656995466.6013556     
   2671164001.2510223     
   2756418297.3155417     
   2755946711.6878009     
   2764180228.1959734     
   2781161982.9684725     
   2806939369.3730807     
   2899355411.4562936     
   2896302167.6993909     
   2905549542.2861657     
   2927254079.0475545     
   2961573920.9790616     
   3068178774.8090868     
   3058310406.6774302     
   3064458231.9634237     
   3087006240.8281078     
   3126330023.9286394     
   2565354132.5272255     
   2498991232.7526078     
   2440795263.5105672     
   2391018155.1616135     
   2349953431.0088558     
   2671164001.2510223     
   2628367617.2130909     
   2598411896.5446181     
   2581223719.5352097     
   2576705091.3933396     
   2806939369.3730807     
   2787658447.2423277     
   2786187072.2721481     
   2802481968.9774261     
   2836557283.0913210     
   2961573920.9790616     
   2964284823.7056718     
   2990653729.0957513     
   3041014737.5280876     
   3115864937.4499407     
   3126330023.9286394     
   3149199362.0242138     
   3203152812.0697393     
   3289154478.7518158     
   3408348168.4043717     
   2349953431.0088558     
   2293838707.8165402     
   2173518838.9447427     
   2012173014.1777625     
   1858164731.6236863     
   2576705091.3933396     
   2546173470.4100242     
   2478039762.8465853     
   2377105537.9519768     
   2252236088.4578433     
   2836557283.0913210     
   2859730541.9624271     
   2882852505.6214757     
   2905822519.5063910     
   2928590477.5362320     
   3115864937.4499407     
   3206368705.0386882     
   3339201392.7549076     
   3515750139.0538011     
   3737540585.2325153     
   3408348168.4043717     
   3580304184.0538683     
   3845115731.5740180     
   4207964179.5834966     
   4673244243.8159437     
   1957590954.6275363     
   2121866205.1386914     
   2287625371.0379839     
   2451901903.9605155     
   2612725248.1239958     
   2300361732.6753144     
   2450982322.9595437     
   2606381604.7756782     
   2764632471.3794961     
   2924298128.2527690     
   2695608716.5745687     
   2831126622.4182472     
   2973953146.1244311     
   3123004227.7934508     
   3277366698.8403759     
   3138168480.6052237     
   3255401292.3612585     
   3381997036.6070824     
   3517487596.4507952     
   3661416313.8470321     
   3624570324.1828604     
   3719034623.1601367     
   3824652010.5613537     
   3941362388.7427106     
   4069075928.2335405     
   2612725248.1239958     
   2681734344.6455622     
   2755710253.4204907     
   2834183388.8186569     
   2916827875.7882667     
   2924298128.2527690     
   2977554965.7667389     
   3033351182.9497328     
   3091031463.2809787     
   3150083422.8830490     
   3277366698.8403759     
   3320225388.9953585     
   3363497377.2036996     
   3406368652.1065464     
   3448168234.2307429     
   3661416313.8470321     
   3699870674.0980005     
   3736979581.2702575     
   3771835684.5248628     
   3803683048.6687741     
   4069075928.2335405     
   4109172975.8685665     
   4146539842.2666268     
   4180257659.0789361     
   4209579623.0928302     
   2916827875.7882667     
   2934752273.6569510     
   2955256553.3921294     
   2978296909.7724600     
   3003866633.4063568     
   3150083422.8830490     
   3145796469.4546890     
   3145602190.1803212     
   3149414488.8835673     
   3157265031.2097120     
   3448168234.2307429     
   3418984274.4674487     
   3394772451.9038639     
   3375309098.8739052     
   3360607853.8771586     
   3803683048.6687741     
   3746814993.7989326     
   3695358659.3743305     
   3648830937.3061919     
   3607124439.3445559     
   4209579623.0928302     
   4122043744.8129487     
   4040125721.2544270     
   3962958057.3450727     
   3890184764.8387146     
   3003866633.4063568     
   2980974436.4059687     
   2974929446.6232595     
   2986258798.3472190     
   3015554722.7218876     
   3157265031.2097120     
   3112542356.9148889     
   3079998642.2973909     
   3060213759.3784194     
   3053828689.5807905     
   3360607853.8771586     
   3294839981.3159046     
   3236765987.8021207     
   3186846584.9122162     
   3145596026.0838928     
   3607124439.3445559     
   3524019232.8830199     
   3444496899.5017619     
   3368798048.2173491     
   3297193768.5513635     
   3890184764.8387146     
   3795433975.5931215     
   3700769957.6730137     
   3606235561.0723176     
   3511883345.3562918     
   3015554722.7218876     
   3029302379.1754284     
   3042723223.0790863     
   3055706704.4826374     
   3068178774.8090868     
   3053828689.5807905     
   3040676860.2872949     
   3030161285.8766727     
   3022336898.1814885     
   3017285980.5902729     
   3145596026.0838928     
   3104694220.2306089     
   3068930809.0090504     
   3038489758.4453478     
   3013601140.6786647     
   3297193768.5513635     
   3227331646.8876386     
   3164482828.7129698     
   3108897666.0577736     
   3060924448.2550998     
   3511883345.3562918     
   3411483503.7225232     
   3319283886.0394750     
   3235509630.0254769     
   3160564997.4643373     
   3068178774.8090868     
   3058310406.6774302     
   3064458231.9634237     
   3087006240.8281078     
   3126330023.9286394     
   3017285980.5902729     
   2982881822.6390619     
   2960670069.1323752     
   2951167567.9600067     
   2954893101.8408747     
   3013601140.6786647     
   2954287875.9348397     
   2903162154.4360561     
   2860744771.9679375     
   2827585359.9031143     
   3060924448.2550998     
   2979404058.3448367     
   2902071381.3154149     
   2829292518.0476170     
   2761474378.6513662     
   3160564997.4643373     
   3062495519.9032798     
   2965101304.2536654     
   2868528988.5730286     
   2772951306.3554053     
   3126330023.9286394     
   3149199362.0242138     
   3203152812.0697393     
   3289154478.7518158     
   3408348168.4043717     
   2954893101.8408747     
   2944996165.7916121     
   2958983736.2650919     
   2997794591.1459031     
   3062405340.2784038     
   2827585359.9031143     
   2778592789.3304381     
   2745866821.0706472     
   2730317242.8459315     
   2732848891.9853992     
   2761474378.6513662     
   2672104541.0457916     
   2590588429.7726946     
   2517600619.8497934     
   2453862383.2908030     
   2772951306.3554053     
   2650107095.2419519     
   2527141939.7166986     
   2404392007.5772519     
   2282303070.6424193     
   3408348168.4043717     
   3580304184.0538683     
   3845115731.5740180     
   4207964179.5834966     
   4673244243.8159437     
   3062405340.2784038     
   3157382660.9185319     
   3297002209.2386603     
   3482358962.1059523     
   3714027791.8876095     
   2732848891.9853992     
   2729977491.0210094     
   2723273826.4395885     
   2712638025.6226845     
   2698605072.5247912     
   2453862383.2908030     
   2355822559.0663581     
   2211732022.0715246     
   2032058762.8850374     
   1840726110.5753007     
   2282303070.6424193     
   2161581690.7758689     
   2012403943.5894177     
   1913425621.3741684     
   1989317342.8597293     
   3624570324.1828604     
   3719034623.1601367     
   3824652010.5613537     
   3941362388.7427106     
   4069075928.2335405     
   4133263865.8824277     
   4223372455.8084178     
   4319308259.6405458     
   4419424128.9863720     
   4522275209.4359913     
   4642363382.0062590     
   4754353161.3626471     
   4867388853.8810883     
   4978850073.3463621     
   5086825745.3322020     
   5150327682.4711571     
   5310130505.5765581     
   5466510852.9815159     
   5616590778.5986118     
   5758920343.8732910     
   5656880437.9290180     
   5889853138.5148249     
   6115162026.4978714     
   6330366002.4372425     
   6535255940.4537029     
   4069075928.2335405     
   4109172975.8685665     
   4146539842.2666268     
   4180257659.0789361     
   4209579623.0928302     
   4522275209.4359913     
   4535726231.1713982     
   4553766853.0000477     
   4573914633.5398798     
   4594450230.0683794     
   5086825745.3322020     
   5050942924.0614891     
   5025505408.4768381     
   5005311613.1186323     
   4987164847.3580742     
   5758920343.8732910     
   5649426313.9244471     
   5555888068.8836575     
   5469253290.5797710     
   5383978194.3258390     
   6535255940.4537029     
   6326525825.0203094     
   6139963920.9735918     
   5961678257.7967224     
   5782650224.9405117     
   4209579623.0928302     
   4122043744.8129487     
   4040125721.2544270     
   3962958057.3450727     
   3890184764.8387146     
   4594450230.0683794     
   4485148715.6060266     
   4379586158.6744680     
   4277425587.3654103     
   4178528420.6552415     
   4987164847.3580742     
   4860861632.3794212     
   4737585975.3076973     
   4617289918.5635414     
   4499985399.0849695     
   5383978194.3258390     
   5244940746.3723278     
   5109208121.0628939     
   4976812135.1849422     
   4847839278.1608009     
   5782650224.9405117     
   5634521152.0408545     
   5490850977.7814217     
   5351552958.8558569     
   5216690434.6961870     
   3890184764.8387146     
   3795433975.5931215     
   3700769957.6730137     
   3606235561.0723176     
   3511883345.3562918     
   4178528420.6552415     
   4078038215.6782436     
   3978561110.4212341     
   3880203244.4973888     
   3783106534.3756876     
   4499985399.0849695     
   4389910209.3489971     
   4281284728.2821503     
   4174247172.1463113     
   4069015041.8555641     
   4847839278.1608009     
   4723975781.3881035     
   4601588450.2264776     
   4480813443.4393606     
   4361923719.4684772     
   5216690434.6961870     
   5074673851.9794540     
   4933835895.5795126     
   4794270723.1730289     
   4656276143.0257874     
   3511883345.3562918     
   3411483503.7225232     
   3319283886.0394750     
   3235509630.0254769     
   3160564997.4643373     
   3783106534.3756876     
   3670488335.5613270     
   3563430490.6335316     
   3462159091.2530265     
   3367019797.5137439     
   4069015041.8555641     
   3946764127.6651926     
   3828157659.1064138     
   3713377522.4001098     
   3602674162.0093427     
   4361923719.4684772     
   4233386160.5721860     
   4107190234.7867370     
   3983450310.3107843     
   3862314531.6835175     
   4656276143.0257874     
   4525217787.6981106     
   4395719803.1955166     
   4267814528.0533857     
   4141552158.2914433     
   3160564997.4643373     
   3062495519.9032798     
   2965101304.2536654     
   2868528988.5730286     
   2772951306.3554053     
   3367019797.5137439     
   3261922639.4820604     
   3158671402.2001967     
   3057494237.6322317     
   2958667539.1822662     
   3602674162.0093427     
   3487618365.9335566     
   3375186683.0991898     
   3265669961.3302221     
   3159446027.3031902     
   3862314531.6835175     
   3733786571.8308115     
   3608300786.5081854     
   3486194296.3798532     
   3367945760.4640336     
   4141552158.2914433     
   3995688440.4474769     
   3852981278.3607931     
   3713797688.5736628     
   3578714402.3333039     
   2772951306.3554053     
   2650107095.2419519     
   2527141939.7166986     
   2404392007.5772519     
   2282303070.6424193     
   2958667539.1822662     
   2836561181.9560304     
   2714794290.7366943     
   2593623525.2370896     
   2473375080.1487250     
   3159446027.3031902     
   3037517874.9022245     
   2916459773.9603305     
   2796498135.7756577     
   2677909290.0226202     
   3367945760.4640336     
   3244909315.5665183     
   3123292281.5048804     
   3003330071.7152915     
   2885303160.7531514     
   3578714402.3333039     
   3452862549.6593676     
   3328988831.8950343     
   3207374615.3049688     
   3088353140.4541068     
   2282303070.6424193     
   2161581690.7758689     
   2012403943.5894177     
   1913425621.3741684     
   1989317342.8597293     
   2473375080.1487250     
   2442230698.6959271     
   2416916286.6560912     
   2425049930.0972762     
   2500309877.9421549     
   2677909290.0226202     
   2703675501.0580168     
   2752079681.9895091     
   2822817457.3696189     
   2915249808.0147381     
   2885303160.7531514     
   2917326337.2668896     
   2983510353.8436337     
   3077105670.6005311     
   3194957422.4597497     
   3088353140.4541068     
   3071024997.3007002     
   3109559167.2326546     
   3212495536.2605705     
   3399243933.6057339     
   5656880437.9290180     
   5889853138.5148249     
   6115162026.4978714     
   6330366002.4372425     
   6535255940.4537029     
   6490951262.9238997     
   6586028689.9556570     
   6756436264.8447866     
   6960094852.0143108     
   7170346911.3517485     
   7981751057.0627728     
   7734272503.1734180     
   7668373288.2993183     
   7668731408.7719383     
   7665409730.0705452     
   10129729372.769985     
   9321405936.7979927     
   8825757550.8875942     
   8442915747.6037292     
   8035056779.2511139     
   12934976165.905668     
   11340133465.019384     
   10209741410.420870     
   9272405099.5646801     
   8303660619.4883995     
   6535255940.4537029     
   6326525825.0203094     
   6139963920.9735918     
   5961678257.7967224     
   5782650224.9405117     
   7170346911.3517485     
   6909396681.6602345     
   6656354779.7655602     
   6407379786.3679781     
   6159332687.7577696     
   7665409730.0705452     
   7380115090.0025148     
   7100249647.4355392     
   6825900345.2104874     
   6557283851.7915649     
   8035056779.2511139     
   7746318752.6098843     
   7473321144.0386648     
   7214097367.9263268     
   6968666092.3542557     
   8303660619.4883995     
   8020559009.9525146     
   7779682659.2672167     
   7570314007.9179544     
   7387485753.0596457     
   5782650224.9405117     
   5634521152.0408545     
   5490850977.7814217     
   5351552958.8558569     
   5216690434.6961870     
   6159332687.7577696     
   6012529814.1859312     
   5867194160.8318453     
   5723365248.2105684     
   5581103061.2148037     
   6557283851.7915649     
   6408574516.0879965     
   6258236654.4598579     
   6106238162.6211023     
   5952611053.9253120     
   6968666092.3542557     
   6816246452.7715149     
   6659079542.0945568     
   6496876975.4808989     
   6329597237.9512873     
   7387485753.0596457     
   7230593850.1560755     
   7065926915.0286818     
   6892776874.0413885     
   6710978677.0621014     
   5216690434.6961870     
   5074673851.9794540     
   4933835895.5795126     
   4794270723.1730289     
   4656276143.0257874     
   5581103061.2148037     
   5418247986.0316124     
   5256378685.2757015     
   5095563970.3335447     
   4935954469.4145470     
   5952611053.9253120     
   5774344984.5897446     
   5597487044.3533831     
   5422073185.2670851     
   5248174733.1075335     
   6329597237.9512873     
   6140793111.2579956     
   5954359829.6433363     
   5770269112.4866676     
   5588541758.3591156     
   6710978677.0621014     
   6515937239.4001408     
   6324717965.5038052     
   6137171472.7778254     
   5953256639.6870222     
   4656276143.0257874     
   4525217787.6981106     
   4395719803.1955166     
   4267814528.0533857     
   4141552158.2914433     
   4935954469.4145470     
   4799661605.5182362     
   4664476045.5287809     
   4530465974.1971025     
   4397716656.9982014     
   5248174733.1075335     
   5104169332.5938988     
   4960533750.0510082     
   4817334868.9949751     
   4674671416.4521646     
   5588541758.3591156     
   5434410985.1833754     
   5279705384.3641615     
   5124448753.7395420     
   4968722107.2727137     
   5953256639.6870222     
   5786670005.0393190     
   5618433710.5208759     
   5448484035.0249567     
   5276846098.1036997     
   4141552158.2914433     
   3995688440.4474769     
   3852981278.3607931     
   3713797688.5736628     
   3578714402.3333039     
   4397716656.9982014     
   4232315204.4101000     
   4069045536.7471137     
   3908135274.7350755     
   3749955168.5149193     
   4674671416.4521646     
   4492749556.5580196     
   4312344923.7149181     
   4133579549.7880812     
   3956668317.1472588     
   4968722107.2727137     
   4773097341.4776039     
   4578738983.3562918     
   4385699984.6303377     
   4194095874.0443373     
   5276846098.1036997     
   5070074921.9542313     
   4864626305.4903460     
   4660513276.4396772     
   4457799962.0743990     
   3578714402.3333039     
   3452862549.6593676     
   3328988831.8950343     
   3207374615.3049688     
   3088353140.4541068     
   3749955168.5149193     
   3614293791.9344063     
   3479637703.4050770     
   3346183008.9014482     
   3214171162.4623513     
   3956668317.1472588     
   3812914598.4675508     
   3669342169.3508945     
   3526063835.5220094     
   3383228645.7228508     
   4194095874.0443373     
   4043850528.0662670     
   3893131418.0430274     
   3741981635.1139669     
   3590472826.6237459     
   4457799962.0743990     
   4302477647.6916943     
   4146189855.8833852     
   3988927609.9738712     
   3830706259.8050036     
   3088353140.4541068     
   3071024997.3007002     
   3109559167.2326546     
   3212495536.2605705     
   3399243933.6057339     
   3214171162.4623513     
   3101540680.4596701     
   3019311011.2241721     
   2974143637.5320163     
   2978657586.6783886     
   3383228645.7228508     
   3206847115.3241916     
   3039960350.6313505     
   2884080149.5214310     
   2742123400.2845402     
   3590472826.6237459     
   3394978976.3798862     
   3195721576.0664043     
   2993428114.2266126     
   2789369986.6613092     
   3830706259.8050036     
   3669996972.4541626     
   3504107471.2942643     
   3342865553.4115143     
   3202232434.9945402     
 </DataArray>
 <DataArray  type="Float64" Name="strain" NumberOfComponents="3" format="ascii">
  0.20350469609584432        0.0000000000000000       0.12538497139969820     
  0.18669109242441490       -2.7340928663320038E-002   7.4336497792120690E-002
  0.16987748875298547       -4.4701219584343331E-002   3.5117049473824609E-002
  0.15306388508155605       -5.2080872763069885E-002   7.7266264448099219E-003
  0.13625028141012666       -4.9479888199499680E-002  -7.8347712949233955E-003
  0.15988732149041762        0.0000000000000000        9.6410312141633606E-002
  0.15322153772164510       -2.1858053688672927E-002   6.2657730244511656E-002
  0.14655575395287257       -3.6196072791370125E-002   3.7371762863422066E-002
  0.13988997018410004       -4.3014057308091595E-002   2.0552409998364832E-002
  0.13322418641532752       -4.2312007238837365E-002   1.2199671649339994E-002
  0.12649670781793479        0.0000000000000000        7.4148829436376629E-002
  0.12661633317857010       -1.6375178714025815E-002   5.5231536093389225E-002
  0.12673595853920541       -2.7690925998396919E-002   4.1418446493185115E-002
  0.12685558389984070       -3.3947241853113326E-002   3.2709560635764350E-002
  0.12697520926047601       -3.5144126278175015E-002   2.9104878521126889E-002
  0.10333285507839579        0.0000000000000000        5.8600523283927272E-002
  0.10687547879518991       -1.0892303739378701E-002   5.2057915338753362E-002
  0.11041810251198399       -1.9185779205423713E-002   4.7257100363113765E-002
  0.11396072622877808       -2.4880426398135039E-002   4.4198078357008390E-002
  0.11750334994557217       -2.7976245317512680E-002   4.2880849320437307E-002
   9.0395763271800642E-002   0.0000000000000000        4.9765393684285536E-002
   9.3998974571504482E-002  -5.4094287647315879E-003   5.3136867980604137E-002
   9.7602185871208322E-002  -1.0680632412450507E-002   5.4887724473207965E-002
  0.10120539717091216       -1.5813610943156763E-002   5.5017963162097012E-002
  0.10480860847061602       -2.0808364356850351E-002   5.3527584047271301E-002
  0.13625028141012666       -4.9479888199499680E-002  -7.8347712949233955E-003
  0.13305551630279716       -4.2941021369900037E-002  -3.4013420070627548E-003
  0.12986075119546767       -3.8507027750538242E-002  -3.8707166451231595E-004
  0.12666598608813817       -3.6177907341414274E-002   1.2080397327280598E-003
  0.12347122098080868       -3.5953660142528182E-002   1.3839921846581782E-003
  0.13322418641532752       -4.2312007238837365E-002   1.2199671649339994E-002
  0.12899906597087940       -3.8443720163384140E-002   1.2152805493432058E-002
  0.12477394552643137       -3.5762993661508702E-002   1.1464387608597065E-002
  0.12054882508198328       -3.4269827733210995E-002   1.0134417994835259E-002
  0.11632370463753525       -3.3964222378491088E-002   8.1628966521464508E-003
  0.12697520926047601       -3.5144126278175015E-002   2.9104878521126889E-002
  0.12249734069529253       -3.3946418956868195E-002   2.5495029558110473E-002
  0.11801947213010910       -3.3018959572479092E-002   2.2021236082550251E-002
  0.11354160356492564       -3.2361748125007715E-002   1.8683498094446298E-002
  0.10906373499974217       -3.1974784614454008E-002   1.5481815593798527E-002
  0.11750334994557217       -2.7976245317512680E-002   4.2880849320437307E-002
  0.11355034047603652       -2.9449117750352308E-002   3.6625330186972463E-002
  0.10959733100650085       -3.0274925483449532E-002   3.1283473757347087E-002
  0.10564432153696521       -3.0453668516804425E-002   2.6855280031561068E-002
  0.10169131206742957       -2.9985346850416920E-002   2.3340749009614380E-002
  0.10480860847061602       -2.0808364356850351E-002   5.3527584047271301E-002
  0.10215806531311133       -2.4951816543836366E-002   4.5543707380018131E-002
   9.9507522155606667E-002  -2.7530891394419967E-002   3.9251100632987576E-002
   9.6856978998101986E-002  -2.8545588908601118E-002   3.4649763806179561E-002
   9.4206435840597319E-002  -2.7995909086379833E-002   3.1739696899594161E-002
  0.12347122098080868       -3.5953660142528182E-002   1.3839921846581782E-003
  0.12056080188852450       -3.6467704093483655E-002   6.3121622721018511E-004
  0.11765038279624034       -3.6353457133884333E-002   7.6358913708204912E-005
  0.11473996370395617       -3.5610919263730431E-002  -2.8057975584774159E-004
  0.11182954461167199       -3.4240090483021735E-002  -4.3959978145752254E-004
  0.11632370463753525       -3.3964222378491088E-002   8.1628966521464508E-003
  0.11359555249387930       -3.4051328860997029E-002   7.7972296097014171E-003
  0.11086740035022340       -3.3736298444376943E-002   7.5981778205668968E-003
  0.10813924820656748       -3.3019131128630648E-002   7.5657412847425082E-003
  0.10541109606291155       -3.1899826913758533E-002   7.6999200022288550E-003
  0.10906373499974217       -3.1974784614454008E-002   1.5481815593798527E-002
  0.10648654641407890       -3.1634953628510487E-002   1.5277103454927853E-002
  0.10390935782841562       -3.1119139754869494E-002   1.5207703178731821E-002
  0.10133216924275233       -3.0427342993531080E-002   1.5273614765210870E-002
   9.8754980657089042E-002  -2.9559563344495360E-002   1.5474838214364670E-002
  0.10169131206742957       -2.9985346850416920E-002   2.3340749009614380E-002
   9.9233783649123275E-002  -2.9218578396023862E-002   2.3070837762889346E-002
   9.6776255230817010E-002  -2.8501981065362100E-002   2.2904934988203500E-002
   9.4318726812510703E-002  -2.7835554858431515E-002   2.2843040685556947E-002
   9.1861198394204424E-002  -2.7219299775232172E-002   2.2885154854949460E-002
   9.4206435840597319E-002  -2.7995909086379833E-002   3.1739696899594161E-002
   9.1837264199012475E-002  -2.6802203163537319E-002   3.1178432533586119E-002
   8.9468092557427562E-002  -2.5884822375854620E-002   3.0689873248981661E-002
   8.7098920915842676E-002  -2.5243766723331854E-002   3.0274019045780927E-002
   8.4729749274257776E-002  -2.4879036205969013E-002   2.9930869923983583E-002
  0.11182954461167199       -3.4240090483021735E-002  -4.3959978145752254E-004
  0.10870147164887262       -3.2692944005505875E-002  -1.4491170863117908E-004
  0.10557339868607324       -3.1421453044930950E-002   1.8440173674619253E-004
  0.10244532572327383       -3.0425617601296282E-002   5.4834055467425924E-004
   9.9317252760474484E-002  -2.9705437674602542E-002   9.4690474515340961E-004
  0.10541109606291155       -3.1899826913758533E-002   7.6999200022288550E-003
  0.10235307812689631       -3.0662964804269485E-002   7.5710325588099897E-003
   9.9295060190881052E-002  -2.9593123804673091E-002   7.5476297964081479E-003
   9.6237042254865818E-002  -2.8690303914969042E-002   7.6297117150239263E-003
   9.3179024318850556E-002  -2.7954505135157848E-002   7.8172783146570890E-003
   9.8754980657089042E-002  -2.9559563344495360E-002   1.5474838214364670E-002
   9.5837877056324391E-002  -2.8632985603033095E-002   1.5031009661748321E-002
   9.2920773455559741E-002  -2.7764794564415281E-002   1.4763525098615692E-002
   9.0003669854795090E-002  -2.6954990228641854E-002   1.4672384524966890E-002
   8.7086566254030426E-002  -2.6203572595712987E-002   1.4757587940802064E-002
   9.1861198394204424E-002  -2.7219299775232172E-002   2.2885154854949460E-002
   8.9155868437156879E-002  -2.6603006401796678E-002   2.2235019600183804E-002
   8.6450538480109307E-002  -2.5936465324157502E-002   2.1832087643368553E-002
   8.3745208523061707E-002  -2.5219676542314697E-002   2.1676358984503628E-002
   8.1039878566014176E-002  -2.4452640056268155E-002   2.1767833623588841E-002
   8.4729749274257776E-002  -2.4879036205969013E-002   2.9930869923983583E-002
   8.2307052269393721E-002  -2.4573027200560246E-002   2.9183062374116830E-002
   7.9884355264529680E-002  -2.4108136083899730E-002   2.8753317430666794E-002
   7.7461658259665667E-002  -2.3484362855987401E-002   2.8641635093633586E-002
   7.5038961254801612E-002  -2.2701707516823433E-002   2.8848015363017149E-002
   9.9317252760474484E-002  -2.9705437674602542E-002   9.4690474515340961E-004
   9.6540907176180524E-002  -2.9050795000536728E-002   5.4251995710680179E-004
   9.3764561591886592E-002  -2.8251571314786755E-002   3.7504547639688468E-004
   9.0988216007592645E-002  -2.7307766617352049E-002   4.4448130302336686E-004
   8.8211870423298699E-002  -2.6219380908232948E-002   7.5082743698640098E-004
   9.3179024318850556E-002  -2.7954505135157848E-002   7.8172783146570890E-003
   9.0616834659921014E-002  -2.7257291306178627E-002   7.5531256313982054E-003
   8.8054645000991499E-002  -2.6470226268971775E-002   7.4803744915320353E-003
   8.5492455342061999E-002  -2.5593310023536764E-002   7.5990248950579611E-003
   8.2930265683132498E-002  -2.4626542569873733E-002   7.9090768419761703E-003
   8.7086566254030426E-002  -2.6203572595712987E-002   1.4757587940802064E-002
   8.4693023756521074E-002  -2.5463787611820540E-002   1.4578937558874877E-002
   8.2299481259011792E-002  -2.4688881223156781E-002   1.4546179956395802E-002
   7.9905938761502426E-002  -2.3878853429721198E-002   1.4659315133364548E-002
   7.7512396263993116E-002  -2.3033704231514407E-002   1.4918343089781683E-002
   8.1039878566014176E-002  -2.4452640056268155E-002   2.1767833623588841E-002
   7.8769474465980760E-002  -2.3670283917462447E-002   2.1619955739536581E-002
   7.6499070365947441E-002  -2.2907536177341682E-002   2.1572461870988099E-002
   7.4228666265914053E-002  -2.2164396835905882E-002   2.1625352017943474E-002
   7.1958262165880721E-002  -2.1440865893155137E-002   2.1778626180402855E-002
   7.5038961254801612E-002  -2.2701707516823433E-002   2.8848015363017149E-002
   7.2846186788300016E-002  -2.1876780223104325E-002   2.8676180173383248E-002
   7.0653412321798434E-002  -2.1126191131526695E-002   2.8559220235309046E-002
   6.8460637855296852E-002  -2.0449940242090486E-002   2.8497135548794475E-002
   6.6267863388795284E-002  -1.9848027554795811E-002   2.8489926113839603E-002
   8.8211870423298699E-002  -2.6219380908232948E-002   7.5082743698640098E-004
   8.4720158947702906E-002  -2.5110773268868236E-002   7.5402797392948306E-004
   8.1228447472107057E-002  -2.4106302780695810E-002   8.4331209807497753E-004
   7.7736735996511236E-002  -2.3205969443716112E-002   1.0186798094228011E-003
   7.4245024520915415E-002  -2.2409773257929477E-002   1.2801311079726485E-003
   8.2930265683132498E-002  -2.4626542569873733E-002   7.9090768419761703E-003
   7.9560356430761175E-002  -2.3645869226889271E-002   7.7286430455795196E-003
   7.6190447178389936E-002  -2.2727235313490191E-002   7.7057301084299534E-003
   7.2820537926018683E-002  -2.1870640829675603E-002   7.8403380305267362E-003
   6.9450628673647374E-002  -2.1076085775446285E-002   8.1324668118705201E-003
   7.7512396263993116E-002  -2.3033704231514407E-002   1.4918343089781683E-002
   7.4335726506890853E-002  -2.2180965184910528E-002   1.4596372681653064E-002
   7.1159056749788632E-002  -2.1348167846283905E-002   1.4503360404815660E-002
   6.7982386992686411E-002  -2.0535312215634982E-002   1.4639306259269472E-002
   6.4805717235584148E-002  -1.9742398292963259E-002   1.5004210245014582E-002
   7.1958262165880721E-002  -2.1440865893155137E-002   2.1778626180402855E-002
   6.9046269176091968E-002  -2.0716061142931896E-002   2.1357216882149713E-002
   6.6134276186303201E-002  -1.9969100379078231E-002   2.1236202987232479E-002
   6.3222283196514420E-002  -1.9199983601594306E-002   2.1415584495650897E-002
   6.0310290206725681E-002  -1.8408710810480094E-002   2.1895361407405015E-002
   6.6267863388795284E-002  -1.9848027554795811E-002   2.8489926113839603E-002
   6.3691984438364435E-002  -1.9251157100953070E-002   2.8011175647069703E-002
   6.1116105487933600E-002  -1.8590032911872251E-002   2.7904257855680209E-002
   5.8540226537502786E-002  -1.7864654987553609E-002   2.8169172739670803E-002
   5.5964347587071972E-002  -1.7075023327996930E-002   2.8805920299041610E-002
   7.4245024520915415E-002  -2.2409773257929477E-002   1.2801311079726485E-003
   7.1545437558190206E-002  -2.1618882418220742E-002   7.2609772421772245E-004
   6.8845850595465052E-002  -2.0734465119476464E-002   5.1896464708811596E-004
   6.6146263632739899E-002  -1.9756521361695686E-002   6.5873187658427312E-004
   6.3446676670014690E-002  -1.8685051144879394E-002   1.1453994127058609E-003
   6.9450628673647374E-002  -2.1076085775446285E-002   8.1324668118705201E-003
   6.7041046567474616E-002  -2.0286827876568603E-002   7.7435081762060043E-003
   6.4631464461301857E-002  -1.9446124858809311E-002   7.5876589470204592E-003
   6.2221882355129043E-002  -1.8553976722168561E-002   7.6649191243142734E-003
   5.9812300248956285E-002  -1.7610383466646895E-002   7.9752887080871693E-003
   6.4805717235584148E-002  -1.9742398292963259E-002   1.5004210245014582E-002
   6.2572349085817408E-002  -1.8954773334916630E-002   1.4738245017285934E-002
   6.0338980936050668E-002  -1.8157784598142851E-002   1.4591598295889879E-002
   5.8105612786283900E-002  -1.7351432082641997E-002   1.4564270080826586E-002
   5.5872244636517160E-002  -1.6535715788414229E-002   1.4656260372096580E-002
   6.0310290206725681E-002  -1.8408710810480094E-002   2.1895361407405015E-002
   5.8139345113218568E-002  -1.7622718793264464E-002   2.1710308247457719E-002
   5.5968400019711526E-002  -1.6869444337475933E-002   2.1530782693696689E-002
   5.3797454926204455E-002  -1.6148887443115042E-002   2.1356784746122490E-002
   5.1626509832697370E-002  -1.5461048110181425E-002   2.1188314404734794E-002
   5.5964347587071972E-002  -1.7075023327996930E-002   2.8805920299041610E-002
   5.3742034649678194E-002  -1.6290664251612158E-002   2.8659697866721290E-002
   5.1519721712284472E-002  -1.5581104076809307E-002   2.8405212140441088E-002
   4.9297408774890708E-002  -1.4946342803588242E-002   2.8042463120201019E-002
   4.7075095837496972E-002  -1.4386380431948786E-002   2.7571450806001263E-002
   6.3446676670014690E-002  -1.8685051144879394E-002   1.1453994127058609E-003
   6.0191280806061065E-002  -1.7664448576669822E-002   1.2304608946324125E-003
   5.6935884942107384E-002  -1.6839107764710065E-002   1.1128119344130938E-003
   5.3680489078153704E-002  -1.6209028709000532E-002   7.9245253204859867E-004
   5.0425093214200079E-002  -1.5774211409540495E-002   2.6938268753884387E-004
   5.9812300248956285E-002  -1.7610383466646895E-002   7.9752887080871693E-003
   5.6479681917778968E-002  -1.6684893023384884E-002   7.7387027237285078E-003
   5.3147063586601734E-002  -1.5847053323524624E-002   7.5503822470679993E-003
   4.9814445255424486E-002  -1.5096864367066358E-002   7.4103272781063378E-003
   4.6481826924247294E-002  -1.4434326154010080E-002   7.3185378168427739E-003
   5.5872244636517160E-002  -1.6535715788414229E-002   1.4656260372096580E-002
   5.2713379787959896E-002  -1.5705337470099667E-002   1.4205637934301185E-002
   4.9554514939402716E-002  -1.4854998882338752E-002   1.4054256954047842E-002
   4.6395650090845564E-002  -1.3984700025132354E-002   1.4202117431336904E-002
   4.3236785242288245E-002  -1.3094440898479887E-002   1.4649219366166699E-002
   5.1626509832697370E-002  -1.5461048110181425E-002   2.1188314404734794E-002
   4.8892374416603851E-002  -1.4725781916814368E-002   2.0631266526350688E-002
   4.6158239000510262E-002  -1.3862944441153428E-002   2.0624436055352028E-002
   4.3424103584416757E-002  -1.2872535683198598E-002   2.1167822991738819E-002
   4.0689968168323085E-002  -1.1754555642949471E-002   2.2261427335511147E-002
   4.7075095837496972E-002  -1.4386380431948786E-002   2.7571450806001263E-002
   4.5016665803710665E-002  -1.3746226363529124E-002   2.7015588499876397E-002
   4.2958235769924386E-002  -1.2870889999967647E-002   2.7260919550980395E-002
   4.0899805736137981E-002  -1.1760371341264477E-002   2.8307443959313380E-002
   3.8841375702351799E-002  -1.0414670387419056E-002   3.0155161724875867E-002
   9.0395763271800642E-002   0.0000000000000000        4.9765393684285536E-002
   9.3998974571504482E-002  -5.4094287647315879E-003   5.3136867980604137E-002
   9.7602185871208322E-002  -1.0680632412450507E-002   5.4887724473207965E-002
  0.10120539717091216       -1.5813610943156763E-002   5.5017963162097012E-002
  0.10480860847061602       -2.0808364356850351E-002   5.3527584047271301E-002
   8.2449632297868919E-002   0.0000000000000000        4.4709806545823308E-002
   8.4661438960023094E-002  -4.5769128389836298E-003   4.8190487413899308E-002
   8.6873245622177284E-002  -9.0423854485614224E-003   5.0508976810590744E-002
   8.9085052284331459E-002  -1.3396417828733374E-002   5.1665274735897618E-002
   9.1296858946485648E-002  -1.7639009979499486E-002   5.1659381189819956E-002
   7.4258662056320243E-002   0.0000000000000000        4.0500127776912441E-002
   7.5537490413254971E-002  -3.7443969132356751E-003   4.4063230329139010E-002
   7.6816318770189698E-002  -7.4041384846723346E-003   4.6922567742311232E-002
   7.8095147127124426E-002  -1.0979224714309987E-002   4.9078140016429114E-002
   7.9373975484059139E-002  -1.4469655602148624E-002   5.0529947151492678E-002
   6.5822852547154601E-002   0.0000000000000000        3.7136357377552949E-002
   6.6627128931200083E-002  -2.9118809874877178E-003   4.0755096726323256E-002
   6.7431405315245566E-002  -5.7658915207832485E-003   4.4128497268369440E-002
   6.8235681699291076E-002  -8.5620315998865982E-003   4.7256559003691516E-002
   6.9039958083336572E-002  -1.1300301224797761E-002   5.0139281932289441E-002
   5.7142203770371991E-002   0.0000000000000000        3.4618495347744818E-002
   5.7930354513858473E-002  -2.0793650617397632E-003   3.8266086605452040E-002
   5.8718505257344934E-002  -4.1276445568941625E-003   4.2126765388765364E-002
   5.9506656000831409E-002  -6.1448384854632127E-003   4.6200531697684760E-002
   6.0294806744317878E-002  -8.1309468474469009E-003   5.0487385532210258E-002
  0.10480860847061602       -2.0808364356850351E-002   5.3527584047271301E-002
  0.10215806531311133       -2.4951816543836366E-002   4.5543707380018131E-002
   9.9507522155606667E-002  -2.7530891394419967E-002   3.9251100632987576E-002
   9.6856978998101986E-002  -2.8545588908601118E-002   3.4649763806179561E-002
   9.4206435840597319E-002  -2.7995909086379833E-002   3.1739696899594161E-002
   9.1296858946485648E-002  -1.7639009979499486E-002   5.1659381189819956E-002
   9.0098823143955092E-002  -2.1215395726387389E-002   4.6418282976398724E-002
   8.8900787341424564E-002  -2.3570808894924779E-002   4.2390929552703203E-002
   8.7702751538894008E-002  -2.4705249485111613E-002   3.9577320918733387E-002
   8.6504715736363480E-002  -2.4618717496947919E-002   3.7977457074489213E-002
   7.9373975484059139E-002  -1.4469655602148624E-002   5.0529947151492678E-002
   7.9150921906005853E-002  -1.7478974908938426E-002   4.7688222633851515E-002
   7.8927868327952538E-002  -1.9610726395429583E-002   4.5582717775439145E-002
   7.8704814749899266E-002  -2.0864910061622093E-002   4.4213432576255568E-002
   7.8481761171845937E-002  -2.1241525907515962E-002   4.3580367036300825E-002
   6.9039958083336572E-002  -1.1300301224797761E-002   5.0139281932289441E-002
   6.9314361599263602E-002  -1.3742554091489449E-002   4.9353526352376428E-002
   6.9588765115190673E-002  -1.5650643895934388E-002   4.8826465301195332E-002
   6.9863168631117745E-002  -1.7024570638132588E-002   4.8558098778746173E-002
   7.0137572147044774E-002  -1.7864334318084034E-002   4.8548426785028846E-002
   6.0294806744317878E-002  -8.1309468474469009E-003   5.0487385532210258E-002
   6.0589142223728396E-002  -1.0006133274040480E-002   5.1414194131973512E-002
   6.0883477703138920E-002  -1.1690561396439203E-002   5.2122172129971805E-002
   6.1177813182549431E-002  -1.3184231214643065E-002   5.2611319526205097E-002
   6.1472148661959942E-002  -1.4487142728652078E-002   5.2881636320673400E-002
   9.4206435840597319E-002  -2.7995909086379833E-002   3.1739696899594161E-002
   9.1837264199012475E-002  -2.6802203163537319E-002   3.1178432533586119E-002
   8.9468092557427562E-002  -2.5884822375854620E-002   3.0689873248981661E-002
   8.7098920915842676E-002  -2.5243766723331854E-002   3.0274019045780927E-002
   8.4729749274257776E-002  -2.4879036205969013E-002   2.9930869923983583E-002
   8.6504715736363480E-002  -2.4618717496947919E-002   3.7977457074489213E-002
   8.4257230503722427E-002  -2.3977155357459826E-002   3.6950320870307016E-002
   8.2009745271081375E-002  -2.3446505493673421E-002   3.6093852402608921E-002
   7.9762260038440350E-002  -2.3026767905588826E-002   3.5408051671394922E-002
   7.7514774805799269E-002  -2.2717942593205892E-002   3.4892918676665011E-002
   7.8481761171845937E-002  -2.1241525907515962E-002   4.3580367036300825E-002
   7.6453925003229284E-002  -2.1152107551382304E-002   4.2252771853402545E-002
   7.4426088834612603E-002  -2.1008188611492198E-002   4.1193807062068905E-002
   7.2398252665995935E-002  -2.0809769087845688E-002   4.0403472662299954E-002
   7.0370416497379268E-002  -2.0556848980442730E-002   3.9881768654095574E-002
   7.0137572147044774E-002  -1.7864334318084034E-002   4.8548426785028846E-002
   6.8427347697533017E-002  -1.8327059745304790E-002   4.7085785482872712E-002
   6.6717123248021259E-002  -1.8569871729310995E-002   4.5989737227361695E-002
   6.5006898798509502E-002  -1.8592770270102591E-002   4.5260282018495919E-002
   6.3296674348997717E-002  -1.8395755367679574E-002   4.4897419856275315E-002
   6.1472148661959942E-002  -1.4487142728652078E-002   5.2881636320673400E-002
   6.0177498586633613E-002  -1.5502011939227300E-002   5.1449361758717477E-002
   5.8882848511307276E-002  -1.6131554847129765E-002   5.0481642898487354E-002
   5.7588198435980946E-002  -1.6375771452359498E-002   4.9978479739982845E-002
   5.6293548360654616E-002  -1.6234661754916446E-002   4.9939872283204095E-002
   8.4729749274257776E-002  -2.4879036205969013E-002   2.9930869923983583E-002
   8.2307052269393721E-002  -2.4573027200560246E-002   2.9183062374116830E-002
   7.9884355264529680E-002  -2.4108136083899730E-002   2.8753317430666794E-002
   7.7461658259665667E-002  -2.3484362855987401E-002   2.8641635093633586E-002
   7.5038961254801612E-002  -2.2701707516823433E-002   2.8848015363017149E-002
   7.7514774805799269E-002  -2.2717942593205892E-002   3.4892918676665011E-002
   7.5387231005681885E-002  -2.2405230939212185E-002   3.4331601420254022E-002
   7.3259687205564528E-002  -2.1973834326295495E-002   3.4042527966919651E-002
   7.1132143405447157E-002  -2.1423752754455537E-002   3.4025698316661648E-002
   6.9004599605329758E-002  -2.0754986223692456E-002   3.4281112469480401E-002
   7.0370416497379268E-002  -2.0556848980442730E-002   3.9881768654095574E-002
   6.8492207098668309E-002  -2.0237434677864284E-002   3.9466744538811833E-002
   6.6613997699957350E-002  -1.9839532568691257E-002   3.9278145423264368E-002
   6.4735788301246419E-002  -1.9363142652923659E-002   3.9315971307453311E-002
   6.2857578902535460E-002  -1.8808264930561536E-002   3.9580222191378342E-002
   6.3296674348997717E-002  -1.8395755367679574E-002   4.4897419856275315E-002
   6.1621980548352946E-002  -1.8069638416516289E-002   4.4588491729790264E-002
   5.9947286747708169E-002  -1.7705230811087075E-002   4.4460169799701070E-002
   5.8272592947063405E-002  -1.7302532551391775E-002   4.4512454066008032E-002
   5.6597899146418662E-002  -1.6861543637430573E-002   4.4745344528711171E-002
   5.6293548360654616E-002  -1.6234661754916446E-002   4.9939872283204095E-002
   5.4776551354735803E-002  -1.5901842155168336E-002   4.9696842993188911E-002
   5.3259554348817004E-002  -1.5570929053482847E-002   4.9588601096229742E-002
   5.1742557342898191E-002  -1.5241922449859892E-002   4.9615146592326291E-002
   5.0225560336979391E-002  -1.4914822344299666E-002   4.9776479481478675E-002
   7.5038961254801612E-002  -2.2701707516823433E-002   2.8848015363017149E-002
   7.2846186788300016E-002  -2.1876780223104325E-002   2.8676180173383248E-002
   7.0653412321798434E-002  -2.1126191131526695E-002   2.8559220235309046E-002
   6.8460637855296852E-002  -2.0449940242090486E-002   2.8497135548794475E-002
   6.6267863388795284E-002  -1.9848027554795811E-002   2.8489926113839603E-002
   6.9004599605329758E-002  -2.0754986223692456E-002   3.4281112469480401E-002
   6.6900363040974853E-002  -2.0046710685706876E-002   3.3973278303801230E-002
   6.4796126476619961E-002  -1.9378102092199284E-002   3.3787644690855836E-002
   6.2691889912265070E-002  -1.8749160443169842E-002   3.3724211630644110E-002
   6.0587653347910164E-002  -1.8159885738618570E-002   3.3782979123166273E-002
   6.2857578902535460E-002  -1.8808264930561536E-002   3.9580222191378342E-002
   6.0909205541501303E-002  -1.8216641148309440E-002   3.9171060307317401E-002
   5.8960832180467132E-002  -1.7630013052871985E-002   3.8951424277164276E-002
   5.7012458819432968E-002  -1.7048380644249309E-002   3.8921314100918834E-002
   5.5064085458398838E-002  -1.6471743922441245E-002   3.9080729778581194E-002
   5.6597899146418662E-002  -1.6861543637430573E-002   4.4745344528711171E-002
   5.4872714289879269E-002  -1.6386571610911997E-002   4.4269526183931755E-002
   5.3147529433339925E-002  -1.5881924013544685E-002   4.4050558994234185E-002
   5.1422344576800595E-002  -1.5347600845328636E-002   4.4088442959618425E-002
   4.9697159720261223E-002  -1.4783602106263907E-002   4.4383178080084476E-002
   5.0225560336979391E-002  -1.4914822344299666E-002   4.9776479481478675E-002
   4.8790889286108891E-002  -1.4556502073514610E-002   4.9268675933644313E-002
   4.7356218235238404E-002  -1.4133834974217323E-002   4.9085048842065812E-002
   4.5921547184367896E-002  -1.3646821046408087E-002   4.9225598206743264E-002
   4.4486876133497388E-002  -1.3095460290086625E-002   4.9690324027676314E-002
   6.6267863388795284E-002  -1.9848027554795811E-002   2.8489926113839603E-002
   6.3691984438364435E-002  -1.9251157100953070E-002   2.8011175647069703E-002
   6.1116105487933600E-002  -1.8590032911872251E-002   2.7904257855680209E-002
   5.8540226537502786E-002  -1.7864654987553609E-002   2.8169172739670803E-002
   5.5964347587071972E-002  -1.7075023327996930E-002   2.8805920299041610E-002
   6.0587653347910164E-002  -1.8159885738618570E-002   3.3782979123166273E-002
   5.8340123567190538E-002  -1.7571012440919631E-002   3.3468946235106878E-002
   5.6092593786470968E-002  -1.6943275012447738E-002   3.3439779011089785E-002
   5.3845064005751370E-002  -1.6276673453202509E-002   3.3695477451114765E-002
   5.1597534225031771E-002  -1.5571207763184269E-002   3.4236041555182478E-002
   5.5064085458398838E-002  -1.6471743922441245E-002   3.9080729778581194E-002
   5.3057937836052588E-002  -1.5890867780886400E-002   3.8906024864767387E-002
   5.1051790213706358E-002  -1.5296517113023114E-002   3.8929218603657972E-002
   4.9045642591360121E-002  -1.4688691918851571E-002   3.9150310995253040E-002
   4.7039494969013940E-002  -1.4067392198371609E-002   3.9569302039552626E-002
   4.9697159720261223E-002  -1.4783602106263907E-002   4.4383178080084476E-002
   4.7845427244950493E-002  -1.4210723120853065E-002   4.4322411536051640E-002
   4.5993694769639784E-002  -1.3649759213598574E-002   4.4372576633385091E-002
   4.4141962294329089E-002  -1.3100710384500594E-002   4.4533673372085421E-002
   4.2290229819018352E-002  -1.2563576633559004E-002   4.4805701752152094E-002
   4.4486876133497388E-002  -1.3095460290086625E-002   4.9690324027676314E-002
   4.2702591793884331E-002  -1.2530578460819758E-002   4.9718106248959282E-002
   4.0918307454271274E-002  -1.2003001314173964E-002   4.9769853100271044E-002
   3.9134023114658231E-002  -1.1512728850149475E-002   4.9845564581611587E-002
   3.7349738775045133E-002  -1.1059761068746288E-002   4.9945240692980786E-002
   5.5964347587071972E-002  -1.7075023327996930E-002   2.8805920299041610E-002
   5.3742034649678194E-002  -1.6290664251612158E-002   2.8659697866721290E-002
   5.1519721712284472E-002  -1.5581104076809307E-002   2.8405212140441088E-002
   4.9297408774890708E-002  -1.4946342803588242E-002   2.8042463120201019E-002
   4.7075095837496972E-002  -1.4386380431948786E-002   2.7571450806001263E-002
   5.1597534225031771E-002  -1.5571207763184269E-002   3.4236041555182478E-002
   4.9339977247379568E-002  -1.4863141365844823E-002   3.3917381673729680E-002
   4.7082420269727338E-002  -1.4188737684636271E-002   3.3636497005719593E-002
   4.4824863292075134E-002  -1.3547996719558537E-002   3.3393387551152114E-002
   4.2567306314422959E-002  -1.2940918470611629E-002   3.3188053310027887E-002
   4.7039494969013940E-002  -1.4067392198371609E-002   3.9569302039552626E-002
   4.4892732458505932E-002  -1.3435618480077446E-002   3.9119340894418098E-002
   4.2745969947997974E-002  -1.2796371292463173E-002   3.8853193470129020E-002
   4.0599207437489959E-002  -1.2149650635528942E-002   3.8770859766685706E-002
   3.8452444926982007E-002  -1.1495456509274499E-002   3.8872339784087925E-002
   4.2290229819018352E-002  -1.2563576633559004E-002   4.4805701752152094E-002
   4.0400300283057369E-002  -1.2008095594309980E-002   4.4265575528786648E-002
   3.8510370747096442E-002  -1.1404004900290272E-002   4.4055301533669579E-002
   3.6620441211135446E-002  -1.0751304551499346E-002   4.4174879766800949E-002
   3.4730511675174533E-002  -1.0049994547937410E-002   4.4624310228180711E-002
   3.7349738775045133E-002  -1.1059761068746288E-002   4.9945240692980786E-002
   3.5862680721033907E-002  -1.0580572708542679E-002   4.9356085576835573E-002
   3.4375622667022640E-002  -1.0011638508117038E-002   4.9242821196341324E-002
   3.2888564613011394E-002  -9.3529584674698074E-003   4.9605447551498427E-002
   3.1401506559000147E-002  -8.6045325866003219E-003   5.0443964642306383E-002
   4.7075095837496972E-002  -1.4386380431948786E-002   2.7571450806001263E-002
   4.5016665803710665E-002  -1.3746226363529124E-002   2.7015588499876397E-002
   4.2958235769924386E-002  -1.2870889999967647E-002   2.7260919550980395E-002
   4.0899805736137981E-002  -1.1760371341264477E-002   2.8307443959313380E-002
   3.8841375702351799E-002  -1.0414670387419056E-002   3.0155161724875867E-002
   4.2567306314422959E-002  -1.2940918470611629E-002   3.3188053310027887E-002
   4.1133231287004662E-002  -1.2294743444698525E-002   3.3021800071277863E-002
   3.9699156259586366E-002  -1.1536712148722664E-002   3.3303063488034579E-002
   3.8265081232168138E-002  -1.0666824582683646E-002   3.4031843560298425E-002
   3.6831006204749883E-002  -9.6850807465818090E-003   3.5208140288069512E-002
   3.8452444926982007E-002  -1.1495456509274499E-002   3.8872339784087925E-002
   3.7289048204209807E-002  -1.0843260525868065E-002   3.8972369587633351E-002
   3.6125651481437558E-002  -1.0202534297477632E-002   3.9166239344964000E-002
   3.4962254758665393E-002  -9.5732778241031501E-003   3.9453949056079199E-002
   3.3798858035893109E-002  -8.9554911057447839E-003   3.9835498720979912E-002
   3.4730511675174533E-002  -1.0049994547937410E-002   4.4624310228180711E-002
   3.3484116555326182E-002  -9.3917776070374243E-003   4.4867297048942836E-002
   3.2237721435478005E-002  -8.8683564462326801E-003   4.4850447121768194E-002
   3.0991326315629685E-002  -8.4797310655226540E-003   4.4573760446656521E-002
   2.9744931195781477E-002  -8.2259014649076478E-003   4.4037237023607734E-002
   3.1401506559000147E-002  -8.6045325866003219E-003   5.0443964642306383E-002
   2.9718436340353843E-002  -7.9402946882069503E-003   5.0706582455206484E-002
   2.8035366121707567E-002  -7.5341785949875895E-003   5.0355686818447432E-002
   2.6352295903061249E-002  -7.3861843069419272E-003   4.9391277732029115E-002
   2.4669225684414986E-002  -7.4963118240705118E-003   4.7813355195951868E-002
   5.7142203770371991E-002   0.0000000000000000        3.4618495347744818E-002
   5.7930354513858473E-002  -2.0793650617397632E-003   3.8266086605452040E-002
   5.8718505257344934E-002  -4.1276445568941625E-003   4.2126765388765364E-002
   5.9506656000831409E-002  -6.1448384854632127E-003   4.6200531697684760E-002
   6.0294806744317878E-002  -8.1309468474469009E-003   5.0487385532210258E-002
   4.8630682870511775E-002   0.0000000000000000        3.2724060407468065E-002
   4.9566265753574423E-002  -1.7011704569729526E-003   3.6897425662447900E-002
   5.0501848636637058E-002  -3.4167577568496900E-003   4.1152567670973986E-002
   5.1437431519699692E-002  -5.1467618996302086E-003   4.5489486433046310E-002
   5.2373014402762347E-002  -6.8911828853145144E-003   4.9908181948664886E-002
   4.0702256992113307E-002   0.0000000000000000        3.1230571276702694E-002
   4.1653961242692265E-002  -1.3229758522061443E-003   3.5884208119466000E-002
   4.2605665493271223E-002  -2.7058709568052123E-003   4.0488310943715695E-002
   4.3557369743850181E-002  -4.1486853137972070E-003   4.5042879749451793E-002
   4.4509073994429146E-002  -5.6514189231821280E-003   4.9547914536674294E-002
   3.3356926135176566E-002   0.0000000000000000        3.0138027955448704E-002
   3.4193440981212006E-002  -9.4478124743933530E-004   3.5226433976506322E-002
   3.5029955827247453E-002  -1.9949841567607346E-003   4.0133995206990500E-002
   3.5866470673282885E-002  -3.1506087279642050E-003   4.4860711646901238E-002
   3.6702985519318332E-002  -4.4116549610497364E-003   4.9406583296238545E-002
   2.6594690299701566E-002   0.0000000000000000        2.9446430443706092E-002
   2.7184704969133642E-002  -5.6658664267252544E-004   3.4924103233568884E-002
   2.7774719638565717E-002  -1.2840973567162604E-003   4.0089620460798399E-002
   2.8364734307997800E-002  -2.1525321421312030E-003   4.4942982125394638E-002
   2.8954748977429876E-002  -3.1718909989173578E-003   4.9484188227357576E-002
   6.0294806744317878E-002  -8.1309468474469009E-003   5.0487385532210258E-002
   6.0589142223728396E-002  -1.0006133274040480E-002   5.1414194131973512E-002
   6.0883477703138920E-002  -1.1690561396439203E-002   5.2122172129971805E-002
   6.1177813182549431E-002  -1.3184231214643065E-002   5.2611319526205097E-002
   6.1472148661959942E-002  -1.4487142728652078E-002   5.2881636320673400E-002
   5.2373014402762347E-002  -6.8911828853145144E-003   4.9908181948664886E-002
   5.2488421866890921E-002  -8.5498098761962564E-003   5.1121126636485437E-002
   5.2603829331019522E-002  -1.0022432034569102E-002   5.2195045895507115E-002
   5.2719236795148110E-002  -1.1309049360433062E-002   5.3129939725729998E-002
   5.2834644259276697E-002  -1.2409661853788112E-002   5.3925808127153918E-002
   4.4509073994429146E-002  -5.6514189231821280E-003   4.9547914536674294E-002
   4.4525358616241940E-002  -7.0934864783520389E-003   5.1042241840866184E-002
   4.4541643238054734E-002  -8.3543026726990155E-003   5.2477348889225367E-002
   4.4557927859867529E-002  -9.4338675062230377E-003   5.3853235681751807E-002
   4.4574212481680330E-002  -1.0332180978924112E-002   5.5169902218445477E-002
   3.6702985519318332E-002  -4.4116549610497364E-003   4.9406583296238545E-002
   3.6699952471781448E-002  -5.6371630805078111E-003   5.1177539745115817E-002
   3.6696919424244558E-002  -6.6861733108289200E-003   5.2969081111126498E-002
   3.6693886376707674E-002  -7.5586856520130068E-003   5.4781207394270573E-002
   3.6690853329170783E-002  -8.2547001040601219E-003   5.6613918594547979E-002
   2.8954748977429876E-002  -3.1718909989173578E-003   4.9484188227357576E-002
   2.9012203433509430E-002  -4.1808396826635980E-003   5.1527020349234322E-002
   2.9069657889588985E-002  -5.0180439489588219E-003   5.3670242561210550E-002
   2.9127112345668543E-002  -5.6835037978030020E-003   5.5913854863286302E-002
   2.9184566801748101E-002  -6.1772192291961389E-003   5.8257857255461502E-002
   6.1472148661959942E-002  -1.4487142728652078E-002   5.2881636320673400E-002
   6.0177498586633613E-002  -1.5502011939227300E-002   5.1449361758717477E-002
   5.8882848511307276E-002  -1.6131554847129765E-002   5.0481642898487354E-002
   5.7588198435980946E-002  -1.6375771452359498E-002   4.9978479739982845E-002
   5.6293548360654616E-002  -1.6234661754916446E-002   4.9939872283204095E-002
   5.2834644259276697E-002  -1.2409661853788112E-002   5.3925808127153918E-002
   5.1946938441082682E-002  -1.3266175674999728E-002   5.3156754152916874E-002
   5.1059232622888646E-002  -1.3820496984433342E-002   5.2737032991218714E-002
   5.0171526804694611E-002  -1.4072625782089041E-002   5.2666644642059446E-002
   4.9283820986500568E-002  -1.4022562067966760E-002   5.2945589105439048E-002
   4.4574212481680330E-002  -1.0332180978924112E-002   5.5169902218445477E-002
   4.3978228031431796E-002  -1.1030339410772130E-002   5.4980935041032422E-002
   4.3382243581183241E-002  -1.1509439121736973E-002   5.5026077786971460E-002
   4.2786259130934701E-002  -1.1769480111818610E-002   5.5305330456262590E-002
   4.2190274680686146E-002  -1.1810462381017073E-002   5.5818693048905819E-002
   3.6690853329170783E-002  -8.2547001040601219E-003   5.6613918594547979E-002
   3.6271367357680925E-002  -8.7945031465445737E-003   5.6921904423064176E-002
   3.5851881386191067E-002  -9.1983812590405827E-003   5.7348777285745708E-002
   3.5432395414701216E-002  -9.4663344415481954E-003   5.7894537182592458E-002
   3.5012909443211358E-002  -9.5983626940674138E-003   5.8559184113604487E-002
   2.9184566801748101E-002  -6.1772192291961389E-003   5.8257857255461502E-002
   2.8826356419830119E-002  -6.5586668823169741E-003   5.8979662299012157E-002
   2.8468146037912145E-002  -6.8873233963441683E-003   5.9705131487541308E-002
   2.8109935655994171E-002  -7.1631887712777613E-003   6.0434264821048869E-002
   2.7751725274076190E-002  -7.3862630071177132E-003   6.1167062299535016E-002
   5.6293548360654616E-002  -1.6234661754916446E-002   4.9939872283204095E-002
   5.4776551354735803E-002  -1.5901842155168336E-002   4.9696842993188911E-002
   5.3259554348817004E-002  -1.5570929053482847E-002   4.9588601096229742E-002
   5.1742557342898191E-002  -1.5241922449859892E-002   4.9615146592326291E-002
   5.0225560336979391E-002  -1.4914822344299666E-002   4.9776479481478675E-002
   4.9283820986500568E-002  -1.4022562067966760E-002   5.2945589105439048E-002
   4.7917303176537640E-002  -1.3811207067963932E-002   5.2643674467623747E-002
   4.6550785366574705E-002  -1.3579462007978167E-002   5.2507930828664513E-002
   4.5184267556611785E-002  -1.3327326888009293E-002   5.2538358188561049E-002
   4.3817749746648871E-002  -1.3054801708057423E-002   5.2734956547313583E-002
   4.2190274680686146E-002  -1.1810462381017073E-002   5.5818693048905819E-002
   4.1005619672479177E-002  -1.1720571980759605E-002   5.5480189621336128E-002
   3.9820964664272200E-002  -1.1587994962473484E-002   5.5339240798422368E-002
   3.8636309656065210E-002  -1.1412731326158734E-002   5.5395846580164665E-002
   3.7451654647858247E-002  -1.1194781071815277E-002   5.5650006966562936E-002
   3.5012909443211358E-002  -9.5983626940674138E-003   5.8559184113604487E-002
   3.4041500842560399E-002  -9.6299368935552666E-003   5.8206388454325880E-002
   3.3070092241909467E-002  -9.5965279169688156E-003   5.8082531005503354E-002
   3.2098683641258535E-002  -9.4981357643081285E-003   5.8187611767136965E-002
   3.1127275040607583E-002  -9.3347604355731237E-003   5.8521630739226546E-002
   2.7751725274076190E-002  -7.3862630071177132E-003   6.1167062299535016E-002
   2.7024946686781355E-002  -7.5393018063508524E-003   6.0822270966593220E-002
   2.6298168099486516E-002  -7.6050608714641164E-003   6.0737801449907529E-002
   2.5571389512191685E-002  -7.5835402024575357E-003   6.0913653749478033E-002
   2.4844610924896857E-002  -7.4747397993309150E-003   6.1349827865304657E-002
   5.0225560336979391E-002  -1.4914822344299666E-002   4.9776479481478675E-002
   4.8790889286108891E-002  -1.4556502073514610E-002   4.9268675933644313E-002
   4.7356218235238404E-002  -1.4133834974217323E-002   4.9085048842065812E-002
   4.5921547184367896E-002  -1.3646821046408087E-002   4.9225598206743264E-002
   4.4486876133497388E-002  -1.3095460290086625E-002   4.9690324027676314E-002
   4.3817749746648871E-002  -1.3054801708057423E-002   5.2734956547313583E-002
   4.2674420931216914E-002  -1.2753788330480867E-002   5.2286500852091064E-002
   4.1531092115784971E-002  -1.2416188617637859E-002   5.2096553171489646E-002
   4.0387763300353006E-002  -1.2042002569528415E-002   5.2165113505509605E-002
   3.9244434484921070E-002  -1.1631230186152697E-002   5.2492181854150555E-002
   3.7451654647858247E-002  -1.1194781071815277E-002   5.5650006966562936E-002
   3.6533999626230163E-002  -1.0951074587447179E-002   5.5233138630706564E-002
   3.5616344604602071E-002  -1.0698542261058343E-002   5.5009109867836622E-002
   3.4698689582974000E-002  -1.0437184092648856E-002   5.4977920677953249E-002
   3.3781034561345902E-002  -1.0167000082218686E-002   5.5139571061056450E-002
   3.1127275040607583E-002  -9.3347604355731237E-003   5.8521630739226546E-002
   3.0369625371148699E-002  -9.1483608444134362E-003   5.8108589269490619E-002
   2.9611975701689785E-002  -8.9808959044789093E-003   5.7822718931106541E-002
   2.8854326032230898E-002  -8.8323656157692949E-003   5.7664019724074186E-002
   2.8096676362771987E-002  -8.7027699782846885E-003   5.7632491648393819E-002
   2.4844610924896857E-002  -7.4747397993309150E-003   6.1349827865304657E-002
   2.4181298165972448E-002  -7.3456471013797625E-003   6.0912852768443382E-002
   2.3517985407048053E-002  -7.2632495478993295E-003   6.0537380361299284E-002
   2.2854672648123648E-002  -7.2275471388896558E-003   6.0223410643872342E-002
   2.2191359889199250E-002  -7.2385398743507468E-003   5.9970943616162620E-002
   4.4486876133497388E-002  -1.3095460290086625E-002   4.9690324027676314E-002
   4.2702591793884331E-002  -1.2530578460819758E-002   4.9718106248959282E-002
   4.0918307454271274E-002  -1.2003001314173964E-002   4.9769853100271044E-002
   3.9134023114658231E-002  -1.1512728850149475E-002   4.9845564581611587E-002
   3.7349738775045133E-002  -1.1059761068746288E-002   4.9945240692980786E-002
   3.9244434484921070E-002  -1.1631230186152697E-002   5.2492181854150555E-002
   3.7534622308334625E-002  -1.1204511481849824E-002   5.2328514145415880E-002
   3.5824810131748180E-002  -1.0782486470959848E-002   5.2289826132705594E-002
   3.4114997955161729E-002  -1.0365155153482280E-002   5.2376117816019689E-002
   3.2405185778575291E-002  -9.9525175294175039E-003   5.2587389195358492E-002
   3.3781034561345902E-002  -1.0167000082218686E-002   5.5139571061056450E-002
   3.2246709613781906E-002  -9.8784445028801265E-003   5.4817064411512406E-002
   3.0712384666217903E-002  -9.5619716277456843E-003   5.4720552523988712E-002
   2.9178059718653900E-002  -9.2175814568151420E-003   5.4850035398485306E-002
   2.7643734771089896E-002  -8.8452739900887756E-003   5.5205513035002263E-002
   2.8096676362771987E-002  -8.7027699782846885E-003   5.7632491648393819E-002
   2.6838853710226207E-002  -8.5523775239102831E-003   5.7183757047249081E-002
   2.5581031057680437E-002  -8.3414567845314334E-003   5.7062032274120517E-002
   2.4323208405134619E-002  -8.0700077601479209E-003   5.7267317329008173E-002
   2.3065385752588860E-002  -7.7380304507600473E-003   5.7799612211911849E-002
   2.2191359889199250E-002  -7.2385398743507468E-003   5.9970943616162620E-002
   2.1311054597667523E-002  -7.2263105449404952E-003   5.9428592052625739E-002
   2.0430749306135775E-002  -7.1209419413173630E-003   5.9314265383101056E-002
   1.9550444014604030E-002  -6.9224340634807709E-003   5.9627963607588250E-002
   1.8670138723072299E-002  -6.6307869114312634E-003   6.0369686726087279E-002
   3.7349738775045133E-002  -1.1059761068746288E-002   4.9945240692980786E-002
   3.5862680721033907E-002  -1.0580572708542679E-002   4.9356085576835573E-002
   3.4375622667022640E-002  -1.0011638508117038E-002   4.9242821196341324E-002
   3.2888564613011394E-002  -9.3529584674698074E-003   4.9605447551498427E-002
   3.1401506559000147E-002  -8.6045325866003219E-003   5.0443964642306383E-002
   3.2405185778575291E-002  -9.9525175294175039E-003   5.2587389195358492E-002
   3.1309998304173706E-002  -9.5283354255429886E-003   5.2156080158783424E-002
   3.0214810829772093E-002  -9.0763706686361467E-003   5.2032621545776425E-002
   2.9119623355370480E-002  -8.5966232586972419E-003   5.2217013356337619E-002
   2.8024435880968895E-002  -8.0890931957260936E-003   5.2709255590467075E-002
   2.7643734771089896E-002  -8.8452739900887756E-003   5.5205513035002263E-002
   2.6772377564215057E-002  -8.4760981425431592E-003   5.4870086890807385E-002
   2.5901020357340262E-002  -8.1411028291551446E-003   5.4674470858097762E-002
   2.5029663150465460E-002  -7.8402880499248429E-003   5.4618664936873493E-002
   2.4158305943590627E-002  -7.5736538048520319E-003   5.4702669127134729E-002
   2.3065385752588860E-002  -7.7380304507600473E-003   5.7799612211911849E-002
   2.2249818501157953E-002  -7.4238608595433714E-003   5.7498105772907510E-002
   2.1434251249727063E-002  -7.2058349896740315E-003   5.7168369133305433E-002
   2.0618683998296149E-002  -7.0839528411523606E-003   5.6810402293105910E-002
   1.9803116746865263E-002  -7.0582144139778313E-003   5.6424205252308894E-002
   1.8670138723072299E-002  -6.6307869114312634E-003   6.0369686726087279E-002
   1.7742321115002443E-002  -6.3716235765436113E-003   6.0040136805083522E-002
   1.6814503506932588E-002  -6.2705671501930987E-003   5.9514316371399451E-002
   1.5886685898862732E-002  -6.3276176323798124E-003   5.8792225425034997E-002
   1.4958868290792890E-002  -6.5427750231037973E-003   5.7873863965990091E-002
   3.1401506559000147E-002  -8.6045325866003219E-003   5.0443964642306383E-002
   2.9718436340353843E-002  -7.9402946882069503E-003   5.0706582455206484E-002
   2.8035366121707567E-002  -7.5341785949875895E-003   5.0355686818447432E-002
   2.6352295903061249E-002  -7.3861843069419272E-003   4.9391277732029115E-002
   2.4669225684414986E-002  -7.4963118240705118E-003   4.7813355195951868E-002
   2.8024435880968895E-002  -8.0890931957260936E-003   5.2709255590467075E-002
   2.6041725972495988E-002  -7.5438890816119653E-003   5.2691409725892702E-002
   2.4059016064023081E-002  -6.9511195182432040E-003   5.2687797931324248E-002
   2.2076306155550132E-002  -6.3107845056198306E-003   5.2698420206761562E-002
   2.0093596247077294E-002  -5.6228840437424488E-003   5.2723276552204323E-002
   2.4158305943590627E-002  -7.5736538048520319E-003   5.4702669127134729E-002
   2.2503703864955954E-002  -7.1474834750166749E-003   5.4710046839514137E-002
   2.0849101786321302E-002  -6.3680604414987213E-003   5.5359406141564219E-002
   1.9194499707686618E-002  -5.2353847042979039E-003   5.6650747033285313E-002
   1.7539897629051990E-002  -3.7494562634143858E-003   5.8584069514676540E-002
   1.9803116746865263E-002  -7.0582144139778313E-003   5.6424205252308894E-002
   1.9104370017733734E-002  -6.7510778684215927E-003   5.6762493796070825E-002
   1.8405623288602152E-002  -5.7850013647542872E-003   5.8370511449168022E-002
   1.7706876559470609E-002  -4.1599849029758367E-003   6.1248258211601056E-002
   1.7008129830339069E-002  -1.8760284830862672E-003   6.5395734083369322E-002
   1.4958868290792890E-002  -6.5427750231037973E-003   5.7873863965990091E-002
   1.5843724430829306E-002  -6.3546722618263995E-003   5.8848750595562438E-002
   1.6728580570865716E-002  -5.2019422880098393E-003   6.1721113854135173E-002
   1.7613436710902156E-002  -3.0845851016538216E-003   6.6490953741708506E-002
   1.8498292850938569E-002  -2.6007027582597431E-006   7.3158270258282254E-002
   2.6594690299701566E-002   0.0000000000000000        2.9446430443706092E-002
   2.7184704969133642E-002  -5.6658664267252544E-004   3.4924103233568884E-002
   2.7774719638565717E-002  -1.2840973567162604E-003   4.0089620460798399E-002
   2.8364734307997800E-002  -2.1525321421312030E-003   4.4942982125394638E-002
   2.8954748977429876E-002  -3.1718909989173578E-003   4.9484188227357576E-002
   2.0077259836848368E-002   0.0000000000000000        2.9018253163476643E-002
   2.0395596104302090E-002  -4.2157696699926007E-004   3.4311109788563360E-002
   2.0713932371755808E-002  -9.5584796105308619E-004   3.9372765172326622E-002
   2.1032268639209532E-002  -1.6028129821614783E-003   4.4203219314766479E-002
   2.1350604906663254E-002  -2.3624720303244296E-003   4.8802472215882894E-002
   1.3466345097777038E-002   0.0000000000000000        2.8715970536762132E-002
   1.3593957284562259E-002  -2.7656729132599558E-004   3.3862241041389400E-002
   1.3721569471347481E-002  -6.2759856538991115E-004   3.8858264626003086E-002
   1.3849181658132703E-002  -1.0530938221917476E-003   4.3704041290603200E-002
   1.3976793844917925E-002  -1.5530530617314984E-003   4.8399571035189749E-002
   6.7619460824875684E-003   0.0000000000000000        2.8539582563562569E-002
   6.7797885099141484E-003  -1.3155761565273108E-004   3.3577496992047019E-002
   6.7976309373407309E-003  -2.9934916972673741E-004   3.8546118821827763E-002
   6.8154733647673126E-003  -5.0337466222201638E-004   4.3445448052904803E-002
   6.8333157921938925E-003  -7.4363409313857039E-004   4.8275484685278112E-002
  -3.5937209020036297E-005   0.0000000000000000        2.8489089243877944E-002
  -4.6910219642239126E-005   1.3452060020534284E-005   3.3456877640536245E-002
  -5.7883230264440221E-005   2.8900225936438068E-005   3.8436327759800687E-002
  -6.8856240886641749E-005   4.6344497747707880E-005   4.3427439601671274E-002
  -7.9829251508843277E-005   6.5784875454358467E-005   4.8430213166148012E-002
   2.8954748977429876E-002  -3.1718909989173578E-003   4.9484188227357576E-002
   2.9012203433509430E-002  -4.1808396826635980E-003   5.1527020349234322E-002
   2.9069657889588985E-002  -5.0180439489588219E-003   5.3670242561210550E-002
   2.9127112345668543E-002  -5.6835037978030020E-003   5.5913854863286302E-002
   2.9184566801748101E-002  -6.1772192291961389E-003   5.8257857255461502E-002
   2.1350604906663254E-002  -2.3624720303244296E-003   4.8802472215882894E-002
   2.1478593614884564E-002  -3.1144401005090104E-003   5.1195691709054358E-002
   2.1606582323105875E-002  -3.7383321876822925E-003   5.3629589616409817E-002
   2.1734571031327189E-002  -4.2341482918442702E-003   5.6104165937949271E-002
   2.1862559739548496E-002  -4.6018884129949492E-003   5.8619420673672748E-002
   1.3976793844917925E-002  -1.5530530617314984E-003   4.8399571035189749E-002
   1.4115605129365497E-002  -2.0480405183544229E-003   5.1099509465216186E-002
   1.4254416413813071E-002  -2.4586204264057773E-003   5.3780414633511138E-002
   1.4393227698260647E-002  -2.7847927858855480E-003   5.6442286540074577E-002
   1.4532038982708217E-002  -3.0265575967937490E-003   5.9085125184906592E-002
   6.8333157921938925E-003  -7.4363409313857039E-004   4.8275484685278112E-002
   6.9232379769522340E-003  -9.8164093619983878E-004   5.1238473617719806E-002
   7.0131601617105747E-003  -1.1789086651292689E-003   5.4122717612514505E-002
   7.1030823464689188E-003  -1.3354372799268279E-003   5.6928216669662246E-002
   7.1930045312272595E-003  -1.4512267805925610E-003   5.9654970789163000E-002
  -7.9829251508843277E-005   6.5784875454358467E-005   4.8430213166148012E-002
  -9.8507842355226218E-005   8.4758645954746172E-005   5.1612584166565237E-002
  -1.1718643320161003E-004   1.0080309614726138E-004   5.4656498553419974E-002
  -1.3586502404799470E-004   1.1391822603189764E-004   5.7561956326712266E-002
  -1.5454361489437678E-004   1.2410403560864786E-004   6.0328957486442077E-002
   2.9184566801748101E-002  -6.1772192291961389E-003   5.8257857255461502E-002
   2.8826356419830119E-002  -6.5586668823169741E-003   5.8979662299012157E-002
   2.8468146037912145E-002  -6.8873233963441683E-003   5.9705131487541308E-002
   2.8109935655994171E-002  -7.1631887712777613E-003   6.0434264821048869E-002
   2.7751725274076190E-002  -7.3862630071177132E-003   6.1167062299535016E-002
   2.1862559739548496E-002  -4.6018884129949492E-003   5.8619420673672748E-002
   2.1525732310602591E-002  -4.8816656078321009E-003   5.9400751334930987E-002
   2.1188904881656690E-002  -5.1135929330534732E-003   6.0221183757154940E-002
   2.0852077452710786E-002  -5.2976703886591318E-003   6.1080717940344545E-002
   2.0515250023764878E-002  -5.4338979746490351E-003   6.1979353884499787E-002
   1.4532038982708217E-002  -3.0265575967937490E-003   5.9085125184906592E-002
   1.4252032122721579E-002  -3.2046643333472138E-003   5.9921040194394558E-002
   1.3972025262734947E-002  -3.3398624697628049E-003   6.0831494580835428E-002
   1.3692018402748312E-002  -3.4321520060405005E-003   6.1816488344229190E-002
   1.3412011542761669E-002  -3.4815329421803223E-003   6.2876021484575745E-002
   7.1930045312272595E-003  -1.4512267805925610E-003   5.9654970789163000E-002
   7.0052558561870832E-003  -1.5276630588623615E-003   6.0540528877402890E-002
   6.8175071811469130E-003  -1.5661320064721371E-003   6.1536063958582805E-002
   6.6297585061067376E-003  -1.5666336234218562E-003   6.2641576032702845E-002
   6.4420098310665648E-003  -1.5291679097116269E-003   6.3857065099762883E-002
  -1.5454361489437678E-004   1.2410403560864786E-004   6.0328957486442077E-002
  -2.1459648900089365E-004   1.4933821562254992E-004   6.1259217383955948E-002
  -2.7464936310740793E-004   2.0759845681855675E-004   6.2334891890397079E-002
  -3.3470223721392351E-004   2.9888475919676678E-004   6.3555981005765455E-002
  -3.9475511132043908E-004   4.2319712275708243E-004   6.4922484730061084E-002
   2.7751725274076190E-002  -7.3862630071177132E-003   6.1167062299535016E-002
   2.7024946686781355E-002  -7.5393018063508524E-003   6.0822270966593220E-002
   2.6298168099486516E-002  -7.6050608714641164E-003   6.0737801449907529E-002
   2.5571389512191685E-002  -7.5835402024575357E-003   6.0913653749478033E-002
   2.4844610924896857E-002  -7.4747397993309150E-003   6.1349827865304657E-002
   2.0515250023764878E-002  -5.4338979746490351E-003   6.1979353884499787E-002
   2.0017972313322148E-002  -5.5279410456468558E-003   6.1798877828706203E-002
   1.9520694602879411E-002  -5.5854649562763030E-003   6.1817081710360683E-002
   1.9023416892436674E-002  -5.6064697065373341E-003   6.2033965529463130E-002
   1.8526139181993945E-002  -5.5909552964299447E-003   6.2449529286013702E-002
   1.3412011542761669E-002  -3.4815329421803223E-003   6.2876021484575745E-002
   1.3082592830362944E-002  -3.5165802849427448E-003   6.2809100132178830E-002
   1.2753174117964217E-002  -3.5658690410883525E-003   6.2879216838421861E-002
   1.2423755405565489E-002  -3.6293992106171051E-003   6.3086371603304811E-002
   1.2094336693166757E-002  -3.7071707935289883E-003   6.3430564426827790E-002
   6.4420098310665648E-003  -1.5291679097116269E-003   6.3857065099762883E-002
   6.2188082379037481E-003  -1.5052195242387188E-003   6.3852937877011101E-002
   5.9956066447409313E-003  -1.5462731259004011E-003   6.3924206834091155E-002
   5.7724050515781137E-003  -1.6523287146968759E-003   6.4070871971003071E-002
   5.5492034584152970E-003  -1.8233862906280249E-003   6.4292933287746878E-002
  -3.9475511132043908E-004   4.2319712275708243E-004   6.4922484730061084E-002
  -5.7338146405543945E-004   5.0614123646537668E-004   6.4930391063202905E-002
  -7.5200781679044329E-004   4.7332278928749125E-004   6.4952051697368479E-002
  -9.3063416952544539E-004   3.2474178122334548E-004   6.4987466632557833E-002
  -1.1092605222604475E-003   6.0398212272966267E-005   6.5036635868770926E-002
   2.4844610924896857E-002  -7.4747397993309150E-003   6.1349827865304657E-002
   2.4181298165972448E-002  -7.3456471013797625E-003   6.0912852768443382E-002
   2.3517985407048053E-002  -7.2632495478993295E-003   6.0537380361299284E-002
   2.2854672648123648E-002  -7.2275471388896558E-003   6.0223410643872342E-002
   2.2191359889199250E-002  -7.2385398743507468E-003   5.9970943616162620E-002
   1.8526139181993945E-002  -5.5909552964299447E-003   6.2449529286013702E-002
   1.7955711407980975E-002  -5.5613379516526590E-003   6.1903101520672896E-002
   1.7385283633968011E-002  -5.5400338979038483E-003   6.1480941035437740E-002
   1.6814855859955034E-002  -5.5270431351834119E-003   6.1183047830308229E-002
   1.6244428085942085E-002  -5.5223656634914575E-003   6.1009421905284494E-002
   1.2094336693166757E-002  -3.7071707935289883E-003   6.3430564426827790E-002
   1.1679558494453759E-002  -3.7770288019255208E-003   6.2813065846449620E-002
   1.1264780295740762E-002  -3.8168182479082872E-003   6.2382599136565631E-002
   1.0850002097027758E-002  -3.8265391314771966E-003   6.2139164297175940E-002
   1.0435223898314767E-002  -3.8061914526322238E-003   6.2082761328280431E-002
   5.5492034584152970E-003  -1.8233862906280249E-003   6.4292933287746878E-002
   5.3528394253908136E-003  -1.9927196521984276E-003   6.3642745745773652E-002
   5.1564753923663258E-003  -2.0936025979127106E-003   6.3242354664683212E-002
   4.9601113593418372E-003  -2.1260351277709671E-003   6.3091760044475517E-002
   4.7637473263173634E-003  -2.0900172417730178E-003   6.3190961885150679E-002
  -1.1092605222604475E-003   6.0398212272966267E-005   6.5036635868770926E-002
  -1.0244457992078793E-003  -2.0841050247125126E-004   6.4392141218644977E-002
  -9.3963107615530755E-004  -3.7038694791723809E-004   6.4060207619790324E-002
  -8.5481635310273845E-004  -4.2553112406472186E-004   6.4040835072206981E-002
  -7.7000163005016761E-004  -3.7384303091375637E-004   6.4334023575895016E-002
   2.2191359889199250E-002  -7.2385398743507468E-003   5.9970943616162620E-002
   2.1311054597667523E-002  -7.2263105449404952E-003   5.9428592052625739E-002
   2.0430749306135775E-002  -7.1209419413173630E-003   5.9314265383101056E-002
   1.9550444014604030E-002  -6.9224340634807709E-003   5.9627963607588250E-002
   1.8670138723072299E-002  -6.6307869114312634E-003   6.0369686726087279E-002
   1.6244428085942085E-002  -5.5223656634914575E-003   6.1009421905284494E-002
   1.5743370100615509E-002  -5.4929509133132409E-003   6.0631483930677951E-002
   1.5242312115288963E-002  -5.4057483151342955E-003   6.0584015674469777E-002
   1.4741254129962402E-002  -5.2607578689544132E-003   6.0867017136660068E-002
   1.4240196144635855E-002  -5.0579795747735523E-003   6.1480488317248755E-002
   1.0435223898314767E-002  -3.8061914526322238E-003   6.2082761328280431E-002
   1.0215858043579908E-002  -3.7595912816860699E-003   6.1833885516391865E-002
   9.9964921888450412E-003  -3.6905546889513322E-003   6.1817924247288124E-002
   9.7771263341101811E-003  -3.5990816744279428E-003   6.2034877520969312E-002
   9.5577604793753088E-003  -3.4851722381159522E-003   6.2484745337435518E-002
   4.7637473263173634E-003  -2.0900172417730178E-003   6.3190961885150679E-002
   4.7285184265606819E-003  -2.0262316500588295E-003   6.3035796809767577E-002
   4.6932895268040047E-003  -1.9753610627683167E-003   6.3015991101556035E-002
   4.6580606270473258E-003  -1.9374054799015843E-003   6.3131544760515843E-002
   4.6228317272906470E-003  -1.9123649014582689E-003   6.3382457786647126E-002
  -7.7000163005016761E-004  -3.7384303091375637E-004   6.4334023575895016E-002
  -7.1864875044215168E-004  -2.9287201843167243E-004   6.4237217810805297E-002
  -6.6729587083414095E-004  -2.6016743658532904E-004   6.4178216237273517E-002
  -6.1594299122612935E-004  -2.7572928537520497E-004   6.4157018855299758E-002
  -5.6459011161811429E-004  -3.3955756480069654E-004   6.4173625664883771E-002
   1.8670138723072299E-002  -6.6307869114312634E-003   6.0369686726087279E-002
   1.7742321115002443E-002  -6.3716235765436113E-003   6.0040136805083522E-002
   1.6814503506932588E-002  -6.2705671501930987E-003   5.9514316371399451E-002
   1.5886685898862732E-002  -6.3276176323798124E-003   5.8792225425034997E-002
   1.4958868290792890E-002  -6.5427750231037973E-003   5.7873863965990091E-002
   1.4240196144635855E-002  -5.0579795747735523E-003   6.1480488317248755E-002
   1.3160974913213101E-002  -4.8995958866057676E-003   6.0790970214466583E-002
   1.2081753681790333E-002  -4.8877892584643645E-003   5.9994915377658817E-002
   1.1002532450367569E-002  -5.0225596903498218E-003   5.9092323806825713E-002
   9.9233112189448247E-003  -5.3039071822620909E-003   5.8083195501967055E-002
   9.5577604793753088E-003  -3.4851722381159522E-003   6.2484745337435518E-002
   8.4168694032545968E-003  -3.4275681966677157E-003   6.1446788901385135E-002
   7.2759783271338745E-003  -3.5050113667356234E-003   6.0392029509964258E-002
   6.1350872510131590E-003  -3.7175017483197185E-003   5.9320467163172977E-002
   4.9941961748924367E-003  -4.0650393414201347E-003   5.8232101861011173E-002
   4.6228317272906470E-003  -1.9123649014582689E-003   6.3382457786647126E-002
   3.5100045851269336E-003  -1.9555405067297679E-003   6.2007592865839227E-002
   2.3971774429632125E-003  -2.1222334750069134E-003   6.0705658768315747E-002
   1.2843503007994887E-003  -2.4124438062897271E-003   5.9476655494076811E-002
   1.7152315863577881E-004  -2.8261715005782478E-003   5.8320583043122376E-002
  -5.6459011161811429E-004  -3.3955756480069654E-004   6.4173625664883771E-002
  -1.5596195411698849E-003  -4.8351281679182012E-004   6.2473382107828879E-002
  -2.5546489707216555E-003  -7.3945558327813410E-004   6.0935803152713325E-002
  -3.5496784002734295E-003  -1.1073858642596489E-003   5.9560888799537179E-002
  -4.5447078298251967E-003  -1.5873036597364720E-003   5.8348639048300455E-002
   1.4958868290792890E-002  -6.5427750231037973E-003   5.7873863965990091E-002
   1.5843724430829306E-002  -6.3546722618263995E-003   5.8848750595562438E-002
   1.6728580570865716E-002  -5.2019422880098393E-003   6.1721113854135173E-002
   1.7613436710902156E-002  -3.0845851016538216E-003   6.6490953741708506E-002
   1.8498292850938569E-002  -2.6007027582597431E-006   7.3158270258282254E-002
   9.9233112189448247E-003  -5.3039071822620909E-003   5.8083195501967055E-002
   1.2221303864514990E-002  -5.4721398721895298E-003   5.9348900974135976E-002
   1.4519296510085163E-002  -5.2675658981217593E-003   6.1543402828371785E-002
   1.6817289155655325E-002  -4.6901852600587206E-003   6.4666701064675092E-002
   1.9115281801225514E-002  -3.7399979580000631E-003   6.8718795683045175E-002
   4.9941961748924367E-003  -4.0650393414201347E-003   5.8232101861011173E-002
   7.7366450790630689E-003  -4.5896074825526600E-003   5.9196805627232604E-002
   1.0479093983233692E-002  -5.3331895082337974E-003   6.0121625528587873E-002
   1.3221542887404333E-002  -6.2957854184636213E-003   6.1006561565076667E-002
   1.5963991791574941E-002  -7.4773952132417554E-003   6.1851613736699840E-002
   1.7152315863577881E-004  -2.8261715005782478E-003   5.8320583043122376E-002
   2.3897480744735624E-003  -3.7070750929156793E-003   5.8392464554852239E-002
   4.6079729903113435E-003  -5.3988131183457765E-003   5.7455781954782667E-002
   6.8261979061491063E-003  -7.9013855768685221E-003   5.5510535242913550E-002
   9.0444228219869229E-003  -1.1214792468483559E-002   5.2556724419245124E-002
  -4.5447078298251967E-003  -1.5873036597364720E-003   5.8348639048300455E-002
  -3.8193871492535614E-003  -2.8245427032789761E-003   5.6935877756994990E-002
  -3.0940664686819296E-003  -5.4644367284576723E-003   5.3545872106956882E-002
  -2.3687457881102977E-003  -9.5069857352734002E-003   4.8178622098185631E-002
  -1.6434251075386624E-003  -1.4952189723725251E-002   4.0834127730681846E-002
  -3.5937209020036297E-005   0.0000000000000000        2.8489089243877944E-002
  -4.6910219642239126E-005   1.3452060020534284E-005   3.3456877640536245E-002
  -5.7883230264440221E-005   2.8900225936438068E-005   3.8436327759800687E-002
  -6.8856240886641749E-005   4.6344497747707880E-005   4.3427439601671274E-002
  -7.9829251508843277E-005   6.5784875454358467E-005   4.8430213166148012E-002
  -6.8323168668235181E-003   0.0000000000000000        2.8564280728797131E-002
  -6.8711471855007460E-003   1.5671974437885504E-004   3.3608830472981653E-002
  -6.9099775041779740E-003   3.5102105198437251E-004   3.8586003878449973E-002
  -6.9488078228552002E-003   5.8290392281655241E-004   4.3495800945202105E-002
  -6.9876381415324273E-003   8.5236835687539994E-004   4.8338221673238028E-002
  -1.3532204981000620E-002   0.0000000000000000        2.8764947169408986E-002
  -1.3677930669055219E-002   2.9998742873717579E-004   3.3921843718451028E-002
  -1.3823656357109814E-002   6.7314187803230695E-004   3.8932325867454522E-002
  -1.3969382045164413E-002   1.1194633478853952E-003   4.3796393616419481E-002
  -1.4115107733219008E-002   1.6389518382964444E-003   4.8514046965345899E-002
  -2.0135601551551342E-002   0.0000000000000000        2.9091088565713522E-002
  -2.0467260670305656E-002   4.4325511309549611E-004   3.4395917376944377E-002
  -2.0798919789059962E-002   9.9526270408024486E-004   3.9475293726814339E-002
  -2.1130578907814272E-002   1.6560227729542406E-003   4.4329217615323421E-002
  -2.1462238026568582E-002   2.4255353197174872E-003   4.8957689042471629E-002
  -2.6642506578475687E-002   0.0000000000000000        2.9542704917710730E-002
  -2.7239137189252055E-002   5.8652279745381730E-004   3.5031051448461692E-002
  -2.7835767800028416E-002   1.3173835301281776E-003   4.0214907456529413E-002
  -2.8432398410804784E-002   2.1925821980230790E-003   4.5094272941913920E-002
  -2.9029029021581151E-002   3.2121188011385313E-003   4.9669147904615199E-002
  -7.9829251508843277E-005   6.5784875454358467E-005   4.8430213166148012E-002
  -9.8507842355226218E-005   8.4758645954746172E-005   5.1612584166565237E-002
  -1.1718643320161003E-004   1.0080309614726138E-004   5.4656498553419974E-002
  -1.3586502404799470E-004   1.1391822603189764E-004   5.7561956326712266E-002
  -1.5454361489437678E-004   1.2410403560864786E-004   6.0328957486442077E-002
  -6.9876381415324273E-003   8.5236835687539994E-004   4.8338221673238028E-002
  -7.1134074659349620E-003   1.1190566134193784E-003   5.1309266232716436E-002
  -7.2391767903374968E-003   1.3426109517069322E-003   5.4204585938645022E-002
  -7.3649461147400307E-003   1.5230313717380882E-003   5.7024180791023768E-002
  -7.4907154391425663E-003   1.6603178735128468E-003   5.9768050789852700E-002
  -1.4115107733219008E-002   1.6389518382964444E-003   4.8514046965345899E-002
  -1.4285236031165051E-002   2.1533545808840077E-003   5.1233560485936955E-002
  -1.4455364329111093E-002   2.5844188072666305E-003   5.3940080912990844E-002
  -1.4625492627057141E-002   2.9321445174443099E-003   5.6633608246507539E-002
  -1.4795620925003181E-002   3.1965317114170562E-003   5.9314142486487031E-002
  -2.1462238026568582E-002   2.4255353197174872E-003   4.8957689042471629E-002
  -2.1613993538045492E-002   3.1876525483486313E-003   5.1385466926226829E-002
  -2.1765749049522398E-002   3.8262266628263084E-003   5.3862983476457474E-002
  -2.1917504560999307E-002   4.3412576631505374E-003   5.6390238693163570E-002
  -2.2069260072476216E-002   4.7327455493212742E-003   5.8967232576345147E-002
  -2.9029029021581151E-002   3.2121188011385313E-003   4.9669147904615199E-002
  -2.9099679986576279E-002   4.2219505158132640E-003   5.1764985553585996E-002
  -2.9170330951571417E-002   5.0680345183860050E-003   5.3973293629044877E-002
  -2.9240981916566548E-002   5.7503708088567345E-003   5.6294072130991864E-002
  -2.9311632881561682E-002   6.2689593872254715E-003   5.8727321059426942E-002
  -1.5454361489437678E-004   1.2410403560864786E-004   6.0328957486442077E-002
  -2.1459648900089365E-004   1.4933821562254992E-004   6.1259217383955948E-002
  -2.7464936310740793E-004   2.0759845681855675E-004   6.2334891890397079E-002
  -3.3470223721392351E-004   2.9888475919676678E-004   6.3555981005765455E-002
  -3.9475511132043908E-004   4.2319712275708243E-004   6.4922484730061084E-002
  -7.4907154391425663E-003   1.6603178735128468E-003   5.9768050789852700E-002
  -7.4141175593163333E-003   1.7761238576355955E-003   6.0737412642826893E-002
  -7.3375196794901012E-003   1.8921027247107060E-003   6.1834661394739338E-002
  -7.2609217996638638E-003   2.0082544747382267E-003   6.3059797045590019E-002
  -7.1843239198376325E-003   2.1245791077180581E-003   6.4412819595378978E-002
  -1.4795620925003181E-002   3.1965317114170562E-003   5.9314142486487031E-002
  -1.4599900001233207E-002   3.4029094996486670E-003   6.0289753116691817E-002
  -1.4404179077463240E-002   3.5766069926028285E-003   6.1375722935845811E-002
  -1.4208458153693268E-002   3.7176241902796732E-003   6.2572051943949034E-002
  -1.4012737229923302E-002   3.8259610926790547E-003   6.3878740141001492E-002
  -2.2069260072476216E-002   4.7327455493212742E-003   5.8967232576345147E-002
  -2.1771943814751532E-002   5.0296951416617186E-003   5.9916238805550720E-002
  -2.1474627557026834E-002   5.2611112604949786E-003   6.0958076513716458E-002
  -2.1177311299302136E-002   5.4269939058211123E-003   6.2092745700842472E-002
  -2.0879995041577448E-002   5.5273430776400546E-003   6.3320246366928637E-002
  -2.9311632881561682E-002   6.2689593872254715E-003   5.8727321059426942E-002
  -2.8930248999871275E-002   6.6564807836747772E-003   5.9616869709403525E-002
  -2.8548865118180878E-002   6.9456155283871088E-003   6.0581722128351306E-002
  -2.8167481236490481E-002   7.1363636213625809E-003   6.1621878316270300E-002
  -2.7786097354800084E-002   7.2287250626010269E-003   6.2737338273160498E-002
  -3.9475511132043908E-004   4.2319712275708243E-004   6.4922484730061084E-002
  -5.7338146405543945E-004   5.0614123646537668E-004   6.4930391063202905E-002
  -7.5200781679044329E-004   4.7332278928749125E-004   6.4952051697368479E-002
  -9.3063416952544539E-004   3.2474178122334548E-004   6.4987466632557833E-002
  -1.1092605222604475E-003   6.0398212272966267E-005   6.5036635868770926E-002
  -7.1843239198376325E-003   2.1245791077180581E-003   6.4412819595378978E-002
  -7.2928928859340714E-003   2.2082487327219277E-003   6.4347561782671758E-002
  -7.4014618520305093E-003   2.2264354588212888E-003   6.4408664442217878E-002
  -7.5100308181269490E-003   2.1791392860161943E-003   6.4596127574017392E-002
  -7.6185997842233861E-003   2.0663602143066173E-003   6.4909951178070274E-002
  -1.4012737229923302E-002   3.8259610926790547E-003   6.3878740141001492E-002
  -1.3938642638151580E-002   3.9103562289784025E-003   6.3790597844426977E-002
  -1.3864548046379866E-002   3.9795481283551159E-003   6.3941422191335473E-002
  -1.3790453454608147E-002   4.0335367908089885E-003   6.4331213181726882E-002
  -1.3716358862836430E-002   4.0723222163402545E-003   6.4959970815601231E-002
  -2.0879995041577448E-002   5.5273430776400546E-003   6.3320246366928637E-002
  -2.0510630720707988E-002   5.6124637252349154E-003   6.3259499248468687E-002
  -2.0141266399838514E-002   5.7326607978888727E-003   6.3550324944721209E-002
  -1.9771902078969048E-002   5.8879342956018651E-003   6.4192723455686260E-002
  -1.9402537758099577E-002   6.0782842183738708E-003   6.5186694781363880E-002
  -2.7786097354800084E-002   7.2287250626010269E-003   6.2737338273160498E-002
  -2.7008857133603265E-002   7.3145712214914491E-003   6.2754265994796721E-002
  -2.6231616912406462E-002   7.4857734674227128E-003   6.3235372702375087E-002
  -2.5454376691209649E-002   7.7423318003946515E-003   6.4180658395895568E-002
  -2.4677136470012833E-002   8.0842462204075427E-003   6.5590123075358275E-002
  -1.1092605222604475E-003   6.0398212272966267E-005   6.5036635868770926E-002
  -1.0244457992078793E-003  -2.0841050247125126E-004   6.4392141218644977E-002
  -9.3963107615530755E-004  -3.7038694791723809E-004   6.4060207619790324E-002
  -8.5481635310273845E-004  -4.2553112406472186E-004   6.4040835072206981E-002
  -7.7000163005016761E-004  -3.7384303091375637E-004   6.4334023575895016E-002
  -7.6185997842233861E-003   2.0663602143066173E-003   6.4909951178070274E-002
  -7.2621291300625241E-003   1.9482404897402383E-003   6.4716948522375833E-002
  -6.9056584759016664E-003   1.8849223583648420E-003   6.4754696677626622E-002
  -6.5491878217408053E-003   1.8764058201803501E-003   6.5023195643822640E-002
  -6.1927171675799468E-003   1.9226908751868999E-003   6.5522445420963887E-002
  -1.3716358862836430E-002   4.0723222163402545E-003   6.4959970815601231E-002
  -1.3170042517893350E-002   4.1048914819518528E-003   6.5166429478230842E-002
  -1.2623726172950272E-002   4.1402316646468908E-003   6.5521828711479643E-002
  -1.2077409828007198E-002   4.1783427644254212E-003   6.6026168515347594E-002
  -1.1531093483064123E-002   4.2192247812874728E-003   6.6679448889834791E-002
  -1.9402537758099577E-002   6.0782842183738708E-003   6.5186694781363880E-002
  -1.8748185962700357E-002   6.2615424741634187E-003   6.5740584086210127E-002
  -1.8093834167301134E-002   6.3955409709289274E-003   6.6361603721349416E-002
  -1.7439482371901918E-002   6.4802797086704923E-003   6.7049753686781816E-002
  -1.6785130576502699E-002   6.5157586873880874E-003   6.7805033982507340E-002
  -2.4677136470012833E-002   8.0842462204075427E-003   6.5590123075358275E-002
  -2.3996559464483539E-002   8.4181934663749569E-003   6.6439412346313592E-002
  -2.3315982458954256E-002   8.6508502772110196E-003   6.7274021707235926E-002
  -2.2635405453424962E-002   8.7822166529155088E-003   6.8093951158125304E-002
  -2.1954828447895675E-002   8.8122925934887020E-003   6.8899200698981755E-002
  -7.7000163005016761E-004  -3.7384303091375637E-004   6.4334023575895016E-002
  -7.1864875044215168E-004  -2.9287201843167243E-004   6.4237217810805297E-002
  -6.6729587083414095E-004  -2.6016743658532904E-004   6.4178216237273517E-002
  -6.1594299122612935E-004  -2.7572928537520497E-004   6.4157018855299758E-002
  -5.6459011161811429E-004  -3.3955756480069654E-004   6.4173625664883771E-002
  -6.1927171675799468E-003   1.9226908751868999E-003   6.5522445420963887E-002
  -6.0571432608354011E-003   1.9791632360632305E-003   6.5515049007454890E-002
  -5.9215693540908675E-003   2.0012086154882550E-003   6.5638290456660878E-002
  -5.7859954473463348E-003   1.9888270134620790E-003   6.5892169768582060E-002
  -5.6504215406017883E-003   1.9420184299848153E-003   6.6276686943218310E-002
  -1.1531093483064123E-002   4.2192247812874728E-003   6.6679448889834791E-002
  -1.1218464878025889E-002   4.2511984905579253E-003   6.6775301277090970E-002
  -1.0905836272987652E-002   4.2625846675619500E-003   6.7094625198219515E-002
  -1.0593207667949413E-002   4.2533833122994184E-003   6.7637420653220315E-002
  -1.0280579062911174E-002   4.2235944247703550E-003   6.8403687642093383E-002
  -1.6785130576502699E-002   6.5157586873880874E-003   6.7805033982507340E-002
  -1.6202613602013586E-002   6.5232337450527242E-003   6.8017974619713609E-002
  -1.5620096627524473E-002   6.5239607196355340E-003   6.8547220461949290E-002
  -1.5037579653035376E-002   6.5179396111366191E-003   6.9392771509214496E-002
  -1.4455062678546262E-002   6.5051704195558530E-003   7.0554627761509142E-002
  -2.1954828447895675E-002   8.8122925934887020E-003   6.8899200698981755E-002
  -2.1009589432798521E-002   8.7952689995474953E-003   6.9243069035322791E-002
  -2.0064350417701368E-002   8.7853367717091319E-003   6.9996076247850397E-002
  -1.9119111402604208E-002   8.7824959099738788E-003   7.1158222336564672E-002
  -1.8173872387507055E-002   8.7867464143413510E-003   7.2729507301465490E-002
  -5.6459011161811429E-004  -3.3955756480069654E-004   6.4173625664883771E-002
  -1.5596195411698849E-003  -4.8351281679182012E-004   6.2473382107828879E-002
  -2.5546489707216555E-003  -7.3945558327813410E-004   6.0935803152713325E-002
  -3.5496784002734295E-003  -1.1073858642596489E-003   5.9560888799537179E-002
  -4.5447078298251967E-003  -1.5873036597364720E-003   5.8348639048300455E-002
  -5.6504215406017883E-003   1.9420184299848153E-003   6.6276686943218310E-002
  -6.4143330240851639E-003   1.8844286298422552E-003   6.5051009153779454E-002
  -7.1782445075685344E-003   1.8397033778207311E-003   6.4124902654537907E-002
  -7.9421559910519031E-003   1.8078426739198787E-003   6.3498367445493739E-002
  -8.7060674745352805E-003   1.7888465181400415E-003   6.3171403526647074E-002
  -1.0280579062911174E-002   4.2235944247703550E-003   6.8403687642093383E-002
  -1.0676465912068204E-002   4.2523700764764416E-003   6.7777427682886734E-002
  -1.1072352761225226E-002   4.4188623389195339E-003   6.7587645702135352E-002
  -1.1468239610382250E-002   4.7230712120995711E-003   6.7834341699839207E-002
  -1.1864126459539279E-002   5.1649966960166660E-003   6.8517515675998536E-002
  -1.4455062678546262E-002   6.5051704195558530E-003   7.0554627761509142E-002
  -1.4346018205118995E-002   6.6203115231106280E-003   7.0652637695150663E-002
  -1.4236973731691731E-002   6.9980213000185344E-003   7.1324032295505560E-002
  -1.4127929258264466E-002   7.6382997502792921E-003   7.2568811562573790E-002
  -1.4018884784837210E-002   8.5411468738930130E-003   7.4386975496355034E-002
  -1.8173872387507055E-002   8.7867464143413510E-003   7.2729507301465490E-002
  -1.7422989903237554E-002   8.9882529697447033E-003   7.3676639190571380E-002
  -1.6672107418968060E-002   9.5771802611171880E-003   7.5334062434648436E-002
  -1.5921224934698563E-002   1.0553528288458926E-002   7.7701777033696781E-002
  -1.5170342450429058E-002   1.1917297051769693E-002   8.0779782987716264E-002
  -4.5447078298251967E-003  -1.5873036597364720E-003   5.8348639048300455E-002
  -3.8193871492535614E-003  -2.8245427032789761E-003   5.6935877756994990E-002
  -3.0940664686819296E-003  -5.4644367284576723E-003   5.3545872106956882E-002
  -2.3687457881102977E-003  -9.5069857352734002E-003   4.8178622098185631E-002
  -1.6434251075386624E-003  -1.4952189723725251E-002   4.0834127730681846E-002
  -8.7060674745352805E-003   1.7888465181400415E-003   6.3171403526647074E-002
  -9.4722781155162951E-003   1.3971970176321902E-003   6.2167242822621038E-002
  -1.0238488756497315E-002   2.4737627954701802E-004   6.0157263834222513E-002
  -1.1004699397478333E-002  -1.6606156961150448E-003   5.7141466561451720E-002
  -1.1770910038459349E-002  -4.3267789093542897E-003   5.3119851004308050E-002
  -1.1864126459539279E-002   5.1649966960166660E-003   6.8517515675998536E-002
  -1.3150442347712673E-002   5.6189367385431621E-003   6.8566439303311411E-002
  -1.4436758235886062E-002   5.9591892875521663E-003   6.8580970720611992E-002
  -1.5723074124059450E-002   6.1857543430432586E-003   6.8561109927900210E-002
  -1.7009390012232815E-002   6.2986319050167827E-003   6.8506856925176440E-002
  -1.4018884784837210E-002   8.5411468738930130E-003   7.4386975496355034E-002
  -1.4853879845842669E-002   9.8406764594542312E-003   7.6133467199065941E-002
  -1.5688874906848147E-002   1.1671002295557141E-002   7.8816992766125124E-002
  -1.6523869967853624E-002   1.4032124382201755E-002   8.2437552197532474E-002
  -1.7358865028859083E-002   1.6924042719387800E-002   8.6995145493287226E-002
  -1.5170342450429058E-002   1.1917297051769693E-002   8.0779782987716264E-002
  -1.4582590609906326E-002   1.4062416180365300E-002   8.4868326509884850E-002
  -1.3994838769383591E-002   1.7382815303562060E-002   9.0865329970761854E-002
  -1.3407086928860839E-002   2.1878494421359876E-002   9.8770793370347054E-002
  -1.2819335088338130E-002   2.7549453533758816E-002  0.10858471670864067     
  -2.6642506578475687E-002   0.0000000000000000        2.9542704917710730E-002
  -2.7239137189252055E-002   5.8652279745381730E-004   3.5031051448461692E-002
  -2.7835767800028416E-002   1.3173835301281776E-003   4.0214907456529413E-002
  -2.8432398410804784E-002   2.1925821980230790E-003   4.5094272941913920E-002
  -2.9029029021581151E-002   3.2121188011385313E-003   4.9669147904615199E-002
  -3.3391962497401451E-002   0.0000000000000000        3.0253416650252735E-002
  -3.4228694876322081E-002   9.5753349126284117E-004   3.5347191431546077E-002
  -3.5065427255242719E-002   2.0159946945704282E-003   4.0265253199234109E-002
  -3.5902159634163350E-002   3.1753836099227620E-003   4.5007601953316836E-002
  -3.6738892013083967E-002   4.4357002373198407E-003   4.9574237693794258E-002
  -4.0723011743956455E-002   0.0000000000000000        3.1356844188191665E-002
  -4.1671068381943420E-002   1.3285441850718633E-003   3.6012636996851588E-002
  -4.2619125019930391E-002   2.7146058590126762E-003   4.0621494300984114E-002
  -4.3567181657917370E-002   4.1581850218224397E-003   4.5183416100589277E-002
  -4.4515238295904334E-002   5.6592816735011459E-003   4.9698402395667071E-002
  -4.8635654318140667E-002   0.0000000000000000        3.2852987531527517E-002
  -4.9566257706116057E-002   1.6995548788808850E-003   3.7027388144378219E-002
  -5.0496861094091447E-002   3.4132170234549269E-003   4.1283630761779475E-002
  -5.1427464482066851E-002   5.1409864337221148E-003   4.5621715383731262E-002
  -5.2358067870042241E-002   6.8828631096824536E-003   5.0041642010233603E-002
  -5.7129890219954127E-002   0.0000000000000000        3.4741846680260285E-002
  -5.7914262848840006E-002   2.0705655726899093E-003   3.8391444874125977E-002
  -5.8698635477725893E-002   4.1118281878971732E-003   4.2251662581620136E-002
  -5.9483008106611779E-002   6.1237878456217969E-003   4.6322499802742764E-002
  -6.0267380735497658E-002   8.1064445458637596E-003   5.0603956537493860E-002
  -2.9029029021581151E-002   3.2121188011385313E-003   4.9669147904615199E-002
  -2.9099679986576279E-002   4.2219505158132640E-003   5.1764985553585996E-002
  -2.9170330951571417E-002   5.0680345183860050E-003   5.3973293629044877E-002
  -2.9240981916566548E-002   5.7503708088567345E-003   5.6294072130991864E-002
  -2.9311632881561682E-002   6.2689593872254715E-003   5.8727321059426942E-002
  -3.6738892013083967E-002   4.4357002373198407E-003   4.9574237693794258E-002
  -3.6737946985153799E-002   5.6600218513151220E-003   5.1394384892409571E-002
  -3.6737001957223639E-002   6.7114257264620720E-003   5.3245253650387368E-002
  -3.6736056929293465E-002   7.5899118627606697E-003   5.5126843967727698E-002
  -3.6735111901363290E-002   8.2954802602109162E-003   5.7039155844430527E-002
  -4.4515238295904334E-002   5.6592816735011459E-003   4.9698402395667071E-002
  -4.4524446142174448E-002   7.0980931868169827E-003   5.1233689117180521E-002
  -4.4533653988444555E-002   8.3548169345381389E-003   5.2717948530930883E-002
  -4.4542861834714682E-002   9.4294529166645946E-003   5.4151180636918192E-002
  -4.4552069680984796E-002   1.0322001133196358E-002   5.5533385435142406E-002
  -5.2358067870042241E-002   6.8828631096824536E-003   5.0041642010233603E-002
  -5.2459177457638215E-002   8.5361645223188485E-003   5.1282898227898867E-002
  -5.2560287045234202E-002   9.9982081426142188E-003   5.2391378270675457E-002
  -5.2661396632830190E-002   1.1268993970568519E-002   5.3367082138563386E-002
  -5.2762506220426178E-002   1.2348522006181773E-002   5.4210009831562676E-002
  -6.0267380735497658E-002   8.1064445458637596E-003   5.0603956537493860E-002
  -6.0542140931545099E-002   9.9742358578207048E-003   5.1542012224564580E-002
  -6.0816901127592547E-002   1.1641599350690278E-002   5.2265542869621040E-002
  -6.1091661323639974E-002   1.3108535024472448E-002   5.2774548472663246E-002
  -6.1366421519687436E-002   1.4375042879167230E-002   5.3069029033691206E-002
  -2.9311632881561682E-002   6.2689593872254715E-003   5.8727321059426942E-002
  -2.8930248999871275E-002   6.6564807836747772E-003   5.9616869709403525E-002
  -2.8548865118180878E-002   6.9456155283871088E-003   6.0581722128351306E-002
  -2.8167481236490481E-002   7.1363636213625809E-003   6.1621878316270300E-002
  -2.7786097354800084E-002   7.2287250626010269E-003   6.2737338273160498E-002
  -3.6735111901363290E-002   8.2954802602109162E-003   5.7039155844430527E-002
  -3.6236971596675938E-002   8.8293596913644398E-003   5.7442254965871943E-002
  -3.5738831291988585E-002   9.1927789287728143E-003   5.8003563164336094E-002
  -3.5240690987301225E-002   9.3857379724360899E-003   5.8723080439822911E-002
  -3.4742550682613865E-002   9.4082368223541990E-003   5.9600806792332491E-002
  -4.4552069680984796E-002   1.0322001133196358E-002   5.5533385435142406E-002
  -4.3854267645248954E-002   1.1002238599054092E-002   5.5377961486040496E-002
  -4.3156465609513139E-002   1.1439942329158518E-002   5.5463651922012795E-002
  -4.2458663573777304E-002   1.1635112323509599E-002   5.5790456743059283E-002
  -4.1760861538041476E-002   1.1587748582107316E-002   5.6358375949180070E-002
  -5.2762506220426178E-002   1.2348522006181773E-002   5.4210009831562676E-002
  -5.1782137145590351E-002   1.3175117506743784E-002   5.3423989269909149E-002
  -5.0801768070754552E-002   1.3687105729544223E-002   5.2961988401381409E-002
  -4.9821398995918718E-002   1.3884486674583092E-002   5.2824007225979346E-002
  -4.8841029921082919E-002   1.3767260341860488E-002   5.3010045743703105E-002
  -6.1366421519687436E-002   1.4375042879167230E-002   5.3069029033691206E-002
  -6.0020580097700109E-002   1.5347996414433407E-002   5.1580338317477943E-002
  -5.8674738675712809E-002   1.5934269129929922E-002   5.0498572602441935E-002
  -5.7328897253725496E-002   1.6133861025656629E-002   4.9823731888583182E-002
  -5.5983055831738175E-002   1.5946772101613590E-002   4.9555816175901699E-002
  -2.7786097354800084E-002   7.2287250626010269E-003   6.2737338273160498E-002
  -2.7008857133603265E-002   7.3145712214914491E-003   6.2754265994796721E-002
  -2.6231616912406462E-002   7.4857734674227128E-003   6.3235372702375087E-002
  -2.5454376691209649E-002   7.7423318003946515E-003   6.4180658395895568E-002
  -2.4677136470012833E-002   8.0842462204075427E-003   6.5590123075358275E-002
  -3.4742550682613865E-002   9.4082368223541990E-003   5.9600806792332491E-002
  -3.3558537938264930E-002   9.3723155266750846E-003   5.9567958518360636E-002
  -3.2374525193916003E-002   9.3900141335466272E-003   5.9884476304750842E-002
  -3.1190512449567082E-002   9.4613326429689604E-003   6.0550360151503162E-002
  -3.0006499705218140E-002   9.5862710549418639E-003   6.1565610058617604E-002
  -4.1760861538041476E-002   1.1587748582107316E-002   5.6358375949180070E-002
  -4.0284889196120471E-002   1.1430059831858696E-002   5.6244015495109982E-002
  -3.8808916854199481E-002   1.1294254799670625E-002   5.6364208175821898E-002
  -3.7332944512278469E-002   1.1180333485543158E-002   5.6718953991315900E-002
  -3.5856972170357493E-002   1.1088295889476213E-002   5.7308252941591933E-002
  -4.8841029921082919E-002   1.3767260341860488E-002   5.3010045743703105E-002
  -4.7187910907169887E-002   1.3487804137042319E-002   5.2782436925044716E-002
  -4.5534791893256855E-002   1.3198495465794609E-002   5.2674568315588297E-002
  -4.3881672879343823E-002   1.2899334328117301E-002   5.2686439915333859E-002
  -4.2228553865430798E-002   1.2590320724010534E-002   5.2818051724281431E-002
  -5.5983055831738175E-002   1.5946772101613590E-002   4.9555816175901699E-002
  -5.4267603071413165E-002   1.5545548442225943E-002   4.9183222808164839E-002
  -5.2552150311088161E-002   1.5102736131918554E-002   4.8815556724049906E-002
  -5.0836697550763150E-002   1.4618335170691572E-002   4.8452817923556935E-002
  -4.9121244790438154E-002   1.4092345558544911E-002   4.8095006406686014E-002
  -2.4677136470012833E-002   8.0842462204075427E-003   6.5590123075358275E-002
  -2.3996559464483539E-002   8.4181934663749569E-003   6.6439412346313592E-002
  -2.3315982458954256E-002   8.6508502772110196E-003   6.7274021707235926E-002
  -2.2635405453424962E-002   8.7822166529155088E-003   6.8093951158125304E-002
  -2.1954828447895675E-002   8.8122925934887020E-003   6.8899200698981755E-002
  -3.0006499705218140E-002   9.5862710549418639E-003   6.1565610058617604E-002
  -2.9291167182369265E-002   9.6973187929043081E-003   6.1851879684139882E-002
  -2.8575834659520384E-002   9.7269652802950413E-003   6.2222340254334291E-002
  -2.7860502136671510E-002   9.6752105171141189E-003   6.2676991769200996E-002
  -2.7145169613822632E-002   9.5420545033615412E-003   6.3215834228739637E-002
  -3.5856972170357493E-002   1.1088295889476213E-002   5.7308252941591933E-002
  -3.5008013275483883E-002   1.0976444119433632E-002   5.7051392106240967E-002
  -3.4159054380610294E-002   1.0803080283379118E-002   5.6977593070267285E-002
  -3.3310095485736720E-002   1.0568204381312646E-002   5.7086855833670819E-002
  -3.2461136590863124E-002   1.0271816413234269E-002   5.7379180396451679E-002
  -4.2228553865430798E-002   1.2590320724010534E-002   5.2818051724281431E-002
  -4.1147097743827403E-002   1.2255569445962941E-002   5.2037949612616964E-002
  -4.0065641622223987E-002   1.1879195286463196E-002   5.1539780155034860E-002
  -3.8984185500620584E-002   1.1461198245511214E-002   5.1323543351535147E-002
  -3.7902729379017175E-002   1.1001578323107136E-002   5.1389239202117812E-002
  -4.9121244790438154E-002   1.4092345558544911E-002   4.8095006406686014E-002
  -4.7708420587399804E-002   1.3534694772492320E-002   4.6811552203267770E-002
  -4.6295596384361468E-002   1.2955310289547183E-002   4.5908901508637120E-002
  -4.4882772181323131E-002   1.2354192109709760E-002   4.5387054322793850E-002
  -4.3469947978284781E-002   1.1731340232979837E-002   4.5246010645738133E-002
  -2.1954828447895675E-002   8.8122925934887020E-003   6.8899200698981755E-002
  -2.1009589432798521E-002   8.7952689995474953E-003   6.9243069035322791E-002
  -2.0064350417701368E-002   8.7853367717091319E-003   6.9996076247850397E-002
  -1.9119111402604208E-002   8.7824959099738788E-003   7.1158222336564672E-002
  -1.8173872387507055E-002   8.7867464143413510E-003   7.2729507301465490E-002
  -2.7145169613822632E-002   9.5420545033615412E-003   6.3215834228739637E-002
  -2.5840878128195223E-002   9.3657526156525200E-003   6.3385090782691597E-002
  -2.4536586642567804E-002   9.1845602306023372E-003   6.3863313401517449E-002
  -2.3232295156940353E-002   8.9984773482112597E-003   6.4650502085217304E-002
  -2.1928003671312951E-002   8.8075039684789580E-003   6.5746656833790829E-002
  -3.2461136590863124E-002   1.0271816413234269E-002   5.7379180396451679E-002
  -3.0897965446018184E-002   9.9362362317574754E-003   5.7361843304570684E-002
  -2.9334794301173236E-002   9.5837836894955911E-003   5.7553299466250825E-002
  -2.7771623156328275E-002   9.2144587864485834E-003   5.7953548881492137E-002
  -2.6208452011483370E-002   8.8282615226165928E-003   5.8562591550294654E-002
  -3.7902729379017175E-002   1.1001578323107136E-002   5.1389239202117812E-002
  -3.6180851386267469E-002   1.0506719847862354E-002   5.1173326600959870E-002
  -3.4458973393517729E-002   9.9830071483887096E-003   5.1066034442050295E-002
  -3.2737095400767982E-002   9.4304402246859625E-003   5.1067362725389177E-002
  -3.1015217408018277E-002   8.8490190767542415E-003   5.1177311450976426E-002
  -4.3469947978284781E-002   1.1731340232979837E-002   4.5246010645738133E-002
  -4.1689535948942993E-002   1.1077203463967483E-002   4.4819540671859281E-002
  -3.9909123919601226E-002   1.0382230607282009E-002   4.4401518328916090E-002
  -3.8128711890259459E-002   9.6464216629232775E-003   4.3991943616908516E-002
  -3.6348299860917685E-002   8.8697766308918902E-003   4.3590816535836796E-002
  -1.8173872387507055E-002   8.7867464143413510E-003   7.2729507301465490E-002
  -1.7422989903237554E-002   8.9882529697447033E-003   7.3676639190571380E-002
  -1.6672107418968060E-002   9.5771802611171880E-003   7.5334062434648436E-002
  -1.5921224934698563E-002   1.0553528288458926E-002   7.7701777033696781E-002
  -1.5170342450429058E-002   1.1917297051769693E-002   8.0779782987716264E-002
  -2.1928003671312951E-002   8.8075039684789580E-003   6.5746656833790829E-002
  -2.0559365513739828E-002   8.7482929998586312E-003   6.6402854012631712E-002
  -1.9190727356166660E-002   8.9574973508031591E-003   6.7584271183108613E-002
  -1.7822089198593526E-002   9.4351170213128506E-003   6.9290908345221669E-002
  -1.6453451041020369E-002   1.0181152011387529E-002   7.1522765498970631E-002
  -2.6208452011483370E-002   8.8282615226165928E-003   5.8562591550294654E-002
  -2.4407129543941690E-002   8.5083330299725590E-003   5.8808848602466254E-002
  -2.2605807076400024E-002   8.3378144404891927E-003   5.9395254282938896E-002
  -2.0804484608858354E-002   8.3167057541669431E-003   6.0321808591712489E-002
  -1.9003162141316678E-002   8.4450069710053088E-003   6.1588511528786999E-002
  -3.1015217408018277E-002   8.8490190767542415E-003   5.1177311450976426E-002
  -2.8966281993843195E-002   8.2683730600863758E-003   5.0894622960074881E-002
  -2.6917346579668145E-002   7.7181315301751950E-003   5.0767011734139167E-002
  -2.4868411165493064E-002   7.1982944870208959E-003   5.0794477773169276E-002
  -2.2819475751318007E-002   6.7088619306231168E-003   5.0977021077165147E-002
  -3.6348299860917685E-002   8.8697766308918902E-003   4.3590816535836796E-002
  -3.4236822863444330E-002   8.0284130902003870E-003   4.2660177085457718E-002
  -3.2125345865970996E-002   7.0984486198611557E-003   4.1699543536709460E-002
  -3.0013868868497665E-002   6.0798832198748938E-003   4.0708915889591926E-002
  -2.7902391871024307E-002   4.9727168902410357E-003   3.9688294144105019E-002
  -1.5170342450429058E-002   1.1917297051769693E-002   8.0779782987716264E-002
  -1.4582590609906326E-002   1.4062416180365300E-002   8.4868326509884850E-002
  -1.3994838769383591E-002   1.7382815303562060E-002   9.0865329970761854E-002
  -1.3407086928860839E-002   2.1878494421359876E-002   9.8770793370347054E-002
  -1.2819335088338130E-002   2.7549453533758816E-002  0.10858471670864067     
  -1.6453451041020369E-002   1.0181152011387529E-002   7.1522765498970631E-002
  -1.4486536942788054E-002   1.1258121082142553E-002   7.4599775248634176E-002
  -1.2519622844555735E-002   1.2728542994694211E-002   7.8526649575008656E-002
  -1.0552708746323410E-002   1.4592417749041974E-002   8.3303388478093682E-002
  -8.5857946480910746E-003   1.6849745345186351E-002   8.8929991957889754E-002
  -1.9003162141316678E-002   8.4450069710053088E-003   6.1588511528786999E-002
  -1.6715681147372308E-002   8.4538259839199714E-003   6.2872160353140680E-002
  -1.4428200153427915E-002   8.0742706858261404E-003   6.3947078392207674E-002
  -1.2140719159483527E-002   7.3063410767241002E-003   6.4813265645987841E-002
  -9.8532381655392041E-003   6.1500371566136636E-003   6.5470722114481572E-002
  -2.2819475751318007E-002   6.7088619306231168E-003   5.0977021077165147E-002
  -2.1270023223659101E-002   5.6495308856973070E-003   4.9685481823404307E-002
  -1.9720570696000195E-002   3.4199983769582359E-003   4.7126616422359269E-002
  -1.8171118168341299E-002   2.0264404406434428E-005   4.3300424874030061E-002
  -1.6621665640682383E-002  -4.5496710319589684E-003   3.8206907178416627E-002
  -2.7902391871024307E-002   4.9727168902410357E-003   3.9688294144105019E-002
  -2.8149563171648420E-002   2.8452357874745871E-003   3.5039739659425029E-002
  -2.8396734472272506E-002  -1.2342739319097240E-003   2.8065263665463247E-002
  -2.8643905772896577E-002  -7.2658122679117171E-003   1.8764866162219590E-002
  -2.8891077073520732E-002  -1.5249379220531489E-002   7.1385471496943076E-003
  -5.7129890219954127E-002   0.0000000000000000        3.4741846680260285E-002
  -5.7914262848840006E-002   2.0705655726899093E-003   3.8391444874125977E-002
  -5.8698635477725893E-002   4.1118281878971732E-003   4.2251662581620136E-002
  -5.9483008106611779E-002   6.1237878456217969E-003   4.6322499802742764E-002
  -6.0267380735497658E-002   8.1064445458637596E-003   5.0603956537493860E-002
  -6.5794449591869891E-002   0.0000000000000000        3.7249886555824875E-002
  -6.6596816416085391E-002   2.9027350655117688E-003   4.0869038315229589E-002
  -6.7399183240300878E-002   5.7492148626511943E-003   4.4241582170346613E-002
  -6.8201550064516378E-002   8.5394393914182791E-003   4.7367518121175928E-002
  -6.9003916888731878E-002   1.1273408651813024E-002   5.0246846167717560E-002
  -7.4218062576361044E-002   0.0000000000000000        4.0603572079656161E-002
  -7.5495651013822329E-002   3.7349045583336292E-003   4.4165325093710205E-002
  -7.6773239451283615E-002   7.3866015374052197E-003   4.7023242785560401E-002
  -7.8050827888744873E-002   1.0955090937214773E-002   4.9177325155206723E-002
  -7.9328416326206186E-002   1.4440372757762283E-002   5.0627572202649178E-002
  -8.2400729173427598E-002   0.0000000000000000        4.4802903251754171E-002
  -8.4610766642050833E-002   4.5670740511554878E-003   4.8280305209567859E-002
  -8.6820804110674055E-002   9.0239882121592452E-003   5.0596644427261514E-002
  -8.9030841579297276E-002   1.3370742483011264E-002   5.1751920904835130E-002
  -9.1240879047920484E-002   1.7607336863711541E-002   5.1746134642288735E-002
  -9.0342449383069554E-002   0.0000000000000000        4.9847880072118878E-002
  -9.3942163300770890E-002   5.3992435439773490E-003   5.3213978662802502E-002
  -9.7541877218472225E-002   1.0661374886913265E-002   5.4961787095449924E-002
 -0.10114159113617356        1.5786394028807754E-002   5.5091305370061149E-002
 -0.10474130505387490        2.0774300969660799E-002   5.3602533486636184E-002
  -6.0267380735497658E-002   8.1064445458637596E-003   5.0603956537493860E-002
  -6.0542140931545099E-002   9.9742358578207048E-003   5.1542012224564580E-002
  -6.0816901127592547E-002   1.1641599350690278E-002   5.2265542869621040E-002
  -6.1091661323639974E-002   1.3108535024472448E-002   5.2774548472663246E-002
  -6.1366421519687436E-002   1.4375042879167230E-002   5.3069029033691206E-002
  -6.9003916888731878E-002   1.1273408651813024E-002   5.0246846167717560E-002
  -6.9255890703825457E-002   1.3708936782547476E-002   4.9463722588498509E-002
  -6.9507864518919049E-002   1.5603837922333707E-002   4.8940696813201429E-002
  -6.9759838334012655E-002   1.6958112071171687E-002   4.8677768841826334E-002
  -7.0011812149106234E-002   1.7771759229061469E-002   4.8674938674373169E-002
  -7.9328416326206186E-002   1.4440372757762283E-002   5.0627572202649178E-002
  -7.9082980914409684E-002   1.7443637707274241E-002   4.7783070185279525E-002
  -7.8837545502613168E-002   1.9566076493977121E-002   4.5673288817768075E-002
  -7.8592110090816680E-002   2.0807689117870936E-002   4.4298228100114793E-002
  -7.8346674679020178E-002   2.1168475578955688E-002   4.3657888032319694E-002
  -9.1240879047920484E-002   1.7607336863711541E-002   5.1746134642288735E-002
  -9.0023411563297712E-002   2.1178338632001005E-002   4.6500055014907636E-002
  -8.8805944078674939E-002   2.3528315065620552E-002   4.2463318883320937E-002
  -8.7588476594052153E-002   2.4657266164570198E-002   3.9635926247528673E-002
  -8.6371009109429381E-002   2.4565191928849907E-002   3.8017877107530788E-002
 -0.10474130505387490        2.0774300969660799E-002   5.3602533486636184E-002
 -0.10207718265048960        2.4913039556727766E-002   4.5614677077382815E-002
  -9.9413060247104321E-002   2.7490553637263968E-002   3.9310787009860092E-002
  -9.6748937843719032E-002   2.8506843211269423E-002   3.4690863284067945E-002
  -9.4084815440333744E-002   2.7961908278744153E-002   3.1754905900006437E-002
  -6.1366421519687436E-002   1.4375042879167230E-002   5.3069029033691206E-002
  -6.0020580097700109E-002   1.5347996414433407E-002   5.1580338317477943E-002
  -5.8674738675712809E-002   1.5934269129929922E-002   5.0498572602441935E-002
  -5.7328897253725496E-002   1.6133861025656629E-002   4.9823731888583182E-002
  -5.5983055831738175E-002   1.5946772101613590E-002   4.9555816175901699E-002
  -7.0011812149106234E-002   1.7771759229061469E-002   4.8674938674373169E-002
  -6.8298838651427912E-002   1.8206028154540449E-002   4.7154577985356910E-002
  -6.6585865153749618E-002   1.8422167606146102E-002   4.5961556446545426E-002
  -6.4872891656071296E-002   1.8420177583878494E-002   4.5095874057938613E-002
  -6.3159918158392989E-002   1.8200058087737531E-002   4.4557530819536548E-002
  -7.8346674679020178E-002   2.1168475578955688E-002   4.3657888032319694E-002
  -7.6346154956623433E-002   2.1064059894647449E-002   4.2274408716396893E-002
  -7.4345635234226673E-002   2.0910066082362327E-002   4.1138682699706317E-002
  -7.2345115511829927E-002   2.0706494142100303E-002   4.0250709982247904E-002
  -7.0344595789433167E-002   2.0453344073861422E-002   3.9610490564021675E-002
  -8.6371009109429381E-002   2.4565191928849907E-002   3.8017877107530788E-002
  -8.4162529013286677E-002   2.3922091634754492E-002   3.6939830510597856E-002
  -8.1954048917143973E-002   2.3397964558578552E-002   3.6029951361924620E-002
  -7.9745568821001284E-002   2.2992810700322181E-002   3.5288239661511005E-002
  -7.7537088724858594E-002   2.2706630059985366E-002   3.4714695409357121E-002
  -9.4084815440333744E-002   2.7961908278744153E-002   3.1754905900006437E-002
  -9.1747960821417632E-002   2.6780123374861488E-002   3.1150843367959848E-002
  -8.9411106202501534E-002   2.5885863034794732E-002   3.0635362433200353E-002
  -8.7074251583585449E-002   2.5279127258544025E-002   3.0208463095728014E-002
  -8.4737396964669351E-002   2.4959916046109226E-002   2.9870145355542832E-002
  -5.5983055831738175E-002   1.5946772101613590E-002   4.9555816175901699E-002
  -5.4267603071413165E-002   1.5545548442225943E-002   4.9183222808164839E-002
  -5.2552150311088161E-002   1.5102736131918554E-002   4.8815556724049906E-002
  -5.0836697550763150E-002   1.4618335170691572E-002   4.8452817923556935E-002
  -4.9121244790438154E-002   1.4092345558544911E-002   4.8095006406686014E-002
  -6.3159918158392989E-002   1.8200058087737531E-002   4.4557530819536548E-002
  -6.1396096054736046E-002   1.7833775819844494E-002   4.4162671846849119E-002
  -5.9632273951079069E-002   1.7393297482320491E-002   4.3859624277203677E-002
  -5.7868451847422099E-002   1.6878623075165633E-002   4.3648388110600178E-002
  -5.6104629743765115E-002   1.6289752598379892E-002   4.3528963347038721E-002
  -7.0344595789433167E-002   2.0453344073861422E-002   3.9610490564021675E-002
  -6.8445520223024206E-002   2.0122003197463018E-002   3.9160758567672434E-002
  -6.6546444656615217E-002   1.9683858832722424E-002   3.8889722093785155E-002
  -6.4647369090206283E-002   1.9138910979639722E-002   3.8797381142359887E-002
  -6.2748293523797294E-002   1.8487159638214803E-002   3.8883735713396615E-002
  -7.7537088724858594E-002   2.2706630059985366E-002   3.4714695409357121E-002
  -7.5415875576277616E-002   2.2410230575081624E-002   3.4177482970634762E-002
  -7.3294662427696666E-002   2.1974420183124347E-002   3.3905850173794494E-002
  -7.1173449279115689E-002   2.1399198884113711E-002   3.3899797018836136E-002
  -6.9052236130534739E-002   2.0684566678049777E-002   3.4159323505759842E-002
  -8.4737396964669351E-002   2.4959916046109226E-002   2.9870145355542832E-002
  -8.2307162114496388E-002   2.4698457952700120E-002   2.9212845055736111E-002
  -7.9876927264323355E-002   2.4264981533526311E-002   2.8908008517231437E-002
  -7.7446692414150378E-002   2.3659486788587872E-002   2.8955635740028789E-002
  -7.5016457563977373E-002   2.2881973717884668E-002   2.9355726724128200E-002
  -4.9121244790438154E-002   1.4092345558544911E-002   4.8095006406686014E-002
  -4.7708420587399804E-002   1.3534694772492320E-002   4.6811552203267770E-002
  -4.6295596384361468E-002   1.2955310289547183E-002   4.5908901508637120E-002
  -4.4882772181323131E-002   1.2354192109709760E-002   4.5387054322793850E-002
  -4.3469947978284781E-002   1.1731340232979837E-002   4.5246010645738133E-002
  -5.6104629743765115E-002   1.6289752598379892E-002   4.3528963347038721E-002
  -5.4355382113407243E-002   1.5665310210857222E-002   4.2531509511079743E-002
  -5.2606134483049294E-002   1.5043920071491787E-002   4.1826099020972375E-002
  -5.0856886852691352E-002   1.4425582180283430E-002   4.1412731876716666E-002
  -4.9107639222333452E-002   1.3810296537232314E-002   4.1291408078312608E-002
  -6.2748293523797294E-002   1.8487159638214803E-002   3.8883735713396615E-002
  -6.0751382629055647E-002   1.7795925649222118E-002   3.8197068189946434E-002
  -5.8754471734314057E-002   1.7132529853436312E-002   3.7713683849412094E-002
  -5.6757560839572417E-002   1.6496972250857157E-002   3.7433582691793463E-002
  -5.4760649944830819E-002   1.5889252841484625E-002   3.7356764717090707E-002
  -6.9052236130534739E-002   2.0684566678049777E-002   3.4159323505759842E-002
  -6.6896422134345254E-002   1.9926541087587072E-002   3.3808228239868066E-002
  -6.4740608138155742E-002   1.9221139635380836E-002   3.3571655993956104E-002
  -6.2584794141966230E-002   1.8568362321430769E-002   3.3449606768024179E-002
  -6.0428980145776738E-002   1.7968209145737046E-002   3.3442080562072096E-002
  -7.5016457563977373E-002   2.2881973717884668E-002   2.9355726724128200E-002
  -7.2790500629275834E-002   2.2057156525952012E-002   2.9364989660844304E-002
  -7.0564543694574336E-002   2.1309749417325448E-002   2.9400015454604453E-002
  -6.8338586759872810E-002   2.0639752392004468E-002   2.9460804105408835E-002
  -6.6112629825171298E-002   2.0047165449989357E-002   2.9547355613257109E-002
  -4.3469947978284781E-002   1.1731340232979837E-002   4.5246010645738133E-002
  -4.1689535948942993E-002   1.1077203463967483E-002   4.4819540671859281E-002
  -3.9909123919601226E-002   1.0382230607282009E-002   4.4401518328916090E-002
  -3.8128711890259459E-002   9.6464216629232775E-003   4.3991943616908516E-002
  -3.6348299860917685E-002   8.8697766308918902E-003   4.3590816535836796E-002
  -4.9107639222333452E-002   1.3810296537232314E-002   4.1291408078312608E-002
  -4.7278304302331049E-002   1.3172354826256297E-002   4.0845493649870265E-002
  -4.5448969382328661E-002   1.2486048731273708E-002   4.0488977371813423E-002
  -4.3619634462326237E-002   1.1751378252284027E-002   4.0221859244142212E-002
  -4.1790299542323869E-002   1.0968343389287816E-002   4.0044139266856543E-002
  -5.4760649944830819E-002   1.5889252841484625E-002   3.7356764717090707E-002
  -5.2801441614717809E-002   1.5267506188545346E-002   3.6883877537750909E-002
  -5.0842233284604910E-002   1.4589866855265400E-002   3.6581339028246583E-002
  -4.8883024954491948E-002   1.3856334841644830E-002   3.6449149188577820E-002
  -4.6923816624379000E-002   1.3066910147683714E-002   3.6487308018744460E-002
  -6.0428980145776738E-002   1.7968209145737046E-002   3.3442080562072096E-002
  -5.8258947886103349E-002   1.7362657550834278E-002   3.2934692335501302E-002
  -5.6088915626429939E-002   1.6693684979257040E-002   3.2678603298215612E-002
  -5.3918883366756550E-002   1.5961291431005550E-002   3.2673813450215666E-002
  -5.1748851107083146E-002   1.5165476906079625E-002   3.2920322791500894E-002
  -6.6112629825171298E-002   2.0047165449989357E-002   2.9547355613257109E-002
  -6.3650823116487537E-002   1.9457808913123237E-002   2.8997938043121285E-002
  -6.1189016407803817E-002   1.8797503103248805E-002   2.8780770181720733E-002
  -5.8727209699120091E-002   1.8066248020366275E-002   2.8895852029055438E-002
  -5.6265402990436336E-002   1.7264043664475537E-002   2.9343183585125554E-002
  -3.6348299860917685E-002   8.8697766308918902E-003   4.3590816535836796E-002
  -3.4236822863444330E-002   8.0284130902003870E-003   4.2660177085457718E-002
  -3.2125345865970996E-002   7.0984486198611557E-003   4.1699543536709460E-002
  -3.0013868868497665E-002   6.0798832198748938E-003   4.0708915889591926E-002
  -2.7902391871024307E-002   4.9727168902410357E-003   3.9688294144105019E-002
  -4.1790299542323869E-002   1.0968343389287816E-002   4.0044139266856543E-002
  -3.9694124395583508E-002   1.0126853493979682E-002   3.9358101358332537E-002
  -3.7597949248843139E-002   9.2168179180543153E-003   3.8671453846711903E-002
  -3.5501774102102757E-002   8.2382366615119731E-003   3.7984196731994567E-002
  -3.3405598955362409E-002   7.1911097243523847E-003   3.7296330014180590E-002
  -4.6923816624379000E-002   1.3066910147683714E-002   3.6487308018744460E-002
  -4.4813558833099024E-002   1.2225293897758990E-002   3.6065926901105966E-002
  -4.2703301041819061E-002   1.1335187216247412E-002   3.5673320675643279E-002
  -4.0593043250539119E-002   1.0396590103149051E-002   3.5309489342356490E-002
  -3.8482785459259122E-002   9.4095025584637892E-003   3.4974432901245828E-002
  -5.1748851107083146E-002   1.5165476906079625E-002   3.2920322791500894E-002
  -4.9595126175990996E-002   1.4323734301538375E-002   3.2783653713778067E-002
  -4.7441401244898797E-002   1.3453556514440513E-002   3.2705144023503455E-002
  -4.5287676313806605E-002   1.2554943544785962E-002   3.2684793720677598E-002
  -4.3133951382714385E-002   1.1627895392575222E-002   3.2722602805300052E-002
  -5.6265402990436336E-002   1.7264043664475537E-002   2.9343183585125554E-002
  -5.4038826424259306E-002   1.6422174705317621E-002   2.9511281796348432E-002
  -5.1812249858082346E-002   1.5571925812633641E-002   2.9766923890292563E-002
  -4.9585673291905351E-002   1.4713296986423284E-002   3.0110109866957807E-002
  -4.7359096725728356E-002   1.3846288226686543E-002   3.0540839726344027E-002
  -2.7902391871024307E-002   4.9727168902410357E-003   3.9688294144105019E-002
  -2.8149563171648420E-002   2.8452357874745871E-003   3.5039739659425029E-002
  -2.8396734472272506E-002  -1.2342739319097240E-003   2.8065263665463247E-002
  -2.8643905772896577E-002  -7.2658122679117171E-003   1.8764866162219590E-002
  -2.8891077073520732E-002  -1.5249379220531489E-002   7.1385471496943076E-003
  -3.3405598955362409E-002   7.1911097243523847E-003   3.7296330014180590E-002
  -3.5388701376569257E-002   5.5698780731191222E-003   3.2147940316566898E-002
  -3.7371803797776063E-002   2.8689826743555219E-003   2.5853609887069501E-002
  -3.9354906218982848E-002  -9.1157647193835026E-004   1.8413338725688469E-002
  -4.1338008640189716E-002  -5.7717993657624422E-003   9.8271268324237049E-003
  -3.8482785459259122E-002   9.4095025584637892E-003   3.4974432901245828E-002
  -4.1021838223650596E-002   8.2945203587637406E-003   3.0198572859785916E-002
  -4.3560890988042042E-002   6.9722392806208788E-003   2.5456752863840415E-002
  -4.6099943752433530E-002   5.4426593240351831E-003   2.0748972913409464E-002
  -4.8638996516824948E-002   3.7057804890066048E-003   1.6075233008492618E-002
  -4.3133951382714385E-002   1.1627895392575222E-002   3.2722602805300052E-002
  -4.5048973712892439E-002   1.1019162644408262E-002   2.9191637289081630E-002
  -4.6963996043070444E-002   1.1075495886886125E-002   2.6874692595775698E-002
  -4.8879018373248422E-002   1.1796895120008578E-002   2.5771768725382390E-002
  -5.0794040703426510E-002   1.3183360343775763E-002   2.5882865677901240E-002
  -4.7359096725728356E-002   1.3846288226686543E-002   3.0540839726344027E-002
  -4.7470107844294840E-002   1.3743804930052894E-002   2.9127133604454458E-002
  -4.7581118962861324E-002   1.5178752493151287E-002   3.0107429082875614E-002
  -4.7692130081427808E-002   1.8151130915981951E-002   3.3481726161607023E-002
  -4.7803141199994348E-002   2.2660940198544699E-002   3.9250024840649100E-002
  -9.0342449383069554E-002   0.0000000000000000        4.9847880072118878E-002
  -9.3942163300770890E-002   5.3992435439773490E-003   5.3213978662802502E-002
  -9.7541877218472225E-002   1.0661374886913265E-002   5.4961787095449924E-002
 -0.10114159113617356        1.5786394028807754E-002   5.5091305370061149E-002
 -0.10474130505387490        2.0774300969660799E-002   5.3602533486636184E-002
 -0.10327892719903059        0.0000000000000000        5.8671676801543809E-002
 -0.10681568341197106        1.0881326503154456E-002   5.2121538243243656E-002
 -0.11035243962491151        1.9165718383914239E-002   4.7315605252501475E-002
 -0.11388919583785195        2.4853175642279332E-002   4.4253877829317265E-002
 -0.11742595205079243        2.7943698278249766E-002   4.2936355973690998E-002
 -0.12644586661505444        0.0000000000000000        7.4207467700822469E-002
 -0.12655716939763986        1.6363409462331561E-002   5.5281269572185307E-002
 -0.12666847218022526        2.7670061880915201E-002   4.1461772736700285E-002
 -0.12677977496281068        3.3919957255750921E-002   3.2748977194367361E-002
 -0.12689107774539604        3.5113095586838720E-002   2.9142882945186587E-002
 -0.15984326763114109        0.0000000000000000        9.6455252769954855E-002
 -0.15316662125777727        2.1845492421508669E-002   6.2693172649627441E-002
 -0.14648997488441348        3.6174405377916177E-002   3.7400289548046327E-002
 -0.13981332851104972        4.2986738869222538E-002   2.0576603465211483E-002
 -0.13313668213768587        4.2282492895427702E-002   1.2222114401122921E-002
 -0.20347113024729052        0.0000000000000000       0.12541503200894097     
 -0.18664403899238335        2.7327575380685771E-002   7.4357247475570071E-002
 -0.16981694773747619        4.4678748874917143E-002   3.5131155686539600E-002
 -0.15298985648256899        5.2053520482694085E-002   7.7367566418495848E-003
 -0.13616276522766182        4.9451890204016656E-002  -7.8259496585000102E-003
 -0.10474130505387490        2.0774300969660799E-002   5.3602533486636184E-002
 -0.10207718265048960        2.4913039556727766E-002   4.5614677077382815E-002
  -9.9413060247104321E-002   2.7490553637263968E-002   3.9310787009860092E-002
  -9.6748937843719032E-002   2.8506843211269423E-002   3.4690863284067945E-002
  -9.4084815440333744E-002   2.7961908278744153E-002   3.1754905900006437E-002
 -0.11742595205079243        2.7943698278249766E-002   4.2936355973690998E-002
 -0.11346523677196083        2.9413296825188312E-002   3.6677578369367220E-002
 -0.10950452149312929        3.0237981816457798E-002   3.1328020174205384E-002
 -0.10554380621429772        3.0417753252058193E-002   2.6887681388205451E-002
 -0.10158309093546614        2.9952611131989514E-002   2.3356562011367401E-002
 -0.12689107774539604        3.5113095586838720E-002   2.9142882945186587E-002
 -0.12240851652368694        3.3913554093648872E-002   2.5529495096654062E-002
 -0.11792595530197779        3.2985409995651617E-002   2.2050579724714751E-002
 -0.11344339408026866        3.2328663292846921E-002   1.8706136829368645E-002
 -0.10896083285855954        3.1943313985234853E-002   1.5496166410615799E-002
 -0.13313668213768587        4.2282492895427702E-002   1.2222114401122921E-002
 -0.12890702190566791        3.8413811362109439E-002   1.2170427259243319E-002
 -0.12467736167364984        3.5732838174845419E-002   1.1478465661388255E-002
 -0.12044770144163186        3.4239573333635670E-002   1.0146229607557688E-002
 -0.11621804120961383        3.3934016838480172E-002   8.1737190977516673E-003
 -0.13616276522766182        4.9451890204016656E-002  -7.8259496585000102E-003
 -0.13296075291790366        4.2914068630569999E-002  -3.3996251428650565E-003
 -0.12975874060814546        3.8480266354039262E-002  -3.8832201577419269E-004
 -0.12655672829838732        3.6150483374424419E-002   1.2079597227724107E-003
 -0.12335471598862913        3.5924719691725560E-002   1.3892200727748660E-003
  -9.4084815440333744E-002   2.7961908278744153E-002   3.1754905900006437E-002
  -9.1747960821417632E-002   2.6780123374861488E-002   3.1150843367959848E-002
  -8.9411106202501534E-002   2.5885863034794732E-002   3.0635362433200353E-002
  -8.7074251583585449E-002   2.5279127258544025E-002   3.0208463095728014E-002
  -8.4737396964669351E-002   2.4959916046109226E-002   2.9870145355542832E-002
 -0.10158309093546614        2.9952611131989514E-002   2.3356562011367401E-002
  -9.9143852985576292E-002   2.9193510576364632E-002   2.3059095409232861E-002
  -9.6704615035686448E-002   2.8491406705296603E-002   2.2877813871758607E-002
  -9.4265377085796576E-002   2.7846299518785273E-002   2.2812717398944828E-002
  -9.1826139135906745E-002   2.7258189016830706E-002   2.2863805990791408E-002
 -0.10896083285855954        3.1943313985234853E-002   1.5496166410615799E-002
 -0.10639160811032267        3.1606897777867821E-002   1.5274767859134090E-002
 -0.10382238336208578        3.1096950375798404E-002   1.5197157839685976E-002
 -0.10125315861384890        3.0413471779026559E-002   1.5263336352271548E-002
  -9.8683933865612000E-002   2.9556461987552171E-002   1.5473303396890847E-002
 -0.11621804120961383        3.3934016838480172E-002   8.1737190977516673E-003
 -0.11349122619565671        3.4020284979370999E-002   7.7978607176636110E-003
 -0.11076441118169957        3.3702494046300185E-002   7.5933943369824002E-003
 -0.10803759616774239        3.2980644039267704E-002   7.5603199557081370E-003
 -0.10531078115378525        3.1854734958273588E-002   7.6986375738407244E-003
 -0.12335471598862913        3.5924719691725560E-002   1.3892200727748660E-003
 -0.12044270724157846        3.6433672180874163E-002   6.2837398482128159E-004
 -0.11753069849452777        3.6308037716802091E-002   6.6523363647749689E-005
 -0.11461868974747712        3.5547816299509052E-002  -2.9633179074549723E-004
 -0.11170668100042641        3.4153007928995061E-002  -4.6019147835874019E-004
  -8.4737396964669351E-002   2.4959916046109226E-002   2.9870145355542832E-002
  -8.2307162114496388E-002   2.4698457952700120E-002   2.9212845055736111E-002
  -7.9876927264323355E-002   2.4264981533526311E-002   2.8908008517231437E-002
  -7.7446692414150378E-002   2.3659486788587872E-002   2.8955635740028789E-002
  -7.5016457563977373E-002   2.2881973717884668E-002   2.9355726724128200E-002
  -9.1826139135906745E-002   2.7258189016830706E-002   2.2863805990791408E-002
  -8.9089204998343191E-002   2.6668841667491804E-002   2.2275944306060259E-002
  -8.6352270860779679E-002   2.6020023938827502E-002   2.1949017434808149E-002
  -8.3615336723216110E-002   2.5311735830837710E-002   2.1883025377035015E-002
  -8.0878402585652612E-002   2.4543977343522400E-002   2.2077968132741002E-002
  -9.8683933865612000E-002   2.9556461987552171E-002   1.5473303396890847E-002
  -9.5731829388480918E-002   2.8639225382283542E-002   1.5067428273674337E-002
  -9.2779724911349837E-002   2.7775066344128609E-002   1.4830959016113802E-002
  -8.9827620434218769E-002   2.6963984873087543E-002   1.4763895624209631E-002
  -8.6875515957087618E-002   2.6205980969160200E-002   1.4866238097961275E-002
 -0.10531078115378525        3.1854734958273588E-002   7.6986375738407244E-003
 -0.10223503528490961        3.0609609097075226E-002   7.5872969585780914E-003
  -9.9159289416033955E-002   2.9530108749429882E-002   7.5538332611488155E-003
  -9.6083543547158257E-002   2.8616233915337269E-002   7.5982464815522099E-003
  -9.3007797678282600E-002   2.7867984594797800E-002   7.7205366197889962E-003
 -0.11170668100042641        3.4153007928995061E-002  -4.6019147835874019E-004
 -0.10859882268762916        3.2579992811866992E-002  -1.6444963922807032E-004
 -0.10549096437483194        3.1285151154730961E-002   1.1764016991243353E-004
 -0.10238310606203470        3.0268482957587245E-002   3.8607794906350343E-004
  -9.9275247749237461E-002   2.9529988220435677E-002   6.4086369822430322E-004
  -7.5016457563977373E-002   2.2881973717884668E-002   2.9355726724128200E-002
  -7.2790500629275834E-002   2.2057156525952012E-002   2.9364989660844304E-002
  -7.0564543694574336E-002   2.1309749417325448E-002   2.9400015454604453E-002
  -6.8338586759872810E-002   2.0639752392004468E-002   2.9460804105408835E-002
  -6.6112629825171298E-002   2.0047165449989357E-002   2.9547355613257109E-002
  -8.0878402585652612E-002   2.4543977343522400E-002   2.2077968132741002E-002
  -7.8596318245377925E-002   2.3759234942699395E-002   2.2033883586034239E-002
  -7.6314233905103251E-002   2.2999995094186577E-002   2.2076290993429594E-002
  -7.4032149564828620E-002   2.2266257797983809E-002   2.2205190354927098E-002
  -7.1750065224553974E-002   2.1558023054090991E-002   2.2420581670526851E-002
  -8.6875515957087618E-002   2.6205980969160200E-002   1.4866238097961275E-002
  -8.4476575114181759E-002   2.5461313359446756E-002   1.4716898536835811E-002
  -8.2077634271275915E-002   2.4690240771047815E-002   1.4714780026870686E-002
  -7.9678693428370057E-002   2.3892763203963011E-002   1.4859882568065757E-002
  -7.7279752585464212E-002   2.3068880658192653E-002   1.5152206160421192E-002
  -9.3007797678282600E-002   2.7867984594797800E-002   7.7205366197889962E-003
  -9.0431271235687477E-002   2.7163391776193962E-002   7.4140345132491601E-003
  -8.7854744793092299E-002   2.6380486447908941E-002   7.3154825549276671E-003
  -8.5278218350497134E-002   2.5519268609942171E-002   7.4248807448245926E-003
  -8.2701691907901970E-002   2.4579738262294301E-002   7.7422290829396827E-003
  -9.9275247749237461E-002   2.9529988220435677E-002   6.4086369822430322E-004
  -9.6460406609894855E-002   2.8865470192941500E-002   1.2529151527429505E-004
  -9.3645565470552361E-002   2.8070732124770278E-002  -1.2160142239921179E-004
  -9.0830724331209839E-002   2.7145774015921689E-002  -9.9815114796470567E-005
  -8.8015883191867261E-002   2.6090595866395838E-002   1.9065043808297322E-004
  -6.6112629825171298E-002   2.0047165449989357E-002   2.9547355613257109E-002
  -6.3650823116487537E-002   1.9457808913123237E-002   2.8997938043121285E-002
  -6.1189016407803817E-002   1.8797503103248805E-002   2.8780770181720733E-002
  -5.8727209699120091E-002   1.8066248020366275E-002   2.8895852029055438E-002
  -5.6265402990436336E-002   1.7264043664475537E-002   2.9343183585125554E-002
  -7.1750065224553974E-002   2.1558023054090991E-002   2.2420581670526851E-002
  -6.8978067471957019E-002   2.0848621915773052E-002   2.1907461166957132E-002
  -6.6206069719360050E-002   2.0111385436294718E-002   2.1682473042478320E-002
  -6.3434071966763123E-002   1.9346313615655811E-002   2.1745617297090757E-002
  -6.0662074214166126E-002   1.8553406453856502E-002   2.2096893930794170E-002
  -7.7279752585464212E-002   2.3068880658192653E-002   1.5152206160421192E-002
  -7.4241681118598246E-002   2.2239434918422965E-002   1.4718496655264909E-002
  -7.1203609651732280E-002   2.1425267769340624E-002   1.4528802199555761E-002
  -6.8165538184866342E-002   2.0626379210945400E-002   1.4583122793293369E-002
  -6.5127466718000404E-002   1.9842769243237468E-002   1.4881458436478104E-002
  -8.2701691907901970E-002   2.4579738262294301E-002   7.7422290829396827E-003
  -7.9441664056411218E-002   2.3630247921072912E-002   7.4310445080450517E-003
  -7.6181636204920439E-002   2.2739150102386422E-002   7.3197576529528980E-003
  -7.2921608353429701E-002   2.1906444806234826E-002   7.4083685176637550E-003
  -6.9661580501938894E-002   2.1132132032618212E-002   7.6968771021771396E-003
  -8.8015883191867261E-002   2.6090595866395838E-002   1.9065043808297322E-004
  -8.4578016285395963E-002   2.5021060923722804E-002   4.5104725297173687E-005
  -8.1140149378924553E-002   2.4053032435432525E-002   5.5339402670134819E-005
  -7.7702282472453199E-002   2.3186510401524495E-002   2.2135447020139171E-004
  -7.4264415565981845E-002   2.2421494821999288E-002   5.4314992789139538E-004
  -5.6265402990436336E-002   1.7264043664475537E-002   2.9343183585125554E-002
  -5.4038826424259306E-002   1.6422174705317621E-002   2.9511281796348432E-002
  -5.1812249858082346E-002   1.5571925812633641E-002   2.9766923890292563E-002
  -4.9585673291905351E-002   1.4713296986423284E-002   3.0110109866957807E-002
  -4.7359096725728356E-002   1.3846288226686543E-002   3.0540839726344027E-002
  -6.0662074214166126E-002   1.8553406453856502E-002   2.2096893930794170E-002
  -5.8346877941785724E-002   1.7734112753884229E-002   2.2180687851039271E-002
  -5.6031681669405441E-002   1.6889881318726596E-002   2.2354177300969877E-002
  -5.3716485397025074E-002   1.6020712148383465E-002   2.2617362280586105E-002
  -5.1401289124644742E-002   1.5126605242855140E-002   2.2970242789888018E-002
  -6.5127466718000404E-002   1.9842769243237468E-002   1.4881458436478104E-002
  -6.2721499092452115E-002   1.9046050802450823E-002   1.4864390264086147E-002
  -6.0315531466903882E-002   1.8207836824819787E-002   1.4939169268344127E-002
  -5.7909563841355621E-002   1.7328127310343760E-002   1.5105795449252453E-002
  -5.5503596215807416E-002   1.6406922259023737E-002   1.5364268806810716E-002
  -6.9661580501938894E-002   2.1132132032618212E-002   7.6968771021771396E-003
  -6.7162689876258300E-002   2.0357988851017368E-002   7.5623890354889339E-003
  -6.4663799250577678E-002   1.9525792330912804E-002   7.5218997924152396E-003
  -6.2164908624897056E-002   1.8635542472304222E-002   7.5754093729563116E-003
  -5.9666017999216461E-002   1.7687239275192224E-002   7.7229177771120303E-003
  -7.4264415565981845E-002   2.2421494821999288E-002   5.4314992789139538E-004
  -7.1670450293204291E-002   2.1669926899584135E-002   2.7468416524778494E-004
  -6.9076485020426848E-002   2.0843747837005822E-002   1.0236887318348931E-004
  -6.6482519747649377E-002   1.9942957634264458E-002   2.6204051697814590E-005
  -6.3888554474871850E-002   1.8967556291361043E-002   4.6189700791843258E-005
  -4.7359096725728356E-002   1.3846288226686543E-002   3.0540839726344027E-002
  -4.7470107844294840E-002   1.3743804930052894E-002   2.9127133604454458E-002
  -4.7581118962861324E-002   1.5178752493151287E-002   3.0107429082875614E-002
  -4.7692130081427808E-002   1.8151130915981951E-002   3.3481726161607023E-002
  -4.7803141199994348E-002   2.2660940198544699E-002   3.9250024840649100E-002
  -5.1401289124644742E-002   1.5126605242855140E-002   2.2970242789888018E-002
  -4.9550622253904358E-002   1.4686963054366481E-002   2.2299747379246893E-002
  -4.7699955383164065E-002   1.5181188035142457E-002   2.3158606346908750E-002
  -4.5849288512423744E-002   1.6609280185183317E-002   2.5546819692873757E-002
  -4.3998621641683389E-002   1.8971239504489201E-002   2.9464387417141857E-002
  -5.5503596215807416E-002   1.6406922259023737E-002   1.5364268806810716E-002
  -5.2555898577767726E-002   1.5630121178679790E-002   1.4833420416950613E-002
  -4.9608200939728064E-002   1.5183623577133668E-002   1.4967279183385834E-002
  -4.6660503301688416E-002   1.5067429454384818E-002   1.5765845106117074E-002
  -4.3712805663648754E-002   1.5281538810433370E-002   1.7229118185143444E-002
  -5.9666017999216461E-002   1.7687239275192224E-002   7.7229177771120303E-003
  -5.6485936815884943E-002   1.6573279302993515E-002   6.7281527175655012E-003
  -5.3305855632553405E-002   1.5186059119124747E-002   5.5334475923072349E-003
  -5.0125774449221880E-002   1.3525578723586474E-002   4.1388024013369242E-003
  -4.6945693265890404E-002   1.1591838116377595E-002   2.5442171446548173E-003
  -6.3888554474871850E-002   1.8967556291361043E-002   4.6189700791843258E-005
  -6.1340736968256038E-002   1.7516437427307019E-002  -2.0160557189081163E-003
  -5.8792919461640170E-002   1.5188494661115798E-002  -5.1428884263277075E-003
  -5.6245101955024412E-002   1.1983727992787789E-002  -9.3343084214670413E-003
  -5.3697284448408489E-002   7.9021374223220420E-003  -1.4590315704325008E-002
 </DataArray>
 </PointData>
 </Piece>
 <Piece  NumberOfPoints="          1600 "  NumberOfCells="         1024 ">
 <Points>
 <DataArray  type="Float64" NumberOfComponents="3"  format="ascii" >
  0.50000000000000000        0.0000000000000000        0.0000000000000000     
  0.53125000000000000        0.0000000000000000        0.0000000000000000     
  0.56250000000000000        0.0000000000000000        0.0000000000000000     
  0.59375000000000000        0.0000000000000000        0.0000000000000000     
  0.62500000000000000        0.0000000000000000        0.0000000000000000     
  0.50000000000000000        3.1250000000000000E-002   0.0000000000000000     
  0.53125000000000000        3.1250000000000000E-002   0.0000000000000000     
  0.56250000000000000        3.1250000000000000E-002   0.0000000000000000     
  0.59375000000000000        3.1250000000000000E-002   0.0000000000000000     
  0.62500000000000000        3.1250000000000000E-002   0.0000000000000000     
  0.50000000000000000        6.2500000000000000E-002   0.0000000000000000     
  0.53125000000000000        6.2500000000000000E-002   0.0000000000000000     
  0.56250000000000000        6.2500000000000000E-002   0.0000000000000000     
  0.59375000000000000        6.2500000000000000E-002   0.0000000000000000     
  0.62500000000000000        6.2500000000000000E-002   0.0000000000000000     
  0.50000000000000000        9.3750000000000000E-002   0.0000000000000000     
  0.53125000000000000        9.3750000000000000E-002   0.0000000000000000     
  0.56250000000000000        9.3750000000000000E-002   0.0000000000000000     
  0.59375000000000000        9.3750000000000000E-002   0.0000000000000000     
  0.62500000000000000        9.3750000000000000E-002   0.0000000000000000     
  0.50000000000000000       0.12500000000000000        0.0000000000000000     
  0.53125000000000000       0.12500000000000000        0.0000000000000000     
  0.56250000000000000       0.12500000000000000        0.0000000000000000     
  0.59375000000000000       0.12500000000000000        0.0000000000000000     
  0.62500000000000000       0.12500000000000000        0.0000000000000000     
  0.62500000000000000        0.0000000000000000        0.0000000000000000     
  0.65625000000000000        0.0000000000000000        0.0000000000000000     
  0.68750000000000000        0.0000000000000000        0.0000000000000000     
  0.71875000000000000        0.0000000000000000        0.0000000000000000     
  0.75000000000000000        0.0000000000000000        0.0000000000000000     
  0.62500000000000000        3.1250000000000000E-002   0.0000000000000000     
  0.65625000000000000        3.1250000000000000E-002   0.0000000000000000     
  0.68750000000000000        3.1250000000000000E-002   0.0000000000000000     
  0.71875000000000000        3.1250000000000000E-002   0.0000000000000000     
  0.75000000000000000        3.1250000000000000E-002   0.0000000000000000     
  0.62500000000000000        6.2500000000000000E-002   0.0000000000000000     
  0.65625000000000000        6.2500000000000000E-002   0.0000000000000000     
  0.68750000000000000        6.2500000000000000E-002   0.0000000000000000     
  0.71875000000000000        6.2500000000000000E-002   0.0000000000000000     
  0.75000000000000000        6.2500000000000000E-002   0.0000000000000000     
  0.62500000000000000        9.3750000000000000E-002   0.0000000000000000     
  0.65625000000000000        9.3750000000000000E-002   0.0000000000000000     
  0.68750000000000000        9.3750000000000000E-002   0.0000000000000000     
  0.71875000000000000        9.3750000000000000E-002   0.0000000000000000     
  0.75000000000000000        9.3750000000000000E-002   0.0000000000000000     
  0.62500000000000000       0.12500000000000000        0.0000000000000000     
  0.65625000000000000       0.12500000000000000        0.0000000000000000     
  0.68750000000000000       0.12500000000000000        0.0000000000000000     
  0.71875000000000000       0.12500000000000000        0.0000000000000000     
  0.75000000000000000       0.12500000000000000        0.0000000000000000     
  0.75000000000000000        0.0000000000000000        0.0000000000000000     
  0.78125000000000000        0.0000000000000000        0.0000000000000000     
  0.81250000000000000        0.0000000000000000        0.0000000000000000     
  0.84375000000000000        0.0000000000000000        0.0000000000000000     
  0.87500000000000000        0.0000000000000000        0.0000000000000000     
  0.75000000000000000        3.1250000000000000E-002   0.0000000000000000     
  0.78125000000000000        3.1250000000000000E-002   0.0000000000000000     
  0.81250000000000000        3.1250000000000000E-002   0.0000000000000000     
  0.84375000000000000        3.1250000000000000E-002   0.0000000000000000     
  0.87500000000000000        3.1250000000000000E-002   0.0000000000000000     
  0.75000000000000000        6.2500000000000000E-002   0.0000000000000000     
  0.78125000000000000        6.2500000000000000E-002   0.0000000000000000     
  0.81250000000000000        6.2500000000000000E-002   0.0000000000000000     
  0.84375000000000000        6.2500000000000000E-002   0.0000000000000000     
  0.87500000000000000        6.2500000000000000E-002   0.0000000000000000     
  0.75000000000000000        9.3750000000000000E-002   0.0000000000000000     
  0.78125000000000000        9.3750000000000000E-002   0.0000000000000000     
  0.81250000000000000        9.3750000000000000E-002   0.0000000000000000     
  0.84375000000000000        9.3750000000000000E-002   0.0000000000000000     
  0.87500000000000000        9.3750000000000000E-002   0.0000000000000000     
  0.75000000000000000       0.12500000000000000        0.0000000000000000     
  0.78125000000000000       0.12500000000000000        0.0000000000000000     
  0.81250000000000000       0.12500000000000000        0.0000000000000000     
  0.84375000000000000       0.12500000000000000        0.0000000000000000     
  0.87500000000000000       0.12500000000000000        0.0000000000000000     
  0.87500000000000000        0.0000000000000000        0.0000000000000000     
  0.90625000000000000        0.0000000000000000        0.0000000000000000     
  0.93750000000000000        0.0000000000000000        0.0000000000000000     
  0.96875000000000000        0.0000000000000000        0.0000000000000000     
   1.0000000000000000        0.0000000000000000        0.0000000000000000     
  0.87500000000000000        3.1250000000000000E-002   0.0000000000000000     
  0.90625000000000000        3.1250000000000000E-002   0.0000000000000000     
  0.93750000000000000        3.1250000000000000E-002   0.0000000000000000     
  0.96875000000000000        3.1250000000000000E-002   0.0000000000000000     
   1.0000000000000000        3.1250000000000000E-002   0.0000000000000000     
  0.87500000000000000        6.2500000000000000E-002   0.0000000000000000     
  0.90625000000000000        6.2500000000000000E-002   0.0000000000000000     
  0.93750000000000000        6.2500000000000000E-002   0.0000000000000000     
  0.96875000000000000        6.2500000000000000E-002   0.0000000000000000     
   1.0000000000000000        6.2500000000000000E-002   0.0000000000000000     
  0.87500000000000000        9.3750000000000000E-002   0.0000000000000000     
  0.90625000000000000        9.3750000000000000E-002   0.0000000000000000     
  0.93750000000000000        9.3750000000000000E-002   0.0000000000000000     
  0.96875000000000000        9.3750000000000000E-002   0.0000000000000000     
   1.0000000000000000        9.3750000000000000E-002   0.0000000000000000     
  0.87500000000000000       0.12500000000000000        0.0000000000000000     
  0.90625000000000000       0.12500000000000000        0.0000000000000000     
  0.93750000000000000       0.12500000000000000        0.0000000000000000     
  0.96875000000000000       0.12500000000000000        0.0000000000000000     
   1.0000000000000000       0.12500000000000000        0.0000000000000000     
   1.0000000000000000        0.0000000000000000        0.0000000000000000     
   1.0312500000000000        0.0000000000000000        0.0000000000000000     
   1.0625000000000000        0.0000000000000000        0.0000000000000000     
   1.0937500000000000        0.0000000000000000        0.0000000000000000     
   1.1250000000000000        0.0000000000000000        0.0000000000000000     
   1.0000000000000000        3.1250000000000000E-002   0.0000000000000000     
   1.0312500000000000        3.1250000000000000E-002   0.0000000000000000     
   1.0625000000000000        3.1250000000000000E-002   0.0000000000000000     
   1.0937500000000000        3.1250000000000000E-002   0.0000000000000000     
   1.1250000000000000        3.1250000000000000E-002   0.0000000000000000     
   1.0000000000000000        6.2500000000000000E-002   0.0000000000000000     
   1.0312500000000000        6.2500000000000000E-002   0.0000000000000000     
   1.0625000000000000        6.2500000000000000E-002   0.0000000000000000     
   1.0937500000000000        6.2500000000000000E-002   0.0000000000000000     
   1.1250000000000000        6.2500000000000000E-002   0.0000000000000000     
   1.0000000000000000        9.3750000000000000E-002   0.0000000000000000     
   1.0312500000000000        9.3750000000000000E-002   0.0000000000000000     
   1.0625000000000000        9.3750000000000000E-002   0.0000000000000000     
   1.0937500000000000        9.3750000000000000E-002   0.0000000000000000     
   1.1250000000000000        9.3750000000000000E-002   0.0000000000000000     
   1.0000000000000000       0.12500000000000000        0.0000000000000000     
   1.0312500000000000       0.12500000000000000        0.0000000000000000     
   1.0625000000000000       0.12500000000000000        0.0000000000000000     
   1.0937500000000000       0.12500000000000000        0.0000000000000000     
   1.1250000000000000       0.12500000000000000        0.0000000000000000     
   1.1250000000000000        0.0000000000000000        0.0000000000000000     
   1.1562500000000000        0.0000000000000000        0.0000000000000000     
   1.1875000000000000        0.0000000000000000        0.0000000000000000     
   1.2187500000000000        0.0000000000000000        0.0000000000000000     
   1.2500000000000000        0.0000000000000000        0.0000000000000000     
   1.1250000000000000        3.1250000000000000E-002   0.0000000000000000     
   1.1562500000000000        3.1250000000000000E-002   0.0000000000000000     
   1.1875000000000000        3.1250000000000000E-002   0.0000000000000000     
   1.2187500000000000        3.1250000000000000E-002   0.0000000000000000     
   1.2500000000000000        3.1250000000000000E-002   0.0000000000000000     
   1.1250000000000000        6.2500000000000000E-002   0.0000000000000000     
   1.1562500000000000        6.2500000000000000E-002   0.0000000000000000     
   1.1875000000000000        6.2500000000000000E-002   0.0000000000000000     
   1.2187500000000000        6.2500000000000000E-002   0.0000000000000000     
   1.2500000000000000        6.2500000000000000E-002   0.0000000000000000     
   1.1250000000000000        9.3750000000000000E-002   0.0000000000000000     
   1.1562500000000000        9.3750000000000000E-002   0.0000000000000000     
   1.1875000000000000        9.3750000000000000E-002   0.0000000000000000     
   1.2187500000000000        9.3750000000000000E-002   0.0000000000000000     
   1.2500000000000000        9.3750000000000000E-002   0.0000000000000000     
   1.1250000000000000       0.12500000000000000        0.0000000000000000     
   1.1562500000000000       0.12500000000000000        0.0000000000000000     
   1.1875000000000000       0.12500000000000000        0.0000000000000000     
   1.2187500000000000       0.12500000000000000        0.0000000000000000     
   1.2500000000000000       0.12500000000000000        0.0000000000000000     
   1.2500000000000000        0.0000000000000000        0.0000000000000000     
   1.2812500000000000        0.0000000000000000        0.0000000000000000     
   1.3125000000000000        0.0000000000000000        0.0000000000000000     
   1.3437500000000000        0.0000000000000000        0.0000000000000000     
   1.3750000000000000        0.0000000000000000        0.0000000000000000     
   1.2500000000000000        3.1250000000000000E-002   0.0000000000000000     
   1.2812500000000000        3.1250000000000000E-002   0.0000000000000000     
   1.3125000000000000        3.1250000000000000E-002   0.0000000000000000     
   1.3437500000000000        3.1250000000000000E-002   0.0000000000000000     
   1.3750000000000000        3.1250000000000000E-002   0.0000000000000000     
   1.2500000000000000        6.2500000000000000E-002   0.0000000000000000     
   1.2812500000000000        6.2500000000000000E-002   0.0000000000000000     
   1.3125000000000000        6.2500000000000000E-002   0.0000000000000000     
   1.3437500000000000        6.2500000000000000E-002   0.0000000000000000     
   1.3750000000000000        6.2500000000000000E-002   0.0000000000000000     
   1.2500000000000000        9.3750000000000000E-002   0.0000000000000000     
   1.2812500000000000        9.3750000000000000E-002   0.0000000000000000     
   1.3125000000000000        9.3750000000000000E-002   0.0000000000000000     
   1.3437500000000000        9.3750000000000000E-002   0.0000000000000000     
   1.3750000000000000        9.3750000000000000E-002   0.0000000000000000     
   1.2500000000000000       0.12500000000000000        0.0000000000000000     
   1.2812500000000000       0.12500000000000000        0.0000000000000000     
   1.3125000000000000       0.12500000000000000        0.0000000000000000     
   1.3437500000000000       0.12500000000000000        0.0000000000000000     
   1.3750000000000000       0.12500000000000000        0.0000000000000000     
   1.3750000000000000        0.0000000000000000        0.0000000000000000     
   1.4062500000000000        0.0000000000000000        0.0000000000000000     
   1.4375000000000000        0.0000000000000000        0.0000000000000000     
   1.4687500000000000        0.0000000000000000        0.0000000000000000     
   1.5000000000000000        0.0000000000000000        0.0000000000000000     
   1.3750000000000000        3.1250000000000000E-002   0.0000000000000000     
   1.4062500000000000        3.1250000000000000E-002   0.0000000000000000     
   1.4375000000000000        3.1250000000000000E-002   0.0000000000000000     
   1.4687500000000000        3.1250000000000000E-002   0.0000000000000000     
   1.5000000000000000        3.1250000000000000E-002   0.0000000000000000     
   1.3750000000000000        6.2500000000000000E-002   0.0000000000000000     
   1.4062500000000000        6.2500000000000000E-002   0.0000000000000000     
   1.4375000000000000        6.2500000000000000E-002   0.0000000000000000     
   1.4687500000000000        6.2500000000000000E-002   0.0000000000000000     
   1.5000000000000000        6.2500000000000000E-002   0.0000000000000000     
   1.3750000000000000        9.3750000000000000E-002   0.0000000000000000     
   1.4062500000000000        9.3750000000000000E-002   0.0000000000000000     
   1.4375000000000000        9.3750000000000000E-002   0.0000000000000000     
   1.4687500000000000        9.3750000000000000E-002   0.0000000000000000     
   1.5000000000000000        9.3750000000000000E-002   0.0000000000000000     
   1.3750000000000000       0.12500000000000000        0.0000000000000000     
   1.4062500000000000       0.12500000000000000        0.0000000000000000     
   1.4375000000000000       0.12500000000000000        0.0000000000000000     
   1.4687500000000000       0.12500000000000000        0.0000000000000000     
   1.5000000000000000       0.12500000000000000        0.0000000000000000     
  0.50000000000000000       0.12500000000000000        0.0000000000000000     
  0.53125000000000000       0.12500000000000000        0.0000000000000000     
  0.56250000000000000       0.12500000000000000        0.0000000000000000     
  0.59375000000000000       0.12500000000000000        0.0000000000000000     
  0.62500000000000000       0.12500000000000000        0.0000000000000000     
  0.50000000000000000       0.15625000000000000        0.0000000000000000     
  0.53125000000000000       0.15625000000000000        0.0000000000000000     
  0.56250000000000000       0.15625000000000000        0.0000000000000000     
  0.59375000000000000       0.15625000000000000        0.0000000000000000     
  0.62500000000000000       0.15625000000000000        0.0000000000000000     
  0.50000000000000000       0.18750000000000000        0.0000000000000000     
  0.53125000000000000       0.18750000000000000        0.0000000000000000     
  0.56250000000000000       0.18750000000000000        0.0000000000000000     
  0.59375000000000000       0.18750000000000000        0.0000000000000000     
  0.62500000000000000       0.18750000000000000        0.0000000000000000     
  0.50000000000000000       0.21875000000000000        0.0000000000000000     
  0.53125000000000000       0.21875000000000000        0.0000000000000000     
  0.56250000000000000       0.21875000000000000        0.0000000000000000     
  0.59375000000000000       0.21875000000000000        0.0000000000000000     
  0.62500000000000000       0.21875000000000000        0.0000000000000000     
  0.50000000000000000       0.25000000000000000        0.0000000000000000     
  0.53125000000000000       0.25000000000000000        0.0000000000000000     
  0.56250000000000000       0.25000000000000000        0.0000000000000000     
  0.59375000000000000       0.25000000000000000        0.0000000000000000     
  0.62500000000000000       0.25000000000000000        0.0000000000000000     
  0.62500000000000000       0.12500000000000000        0.0000000000000000     
  0.65625000000000000       0.12500000000000000        0.0000000000000000     
  0.68750000000000000       0.12500000000000000        0.0000000000000000     
  0.71875000000000000       0.12500000000000000        0.0000000000000000     
  0.75000000000000000       0.12500000000000000        0.0000000000000000     
  0.62500000000000000       0.15625000000000000        0.0000000000000000     
  0.65625000000000000       0.15625000000000000        0.0000000000000000     
  0.68750000000000000       0.15625000000000000        0.0000000000000000     
  0.71875000000000000       0.15625000000000000        0.0000000000000000     
  0.75000000000000000       0.15625000000000000        0.0000000000000000     
  0.62500000000000000       0.18750000000000000        0.0000000000000000     
  0.65625000000000000       0.18750000000000000        0.0000000000000000     
  0.68750000000000000       0.18750000000000000        0.0000000000000000     
  0.71875000000000000       0.18750000000000000        0.0000000000000000     
  0.75000000000000000       0.18750000000000000        0.0000000000000000     
  0.62500000000000000       0.21875000000000000        0.0000000000000000     
  0.65625000000000000       0.21875000000000000        0.0000000000000000     
  0.68750000000000000       0.21875000000000000        0.0000000000000000     
  0.71875000000000000       0.21875000000000000        0.0000000000000000     
  0.75000000000000000       0.21875000000000000        0.0000000000000000     
  0.62500000000000000       0.25000000000000000        0.0000000000000000     
  0.65625000000000000       0.25000000000000000        0.0000000000000000     
  0.68750000000000000       0.25000000000000000        0.0000000000000000     
  0.71875000000000000       0.25000000000000000        0.0000000000000000     
  0.75000000000000000       0.25000000000000000        0.0000000000000000     
  0.75000000000000000       0.12500000000000000        0.0000000000000000     
  0.78125000000000000       0.12500000000000000        0.0000000000000000     
  0.81250000000000000       0.12500000000000000        0.0000000000000000     
  0.84375000000000000       0.12500000000000000        0.0000000000000000     
  0.87500000000000000       0.12500000000000000        0.0000000000000000     
  0.75000000000000000       0.15625000000000000        0.0000000000000000     
  0.78125000000000000       0.15625000000000000        0.0000000000000000     
  0.81250000000000000       0.15625000000000000        0.0000000000000000     
  0.84375000000000000       0.15625000000000000        0.0000000000000000     
  0.87500000000000000       0.15625000000000000        0.0000000000000000     
  0.75000000000000000       0.18750000000000000        0.0000000000000000     
  0.78125000000000000       0.18750000000000000        0.0000000000000000     
  0.81250000000000000       0.18750000000000000        0.0000000000000000     
  0.84375000000000000       0.18750000000000000        0.0000000000000000     
  0.87500000000000000       0.18750000000000000        0.0000000000000000     
  0.75000000000000000       0.21875000000000000        0.0000000000000000     
  0.78125000000000000       0.21875000000000000        0.0000000000000000     
  0.81250000000000000       0.21875000000000000        0.0000000000000000     
  0.84375000000000000       0.21875000000000000        0.0000000000000000     
  0.87500000000000000       0.21875000000000000        0.0000000000000000     
  0.75000000000000000       0.25000000000000000        0.0000000000000000     
  0.78125000000000000       0.25000000000000000        0.0000000000000000     
  0.81250000000000000       0.25000000000000000        0.0000000000000000     
  0.84375000000000000       0.25000000000000000        0.0000000000000000     
  0.87500000000000000       0.25000000000000000        0.0000000000000000     
  0.87500000000000000       0.12500000000000000        0.0000000000000000     
  0.90625000000000000       0.12500000000000000        0.0000000000000000     
  0.93750000000000000       0.12500000000000000        0.0000000000000000     
  0.96875000000000000       0.12500000000000000        0.0000000000000000     
   1.0000000000000000       0.12500000000000000        0.0000000000000000     
  0.87500000000000000       0.15625000000000000        0.0000000000000000     
  0.90625000000000000       0.15625000000000000        0.0000000000000000     
  0.93750000000000000       0.15625000000000000        0.0000000000000000     
  0.96875000000000000       0.15625000000000000        0.0000000000000000     
   1.0000000000000000       0.15625000000000000        0.0000000000000000     
  0.87500000000000000       0.18750000000000000        0.0000000000000000     
  0.90625000000000000       0.18750000000000000        0.0000000000000000     
  0.93750000000000000       0.18750000000000000        0.0000000000000000     
  0.96875000000000000       0.18750000000000000        0.0000000000000000     
   1.0000000000000000       0.18750000000000000        0.0000000000000000     
  0.87500000000000000       0.21875000000000000        0.0000000000000000     
  0.90625000000000000       0.21875000000000000        0.0000000000000000     
  0.93750000000000000       0.21875000000000000        0.0000000000000000     
  0.96875000000000000       0.21875000000000000        0.0000000000000000     
   1.0000000000000000       0.21875000000000000        0.0000000000000000     
  0.87500000000000000       0.25000000000000000        0.0000000000000000     
  0.90625000000000000       0.25000000000000000        0.0000000000000000     
  0.93750000000000000       0.25000000000000000        0.0000000000000000     
  0.96875000000000000       0.25000000000000000        0.0000000000000000     
   1.0000000000000000       0.25000000000000000        0.0000000000000000     
   1.0000000000000000       0.12500000000000000        0.0000000000000000     
   1.0312500000000000       0.12500000000000000        0.0000000000000000     
   1.0625000000000000       0.12500000000000000        0.0000000000000000     
   1.0937500000000000       0.12500000000000000        0.0000000000000000     
   1.1250000000000000       0.12500000000000000        0.0000000000000000     
   1.0000000000000000       0.15625000000000000        0.0000000000000000     
   1.0312500000000000       0.15625000000000000        0.0000000000000000     
   1.0625000000000000       0.15625000000000000        0.0000000000000000     
   1.0937500000000000       0.15625000000000000        0.0000000000000000     
   1.1250000000000000       0.15625000000000000        0.0000000000000000     
   1.0000000000000000       0.18750000000000000        0.0000000000000000     
   1.0312500000000000       0.18750000000000000        0.0000000000000000     
   1.0625000000000000       0.18750000000000000        0.0000000000000000     
   1.0937500000000000       0.18750000000000000        0.0000000000000000     
   1.1250000000000000       0.18750000000000000        0.0000000000000000     
   1.0000000000000000       0.21875000000000000        0.0000000000000000     
   1.0312500000000000       0.21875000000000000        0.0000000000000000     
   1.0625000000000000       0.21875000000000000        0.0000000000000000     
   1.0937500000000000       0.21875000000000000        0.0000000000000000     
   1.1250000000000000       0.21875000000000000        0.0000000000000000     
   1.0000000000000000       0.25000000000000000        0.0000000000000000     
   1.0312500000000000       0.25000000000000000        0.0000000000000000     
   1.0625000000000000       0.25000000000000000        0.0000000000000000     
   1.0937500000000000       0.25000000000000000        0.0000000000000000     
   1.1250000000000000       0.25000000000000000        0.0000000000000000     
   1.1250000000000000       0.12500000000000000        0.0000000000000000     
   1.1562500000000000       0.12500000000000000        0.0000000000000000     
   1.1875000000000000       0.12500000000000000        0.0000000000000000     
   1.2187500000000000       0.12500000000000000        0.0000000000000000     
   1.2500000000000000       0.12500000000000000        0.0000000000000000     
   1.1250000000000000       0.15625000000000000        0.0000000000000000     
   1.1562500000000000       0.15625000000000000        0.0000000000000000     
   1.1875000000000000       0.15625000000000000        0.0000000000000000     
   1.2187500000000000       0.15625000000000000        0.0000000000000000     
   1.2500000000000000       0.15625000000000000        0.0000000000000000     
   1.1250000000000000       0.18750000000000000        0.0000000000000000     
   1.1562500000000000       0.18750000000000000        0.0000000000000000     
   1.1875000000000000       0.18750000000000000        0.0000000000000000     
   1.2187500000000000       0.18750000000000000        0.0000000000000000     
   1.2500000000000000       0.18750000000000000        0.0000000000000000     
   1.1250000000000000       0.21875000000000000        0.0000000000000000     
   1.1562500000000000       0.21875000000000000        0.0000000000000000     
   1.1875000000000000       0.21875000000000000        0.0000000000000000     
   1.2187500000000000       0.21875000000000000        0.0000000000000000     
   1.2500000000000000       0.21875000000000000        0.0000000000000000     
   1.1250000000000000       0.25000000000000000        0.0000000000000000     
   1.1562500000000000       0.25000000000000000        0.0000000000000000     
   1.1875000000000000       0.25000000000000000        0.0000000000000000     
   1.2187500000000000       0.25000000000000000        0.0000000000000000     
   1.2500000000000000       0.25000000000000000        0.0000000000000000     
   1.2500000000000000       0.12500000000000000        0.0000000000000000     
   1.2812500000000000       0.12500000000000000        0.0000000000000000     
   1.3125000000000000       0.12500000000000000        0.0000000000000000     
   1.3437500000000000       0.12500000000000000        0.0000000000000000     
   1.3750000000000000       0.12500000000000000        0.0000000000000000     
   1.2500000000000000       0.15625000000000000        0.0000000000000000     
   1.2812500000000000       0.15625000000000000        0.0000000000000000     
   1.3125000000000000       0.15625000000000000        0.0000000000000000     
   1.3437500000000000       0.15625000000000000        0.0000000000000000     
   1.3750000000000000       0.15625000000000000        0.0000000000000000     
   1.2500000000000000       0.18750000000000000        0.0000000000000000     
   1.2812500000000000       0.18750000000000000        0.0000000000000000     
   1.3125000000000000       0.18750000000000000        0.0000000000000000     
   1.3437500000000000       0.18750000000000000        0.0000000000000000     
   1.3750000000000000       0.18750000000000000        0.0000000000000000     
   1.2500000000000000       0.21875000000000000        0.0000000000000000     
   1.2812500000000000       0.21875000000000000        0.0000000000000000     
   1.3125000000000000       0.21875000000000000        0.0000000000000000     
   1.3437500000000000       0.21875000000000000        0.0000000000000000     
   1.3750000000000000       0.21875000000000000        0.0000000000000000     
   1.2500000000000000       0.25000000000000000        0.0000000000000000     
   1.2812500000000000       0.25000000000000000        0.0000000000000000     
   1.3125000000000000       0.25000000000000000        0.0000000000000000     
   1.3437500000000000       0.25000000000000000        0.0000000000000000     
   1.3750000000000000       0.25000000000000000        0.0000000000000000     
   1.3750000000000000       0.12500000000000000        0.0000000000000000     
   1.4062500000000000       0.12500000000000000        0.0000000000000000     
   1.4375000000000000       0.12500000000000000        0.0000000000000000     
   1.4687500000000000       0.12500000000000000        0.0000000000000000     
   1.5000000000000000       0.12500000000000000        0.0000000000000000     
   1.3750000000000000       0.15625000000000000        0.0000000000000000     
   1.4062500000000000       0.15625000000000000        0.0000000000000000     
   1.4375000000000000       0.15625000000000000        0.0000000000000000     
   1.4687500000000000       0.15625000000000000        0.0000000000000000     
   1.5000000000000000       0.15625000000000000        0.0000000000000000     
   1.3750000000000000       0.18750000000000000        0.0000000000000000     
   1.4062500000000000       0.18750000000000000        0.0000000000000000     
   1.4375000000000000       0.18750000000000000        0.0000000000000000     
   1.4687500000000000       0.18750000000000000        0.0000000000000000     
   1.5000000000000000       0.18750000000000000        0.0000000000000000     
   1.3750000000000000       0.21875000000000000        0.0000000000000000     
   1.4062500000000000       0.21875000000000000        0.0000000000000000     
   1.4375000000000000       0.21875000000000000        0.0000000000000000     
   1.4687500000000000       0.21875000000000000        0.0000000000000000     
   1.5000000000000000       0.21875000000000000        0.0000000000000000     
   1.3750000000000000       0.25000000000000000        0.0000000000000000     
   1.4062500000000000       0.25000000000000000        0.0000000000000000     
   1.4375000000000000       0.25000000000000000        0.0000000000000000     
   1.4687500000000000       0.25000000000000000        0.0000000000000000     
   1.5000000000000000       0.25000000000000000        0.0000000000000000     
  0.50000000000000000       0.25000000000000000        0.0000000000000000     
  0.53125000000000000       0.25000000000000000        0.0000000000000000     
  0.56250000000000000       0.25000000000000000        0.0000000000000000     
  0.59375000000000000       0.25000000000000000        0.0000000000000000     
  0.62500000000000000       0.25000000000000000        0.0000000000000000     
  0.50000000000000000       0.28125000000000000        0.0000000000000000     
  0.53125000000000000       0.28125000000000000        0.0000000000000000     
  0.56250000000000000       0.28125000000000000        0.0000000000000000     
  0.59375000000000000       0.28125000000000000        0.0000000000000000     
  0.62500000000000000       0.28125000000000000        0.0000000000000000     
  0.50000000000000000       0.31250000000000000        0.0000000000000000     
  0.53125000000000000       0.31250000000000000        0.0000000000000000     
  0.56250000000000000       0.31250000000000000        0.0000000000000000     
  0.59375000000000000       0.31250000000000000        0.0000000000000000     
  0.62500000000000000       0.31250000000000000        0.0000000000000000     
  0.50000000000000000       0.34375000000000000        0.0000000000000000     
  0.53125000000000000       0.34375000000000000        0.0000000000000000     
  0.56250000000000000       0.34375000000000000        0.0000000000000000     
  0.59375000000000000       0.34375000000000000        0.0000000000000000     
  0.62500000000000000       0.34375000000000000        0.0000000000000000     
  0.50000000000000000       0.37500000000000000        0.0000000000000000     
  0.53125000000000000       0.37500000000000000        0.0000000000000000     
  0.56250000000000000       0.37500000000000000        0.0000000000000000     
  0.59375000000000000       0.37500000000000000        0.0000000000000000     
  0.62500000000000000       0.37500000000000000        0.0000000000000000     
  0.62500000000000000       0.25000000000000000        0.0000000000000000     
  0.65625000000000000       0.25000000000000000        0.0000000000000000     
  0.68750000000000000       0.25000000000000000        0.0000000000000000     
  0.71875000000000000       0.25000000000000000        0.0000000000000000     
  0.75000000000000000       0.25000000000000000        0.0000000000000000     
  0.62500000000000000       0.28125000000000000        0.0000000000000000     
  0.65625000000000000       0.28125000000000000        0.0000000000000000     
  0.68750000000000000       0.28125000000000000        0.0000000000000000     
  0.71875000000000000       0.28125000000000000        0.0000000000000000     
  0.75000000000000000       0.28125000000000000        0.0000000000000000     
  0.62500000000000000       0.31250000000000000        0.0000000000000000     
  0.65625000000000000       0.31250000000000000        0.0000000000000000     
  0.68750000000000000       0.31250000000000000        0.0000000000000000     
  0.71875000000000000       0.31250000000000000        0.0000000000000000     
  0.75000000000000000       0.31250000000000000        0.0000000000000000     
  0.62500000000000000       0.34375000000000000        0.0000000000000000     
  0.65625000000000000       0.34375000000000000        0.0000000000000000     
  0.68750000000000000       0.34375000000000000        0.0000000000000000     
  0.71875000000000000       0.34375000000000000        0.0000000000000000     
  0.75000000000000000       0.34375000000000000        0.0000000000000000     
  0.62500000000000000       0.37500000000000000        0.0000000000000000     
  0.65625000000000000       0.37500000000000000        0.0000000000000000     
  0.68750000000000000       0.37500000000000000        0.0000000000000000     
  0.71875000000000000       0.37500000000000000        0.0000000000000000     
  0.75000000000000000       0.37500000000000000        0.0000000000000000     
  0.75000000000000000       0.25000000000000000        0.0000000000000000     
  0.78125000000000000       0.25000000000000000        0.0000000000000000     
  0.81250000000000000       0.25000000000000000        0.0000000000000000     
  0.84375000000000000       0.25000000000000000        0.0000000000000000     
  0.87500000000000000       0.25000000000000000        0.0000000000000000     
  0.75000000000000000       0.28125000000000000        0.0000000000000000     
  0.78125000000000000       0.28125000000000000        0.0000000000000000     
  0.81250000000000000       0.28125000000000000        0.0000000000000000     
  0.84375000000000000       0.28125000000000000        0.0000000000000000     
  0.87500000000000000       0.28125000000000000        0.0000000000000000     
  0.75000000000000000       0.31250000000000000        0.0000000000000000     
  0.78125000000000000       0.31250000000000000        0.0000000000000000     
  0.81250000000000000       0.31250000000000000        0.0000000000000000     
  0.84375000000000000       0.31250000000000000        0.0000000000000000     
  0.87500000000000000       0.31250000000000000        0.0000000000000000     
  0.75000000000000000       0.34375000000000000        0.0000000000000000     
  0.78125000000000000       0.34375000000000000        0.0000000000000000     
  0.81250000000000000       0.34375000000000000        0.0000000000000000     
  0.84375000000000000       0.34375000000000000        0.0000000000000000     
  0.87500000000000000       0.34375000000000000        0.0000000000000000     
  0.75000000000000000       0.37500000000000000        0.0000000000000000     
  0.78125000000000000       0.37500000000000000        0.0000000000000000     
  0.81250000000000000       0.37500000000000000        0.0000000000000000     
  0.84375000000000000       0.37500000000000000        0.0000000000000000     
  0.87500000000000000       0.37500000000000000        0.0000000000000000     
  0.87500000000000000       0.25000000000000000        0.0000000000000000     
  0.90625000000000000       0.25000000000000000        0.0000000000000000     
  0.93750000000000000       0.25000000000000000        0.0000000000000000     
  0.96875000000000000       0.25000000000000000        0.0000000000000000     
   1.0000000000000000       0.25000000000000000        0.0000000000000000     
  0.87500000000000000       0.28125000000000000        0.0000000000000000     
  0.90625000000000000       0.28125000000000000        0.0000000000000000     
  0.93750000000000000       0.28125000000000000        0.0000000000000000     
  0.96875000000000000       0.28125000000000000        0.0000000000000000     
   1.0000000000000000       0.28125000000000000        0.0000000000000000     
  0.87500000000000000       0.31250000000000000        0.0000000000000000     
  0.90625000000000000       0.31250000000000000        0.0000000000000000     
  0.93750000000000000       0.31250000000000000        0.0000000000000000     
  0.96875000000000000       0.31250000000000000        0.0000000000000000     
   1.0000000000000000       0.31250000000000000        0.0000000000000000     
  0.87500000000000000       0.34375000000000000        0.0000000000000000     
  0.90625000000000000       0.34375000000000000        0.0000000000000000     
  0.93750000000000000       0.34375000000000000        0.0000000000000000     
  0.96875000000000000       0.34375000000000000        0.0000000000000000     
   1.0000000000000000       0.34375000000000000        0.0000000000000000     
  0.87500000000000000       0.37500000000000000        0.0000000000000000     
  0.90625000000000000       0.37500000000000000        0.0000000000000000     
  0.93750000000000000       0.37500000000000000        0.0000000000000000     
  0.96875000000000000       0.37500000000000000        0.0000000000000000     
   1.0000000000000000       0.37500000000000000        0.0000000000000000     
   1.0000000000000000       0.25000000000000000        0.0000000000000000     
   1.0312500000000000       0.25000000000000000        0.0000000000000000     
   1.0625000000000000       0.25000000000000000        0.0000000000000000     
   1.0937500000000000       0.25000000000000000        0.0000000000000000     
   1.1250000000000000       0.25000000000000000        0.0000000000000000     
   1.0000000000000000       0.28125000000000000        0.0000000000000000     
   1.0312500000000000       0.28125000000000000        0.0000000000000000     
   1.0625000000000000       0.28125000000000000        0.0000000000000000     
   1.0937500000000000       0.28125000000000000        0.0000000000000000     
   1.1250000000000000       0.28125000000000000        0.0000000000000000     
   1.0000000000000000       0.31250000000000000        0.0000000000000000     
   1.0312500000000000       0.31250000000000000        0.0000000000000000     
   1.0625000000000000       0.31250000000000000        0.0000000000000000     
   1.0937500000000000       0.31250000000000000        0.0000000000000000     
   1.1250000000000000       0.31250000000000000        0.0000000000000000     
   1.0000000000000000       0.34375000000000000        0.0000000000000000     
   1.0312500000000000       0.34375000000000000        0.0000000000000000     
   1.0625000000000000       0.34375000000000000        0.0000000000000000     
   1.0937500000000000       0.34375000000000000        0.0000000000000000     
   1.1250000000000000       0.34375000000000000        0.0000000000000000     
   1.0000000000000000       0.37500000000000000        0.0000000000000000     
   1.0312500000000000       0.37500000000000000        0.0000000000000000     
   1.0625000000000000       0.37500000000000000        0.0000000000000000     
   1.0937500000000000       0.37500000000000000        0.0000000000000000     
   1.1250000000000000       0.37500000000000000        0.0000000000000000     
   1.1250000000000000       0.25000000000000000        0.0000000000000000     
   1.1562500000000000       0.25000000000000000        0.0000000000000000     
   1.1875000000000000       0.25000000000000000        0.0000000000000000     
   1.2187500000000000       0.25000000000000000        0.0000000000000000     
   1.2500000000000000       0.25000000000000000        0.0000000000000000     
   1.1250000000000000       0.28125000000000000        0.0000000000000000     
   1.1562500000000000       0.28125000000000000        0.0000000000000000     
   1.1875000000000000       0.28125000000000000        0.0000000000000000     
   1.2187500000000000       0.28125000000000000        0.0000000000000000     
   1.2500000000000000       0.28125000000000000        0.0000000000000000     
   1.1250000000000000       0.31250000000000000        0.0000000000000000     
   1.1562500000000000       0.31250000000000000        0.0000000000000000     
   1.1875000000000000       0.31250000000000000        0.0000000000000000     
   1.2187500000000000       0.31250000000000000        0.0000000000000000     
   1.2500000000000000       0.31250000000000000        0.0000000000000000     
   1.1250000000000000       0.34375000000000000        0.0000000000000000     
   1.1562500000000000       0.34375000000000000        0.0000000000000000     
   1.1875000000000000       0.34375000000000000        0.0000000000000000     
   1.2187500000000000       0.34375000000000000        0.0000000000000000     
   1.2500000000000000       0.34375000000000000        0.0000000000000000     
   1.1250000000000000       0.37500000000000000        0.0000000000000000     
   1.1562500000000000       0.37500000000000000        0.0000000000000000     
   1.1875000000000000       0.37500000000000000        0.0000000000000000     
   1.2187500000000000       0.37500000000000000        0.0000000000000000     
   1.2500000000000000       0.37500000000000000        0.0000000000000000     
   1.2500000000000000       0.25000000000000000        0.0000000000000000     
   1.2812500000000000       0.25000000000000000        0.0000000000000000     
   1.3125000000000000       0.25000000000000000        0.0000000000000000     
   1.3437500000000000       0.25000000000000000        0.0000000000000000     
   1.3750000000000000       0.25000000000000000        0.0000000000000000     
   1.2500000000000000       0.28125000000000000        0.0000000000000000     
   1.2812500000000000       0.28125000000000000        0.0000000000000000     
   1.3125000000000000       0.28125000000000000        0.0000000000000000     
   1.3437500000000000       0.28125000000000000        0.0000000000000000     
   1.3750000000000000       0.28125000000000000        0.0000000000000000     
   1.2500000000000000       0.31250000000000000        0.0000000000000000     
   1.2812500000000000       0.31250000000000000        0.0000000000000000     
   1.3125000000000000       0.31250000000000000        0.0000000000000000     
   1.3437500000000000       0.31250000000000000        0.0000000000000000     
   1.3750000000000000       0.31250000000000000        0.0000000000000000     
   1.2500000000000000       0.34375000000000000        0.0000000000000000     
   1.2812500000000000       0.34375000000000000        0.0000000000000000     
   1.3125000000000000       0.34375000000000000        0.0000000000000000     
   1.3437500000000000       0.34375000000000000        0.0000000000000000     
   1.3750000000000000       0.34375000000000000        0.0000000000000000     
   1.2500000000000000       0.37500000000000000        0.0000000000000000     
   1.2812500000000000       0.37500000000000000        0.0000000000000000     
   1.3125000000000000       0.37500000000000000        0.0000000000000000     
   1.3437500000000000       0.37500000000000000        0.0000000000000000     
   1.3750000000000000       0.37500000000000000        0.0000000000000000     
   1.3750000000000000       0.25000000000000000        0.0000000000000000     
   1.4062500000000000       0.25000000000000000        0.0000000000000000     
   1.4375000000000000       0.25000000000000000        0.0000000000000000     
   1.4687500000000000       0.25000000000000000        0.0000000000000000     
   1.5000000000000000       0.25000000000000000        0.0000000000000000     
   1.3750000000000000       0.28125000000000000        0.0000000000000000     
   1.4062500000000000       0.28125000000000000        0.0000000000000000     
   1.4375000000000000       0.28125000000000000        0.0000000000000000     
   1.4687500000000000       0.28125000000000000        0.0000000000000000     
   1.5000000000000000       0.28125000000000000        0.0000000000000000     
   1.3750000000000000       0.31250000000000000        0.0000000000000000     
   1.4062500000000000       0.31250000000000000        0.0000000000000000     
   1.4375000000000000       0.31250000000000000        0.0000000000000000     
   1.4687500000000000       0.31250000000000000        0.0000000000000000     
   1.5000000000000000       0.31250000000000000        0.0000000000000000     
   1.3750000000000000       0.34375000000000000        0.0000000000000000     
   1.4062500000000000       0.34375000000000000        0.0000000000000000     
   1.4375000000000000       0.34375000000000000        0.0000000000000000     
   1.4687500000000000       0.34375000000000000        0.0000000000000000     
   1.5000000000000000       0.34375000000000000        0.0000000000000000     
   1.3750000000000000       0.37500000000000000        0.0000000000000000     
   1.4062500000000000       0.37500000000000000        0.0000000000000000     
   1.4375000000000000       0.37500000000000000        0.0000000000000000     
   1.4687500000000000       0.37500000000000000        0.0000000000000000     
   1.5000000000000000       0.37500000000000000        0.0000000000000000     
  0.50000000000000000       0.37500000000000000        0.0000000000000000     
  0.53125000000000000       0.37500000000000000        0.0000000000000000     
  0.56250000000000000       0.37500000000000000        0.0000000000000000     
  0.59375000000000000       0.37500000000000000        0.0000000000000000     
  0.62500000000000000       0.37500000000000000        0.0000000000000000     
  0.50000000000000000       0.40625000000000000        0.0000000000000000     
  0.53125000000000000       0.40625000000000000        0.0000000000000000     
  0.56250000000000000       0.40625000000000000        0.0000000000000000     
  0.59375000000000000       0.40625000000000000        0.0000000000000000     
  0.62500000000000000       0.40625000000000000        0.0000000000000000     
  0.50000000000000000       0.43750000000000000        0.0000000000000000     
  0.53125000000000000       0.43750000000000000        0.0000000000000000     
  0.56250000000000000       0.43750000000000000        0.0000000000000000     
  0.59375000000000000       0.43750000000000000        0.0000000000000000     
  0.62500000000000000       0.43750000000000000        0.0000000000000000     
  0.50000000000000000       0.46875000000000000        0.0000000000000000     
  0.53125000000000000       0.46875000000000000        0.0000000000000000     
  0.56250000000000000       0.46875000000000000        0.0000000000000000     
  0.59375000000000000       0.46875000000000000        0.0000000000000000     
  0.62500000000000000       0.46875000000000000        0.0000000000000000     
  0.50000000000000000       0.50000000000000000        0.0000000000000000     
  0.53125000000000000       0.50000000000000000        0.0000000000000000     
  0.56250000000000000       0.50000000000000000        0.0000000000000000     
  0.59375000000000000       0.50000000000000000        0.0000000000000000     
  0.62500000000000000       0.50000000000000000        0.0000000000000000     
  0.62500000000000000       0.37500000000000000        0.0000000000000000     
  0.65625000000000000       0.37500000000000000        0.0000000000000000     
  0.68750000000000000       0.37500000000000000        0.0000000000000000     
  0.71875000000000000       0.37500000000000000        0.0000000000000000     
  0.75000000000000000       0.37500000000000000        0.0000000000000000     
  0.62500000000000000       0.40625000000000000        0.0000000000000000     
  0.65625000000000000       0.40625000000000000        0.0000000000000000     
  0.68750000000000000       0.40625000000000000        0.0000000000000000     
  0.71875000000000000       0.40625000000000000        0.0000000000000000     
  0.75000000000000000       0.40625000000000000        0.0000000000000000     
  0.62500000000000000       0.43750000000000000        0.0000000000000000     
  0.65625000000000000       0.43750000000000000        0.0000000000000000     
  0.68750000000000000       0.43750000000000000        0.0000000000000000     
  0.71875000000000000       0.43750000000000000        0.0000000000000000     
  0.75000000000000000       0.43750000000000000        0.0000000000000000     
  0.62500000000000000       0.46875000000000000        0.0000000000000000     
  0.65625000000000000       0.46875000000000000        0.0000000000000000     
  0.68750000000000000       0.46875000000000000        0.0000000000000000     
  0.71875000000000000       0.46875000000000000        0.0000000000000000     
  0.75000000000000000       0.46875000000000000        0.0000000000000000     
  0.62500000000000000       0.50000000000000000        0.0000000000000000     
  0.65625000000000000       0.50000000000000000        0.0000000000000000     
  0.68750000000000000       0.50000000000000000        0.0000000000000000     
  0.71875000000000000       0.50000000000000000        0.0000000000000000     
  0.75000000000000000       0.50000000000000000        0.0000000000000000     
  0.75000000000000000       0.37500000000000000        0.0000000000000000     
  0.78125000000000000       0.37500000000000000        0.0000000000000000     
  0.81250000000000000       0.37500000000000000        0.0000000000000000     
  0.84375000000000000       0.37500000000000000        0.0000000000000000     
  0.87500000000000000       0.37500000000000000        0.0000000000000000     
  0.75000000000000000       0.40625000000000000        0.0000000000000000     
  0.78125000000000000       0.40625000000000000        0.0000000000000000     
  0.81250000000000000       0.40625000000000000        0.0000000000000000     
  0.84375000000000000       0.40625000000000000        0.0000000000000000     
  0.87500000000000000       0.40625000000000000        0.0000000000000000     
  0.75000000000000000       0.43750000000000000        0.0000000000000000     
  0.78125000000000000       0.43750000000000000        0.0000000000000000     
  0.81250000000000000       0.43750000000000000        0.0000000000000000     
  0.84375000000000000       0.43750000000000000        0.0000000000000000     
  0.87500000000000000       0.43750000000000000        0.0000000000000000     
  0.75000000000000000       0.46875000000000000        0.0000000000000000     
  0.78125000000000000       0.46875000000000000        0.0000000000000000     
  0.81250000000000000       0.46875000000000000        0.0000000000000000     
  0.84375000000000000       0.46875000000000000        0.0000000000000000     
  0.87500000000000000       0.46875000000000000        0.0000000000000000     
  0.75000000000000000       0.50000000000000000        0.0000000000000000     
  0.78125000000000000       0.50000000000000000        0.0000000000000000     
  0.81250000000000000       0.50000000000000000        0.0000000000000000     
  0.84375000000000000       0.50000000000000000        0.0000000000000000     
  0.87500000000000000       0.50000000000000000        0.0000000000000000     
  0.87500000000000000       0.37500000000000000        0.0000000000000000     
  0.90625000000000000       0.37500000000000000        0.0000000000000000     
  0.93750000000000000       0.37500000000000000        0.0000000000000000     
  0.96875000000000000       0.37500000000000000        0.0000000000000000     
   1.0000000000000000       0.37500000000000000        0.0000000000000000     
  0.87500000000000000       0.40625000000000000        0.0000000000000000     
  0.90625000000000000       0.40625000000000000        0.0000000000000000     
  0.93750000000000000       0.40625000000000000        0.0000000000000000     
  0.96875000000000000       0.40625000000000000        0.0000000000000000     
   1.0000000000000000       0.40625000000000000        0.0000000000000000     
  0.87500000000000000       0.43750000000000000        0.0000000000000000     
  0.90625000000000000       0.43750000000000000        0.0000000000000000     
  0.93750000000000000       0.43750000000000000        0.0000000000000000     
  0.96875000000000000       0.43750000000000000        0.0000000000000000     
   1.0000000000000000       0.43750000000000000        0.0000000000000000     
  0.87500000000000000       0.46875000000000000        0.0000000000000000     
  0.90625000000000000       0.46875000000000000        0.0000000000000000     
  0.93750000000000000       0.46875000000000000        0.0000000000000000     
  0.96875000000000000       0.46875000000000000        0.0000000000000000     
   1.0000000000000000       0.46875000000000000        0.0000000000000000     
  0.87500000000000000       0.50000000000000000        0.0000000000000000     
  0.90625000000000000       0.50000000000000000        0.0000000000000000     
  0.93750000000000000       0.50000000000000000        0.0000000000000000     
  0.96875000000000000       0.50000000000000000        0.0000000000000000     
   1.0000000000000000       0.50000000000000000        0.0000000000000000     
   1.0000000000000000       0.37500000000000000        0.0000000000000000     
   1.0312500000000000       0.37500000000000000        0.0000000000000000     
   1.0625000000000000       0.37500000000000000        0.0000000000000000     
   1.0937500000000000       0.37500000000000000        0.0000000000000000     
   1.1250000000000000       0.37500000000000000        0.0000000000000000     
   1.0000000000000000       0.40625000000000000        0.0000000000000000     
   1.0312500000000000       0.40625000000000000        0.0000000000000000     
   1.0625000000000000       0.40625000000000000        0.0000000000000000     
   1.0937500000000000       0.40625000000000000        0.0000000000000000     
   1.1250000000000000       0.40625000000000000        0.0000000000000000     
   1.0000000000000000       0.43750000000000000        0.0000000000000000     
   1.0312500000000000       0.43750000000000000        0.0000000000000000     
   1.0625000000000000       0.43750000000000000        0.0000000000000000     
   1.0937500000000000       0.43750000000000000        0.0000000000000000     
   1.1250000000000000       0.43750000000000000        0.0000000000000000     
   1.0000000000000000       0.46875000000000000        0.0000000000000000     
   1.0312500000000000       0.46875000000000000        0.0000000000000000     
   1.0625000000000000       0.46875000000000000        0.0000000000000000     
   1.0937500000000000       0.46875000000000000        0.0000000000000000     
   1.1250000000000000       0.46875000000000000        0.0000000000000000     
   1.0000000000000000       0.50000000000000000        0.0000000000000000     
   1.0312500000000000       0.50000000000000000        0.0000000000000000     
   1.0625000000000000       0.50000000000000000        0.0000000000000000     
   1.0937500000000000       0.50000000000000000        0.0000000000000000     
   1.1250000000000000       0.50000000000000000        0.0000000000000000     
   1.1250000000000000       0.37500000000000000        0.0000000000000000     
   1.1562500000000000       0.37500000000000000        0.0000000000000000     
   1.1875000000000000       0.37500000000000000        0.0000000000000000     
   1.2187500000000000       0.37500000000000000        0.0000000000000000     
   1.2500000000000000       0.37500000000000000        0.0000000000000000     
   1.1250000000000000       0.40625000000000000        0.0000000000000000     
   1.1562500000000000       0.40625000000000000        0.0000000000000000     
   1.1875000000000000       0.40625000000000000        0.0000000000000000     
   1.2187500000000000       0.40625000000000000        0.0000000000000000     
   1.2500000000000000       0.40625000000000000        0.0000000000000000     
   1.1250000000000000       0.43750000000000000        0.0000000000000000     
   1.1562500000000000       0.43750000000000000        0.0000000000000000     
   1.1875000000000000       0.43750000000000000        0.0000000000000000     
   1.2187500000000000       0.43750000000000000        0.0000000000000000     
   1.2500000000000000       0.43750000000000000        0.0000000000000000     
   1.1250000000000000       0.46875000000000000        0.0000000000000000     
   1.1562500000000000       0.46875000000000000        0.0000000000000000     
   1.1875000000000000       0.46875000000000000        0.0000000000000000     
   1.2187500000000000       0.46875000000000000        0.0000000000000000     
   1.2500000000000000       0.46875000000000000        0.0000000000000000     
   1.1250000000000000       0.50000000000000000        0.0000000000000000     
   1.1562500000000000       0.50000000000000000        0.0000000000000000     
   1.1875000000000000       0.50000000000000000        0.0000000000000000     
   1.2187500000000000       0.50000000000000000        0.0000000000000000     
   1.2500000000000000       0.50000000000000000        0.0000000000000000     
   1.2500000000000000       0.37500000000000000        0.0000000000000000     
   1.2812500000000000       0.37500000000000000        0.0000000000000000     
   1.3125000000000000       0.37500000000000000        0.0000000000000000     
   1.3437500000000000       0.37500000000000000        0.0000000000000000     
   1.3750000000000000       0.37500000000000000        0.0000000000000000     
   1.2500000000000000       0.40625000000000000        0.0000000000000000     
   1.2812500000000000       0.40625000000000000        0.0000000000000000     
   1.3125000000000000       0.40625000000000000        0.0000000000000000     
   1.3437500000000000       0.40625000000000000        0.0000000000000000     
   1.3750000000000000       0.40625000000000000        0.0000000000000000     
   1.2500000000000000       0.43750000000000000        0.0000000000000000     
   1.2812500000000000       0.43750000000000000        0.0000000000000000     
   1.3125000000000000       0.43750000000000000        0.0000000000000000     
   1.3437500000000000       0.43750000000000000        0.0000000000000000     
   1.3750000000000000       0.43750000000000000        0.0000000000000000     
   1.2500000000000000       0.46875000000000000        0.0000000000000000     
   1.2812500000000000       0.46875000000000000        0.0000000000000000     
   1.3125000000000000       0.46875000000000000        0.0000000000000000     
   1.3437500000000000       0.46875000000000000        0.0000000000000000     
   1.3750000000000000       0.46875000000000000        0.0000000000000000     
   1.2500000000000000       0.50000000000000000        0.0000000000000000     
   1.2812500000000000       0.50000000000000000        0.0000000000000000     
   1.3125000000000000       0.50000000000000000        0.0000000000000000     
   1.3437500000000000       0.50000000000000000        0.0000000000000000     
   1.3750000000000000       0.50000000000000000        0.0000000000000000     
   1.3750000000000000       0.37500000000000000        0.0000000000000000     
   1.4062500000000000       0.37500000000000000        0.0000000000000000     
   1.4375000000000000       0.37500000000000000        0.0000000000000000     
   1.4687500000000000       0.37500000000000000        0.0000000000000000     
   1.5000000000000000       0.37500000000000000        0.0000000000000000     
   1.3750000000000000       0.40625000000000000        0.0000000000000000     
   1.4062500000000000       0.40625000000000000        0.0000000000000000     
   1.4375000000000000       0.40625000000000000        0.0000000000000000     
   1.4687500000000000       0.40625000000000000        0.0000000000000000     
   1.5000000000000000       0.40625000000000000        0.0000000000000000     
   1.3750000000000000       0.43750000000000000        0.0000000000000000     
   1.4062500000000000       0.43750000000000000        0.0000000000000000     
   1.4375000000000000       0.43750000000000000        0.0000000000000000     
   1.4687500000000000       0.43750000000000000        0.0000000000000000     
   1.5000000000000000       0.43750000000000000        0.0000000000000000     
   1.3750000000000000       0.46875000000000000        0.0000000000000000     
   1.4062500000000000       0.46875000000000000        0.0000000000000000     
   1.4375000000000000       0.46875000000000000        0.0000000000000000     
   1.4687500000000000       0.46875000000000000        0.0000000000000000     
   1.5000000000000000       0.46875000000000000        0.0000000000000000     
   1.3750000000000000       0.50000000000000000        0.0000000000000000     
   1.4062500000000000       0.50000000000000000        0.0000000000000000     
   1.4375000000000000       0.50000000000000000        0.0000000000000000     
   1.4687500000000000       0.50000000000000000        0.0000000000000000     
   1.5000000000000000       0.50000000000000000        0.0000000000000000     
  0.50000000000000000       0.50000000000000000        0.0000000000000000     
  0.53125000000000000       0.50000000000000000        0.0000000000000000     
  0.56250000000000000       0.50000000000000000        0.0000000000000000     
  0.59375000000000000       0.50000000000000000        0.0000000000000000     
  0.62500000000000000       0.50000000000000000        0.0000000000000000     
  0.50000000000000000       0.53125000000000000        0.0000000000000000     
  0.53125000000000000       0.53125000000000000        0.0000000000000000     
  0.56250000000000000       0.53125000000000000        0.0000000000000000     
  0.59375000000000000       0.53125000000000000        0.0000000000000000     
  0.62500000000000000       0.53125000000000000        0.0000000000000000     
  0.50000000000000000       0.56250000000000000        0.0000000000000000     
  0.53125000000000000       0.56250000000000000        0.0000000000000000     
  0.56250000000000000       0.56250000000000000        0.0000000000000000     
  0.59375000000000000       0.56250000000000000        0.0000000000000000     
  0.62500000000000000       0.56250000000000000        0.0000000000000000     
  0.50000000000000000       0.59375000000000000        0.0000000000000000     
  0.53125000000000000       0.59375000000000000        0.0000000000000000     
  0.56250000000000000       0.59375000000000000        0.0000000000000000     
  0.59375000000000000       0.59375000000000000        0.0000000000000000     
  0.62500000000000000       0.59375000000000000        0.0000000000000000     
  0.50000000000000000       0.62500000000000000        0.0000000000000000     
  0.53125000000000000       0.62500000000000000        0.0000000000000000     
  0.56250000000000000       0.62500000000000000        0.0000000000000000     
  0.59375000000000000       0.62500000000000000        0.0000000000000000     
  0.62500000000000000       0.62500000000000000        0.0000000000000000     
  0.62500000000000000       0.50000000000000000        0.0000000000000000     
  0.65625000000000000       0.50000000000000000        0.0000000000000000     
  0.68750000000000000       0.50000000000000000        0.0000000000000000     
  0.71875000000000000       0.50000000000000000        0.0000000000000000     
  0.75000000000000000       0.50000000000000000        0.0000000000000000     
  0.62500000000000000       0.53125000000000000        0.0000000000000000     
  0.65625000000000000       0.53125000000000000        0.0000000000000000     
  0.68750000000000000       0.53125000000000000        0.0000000000000000     
  0.71875000000000000       0.53125000000000000        0.0000000000000000     
  0.75000000000000000       0.53125000000000000        0.0000000000000000     
  0.62500000000000000       0.56250000000000000        0.0000000000000000     
  0.65625000000000000       0.56250000000000000        0.0000000000000000     
  0.68750000000000000       0.56250000000000000        0.0000000000000000     
  0.71875000000000000       0.56250000000000000        0.0000000000000000     
  0.75000000000000000       0.56250000000000000        0.0000000000000000     
  0.62500000000000000       0.59375000000000000        0.0000000000000000     
  0.65625000000000000       0.59375000000000000        0.0000000000000000     
  0.68750000000000000       0.59375000000000000        0.0000000000000000     
  0.71875000000000000       0.59375000000000000        0.0000000000000000     
  0.75000000000000000       0.59375000000000000        0.0000000000000000     
  0.62500000000000000       0.62500000000000000        0.0000000000000000     
  0.65625000000000000       0.62500000000000000        0.0000000000000000     
  0.68750000000000000       0.62500000000000000        0.0000000000000000     
  0.71875000000000000       0.62500000000000000        0.0000000000000000     
  0.75000000000000000       0.62500000000000000        0.0000000000000000     
  0.75000000000000000       0.50000000000000000        0.0000000000000000     
  0.78125000000000000       0.50000000000000000        0.0000000000000000     
  0.81250000000000000       0.50000000000000000        0.0000000000000000     
  0.84375000000000000       0.50000000000000000        0.0000000000000000     
  0.87500000000000000       0.50000000000000000        0.0000000000000000     
  0.75000000000000000       0.53125000000000000        0.0000000000000000     
  0.78125000000000000       0.53125000000000000        0.0000000000000000     
  0.81250000000000000       0.53125000000000000        0.0000000000000000     
  0.84375000000000000       0.53125000000000000        0.0000000000000000     
  0.87500000000000000       0.53125000000000000        0.0000000000000000     
  0.75000000000000000       0.56250000000000000        0.0000000000000000     
  0.78125000000000000       0.56250000000000000        0.0000000000000000     
  0.81250000000000000       0.56250000000000000        0.0000000000000000     
  0.84375000000000000       0.56250000000000000        0.0000000000000000     
  0.87500000000000000       0.56250000000000000        0.0000000000000000     
  0.75000000000000000       0.59375000000000000        0.0000000000000000     
  0.78125000000000000       0.59375000000000000        0.0000000000000000     
  0.81250000000000000       0.59375000000000000        0.0000000000000000     
  0.84375000000000000       0.59375000000000000        0.0000000000000000     
  0.87500000000000000       0.59375000000000000        0.0000000000000000     
  0.75000000000000000       0.62500000000000000        0.0000000000000000     
  0.78125000000000000       0.62500000000000000        0.0000000000000000     
  0.81250000000000000       0.62500000000000000        0.0000000000000000     
  0.84375000000000000       0.62500000000000000        0.0000000000000000     
  0.87500000000000000       0.62500000000000000        0.0000000000000000     
  0.87500000000000000       0.50000000000000000        0.0000000000000000     
  0.90625000000000000       0.50000000000000000        0.0000000000000000     
  0.93750000000000000       0.50000000000000000        0.0000000000000000     
  0.96875000000000000       0.50000000000000000        0.0000000000000000     
   1.0000000000000000       0.50000000000000000        0.0000000000000000     
  0.87500000000000000       0.53125000000000000        0.0000000000000000     
  0.90625000000000000       0.53125000000000000        0.0000000000000000     
  0.93750000000000000       0.53125000000000000        0.0000000000000000     
  0.96875000000000000       0.53125000000000000        0.0000000000000000     
   1.0000000000000000       0.53125000000000000        0.0000000000000000     
  0.87500000000000000       0.56250000000000000        0.0000000000000000     
  0.90625000000000000       0.56250000000000000        0.0000000000000000     
  0.93750000000000000       0.56250000000000000        0.0000000000000000     
  0.96875000000000000       0.56250000000000000        0.0000000000000000     
   1.0000000000000000       0.56250000000000000        0.0000000000000000     
  0.87500000000000000       0.59375000000000000        0.0000000000000000     
  0.90625000000000000       0.59375000000000000        0.0000000000000000     
  0.93750000000000000       0.59375000000000000        0.0000000000000000     
  0.96875000000000000       0.59375000000000000        0.0000000000000000     
   1.0000000000000000       0.59375000000000000        0.0000000000000000     
  0.87500000000000000       0.62500000000000000        0.0000000000000000     
  0.90625000000000000       0.62500000000000000        0.0000000000000000     
  0.93750000000000000       0.62500000000000000        0.0000000000000000     
  0.96875000000000000       0.62500000000000000        0.0000000000000000     
   1.0000000000000000       0.62500000000000000        0.0000000000000000     
   1.0000000000000000       0.50000000000000000        0.0000000000000000     
   1.0312500000000000       0.50000000000000000        0.0000000000000000     
   1.0625000000000000       0.50000000000000000        0.0000000000000000     
   1.0937500000000000       0.50000000000000000        0.0000000000000000     
   1.1250000000000000       0.50000000000000000        0.0000000000000000     
   1.0000000000000000       0.53125000000000000        0.0000000000000000     
   1.0312500000000000       0.53125000000000000        0.0000000000000000     
   1.0625000000000000       0.53125000000000000        0.0000000000000000     
   1.0937500000000000       0.53125000000000000        0.0000000000000000     
   1.1250000000000000       0.53125000000000000        0.0000000000000000     
   1.0000000000000000       0.56250000000000000        0.0000000000000000     
   1.0312500000000000       0.56250000000000000        0.0000000000000000     
   1.0625000000000000       0.56250000000000000        0.0000000000000000     
   1.0937500000000000       0.56250000000000000        0.0000000000000000     
   1.1250000000000000       0.56250000000000000        0.0000000000000000     
   1.0000000000000000       0.59375000000000000        0.0000000000000000     
   1.0312500000000000       0.59375000000000000        0.0000000000000000     
   1.0625000000000000       0.59375000000000000        0.0000000000000000     
   1.0937500000000000       0.59375000000000000        0.0000000000000000     
   1.1250000000000000       0.59375000000000000        0.0000000000000000     
   1.0000000000000000       0.62500000000000000        0.0000000000000000     
   1.0312500000000000       0.62500000000000000        0.0000000000000000     
   1.0625000000000000       0.62500000000000000        0.0000000000000000     
   1.0937500000000000       0.62500000000000000        0.0000000000000000     
   1.1250000000000000       0.62500000000000000        0.0000000000000000     
   1.1250000000000000       0.50000000000000000        0.0000000000000000     
   1.1562500000000000       0.50000000000000000        0.0000000000000000     
   1.1875000000000000       0.50000000000000000        0.0000000000000000     
   1.2187500000000000       0.50000000000000000        0.0000000000000000     
   1.2500000000000000       0.50000000000000000        0.0000000000000000     
   1.1250000000000000       0.53125000000000000        0.0000000000000000     
   1.1562500000000000       0.53125000000000000        0.0000000000000000     
   1.1875000000000000       0.53125000000000000        0.0000000000000000     
   1.2187500000000000       0.53125000000000000        0.0000000000000000     
   1.2500000000000000       0.53125000000000000        0.0000000000000000     
   1.1250000000000000       0.56250000000000000        0.0000000000000000     
   1.1562500000000000       0.56250000000000000        0.0000000000000000     
   1.1875000000000000       0.56250000000000000        0.0000000000000000     
   1.2187500000000000       0.56250000000000000        0.0000000000000000     
   1.2500000000000000       0.56250000000000000        0.0000000000000000     
   1.1250000000000000       0.59375000000000000        0.0000000000000000     
   1.1562500000000000       0.59375000000000000        0.0000000000000000     
   1.1875000000000000       0.59375000000000000        0.0000000000000000     
   1.2187500000000000       0.59375000000000000        0.0000000000000000     
   1.2500000000000000       0.59375000000000000        0.0000000000000000     
   1.1250000000000000       0.62500000000000000        0.0000000000000000     
   1.1562500000000000       0.62500000000000000        0.0000000000000000     
   1.1875000000000000       0.62500000000000000        0.0000000000000000     
   1.2187500000000000       0.62500000000000000        0.0000000000000000     
   1.2500000000000000       0.62500000000000000        0.0000000000000000     
   1.2500000000000000       0.50000000000000000        0.0000000000000000     
   1.2812500000000000       0.50000000000000000        0.0000000000000000     
   1.3125000000000000       0.50000000000000000        0.0000000000000000     
   1.3437500000000000       0.50000000000000000        0.0000000000000000     
   1.3750000000000000       0.50000000000000000        0.0000000000000000     
   1.2500000000000000       0.53125000000000000        0.0000000000000000     
   1.2812500000000000       0.53125000000000000        0.0000000000000000     
   1.3125000000000000       0.53125000000000000        0.0000000000000000     
   1.3437500000000000       0.53125000000000000        0.0000000000000000     
   1.3750000000000000       0.53125000000000000        0.0000000000000000     
   1.2500000000000000       0.56250000000000000        0.0000000000000000     
   1.2812500000000000       0.56250000000000000        0.0000000000000000     
   1.3125000000000000       0.56250000000000000        0.0000000000000000     
   1.3437500000000000       0.56250000000000000        0.0000000000000000     
   1.3750000000000000       0.56250000000000000        0.0000000000000000     
   1.2500000000000000       0.59375000000000000        0.0000000000000000     
   1.2812500000000000       0.59375000000000000        0.0000000000000000     
   1.3125000000000000       0.59375000000000000        0.0000000000000000     
   1.3437500000000000       0.59375000000000000        0.0000000000000000     
   1.3750000000000000       0.59375000000000000        0.0000000000000000     
   1.2500000000000000       0.62500000000000000        0.0000000000000000     
   1.2812500000000000       0.62500000000000000        0.0000000000000000     
   1.3125000000000000       0.62500000000000000        0.0000000000000000     
   1.3437500000000000       0.62500000000000000        0.0000000000000000     
   1.3750000000000000       0.62500000000000000        0.0000000000000000     
   1.3750000000000000       0.50000000000000000        0.0000000000000000     
   1.4062500000000000       0.50000000000000000        0.0000000000000000     
   1.4375000000000000       0.50000000000000000        0.0000000000000000     
   1.4687500000000000       0.50000000000000000        0.0000000000000000     
   1.5000000000000000       0.50000000000000000        0.0000000000000000     
   1.3750000000000000       0.53125000000000000        0.0000000000000000     
   1.4062500000000000       0.53125000000000000        0.0000000000000000     
   1.4375000000000000       0.53125000000000000        0.0000000000000000     
   1.4687500000000000       0.53125000000000000        0.0000000000000000     
   1.5000000000000000       0.53125000000000000        0.0000000000000000     
   1.3750000000000000       0.56250000000000000        0.0000000000000000     
   1.4062500000000000       0.56250000000000000        0.0000000000000000     
   1.4375000000000000       0.56250000000000000        0.0000000000000000     
   1.4687500000000000       0.56250000000000000        0.0000000000000000     
   1.5000000000000000       0.56250000000000000        0.0000000000000000     
   1.3750000000000000       0.59375000000000000        0.0000000000000000     
   1.4062500000000000       0.59375000000000000        0.0000000000000000     
   1.4375000000000000       0.59375000000000000        0.0000000000000000     
   1.4687500000000000       0.59375000000000000        0.0000000000000000     
   1.5000000000000000       0.59375000000000000        0.0000000000000000     
   1.3750000000000000       0.62500000000000000        0.0000000000000000     
   1.4062500000000000       0.62500000000000000        0.0000000000000000     
   1.4375000000000000       0.62500000000000000        0.0000000000000000     
   1.4687500000000000       0.62500000000000000        0.0000000000000000     
   1.5000000000000000       0.62500000000000000        0.0000000000000000     
  0.50000000000000000       0.62500000000000000        0.0000000000000000     
  0.53125000000000000       0.62500000000000000        0.0000000000000000     
  0.56250000000000000       0.62500000000000000        0.0000000000000000     
  0.59375000000000000       0.62500000000000000        0.0000000000000000     
  0.62500000000000000       0.62500000000000000        0.0000000000000000     
  0.50000000000000000       0.65625000000000000        0.0000000000000000     
  0.53125000000000000       0.65625000000000000        0.0000000000000000     
  0.56250000000000000       0.65625000000000000        0.0000000000000000     
  0.59375000000000000       0.65625000000000000        0.0000000000000000     
  0.62500000000000000       0.65625000000000000        0.0000000000000000     
  0.50000000000000000       0.68750000000000000        0.0000000000000000     
  0.53125000000000000       0.68750000000000000        0.0000000000000000     
  0.56250000000000000       0.68750000000000000        0.0000000000000000     
  0.59375000000000000       0.68750000000000000        0.0000000000000000     
  0.62500000000000000       0.68750000000000000        0.0000000000000000     
  0.50000000000000000       0.71875000000000000        0.0000000000000000     
  0.53125000000000000       0.71875000000000000        0.0000000000000000     
  0.56250000000000000       0.71875000000000000        0.0000000000000000     
  0.59375000000000000       0.71875000000000000        0.0000000000000000     
  0.62500000000000000       0.71875000000000000        0.0000000000000000     
  0.50000000000000000       0.75000000000000000        0.0000000000000000     
  0.53125000000000000       0.75000000000000000        0.0000000000000000     
  0.56250000000000000       0.75000000000000000        0.0000000000000000     
  0.59375000000000000       0.75000000000000000        0.0000000000000000     
  0.62500000000000000       0.75000000000000000        0.0000000000000000     
  0.62500000000000000       0.62500000000000000        0.0000000000000000     
  0.65625000000000000       0.62500000000000000        0.0000000000000000     
  0.68750000000000000       0.62500000000000000        0.0000000000000000     
  0.71875000000000000       0.62500000000000000        0.0000000000000000     
  0.75000000000000000       0.62500000000000000        0.0000000000000000     
  0.62500000000000000       0.65625000000000000        0.0000000000000000     
  0.65625000000000000       0.65625000000000000        0.0000000000000000     
  0.68750000000000000       0.65625000000000000        0.0000000000000000     
  0.71875000000000000       0.65625000000000000        0.0000000000000000     
  0.75000000000000000       0.65625000000000000        0.0000000000000000     
  0.62500000000000000       0.68750000000000000        0.0000000000000000     
  0.65625000000000000       0.68750000000000000        0.0000000000000000     
  0.68750000000000000       0.68750000000000000        0.0000000000000000     
  0.71875000000000000       0.68750000000000000        0.0000000000000000     
  0.75000000000000000       0.68750000000000000        0.0000000000000000     
  0.62500000000000000       0.71875000000000000        0.0000000000000000     
  0.65625000000000000       0.71875000000000000        0.0000000000000000     
  0.68750000000000000       0.71875000000000000        0.0000000000000000     
  0.71875000000000000       0.71875000000000000        0.0000000000000000     
  0.75000000000000000       0.71875000000000000        0.0000000000000000     
  0.62500000000000000       0.75000000000000000        0.0000000000000000     
  0.65625000000000000       0.75000000000000000        0.0000000000000000     
  0.68750000000000000       0.75000000000000000        0.0000000000000000     
  0.71875000000000000       0.75000000000000000        0.0000000000000000     
  0.75000000000000000       0.75000000000000000        0.0000000000000000     
  0.75000000000000000       0.62500000000000000        0.0000000000000000     
  0.78125000000000000       0.62500000000000000        0.0000000000000000     
  0.81250000000000000       0.62500000000000000        0.0000000000000000     
  0.84375000000000000       0.62500000000000000        0.0000000000000000     
  0.87500000000000000       0.62500000000000000        0.0000000000000000     
  0.75000000000000000       0.65625000000000000        0.0000000000000000     
  0.78125000000000000       0.65625000000000000        0.0000000000000000     
  0.81250000000000000       0.65625000000000000        0.0000000000000000     
  0.84375000000000000       0.65625000000000000        0.0000000000000000     
  0.87500000000000000       0.65625000000000000        0.0000000000000000     
  0.75000000000000000       0.68750000000000000        0.0000000000000000     
  0.78125000000000000       0.68750000000000000        0.0000000000000000     
  0.81250000000000000       0.68750000000000000        0.0000000000000000     
  0.84375000000000000       0.68750000000000000        0.0000000000000000     
  0.87500000000000000       0.68750000000000000        0.0000000000000000     
  0.75000000000000000       0.71875000000000000        0.0000000000000000     
  0.78125000000000000       0.71875000000000000        0.0000000000000000     
  0.81250000000000000       0.71875000000000000        0.0000000000000000     
  0.84375000000000000       0.71875000000000000        0.0000000000000000     
  0.87500000000000000       0.71875000000000000        0.0000000000000000     
  0.75000000000000000       0.75000000000000000        0.0000000000000000     
  0.78125000000000000       0.75000000000000000        0.0000000000000000     
  0.81250000000000000       0.75000000000000000        0.0000000000000000     
  0.84375000000000000       0.75000000000000000        0.0000000000000000     
  0.87500000000000000       0.75000000000000000        0.0000000000000000     
  0.87500000000000000       0.62500000000000000        0.0000000000000000     
  0.90625000000000000       0.62500000000000000        0.0000000000000000     
  0.93750000000000000       0.62500000000000000        0.0000000000000000     
  0.96875000000000000       0.62500000000000000        0.0000000000000000     
   1.0000000000000000       0.62500000000000000        0.0000000000000000     
  0.87500000000000000       0.65625000000000000        0.0000000000000000     
  0.90625000000000000       0.65625000000000000        0.0000000000000000     
  0.93750000000000000       0.65625000000000000        0.0000000000000000     
  0.96875000000000000       0.65625000000000000        0.0000000000000000     
   1.0000000000000000       0.65625000000000000        0.0000000000000000     
  0.87500000000000000       0.68750000000000000        0.0000000000000000     
  0.90625000000000000       0.68750000000000000        0.0000000000000000     
  0.93750000000000000       0.68750000000000000        0.0000000000000000     
  0.96875000000000000       0.68750000000000000        0.0000000000000000     
   1.0000000000000000       0.68750000000000000        0.0000000000000000     
  0.87500000000000000       0.71875000000000000        0.0000000000000000     
  0.90625000000000000       0.71875000000000000        0.0000000000000000     
  0.93750000000000000       0.71875000000000000        0.0000000000000000     
  0.96875000000000000       0.71875000000000000        0.0000000000000000     
   1.0000000000000000       0.71875000000000000        0.0000000000000000     
  0.87500000000000000       0.75000000000000000        0.0000000000000000     
  0.90625000000000000       0.75000000000000000        0.0000000000000000     
  0.93750000000000000       0.75000000000000000        0.0000000000000000     
  0.96875000000000000       0.75000000000000000        0.0000000000000000     
   1.0000000000000000       0.75000000000000000        0.0000000000000000     
   1.0000000000000000       0.62500000000000000        0.0000000000000000     
   1.0312500000000000       0.62500000000000000        0.0000000000000000     
   1.0625000000000000       0.62500000000000000        0.0000000000000000     
   1.0937500000000000       0.62500000000000000        0.0000000000000000     
   1.1250000000000000       0.62500000000000000        0.0000000000000000     
   1.0000000000000000       0.65625000000000000        0.0000000000000000     
   1.0312500000000000       0.65625000000000000        0.0000000000000000     
   1.0625000000000000       0.65625000000000000        0.0000000000000000     
   1.0937500000000000       0.65625000000000000        0.0000000000000000     
   1.1250000000000000       0.65625000000000000        0.0000000000000000     
   1.0000000000000000       0.68750000000000000        0.0000000000000000     
   1.0312500000000000       0.68750000000000000        0.0000000000000000     
   1.0625000000000000       0.68750000000000000        0.0000000000000000     
   1.0937500000000000       0.68750000000000000        0.0000000000000000     
   1.1250000000000000       0.68750000000000000        0.0000000000000000     
   1.0000000000000000       0.71875000000000000        0.0000000000000000     
   1.0312500000000000       0.71875000000000000        0.0000000000000000     
   1.0625000000000000       0.71875000000000000        0.0000000000000000     
   1.0937500000000000       0.71875000000000000        0.0000000000000000     
   1.1250000000000000       0.71875000000000000        0.0000000000000000     
   1.0000000000000000       0.75000000000000000        0.0000000000000000     
   1.0312500000000000       0.75000000000000000        0.0000000000000000     
   1.0625000000000000       0.75000000000000000        0.0000000000000000     
   1.0937500000000000       0.75000000000000000        0.0000000000000000     
   1.1250000000000000       0.75000000000000000        0.0000000000000000     
   1.1250000000000000       0.62500000000000000        0.0000000000000000     
   1.1562500000000000       0.62500000000000000        0.0000000000000000     
   1.1875000000000000       0.62500000000000000        0.0000000000000000     
   1.2187500000000000       0.62500000000000000        0.0000000000000000     
   1.2500000000000000       0.62500000000000000        0.0000000000000000     
   1.1250000000000000       0.65625000000000000        0.0000000000000000     
   1.1562500000000000       0.65625000000000000        0.0000000000000000     
   1.1875000000000000       0.65625000000000000        0.0000000000000000     
   1.2187500000000000       0.65625000000000000        0.0000000000000000     
   1.2500000000000000       0.65625000000000000        0.0000000000000000     
   1.1250000000000000       0.68750000000000000        0.0000000000000000     
   1.1562500000000000       0.68750000000000000        0.0000000000000000     
   1.1875000000000000       0.68750000000000000        0.0000000000000000     
   1.2187500000000000       0.68750000000000000        0.0000000000000000     
   1.2500000000000000       0.68750000000000000        0.0000000000000000     
   1.1250000000000000       0.71875000000000000        0.0000000000000000     
   1.1562500000000000       0.71875000000000000        0.0000000000000000     
   1.1875000000000000       0.71875000000000000        0.0000000000000000     
   1.2187500000000000       0.71875000000000000        0.0000000000000000     
   1.2500000000000000       0.71875000000000000        0.0000000000000000     
   1.1250000000000000       0.75000000000000000        0.0000000000000000     
   1.1562500000000000       0.75000000000000000        0.0000000000000000     
   1.1875000000000000       0.75000000000000000        0.0000000000000000     
   1.2187500000000000       0.75000000000000000        0.0000000000000000     
   1.2500000000000000       0.75000000000000000        0.0000000000000000     
   1.2500000000000000       0.62500000000000000        0.0000000000000000     
   1.2812500000000000       0.62500000000000000        0.0000000000000000     
   1.3125000000000000       0.62500000000000000        0.0000000000000000     
   1.3437500000000000       0.62500000000000000        0.0000000000000000     
   1.3750000000000000       0.62500000000000000        0.0000000000000000     
   1.2500000000000000       0.65625000000000000        0.0000000000000000     
   1.2812500000000000       0.65625000000000000        0.0000000000000000     
   1.3125000000000000       0.65625000000000000        0.0000000000000000     
   1.3437500000000000       0.65625000000000000        0.0000000000000000     
   1.3750000000000000       0.65625000000000000        0.0000000000000000     
   1.2500000000000000       0.68750000000000000        0.0000000000000000     
   1.2812500000000000       0.68750000000000000        0.0000000000000000     
   1.3125000000000000       0.68750000000000000        0.0000000000000000     
   1.3437500000000000       0.68750000000000000        0.0000000000000000     
   1.3750000000000000       0.68750000000000000        0.0000000000000000     
   1.2500000000000000       0.71875000000000000        0.0000000000000000     
   1.2812500000000000       0.71875000000000000        0.0000000000000000     
   1.3125000000000000       0.71875000000000000        0.0000000000000000     
   1.3437500000000000       0.71875000000000000        0.0000000000000000     
   1.3750000000000000       0.71875000000000000        0.0000000000000000     
   1.2500000000000000       0.75000000000000000        0.0000000000000000     
   1.2812500000000000       0.75000000000000000        0.0000000000000000     
   1.3125000000000000       0.75000000000000000        0.0000000000000000     
   1.3437500000000000       0.75000000000000000        0.0000000000000000     
   1.3750000000000000       0.75000000000000000        0.0000000000000000     
   1.3750000000000000       0.62500000000000000        0.0000000000000000     
   1.4062500000000000       0.62500000000000000        0.0000000000000000     
   1.4375000000000000       0.62500000000000000        0.0000000000000000     
   1.4687500000000000       0.62500000000000000        0.0000000000000000     
   1.5000000000000000       0.62500000000000000        0.0000000000000000     
   1.3750000000000000       0.65625000000000000        0.0000000000000000     
   1.4062500000000000       0.65625000000000000        0.0000000000000000     
   1.4375000000000000       0.65625000000000000        0.0000000000000000     
   1.4687500000000000       0.65625000000000000        0.0000000000000000     
   1.5000000000000000       0.65625000000000000        0.0000000000000000     
   1.3750000000000000       0.68750000000000000        0.0000000000000000     
   1.4062500000000000       0.68750000000000000        0.0000000000000000     
   1.4375000000000000       0.68750000000000000        0.0000000000000000     
   1.4687500000000000       0.68750000000000000        0.0000000000000000     
   1.5000000000000000       0.68750000000000000        0.0000000000000000     
   1.3750000000000000       0.71875000000000000        0.0000000000000000     
   1.4062500000000000       0.71875000000000000        0.0000000000000000     
   1.4375000000000000       0.71875000000000000        0.0000000000000000     
   1.4687500000000000       0.71875000000000000        0.0000000000000000     
   1.5000000000000000       0.71875000000000000        0.0000000000000000     
   1.3750000000000000       0.75000000000000000        0.0000000000000000     
   1.4062500000000000       0.75000000000000000        0.0000000000000000     
   1.4375000000000000       0.75000000000000000        0.0000000000000000     
   1.4687500000000000       0.75000000000000000        0.0000000000000000     
   1.5000000000000000       0.75000000000000000        0.0000000000000000     
  0.50000000000000000       0.75000000000000000        0.0000000000000000     
  0.53125000000000000       0.75000000000000000        0.0000000000000000     
  0.56250000000000000       0.75000000000000000        0.0000000000000000     
  0.59375000000000000       0.75000000000000000        0.0000000000000000     
  0.62500000000000000       0.75000000000000000        0.0000000000000000     
  0.50000000000000000       0.78125000000000000        0.0000000000000000     
  0.53125000000000000       0.78125000000000000        0.0000000000000000     
  0.56250000000000000       0.78125000000000000        0.0000000000000000     
  0.59375000000000000       0.78125000000000000        0.0000000000000000     
  0.62500000000000000       0.78125000000000000        0.0000000000000000     
  0.50000000000000000       0.81250000000000000        0.0000000000000000     
  0.53125000000000000       0.81250000000000000        0.0000000000000000     
  0.56250000000000000       0.81250000000000000        0.0000000000000000     
  0.59375000000000000       0.81250000000000000        0.0000000000000000     
  0.62500000000000000       0.81250000000000000        0.0000000000000000     
  0.50000000000000000       0.84375000000000000        0.0000000000000000     
  0.53125000000000000       0.84375000000000000        0.0000000000000000     
  0.56250000000000000       0.84375000000000000        0.0000000000000000     
  0.59375000000000000       0.84375000000000000        0.0000000000000000     
  0.62500000000000000       0.84375000000000000        0.0000000000000000     
  0.50000000000000000       0.87500000000000000        0.0000000000000000     
  0.53125000000000000       0.87500000000000000        0.0000000000000000     
  0.56250000000000000       0.87500000000000000        0.0000000000000000     
  0.59375000000000000       0.87500000000000000        0.0000000000000000     
  0.62500000000000000       0.87500000000000000        0.0000000000000000     
  0.62500000000000000       0.75000000000000000        0.0000000000000000     
  0.65625000000000000       0.75000000000000000        0.0000000000000000     
  0.68750000000000000       0.75000000000000000        0.0000000000000000     
  0.71875000000000000       0.75000000000000000        0.0000000000000000     
  0.75000000000000000       0.75000000000000000        0.0000000000000000     
  0.62500000000000000       0.78125000000000000        0.0000000000000000     
  0.65625000000000000       0.78125000000000000        0.0000000000000000     
  0.68750000000000000       0.78125000000000000        0.0000000000000000     
  0.71875000000000000       0.78125000000000000        0.0000000000000000     
  0.75000000000000000       0.78125000000000000        0.0000000000000000     
  0.62500000000000000       0.81250000000000000        0.0000000000000000     
  0.65625000000000000       0.81250000000000000        0.0000000000000000     
  0.68750000000000000       0.81250000000000000        0.0000000000000000     
  0.71875000000000000       0.81250000000000000        0.0000000000000000     
  0.75000000000000000       0.81250000000000000        0.0000000000000000     
  0.62500000000000000       0.84375000000000000        0.0000000000000000     
  0.65625000000000000       0.84375000000000000        0.0000000000000000     
  0.68750000000000000       0.84375000000000000        0.0000000000000000     
  0.71875000000000000       0.84375000000000000        0.0000000000000000     
  0.75000000000000000       0.84375000000000000        0.0000000000000000     
  0.62500000000000000       0.87500000000000000        0.0000000000000000     
  0.65625000000000000       0.87500000000000000        0.0000000000000000     
  0.68750000000000000       0.87500000000000000        0.0000000000000000     
  0.71875000000000000       0.87500000000000000        0.0000000000000000     
  0.75000000000000000       0.87500000000000000        0.0000000000000000     
  0.75000000000000000       0.75000000000000000        0.0000000000000000     
  0.78125000000000000       0.75000000000000000        0.0000000000000000     
  0.81250000000000000       0.75000000000000000        0.0000000000000000     
  0.84375000000000000       0.75000000000000000        0.0000000000000000     
  0.87500000000000000       0.75000000000000000        0.0000000000000000     
  0.75000000000000000       0.78125000000000000        0.0000000000000000     
  0.78125000000000000       0.78125000000000000        0.0000000000000000     
  0.81250000000000000       0.78125000000000000        0.0000000000000000     
  0.84375000000000000       0.78125000000000000        0.0000000000000000     
  0.87500000000000000       0.78125000000000000        0.0000000000000000     
  0.75000000000000000       0.81250000000000000        0.0000000000000000     
  0.78125000000000000       0.81250000000000000        0.0000000000000000     
  0.81250000000000000       0.81250000000000000        0.0000000000000000     
  0.84375000000000000       0.81250000000000000        0.0000000000000000     
  0.87500000000000000       0.81250000000000000        0.0000000000000000     
  0.75000000000000000       0.84375000000000000        0.0000000000000000     
  0.78125000000000000       0.84375000000000000        0.0000000000000000     
  0.81250000000000000       0.84375000000000000        0.0000000000000000     
  0.84375000000000000       0.84375000000000000        0.0000000000000000     
  0.87500000000000000       0.84375000000000000        0.0000000000000000     
  0.75000000000000000       0.87500000000000000        0.0000000000000000     
  0.78125000000000000       0.87500000000000000        0.0000000000000000     
  0.81250000000000000       0.87500000000000000        0.0000000000000000     
  0.84375000000000000       0.87500000000000000        0.0000000000000000     
  0.87500000000000000       0.87500000000000000        0.0000000000000000     
  0.87500000000000000       0.75000000000000000        0.0000000000000000     
  0.90625000000000000       0.75000000000000000        0.0000000000000000     
  0.93750000000000000       0.75000000000000000        0.0000000000000000     
  0.96875000000000000       0.75000000000000000        0.0000000000000000     
   1.0000000000000000       0.75000000000000000        0.0000000000000000     
  0.87500000000000000       0.78125000000000000        0.0000000000000000     
  0.90625000000000000       0.78125000000000000        0.0000000000000000     
  0.93750000000000000       0.78125000000000000        0.0000000000000000     
  0.96875000000000000       0.78125000000000000        0.0000000000000000     
   1.0000000000000000       0.78125000000000000        0.0000000000000000     
  0.87500000000000000       0.81250000000000000        0.0000000000000000     
  0.90625000000000000       0.81250000000000000        0.0000000000000000     
  0.93750000000000000       0.81250000000000000        0.0000000000000000     
  0.96875000000000000       0.81250000000000000        0.0000000000000000     
   1.0000000000000000       0.81250000000000000        0.0000000000000000     
  0.87500000000000000       0.84375000000000000        0.0000000000000000     
  0.90625000000000000       0.84375000000000000        0.0000000000000000     
  0.93750000000000000       0.84375000000000000        0.0000000000000000     
  0.96875000000000000       0.84375000000000000        0.0000000000000000     
   1.0000000000000000       0.84375000000000000        0.0000000000000000     
  0.87500000000000000       0.87500000000000000        0.0000000000000000     
  0.90625000000000000       0.87500000000000000        0.0000000000000000     
  0.93750000000000000       0.87500000000000000        0.0000000000000000     
  0.96875000000000000       0.87500000000000000        0.0000000000000000     
   1.0000000000000000       0.87500000000000000        0.0000000000000000     
   1.0000000000000000       0.75000000000000000        0.0000000000000000     
   1.0312500000000000       0.75000000000000000        0.0000000000000000     
   1.0625000000000000       0.75000000000000000        0.0000000000000000     
   1.0937500000000000       0.75000000000000000        0.0000000000000000     
   1.1250000000000000       0.75000000000000000        0.0000000000000000     
   1.0000000000000000       0.78125000000000000        0.0000000000000000     
   1.0312500000000000       0.78125000000000000        0.0000000000000000     
   1.0625000000000000       0.78125000000000000        0.0000000000000000     
   1.0937500000000000       0.78125000000000000        0.0000000000000000     
   1.1250000000000000       0.78125000000000000        0.0000000000000000     
   1.0000000000000000       0.81250000000000000        0.0000000000000000     
   1.0312500000000000       0.81250000000000000        0.0000000000000000     
   1.0625000000000000       0.81250000000000000        0.0000000000000000     
   1.0937500000000000       0.81250000000000000        0.0000000000000000     
   1.1250000000000000       0.81250000000000000        0.0000000000000000     
   1.0000000000000000       0.84375000000000000        0.0000000000000000     
   1.0312500000000000       0.84375000000000000        0.0000000000000000     
   1.0625000000000000       0.84375000000000000        0.0000000000000000     
   1.0937500000000000       0.84375000000000000        0.0000000000000000     
   1.1250000000000000       0.84375000000000000        0.0000000000000000     
   1.0000000000000000       0.87500000000000000        0.0000000000000000     
   1.0312500000000000       0.87500000000000000        0.0000000000000000     
   1.0625000000000000       0.87500000000000000        0.0000000000000000     
   1.0937500000000000       0.87500000000000000        0.0000000000000000     
   1.1250000000000000       0.87500000000000000        0.0000000000000000     
   1.1250000000000000       0.75000000000000000        0.0000000000000000     
   1.1562500000000000       0.75000000000000000        0.0000000000000000     
   1.1875000000000000       0.75000000000000000        0.0000000000000000     
   1.2187500000000000       0.75000000000000000        0.0000000000000000     
   1.2500000000000000       0.75000000000000000        0.0000000000000000     
   1.1250000000000000       0.78125000000000000        0.0000000000000000     
   1.1562500000000000       0.78125000000000000        0.0000000000000000     
   1.1875000000000000       0.78125000000000000        0.0000000000000000     
   1.2187500000000000       0.78125000000000000        0.0000000000000000     
   1.2500000000000000       0.78125000000000000        0.0000000000000000     
   1.1250000000000000       0.81250000000000000        0.0000000000000000     
   1.1562500000000000       0.81250000000000000        0.0000000000000000     
   1.1875000000000000       0.81250000000000000        0.0000000000000000     
   1.2187500000000000       0.81250000000000000        0.0000000000000000     
   1.2500000000000000       0.81250000000000000        0.0000000000000000     
   1.1250000000000000       0.84375000000000000        0.0000000000000000     
   1.1562500000000000       0.84375000000000000        0.0000000000000000     
   1.1875000000000000       0.84375000000000000        0.0000000000000000     
   1.2187500000000000       0.84375000000000000        0.0000000000000000     
   1.2500000000000000       0.84375000000000000        0.0000000000000000     
   1.1250000000000000       0.87500000000000000        0.0000000000000000     
   1.1562500000000000       0.87500000000000000        0.0000000000000000     
   1.1875000000000000       0.87500000000000000        0.0000000000000000     
   1.2187500000000000       0.87500000000000000        0.0000000000000000     
   1.2500000000000000       0.87500000000000000        0.0000000000000000     
   1.2500000000000000       0.75000000000000000        0.0000000000000000     
   1.2812500000000000       0.75000000000000000        0.0000000000000000     
   1.3125000000000000       0.75000000000000000        0.0000000000000000     
   1.3437500000000000       0.75000000000000000        0.0000000000000000     
   1.3750000000000000       0.75000000000000000        0.0000000000000000     
   1.2500000000000000       0.78125000000000000        0.0000000000000000     
   1.2812500000000000       0.78125000000000000        0.0000000000000000     
   1.3125000000000000       0.78125000000000000        0.0000000000000000     
   1.3437500000000000       0.78125000000000000        0.0000000000000000     
   1.3750000000000000       0.78125000000000000        0.0000000000000000     
   1.2500000000000000       0.81250000000000000        0.0000000000000000     
   1.2812500000000000       0.81250000000000000        0.0000000000000000     
   1.3125000000000000       0.81250000000000000        0.0000000000000000     
   1.3437500000000000       0.81250000000000000        0.0000000000000000     
   1.3750000000000000       0.81250000000000000        0.0000000000000000     
   1.2500000000000000       0.84375000000000000        0.0000000000000000     
   1.2812500000000000       0.84375000000000000        0.0000000000000000     
   1.3125000000000000       0.84375000000000000        0.0000000000000000     
   1.3437500000000000       0.84375000000000000        0.0000000000000000     
   1.3750000000000000       0.84375000000000000        0.0000000000000000     
   1.2500000000000000       0.87500000000000000        0.0000000000000000     
   1.2812500000000000       0.87500000000000000        0.0000000000000000     
   1.3125000000000000       0.87500000000000000        0.0000000000000000     
   1.3437500000000000       0.87500000000000000        0.0000000000000000     
   1.3750000000000000       0.87500000000000000        0.0000000000000000     
   1.3750000000000000       0.75000000000000000        0.0000000000000000     
   1.4062500000000000       0.75000000000000000        0.0000000000000000     
   1.4375000000000000       0.75000000000000000        0.0000000000000000     
   1.4687500000000000       0.75000000000000000        0.0000000000000000     
   1.5000000000000000       0.75000000000000000        0.0000000000000000     
   1.3750000000000000       0.78125000000000000        0.0000000000000000     
   1.4062500000000000       0.78125000000000000        0.0000000000000000     
   1.4375000000000000       0.78125000000000000        0.0000000000000000     
   1.4687500000000000       0.78125000000000000        0.0000000000000000     
   1.5000000000000000       0.78125000000000000        0.0000000000000000     
   1.3750000000000000       0.81250000000000000        0.0000000000000000     
   1.4062500000000000       0.81250000000000000        0.0000000000000000     
   1.4375000000000000       0.81250000000000000        0.0000000000000000     
   1.4687500000000000       0.81250000000000000        0.0000000000000000     
   1.5000000000000000       0.81250000000000000        0.0000000000000000     
   1.3750000000000000       0.84375000000000000        0.0000000000000000     
   1.4062500000000000       0.84375000000000000        0.0000000000000000     
   1.4375000000000000       0.84375000000000000        0.0000000000000000     
   1.4687500000000000       0.84375000000000000        0.0000000000000000     
   1.5000000000000000       0.84375000000000000        0.0000000000000000     
   1.3750000000000000       0.87500000000000000        0.0000000000000000     
   1.4062500000000000       0.87500000000000000        0.0000000000000000     
   1.4375000000000000       0.87500000000000000        0.0000000000000000     
   1.4687500000000000       0.87500000000000000        0.0000000000000000     
   1.5000000000000000       0.87500000000000000        0.0000000000000000     
  0.50000000000000000       0.87500000000000000        0.0000000000000000     
  0.53125000000000000       0.87500000000000000        0.0000000000000000     
  0.56250000000000000       0.87500000000000000        0.0000000000000000     
  0.59375000000000000       0.87500000000000000        0.0000000000000000     
  0.62500000000000000       0.87500000000000000        0.0000000000000000     
  0.50000000000000000       0.90625000000000000        0.0000000000000000     
  0.53125000000000000       0.90625000000000000        0.0000000000000000     
  0.56250000000000000       0.90625000000000000        0.0000000000000000     
  0.59375000000000000       0.90625000000000000        0.0000000000000000     
  0.62500000000000000       0.90625000000000000        0.0000000000000000     
  0.50000000000000000       0.93750000000000000        0.0000000000000000     
  0.53125000000000000       0.93750000000000000        0.0000000000000000     
  0.56250000000000000       0.93750000000000000        0.0000000000000000     
  0.59375000000000000       0.93750000000000000        0.0000000000000000     
  0.62500000000000000       0.93750000000000000        0.0000000000000000     
  0.50000000000000000       0.96875000000000000        0.0000000000000000     
  0.53125000000000000       0.96875000000000000        0.0000000000000000     
  0.56250000000000000       0.96875000000000000        0.0000000000000000     
  0.59375000000000000       0.96875000000000000        0.0000000000000000     
  0.62500000000000000       0.96875000000000000        0.0000000000000000     
  0.50000000000000000        1.0000000000000000        0.0000000000000000     
  0.53125000000000000        1.0000000000000000        0.0000000000000000     
  0.56250000000000000        1.0000000000000000        0.0000000000000000     
  0.59375000000000000        1.0000000000000000        0.0000000000000000     
  0.62500000000000000        1.0000000000000000        0.0000000000000000     
  0.62500000000000000       0.87500000000000000        0.0000000000000000     
  0.65625000000000000       0.87500000000000000        0.0000000000000000     
  0.68750000000000000       0.87500000000000000        0.0000000000000000     
  0.71875000000000000       0.87500000000000000        0.0000000000000000     
  0.75000000000000000       0.87500000000000000        0.0000000000000000     
  0.62500000000000000       0.90625000000000000        0.0000000000000000     
  0.65625000000000000       0.90625000000000000        0.0000000000000000     
  0.68750000000000000       0.90625000000000000        0.0000000000000000     
  0.71875000000000000       0.90625000000000000        0.0000000000000000     
  0.75000000000000000       0.90625000000000000        0.0000000000000000     
  0.62500000000000000       0.93750000000000000        0.0000000000000000     
  0.65625000000000000       0.93750000000000000        0.0000000000000000     
  0.68750000000000000       0.93750000000000000        0.0000000000000000     
  0.71875000000000000       0.93750000000000000        0.0000000000000000     
  0.75000000000000000       0.93750000000000000        0.0000000000000000     
  0.62500000000000000       0.96875000000000000        0.0000000000000000     
  0.65625000000000000       0.96875000000000000        0.0000000000000000     
  0.68750000000000000       0.96875000000000000        0.0000000000000000     
  0.71875000000000000       0.96875000000000000        0.0000000000000000     
  0.75000000000000000       0.96875000000000000        0.0000000000000000     
  0.62500000000000000        1.0000000000000000        0.0000000000000000     
  0.65625000000000000        1.0000000000000000        0.0000000000000000     
  0.68750000000000000        1.0000000000000000        0.0000000000000000     
  0.71875000000000000        1.0000000000000000        0.0000000000000000     
  0.75000000000000000        1.0000000000000000        0.0000000000000000     
  0.75000000000000000       0.87500000000000000        0.0000000000000000     
  0.78125000000000000       0.87500000000000000        0.0000000000000000     
  0.81250000000000000       0.87500000000000000        0.0000000000000000     
  0.84375000000000000       0.87500000000000000        0.0000000000000000     
  0.87500000000000000       0.87500000000000000        0.0000000000000000     
  0.75000000000000000       0.90625000000000000        0.0000000000000000     
  0.78125000000000000       0.90625000000000000        0.0000000000000000     
  0.81250000000000000       0.90625000000000000        0.0000000000000000     
  0.84375000000000000       0.90625000000000000        0.0000000000000000     
  0.87500000000000000       0.90625000000000000        0.0000000000000000     
  0.75000000000000000       0.93750000000000000        0.0000000000000000     
  0.78125000000000000       0.93750000000000000        0.0000000000000000     
  0.81250000000000000       0.93750000000000000        0.0000000000000000     
  0.84375000000000000       0.93750000000000000        0.0000000000000000     
  0.87500000000000000       0.93750000000000000        0.0000000000000000     
  0.75000000000000000       0.96875000000000000        0.0000000000000000     
  0.78125000000000000       0.96875000000000000        0.0000000000000000     
  0.81250000000000000       0.96875000000000000        0.0000000000000000     
  0.84375000000000000       0.96875000000000000        0.0000000000000000     
  0.87500000000000000       0.96875000000000000        0.0000000000000000     
  0.75000000000000000        1.0000000000000000        0.0000000000000000     
  0.78125000000000000        1.0000000000000000        0.0000000000000000     
  0.81250000000000000        1.0000000000000000        0.0000000000000000     
  0.84375000000000000        1.0000000000000000        0.0000000000000000     
  0.87500000000000000        1.0000000000000000        0.0000000000000000     
  0.87500000000000000       0.87500000000000000        0.0000000000000000     
  0.90625000000000000       0.87500000000000000        0.0000000000000000     
  0.93750000000000000       0.87500000000000000        0.0000000000000000     
  0.96875000000000000       0.87500000000000000        0.0000000000000000     
   1.0000000000000000       0.87500000000000000        0.0000000000000000     
  0.87500000000000000       0.90625000000000000        0.0000000000000000     
  0.90625000000000000       0.90625000000000000        0.0000000000000000     
  0.93750000000000000       0.90625000000000000        0.0000000000000000     
  0.96875000000000000       0.90625000000000000        0.0000000000000000     
   1.0000000000000000       0.90625000000000000        0.0000000000000000     
  0.87500000000000000       0.93750000000000000        0.0000000000000000     
  0.90625000000000000       0.93750000000000000        0.0000000000000000     
  0.93750000000000000       0.93750000000000000        0.0000000000000000     
  0.96875000000000000       0.93750000000000000        0.0000000000000000     
   1.0000000000000000       0.93750000000000000        0.0000000000000000     
  0.87500000000000000       0.96875000000000000        0.0000000000000000     
  0.90625000000000000       0.96875000000000000        0.0000000000000000     
  0.93750000000000000       0.96875000000000000        0.0000000000000000     
  0.96875000000000000       0.96875000000000000        0.0000000000000000     
   1.0000000000000000       0.96875000000000000        0.0000000000000000     
  0.87500000000000000        1.0000000000000000        0.0000000000000000     
  0.90625000000000000        1.0000000000000000        0.0000000000000000     
  0.93750000000000000        1.0000000000000000        0.0000000000000000     
  0.96875000000000000        1.0000000000000000        0.0000000000000000     
   1.0000000000000000        1.0000000000000000        0.0000000000000000     
   1.0000000000000000       0.87500000000000000        0.0000000000000000     
   1.0312500000000000       0.87500000000000000        0.0000000000000000     
   1.0625000000000000       0.87500000000000000        0.0000000000000000     
   1.0937500000000000       0.87500000000000000        0.0000000000000000     
   1.1250000000000000       0.87500000000000000        0.0000000000000000     
   1.0000000000000000       0.90625000000000000        0.0000000000000000     
   1.0312500000000000       0.90625000000000000        0.0000000000000000     
   1.0625000000000000       0.90625000000000000        0.0000000000000000     
   1.0937500000000000       0.90625000000000000        0.0000000000000000     
   1.1250000000000000       0.90625000000000000        0.0000000000000000     
   1.0000000000000000       0.93750000000000000        0.0000000000000000     
   1.0312500000000000       0.93750000000000000        0.0000000000000000     
   1.0625000000000000       0.93750000000000000        0.0000000000000000     
   1.0937500000000000       0.93750000000000000        0.0000000000000000     
   1.1250000000000000       0.93750000000000000        0.0000000000000000     
   1.0000000000000000       0.96875000000000000        0.0000000000000000     
   1.0312500000000000       0.96875000000000000        0.0000000000000000     
   1.0625000000000000       0.96875000000000000        0.0000000000000000     
   1.0937500000000000       0.96875000000000000        0.0000000000000000     
   1.1250000000000000       0.96875000000000000        0.0000000000000000     
   1.0000000000000000        1.0000000000000000        0.0000000000000000     
   1.0312500000000000        1.0000000000000000        0.0000000000000000     
   1.0625000000000000        1.0000000000000000        0.0000000000000000     
   1.0937500000000000        1.0000000000000000        0.0000000000000000     
   1.1250000000000000        1.0000000000000000        0.0000000000000000     
   1.1250000000000000       0.87500000000000000        0.0000000000000000     
   1.1562500000000000       0.87500000000000000        0.0000000000000000     
   1.1875000000000000       0.87500000000000000        0.0000000000000000     
   1.2187500000000000       0.87500000000000000        0.0000000000000000     
   1.2500000000000000       0.87500000000000000        0.0000000000000000     
   1.1250000000000000       0.90625000000000000        0.0000000000000000     
   1.1562500000000000       0.90625000000000000        0.0000000000000000     
   1.1875000000000000       0.90625000000000000        0.0000000000000000     
   1.2187500000000000       0.90625000000000000        0.0000000000000000     
   1.2500000000000000       0.90625000000000000        0.0000000000000000     
   1.1250000000000000       0.93750000000000000        0.0000000000000000     
   1.1562500000000000       0.93750000000000000        0.0000000000000000     
   1.1875000000000000       0.93750000000000000        0.0000000000000000     
   1.2187500000000000       0.93750000000000000        0.0000000000000000     
   1.2500000000000000       0.93750000000000000        0.0000000000000000     
   1.1250000000000000       0.96875000000000000        0.0000000000000000     
   1.1562500000000000       0.96875000000000000        0.0000000000000000     
   1.1875000000000000       0.96875000000000000        0.0000000000000000     
   1.2187500000000000       0.96875000000000000        0.0000000000000000     
   1.2500000000000000       0.96875000000000000        0.0000000000000000     
   1.1250000000000000        1.0000000000000000        0.0000000000000000     
   1.1562500000000000        1.0000000000000000        0.0000000000000000     
   1.1875000000000000        1.0000000000000000        0.0000000000000000     
   1.2187500000000000        1.0000000000000000        0.0000000000000000     
   1.2500000000000000        1.0000000000000000        0.0000000000000000     
   1.2500000000000000       0.87500000000000000        0.0000000000000000     
   1.2812500000000000       0.87500000000000000        0.0000000000000000     
   1.3125000000000000       0.87500000000000000        0.0000000000000000     
   1.3437500000000000       0.87500000000000000        0.0000000000000000     
   1.3750000000000000       0.87500000000000000        0.0000000000000000     
   1.2500000000000000       0.90625000000000000        0.0000000000000000     
   1.2812500000000000       0.90625000000000000        0.0000000000000000     
   1.3125000000000000       0.90625000000000000        0.0000000000000000     
   1.3437500000000000       0.90625000000000000        0.0000000000000000     
   1.3750000000000000       0.90625000000000000        0.0000000000000000     
   1.2500000000000000       0.93750000000000000        0.0000000000000000     
   1.2812500000000000       0.93750000000000000        0.0000000000000000     
   1.3125000000000000       0.93750000000000000        0.0000000000000000     
   1.3437500000000000       0.93750000000000000        0.0000000000000000     
   1.3750000000000000       0.93750000000000000        0.0000000000000000     
   1.2500000000000000       0.96875000000000000        0.0000000000000000     
   1.2812500000000000       0.96875000000000000        0.0000000000000000     
   1.3125000000000000       0.96875000000000000        0.0000000000000000     
   1.3437500000000000       0.96875000000000000        0.0000000000000000     
   1.3750000000000000       0.96875000000000000        0.0000000000000000     
   1.2500000000000000        1.0000000000000000        0.0000000000000000     
   1.2812500000000000        1.0000000000000000        0.0000000000000000     
   1.3125000000000000        1.0000000000000000        0.0000000000000000     
   1.3437500000000000        1.0000000000000000        0.0000000000000000     
   1.3750000000000000        1.0000000000000000        0.0000000000000000     
   1.3750000000000000       0.87500000000000000        0.0000000000000000     
   1.4062500000000000       0.87500000000000000        0.0000000000000000     
   1.4375000000000000       0.87500000000000000        0.0000000000000000     
   1.4687500000000000       0.87500000000000000        0.0000000000000000     
   1.5000000000000000       0.87500000000000000        0.0000000000000000     
   1.3750000000000000       0.90625000000000000        0.0000000000000000     
   1.4062500000000000       0.90625000000000000        0.0000000000000000     
   1.4375000000000000       0.90625000000000000        0.0000000000000000     
   1.4687500000000000       0.90625000000000000        0.0000000000000000     
   1.5000000000000000       0.90625000000000000        0.0000000000000000     
   1.3750000000000000       0.93750000000000000        0.0000000000000000     
   1.4062500000000000       0.93750000000000000        0.0000000000000000     
   1.4375000000000000       0.93750000000000000        0.0000000000000000     
   1.4687500000000000       0.93750000000000000        0.0000000000000000     
   1.5000000000000000       0.93750000000000000        0.0000000000000000     
   1.3750000000000000       0.96875000000000000        0.0000000000000000     
   1.4062500000000000       0.96875000000000000        0.0000000000000000     
   1.4375000000000000       0.96875000000000000        0.0000000000000000     
   1.4687500000000000       0.96875000000000000        0.0000000000000000     
   1.5000000000000000       0.96875000000000000        0.0000000000000000     
   1.3750000000000000        1.0000000000000000        0.0000000000000000     
   1.4062500000000000        1.0000000000000000        0.0000000000000000     
   1.4375000000000000        1.0000000000000000        0.0000000000000000     
   1.4687500000000000        1.0000000000000000        0.0000000000000000     
   1.5000000000000000        1.0000000000000000        0.0000000000000000     
 </DataArray>
 </Points>
 <Cells>
 <DataArray  type="Int32"  Name="connectivity"  format="ascii">
           0           1           6           5
           1           2           7           6
           2           3           8           7
           3           4           9           8
           5           6          11          10
           6           7          12          11
           7           8          13          12
           8           9          14          13
          10          11          16          15
          11          12          17          16
          12          13          18          17
          13          14          19          18
          15          16          21          20
          16          17          22          21
          17          18          23          22
          18          19          24          23
          25          26          31          30
          26          27          32          31
          27          28          33          32
          28          29          34          33
          30          31          36          35
          31          32          37          36
          32          33          38          37
          33          34          39          38
          35          36          41          40
          36          37          42          41
          37          38          43          42
          38          39          44          43
          40          41          46          45
          41          42          47          46
          42          43          48          47
          43          44          49          48
          50          51          56          55
          51          52          57          56
          52          53          58          57
          53          54          59          58
          55          56          61          60
          56          57          62          61
          57          58          63          62
          58          59          64          63
          60          61          66          65
          61          62          67          66
          62          63          68          67
          63          64          69          68
          65          66          71          70
          66          67          72          71
          67          68          73          72
          68          69          74          73
          75          76          81          80
          76          77          82          81
          77          78          83          82
          78          79          84          83
          80          81          86          85
          81          82          87          86
          82          83          88          87
          83          84          89          88
          85          86          91          90
          86          87          92          91
          87          88          93          92
          88          89          94          93
          90          91          96          95
          91          92          97          96
          92          93          98          97
          93          94          99          98
         100         101         106         105
         101         102         107         106
         102         103         108         107
         103         104         109         108
         105         106         111         110
         106         107         112         111
         107         108         113         112
         108         109         114         113
         110         111         116         115
         111         112         117         116
         112         113         118         117
         113         114         119         118
         115         116         121         120
         116         117         122         121
         117         118         123         122
         118         119         124         123
         125         126         131         130
         126         127         132         131
         127         128         133         132
         128         129         134         133
         130         131         136         135
         131         132         137         136
         132         133         138         137
         133         134         139         138
         135         136         141         140
         136         137         142         141
         137         138         143         142
         138         139         144         143
         140         141         146         145
         141         142         147         146
         142         143         148         147
         143         144         149         148
         150         151         156         155
         151         152         157         156
         152         153         158         157
         153         154         159         158
         155         156         161         160
         156         157         162         161
         157         158         163         162
         158         159         164         163
         160         161         166         165
         161         162         167         166
         162         163         168         167
         163         164         169         168
         165         166         171         170
         166         167         172         171
         167         168         173         172
         168         169         174         173
         175         176         181         180
         176         177         182         181
         177         178         183         182
         178         179         184         183
         180         181         186         185
         181         182         187         186
         182         183         188         187
         183         184         189         188
         185         186         191         190
         186         187         192         191
         187         188         193         192
         188         189         194         193
         190         191         196         195
         191         192         197         196
         192         193         198         197
         193         194         199         198
         200         201         206         205
         201         202         207         206
         202         203         208         207
         203         204         209         208
         205         206         211         210
         206         207         212         211
         207         208         213         212
         208         209         214         213
         210         211         216         215
         211         212         217         216
         212         213         218         217
         213         214         219         218
         215         216         221         220
         216         217         222         221
         217         218         223         222
         218         219         224         223
         225         226         231         230
         226         227         232         231
         227         228         233         232
         228         229         234         233
         230         231         236         235
         231         232         237         236
         232         233         238         237
         233         234         239         238
         235         236         241         240
         236         237         242         241
         237         238         243         242
         238         239         244         243
         240         241         246         245
         241         242         247         246
         242         243         248         247
         243         244         249         248
         250         251         256         255
         251         252         257         256
         252         253         258         257
         253         254         259         258
         255         256         261         260
         256         257         262         261
         257         258         263         262
         258         259         264         263
         260         261         266         265
         261         262         267         266
         262         263         268         267
         263         264         269         268
         265         266         271         270
         266         267         272         271
         267         268         273         272
         268         269         274         273
         275         276         281         280
         276         277         282         281
         277         278         283         282
         278         279         284         283
         280         281         286         285
         281         282         287         286
         282         283         288         287
         283         284         289         288
         285         286         291         290
         286         287         292         291
         287         288         293         292
         288         289         294         293
         290         291         296         295
         291         292         297         296
         292         293         298         297
         293         294         299         298
         300         301         306         305
         301         302         307         306
         302         303         308         307
         303         304         309         308
         305         306         311         310
         306         307         312         311
         307         308         313         312
         308         309         314         313
         310         311         316         315
         311         312         317         316
         312         313         318         317
         313         314         319         318
         315         316         321         320
         316         317         322         321
         317         318         323         322
         318         319         324         323
         325         326         331         330
         326         327         332         331
         327         328         333         332
         328         329         334         333
         330         331         336         335
         331         332         337         336
         332         333         338         337
         333         334         339         338
         335         336         341         340
         336         337         342         341
         337         338         343         342
         338         339         344         343
         340         341         346         345
         341         342         347         346
         342         343         348         347
         343         344         349         348
         350         351         356         355
         351         352         357         356
         352         353         358         357
         353         354         359         358
         355         356         361         360
         356         357         362         361
         357         358         363         362
         358         359         364         363
         360         361         366         365
         361         362         367         366
         362         363         368         367
         363         364         369         368
         365         366         371         370
         366         367         372         371
         367         368         373         372
         368         369         374         373
         375         376         381         380
         376         377         382         381
         377         378         383         382
         378         379         384         383
         380         381         386         385
         381         382         387         386
         382         383         388         387
         383         384         389         388
         385         386         391         390
         386         387         392         391
         387         388         393         392
         388         389         394         393
         390         391         396         395
         391         392         397         396
         392         393         398         397
         393         394         399         398
         400         401         406         405
         401         402         407         406
         402         403         408         407
         403         404         409         408
         405         406         411         410
         406         407         412         411
         407         408         413         412
         408         409         414         413
         410         411         416         415
         411         412         417         416
         412         413         418         417
         413         414         419         418
         415         416         421         420
         416         417         422         421
         417         418         423         422
         418         419         424         423
         425         426         431         430
         426         427         432         431
         427         428         433         432
         428         429         434         433
         430         431         436         435
         431         432         437         436
         432         433         438         437
         433         434         439         438
         435         436         441         440
         436         437         442         441
         437         438         443         442
         438         439         444         443
         440         441         446         445
         441         442         447         446
         442         443         448         447
         443         444         449         448
         450         451         456         455
         451         452         457         456
         452         453         458         457
         453         454         459         458
         455         456         461         460
         456         457         462         461
         457         458         463         462
         458         459         464         463
         460         461         466         465
         461         462         467         466
         462         463         468         467
         463         464         469         468
         465         466         471         470
         466         467         472         471
         467         468         473         472
         468         469         474         473
         475         476         481         480
         476         477         482         481
         477         478         483         482
         478         479         484         483
         480         481         486         485
         481         482         487         486
         482         483         488         487
         483         484         489         488
         485         486         491         490
         486         487         492         491
         487         488         493         492
         488         489         494         493
         490         491         496         495
         491         492         497         496
         492         493         498         497
         493         494         499         498
         500         501         506         505
         501         502         507         506
         502         503         508         507
         503         504         509         508
         505         506         511         510
         506         507         512         511
         507         508         513         512
         508         509         514         513
         510         511         516         515
         511         512         517         516
         512         513         518         517
         513         514         519         518
         515         516         521         520
         516         517         522         521
         517         518         523         522
         518         519         524         523
         525         526         531         530
         526         527         532         531
         527         528         533         532
         528         529         534         533
         530         531         536         535
         531         532         537         536
         532         533         538         537
         533         534         539         538
         535         536         541         540
         536         537         542         541
         537         538         543         542
         538         539         544         543
         540         541         546         545
         541         542         547         546
         542         543         548         547
         543         544         549         548
         550         551         556         555
         551         552         557         556
         552         553         558         557
         553         554         559         558
         555         556         561         560
         556         557         562         561
         557         558         563         562
         558         559         564         563
         560         561         566         565
         561         562         567         566
         562         563         568         567
         563         564         569         568
         565         566         571         570
         566         567         572         571
         567         568         573         572
         568         569         574         573
         575         576         581         580
         576         577         582         581
         577         578         583         582
         578         579         584         583
         580         581         586         585
         581         582         587         586
         582         583         588         587
         583         584         589         588
         585         586         591         590
         586         587         592         591
         587         588         593         592
         588         589         594         593
         590         591         596         595
         591         592         597         596
         592         593         598         597
         593         594         599         598
         600         601         606         605
         601         602         607         606
         602         603         608         607
         603         604         609         608
         605         606         611         610
         606         607         612         611
         607         608         613         612
         608         609         614         613
         610         611         616         615
         611         612         617         616
         612         613         618         617
         613         614         619         618
         615         616         621         620
         616         617         622         621
         617         618         623         622
         618         619         624         623
         625         626         631         630
         626         627         632         631
         627         628         633         632
         628         629         634         633
         630         631         636         635
         631         632         637         636
         632         633         638         637
         633         634         639         638
         635         636         641         640
         636         637         642         641
         637         638         643         642
         638         639         644         643
         640         641         646         645
         641         642         647         646
         642         643         648         647
         643         644         649         648
         650         651         656         655
         651         652         657         656
         652         653         658         657
         653         654         659         658
         655         656         661         660
         656         657         662         661
         657         658         663         662
         658         659         664         663
         660         661         666         665
         661         662         667         666
         662         663         668         667
         663         664         669         668
         665         666         671         670
         666         667         672         671
         667         668         673         672
         668         669         674         673
         675         676         681         680
         676         677         682         681
         677         678         683         682
         678         679         684         683
         680         681         686         685
         681         682         687         686
         682         683         688         687
         683         684         689         688
         685         686         691         690
         686         687         692         691
         687         688         693         692
         688         689         694         693
         690         691         696         695
         691         692         697         696
         692         693         698         697
         693         694         699         698
         700         701         706         705
         701         702         707         706
         702         703         708         707
         703         704         709         708
         705         706         711         710
         706         707         712         711
         707         708         713         712
         708         709         714         713
         710         711         716         715
         711         712         717         716
         712         713         718         717
         713         714         719         718
         715         716         721         720
         716         717         722         721
         717         718         723         722
         718         719         724         723
         725         726         731         730
         726         727         732         731
         727         728         733         732
         728         729         734         733
         730         731         736         735
         731         732         737         736
         732         733         738         737
         733         734         739         738
         735         736         741         740
         736         737         742         741
         737         738         743         742
         738         739         744         743
         740         741         746         745
         741         742         747         746
         742         743         748         747
         743         744         749         748
         750         751         756         755
         751         752         757         756
         752         753         758         757
         753         754         759         758
         755         756         761         760
         756         757         762         761
         757         758         763         762
         758         759         764         763
         760         761         766         765
         761         762         767         766
         762         763         768         767
         763         764         769         768
         765         766         771         770
         766         767         772         771
         767         768         773         772
         768         769         774         773
         775         776         781         780
         776         777         782         781
         777         778         783         782
         778         779         784         783
         780         781         786         785
         781         782         787         786
         782         783         788         787
         783         784         789         788
         785         786         791         790
         786         787         792         791
         787         788         793         792
         788         789         794         793
         790         791         796         795
         791         792         797         796
         792         793         798         797
         793         794         799         798
         800         801         806         805
         801         802         807         806
         802         803         808         807
         803         804         809         808
         805         806         811         810
         806         807         812         811
         807         808         813         812
         808         809         814         813
         810         811         816         815
         811         812         817         816
         812         813         818         817
         813         814         819         818
         815         816         821         820
         816         817         822         821
         817         818         823         822
         818         819         824         823
         825         826         831         830
         826         827         832         831
         827         828         833         832
         828         829         834         833
         830         831         836         835
         831         832         837         836
         832         833         838         837
         833         834         839         838
         835         836         841         840
         836         837         842         841
         837         838         843         842
         838         839         844         843
         840         841         846         845
         841         842         847         846
         842         843         848         847
         843         844         849         848
         850         851         856         855
         851         852         857         856
         852         853         858         857
         853         854         859         858
         855         856         861         860
         856         857         862         861
         857         858         863         862
         858         859         864         863
         860         861         866         865
         861         862         867         866
         862         863         868         867
         863         864         869         868
         865         866         871         870
         866         867         872         871
         867         868         873         872
         868         869         874         873
         875         876         881         880
         876         877         882         881
         877         878         883         882
         878         879         884         883
         880         881         886         885
         881         882         887         886
         882         883         888         887
         883         884         889         888
         885         886         891         890
         886         887         892         891
         887         888         893         892
         888         889         894         893
         890         891         896         895
         891         892         897         896
         892         893         898         897
         893         894         899         898
         900         901         906         905
         901         902         907         906
         902         903         908         907
         903         904         909         908
         905         906         911         910
         906         907         912         911
         907         908         913         912
         908         909         914         913
         910         911         916         915
         911         912         917         916
         912         913         918         917
         913         914         919         918
         915         916         921         920
         916         917         922         921
         917         918         923         922
         918         919         924         923
         925         926         931         930
         926         927         932         931
         927         928         933         932
         928         929         934         933
         930         931         936         935
         931         932         937         936
         932         933         938         937
         933         934         939         938
         935         936         941         940
         936         937         942         941
         937         938         943         942
         938         939         944         943
         940         941         946         945
         941         942         947         946
         942         943         948         947
         943         944         949         948
         950         951         956         955
         951         952         957         956
         952         953         958         957
         953         954         959         958
         955         956         961         960
         956         957         962         961
         957         958         963         962
         958         959         964         963
         960         961         966         965
         961         962         967         966
         962         963         968         967
         963         964         969         968
         965         966         971         970
         966         967         972         971
         967         968         973         972
         968         969         974         973
         975         976         981         980
         976         977         982         981
         977         978         983         982
         978         979         984         983
         980         981         986         985
         981         982         987         986
         982         983         988         987
         983         984         989         988
         985         986         991         990
         986         987         992         991
         987         988         993         992
         988         989         994         993
         990         991         996         995
         991         992         997         996
         992         993         998         997
         993         994         999         998
        1000        1001        1006        1005
        1001        1002        1007        1006
        1002        1003        1008        1007
        1003        1004        1009        1008
        1005        1006        1011        1010
        1006        1007        1012        1011
        1007        1008        1013        1012
        1008        1009        1014        1013
        1010        1011        1016        1015
        1011        1012        1017        1016
        1012        1013        1018        1017
        1013        1014        1019        1018
        1015        1016        1021        1020
        1016        1017        1022        1021
        1017        1018        1023        1022
        1018        1019        1024        1023
        1025        1026        1031        1030
        1026        1027        1032        1031
        1027        1028        1033        1032
        1028        1029        1034        1033
        1030        1031        1036        1035
        1031        1032        1037        1036
        1032        1033        1038        1037
        1033        1034        1039        1038
        1035        1036        1041        1040
        1036        1037        1042        1041
        1037        1038        1043        1042
        1038        1039        1044        1043
        1040        1041        1046        1045
        1041        1042        1047        1046
        1042        1043        1048        1047
        1043        1044        1049        1048
        1050        1051        1056        1055
        1051        1052        1057        1056
        1052        1053        1058        1057
        1053        1054        1059        1058
        1055        1056        1061        1060
        1056        1057        1062        1061
        1057        1058        1063        1062
        1058        1059        1064        1063
        1060        1061        1066        1065
        1061        1062        1067        1066
        1062        1063        1068        1067
        1063        1064        1069        1068
        1065        1066        1071        1070
        1066        1067        1072        1071
        1067        1068        1073        1072
        1068        1069        1074        1073
        1075        1076        1081        1080
        1076        1077        1082        1081
        1077        1078        1083        1082
        1078        1079        1084        1083
        1080        1081        1086        1085
        1081        1082        1087        1086
        1082        1083        1088        1087
        1083        1084        1089        1088
        1085        1086        1091        1090
        1086        1087        1092        1091
        1087        1088        1093        1092
        1088        1089        1094        1093
        1090        1091        1096        1095
        1091        1092        1097        1096
        1092        1093        1098        1097
        1093        1094        1099        1098
        1100        1101        1106        1105
        1101        1102        1107        1106
        1102        1103        1108        1107
        1103        1104        1109        1108
        1105        1106        1111        1110
        1106        1107        1112        1111
        1107        1108        1113        1112
        1108        1109        1114        1113
        1110        1111        1116        1115
        1111        1112        1117        1116
        1112        1113        1118        1117
        1113        1114        1119        1118
        1115        1116        1121        1120
        1116        1117        1122        1121
        1117        1118        1123        1122
        1118        1119        1124        1123
        1125        1126        1131        1130
        1126        1127        1132        1131
        1127        1128        1133        1132
        1128        1129        1134        1133
        1130        1131        1136        1135
        1131        1132        1137        1136
        1132        1133        1138        1137
        1133        1134        1139        1138
        1135        1136        1141        1140
        1136        1137        1142        1141
        1137        1138        1143        1142
        1138        1139        1144        1143
        1140        1141        1146        1145
        1141        1142        1147        1146
        1142        1143        1148        1147
        1143        1144        1149        1148
        1150        1151        1156        1155
        1151        1152        1157        1156
        1152        1153        1158        1157
        1153        1154        1159        1158
        1155        1156        1161        1160
        1156        1157        1162        1161
        1157        1158        1163        1162
        1158        1159        1164        1163
        1160        1161        1166        1165
        1161        1162        1167        1166
        1162        1163        1168        1167
        1163        1164        1169        1168
        1165        1166        1171        1170
        1166        1167        1172        1171
        1167        1168        1173        1172
        1168        1169        1174        1173
        1175        1176        1181        1180
        1176        1177        1182        1181
        1177        1178        1183        1182
        1178        1179        1184        1183
        1180        1181        1186        1185
        1181        1182        1187        1186
        1182        1183        1188        1187
        1183        1184        1189        1188
        1185        1186        1191        1190
        1186        1187        1192        1191
        1187        1188        1193        1192
        1188        1189        1194        1193
        1190        1191        1196        1195
        1191        1192        1197        1196
        1192        1193        1198        1197
        1193        1194        1199        1198
        1200        1201        1206        1205
        1201        1202        1207        1206
        1202        1203        1208        1207
        1203        1204        1209        1208
        1205        1206        1211        1210
        1206        1207        1212        1211
        1207        1208        1213        1212
        1208        1209        1214        1213
        1210        1211        1216        1215
        1211        1212        1217        1216
        1212        1213        1218        1217
        1213        1214        1219        1218
        1215        1216        1221        1220
        1216        1217        1222        1221
        1217        1218        1223        1222
        1218        1219        1224        1223
        1225        1226        1231        1230
        1226        1227        1232        1231
        1227        1228        1233        1232
        1228        1229        1234        1233
        1230        1231        1236        1235
        1231        1232        1237        1236
        1232        1233        1238        1237
        1233        1234        1239        1238
        1235        1236        1241        1240
        1236        1237        1242        1241
        1237        1238        1243        1242
        1238        1239        1244        1243
        1240        1241        1246        1245
        1241        1242        1247        1246
        1242        1243        1248        1247
        1243        1244        1249        1248
        1250        1251        1256        1255
        1251        1252        1257        1256
        1252        1253        1258        1257
        1253        1254        1259        1258
        1255        1256        1261        1260
        1256        1257        1262        1261
        1257        1258        1263        1262
        1258        1259        1264        1263
        1260        1261        1266        1265
        1261        1262        1267        1266
        1262        1263        1268        1267
        1263        1264        1269        1268
        1265        1266        1271        1270
        1266        1267        1272        1271
        1267        1268        1273        1272
        1268        1269        1274        1273
        1275        1276        1281        1280
        1276        1277        1282        1281
        1277        1278        1283        1282
        1278        1279        1284        1283
        1280        1281        1286        1285
        1281        1282        1287        1286
        1282        1283        1288        1287
        1283        1284        1289        1288
        1285        1286        1291        1290
        1286        1287        1292        1291
        1287        1288        1293        1292
        1288        1289        1294        1293
        1290        1291        1296        1295
        1291        1292        1297        1296
        1292        1293        1298        1297
        1293        1294        1299        1298
        1300        1301        1306        1305
        1301        1302        1307        1306
        1302        1303        1308        1307
        1303        1304        1309        1308
        1305        1306        1311        1310
        1306        1307        1312        1311
        1307        1308        1313        1312
        1308        1309        1314        1313
        1310        1311        1316        1315
        1311        1312        1317        1316
        1312        1313        1318        1317
        1313        1314        1319        1318
        1315        1316        1321        1320
        1316        1317        1322        1321
        1317        1318        1323        1322
        1318        1319        1324        1323
        1325        1326        1331        1330
        1326        1327        1332        1331
        1327        1328        1333        1332
        1328        1329        1334        1333
        1330        1331        1336        1335
        1331        1332        1337        1336
        1332        1333        1338        1337
        1333        1334        1339        1338
        1335        1336        1341        1340
        1336        1337        1342        1341
        1337        1338        1343        1342
        1338        1339        1344        1343
        1340        1341        1346        1345
        1341        1342        1347        1346
        1342        1343        1348        1347
        1343        1344        1349        1348
        1350        1351        1356        1355
        1351        1352        1357        1356
        1352        1353        1358        1357
        1353        1354        1359        1358
        1355        1356        1361        1360
        1356        1357        1362        1361
        1357        1358        1363        1362
        1358        1359        1364        1363
        1360        1361        1366        1365
        1361        1362        1367        1366
        1362        1363        1368        1367
        1363        1364        1369        1368
        1365        1366        1371        1370
        1366        1367        1372        1371
        1367        1368        1373        1372
        1368        1369        1374        1373
        1375        1376        1381        1380
        1376        1377        1382        1381
        1377        1378        1383        1382
        1378        1379        1384        1383
        1380        1381        1386        1385
        1381        1382        1387        1386
        1382        1383        1388        1387
        1383        1384        1389        1388
        1385        1386        1391        1390
        1386        1387        1392        1391
        1387        1388        1393        1392
        1388        1389        1394        1393
        1390        1391        1396        1395
        1391        1392        1397        1396
        1392        1393        1398        1397
        1393        1394        1399        1398
        1400        1401        1406        1405
        1401        1402        1407        1406
        1402        1403        1408        1407
        1403        1404        1409        1408
        1405        1406        1411        1410
        1406        1407        1412        1411
        1407        1408        1413        1412
        1408        1409        1414        1413
        1410        1411        1416        1415
        1411        1412        1417        1416
        1412        1413        1418        1417
        1413        1414        1419        1418
        1415        1416        1421        1420
        1416        1417        1422        1421
        1417        1418        1423        1422
        1418        1419        1424        1423
        1425        1426        1431        1430
        1426        1427        1432        1431
        1427        1428        1433        1432
        1428        1429        1434        1433
        1430        1431        1436        1435
        1431        1432        1437        1436
        1432        1433        1438        1437
        1433        1434        1439        1438
        1435        1436        1441        1440
        1436        1437        1442        1441
        1437        1438        1443        1442
        1438        1439        1444        1443
        1440        1441        1446        1445
        1441        1442        1447        1446
        1442        1443        1448        1447
        1443        1444        1449        1448
        1450        1451        1456        1455
        1451        1452        1457        1456
        1452        1453        1458        1457
        1453        1454        1459        1458
        1455        1456        1461        1460
        1456        1457        1462        1461
        1457        1458        1463        1462
        1458        1459        1464        1463
        1460        1461        1466        1465
        1461        1462        1467        1466
        1462        1463        1468        1467
        1463        1464        1469        1468
        1465        1466        1471        1470
        1466        1467        1472        1471
        1467        1468        1473        1472
        1468        1469        1474        1473
        1475        1476        1481        1480
        1476        1477        1482        1481
        1477        1478        1483        1482
        1478        1479        1484        1483
        1480        1481        1486        1485
        1481        1482        1487        1486
        1482        1483        1488        1487
        1483        1484        1489        1488
        1485        1486        1491        1490
        1486        1487        1492        1491
        1487        1488        1493        1492
        1488        1489        1494        1493
        1490        1491        1496        1495
        1491        1492        1497        1496
        1492        1493        1498        1497
        1493        1494        1499        1498
        1500        1501        1506        1505
        1501        1502        1507        1506
        1502        1503        1508        1507
        1503        1504        1509        1508
        1505        1506        1511        1510
        1506        1507        1512        1511
        1507        1508        1513        1512
        1508        1509        1514        1513
        1510        1511        1516        1515
        1511        1512        1517        1516
        1512        1513        1518        1517
        1513        1514        1519        1518
        1515        1516        1521        1520
        1516        1517        1522        1521
        1517        1518        1523        1522
        1518        1519        1524        1523
        1525        1526        1531        1530
        1526        1527        1532        1531
        1527        1528        1533        1532
        1528        1529        1534        1533
        1530        1531        1536        1535
        1531        1532        1537        1536
        1532        1533        1538        1537
        1533        1534        1539        1538
        1535        1536        1541        1540
        1536        1537        1542        1541
        1537        1538        1543        1542
        1538        1539        1544        1543
        1540        1541        1546        1545
        1541        1542        1547        1546
        1542        1543        1548        1547
        1543        1544        1549        1548
        1550        1551        1556        1555
        1551        1552        1557        1556
        1552        1553        1558        1557
        1553        1554        1559        1558
        1555        1556        1561        1560
        1556        1557        1562        1561
        1557        1558        1563        1562
        1558        1559        1564        1563
        1560        1561        1566        1565
        1561        1562        1567        1566
        1562        1563        1568        1567
        1563        1564        1569        1568
        1565        1566        1571        1570
        1566        1567        1572        1571
        1567        1568        1573        1572
        1568        1569        1574        1573
        1575        1576        1581        1580
        1576        1577        1582        1581
        1577        1578        1583        1582
        1578        1579        1584        1583
        1580        1581        1586        1585
        1581        1582        1587        1586
        1582        1583        1588        1587
        1583        1584        1589        1588
        1585        1586        1591        1590
        1586        1587        1592        1591
        1587        1588        1593        1592
        1588        1589        1594        1593
        1590        1591        1596        1595
        1591        1592        1597        1596
        1592        1593        1598        1597
        1593        1594        1599        1598
 </DataArray>
 <DataArray  type="Int32"  Name="offsets"  format="ascii"> 
           4
           8
          12
          16
          20
          24
          28
          32
          36
          40
          44
          48
          52
          56
          60
          64
          68
          72
          76
          80
          84
          88
          92
          96
         100
         104
         108
         112
         116
         120
         124
         128
         132
         136
         140
         144
         148
         152
         156
         160
         164
         168
         172
         176
         180
         184
         188
         192
         196
         200
         204
         208
         212
         216
         220
         224
         228
         232
         236
         240
         244
         248
         252
         256
         260
         264
         268
         272
         276
         280
         284
         288
         292
         296
         300
         304
         308
         312
         316
         320
         324
         328
         332
         336
         340
         344
         348
         352
         356
         360
         364
         368
         372
         376
         380
         384
         388
         392
         396
         400
         404
         408
         412
         416
         420
         424
         428
         432
         436
         440
         444
         448
         452
         456
         460
         464
         468
         472
         476
         480
         484
         488
         492
         496
         500
         504
         508
         512
         516
         520
         524
         528
         532
         536
         540
         544
         548
         552
         556
         560
         564
         568
         572
         576
         580
         584
         588
         592
         596
         600
         604
         608
         612
         616
         620
         624
         628
         632
         636
         640
         644
         648
         652
         656
         660
         664
         668
         672
         676
         680
         684
         688
         692
         696
         700
         704
         708
         712
         716
         720
         724
         728
         732
         736
         740
         744
         748
         752
         756
         760
         764
         768
         772
         776
         780
         784
         788
         792
         796
         800
         804
         808
         812
         816
         820
         824
         828
         832
         836
         840
         844
         848
         852
         856
         860
         864
         868
         872
         876
         880
         884
         888
         892
         896
         900
         904
         908
         912
         916
         920
         924
         928
         932
         936
         940
         944
         948
         952
         956
         960
         964
         968
         972
         976
         980
         984
         988
         992
         996
        1000
        1004
        1008
        1012
        1016
        1020
        1024
        1028
        1032
        1036
        1040
        1044
        1048
        1052
        1056
        1060
        1064
        1068
        1072
        1076
        1080
        1084
        1088
        1092
        1096
        1100
        1104
        1108
        1112
        1116
        1120
        1124
        1128
        1132
        1136
        1140
        1144
        1148
        1152
        1156
        1160
        1164
        1168
        1172
        1176
        1180
        1184
        1188
        1192
        1196
        1200
        1204
        1208
        1212
        1216
        1220
        1224
        1228
        1232
        1236
        1240
        1244
        1248
        1252
        1256
        1260
        1264
        1268
        1272
        1276
        1280
        1284
        1288
        1292
        1296
        1300
        1304
        1308
        1312
        1316
        1320
        1324
        1328
        1332
        1336
        1340
        1344
        1348
        1352
        1356
        1360
        1364
        1368
        1372
        1376
        1380
        1384
        1388
        1392
        1396
        1400
        1404
        1408
        1412
        1416
        1420
        1424
        1428
        1432
        1436
        1440
        1444
        1448
        1452
        1456
        1460
        1464
        1468
        1472
        1476
        1480
        1484
        1488
        1492
        1496
        1500
        1504
        1508
        1512
        1516
        1520
        1524
        1528
        1532
        1536
        1540
        1544
        1548
        1552
        1556
        1560
        1564
        1568
        1572
        1576
        1580
        1584
        1588
        1592
        1596
        1600
        1604
        1608
        1612
        1616
        1620
        1624
        1628
        1632
        1636
        1640
        1644
        1648
        1652
        1656
        1660
        1664
        1668
        1672
        1676
        1680
        1684
        1688
        1692
        1696
        1700
        1704
        1708
        1712
        1716
        1720
        1724
        1728
        1732
        1736
        1740
        1744
        1748
        1752
        1756
        1760
        1764
        1768
        1772
        1776
        1780
        1784
        1788
        1792
        1796
        1800
        1804
        1808
        1812
        1816
        1820
        1824
        1828
        1832
        1836
        1840
        1844
        1848
        1852
        1856
        1860
        1864
        1868
        1872
        1876
        1880
        1884
        1888
        1892
        1896
        1900
        1904
        1908
        1912
        1916
        1920
        1924
        1928
        1932
        1936
        1940
        1944
        1948
        1952
        1956
        1960
        1964
        1968
        1972
        1976
        1980
        1984
        1988
        1992
        1996
        2000
        2004
        2008
        2012
        2016
        2020
        2024
        2028
        2032
        2036
        2040
        2044
        2048
        2052
        2056
        2060
        2064
        2068
        2072
        2076
        2080
        2084
        2088
        2092
        2096
        2100
        2104
        2108
        2112
        2116
        2120
        2124
        2128
        2132
        2136
        2140
        2144
        2148
        2152
        2156
        2160
        2164
        2168
        2172
        2176
        2180
        2184
        2188
        2192
        2196
        2200
        2204
        2208
        2212
        2216
        2220
        2224
        2228
        2232
        2236
        2240
        2244
        2248
        2252
        2256
        2260
        2264
        2268
        2272
        2276
        2280
        2284
        2288
        2292
        2296
        2300
        2304
        2308
        2312
        2316
        2320
        2324
        2328
        2332
        2336
        2340
        2344
        2348
        2352
        2356
        2360
        2364
        2368
        2372
        2376
        2380
        2384
        2388
        2392
        2396
        2400
        2404
        2408
        2412
        2416
        2420
        2424
        2428
        2432
        2436
        2440
        2444
        2448
        2452
        2456
        2460
        2464
        2468
        2472
        2476
        2480
        2484
        2488
        2492
        2496
        2500
        2504
        2508
        2512
        2516
        2520
        2524
        2528
        2532
        2536
        2540
        2544
        2548
        2552
        2556
        2560
        2564
        2568
        2572
        2576
        2580
        2584
        2588
        2592
        2596
        2600
        2604
        2608
        2612
        2616
        2620
        2624
        2628
        2632
        2636
        2640
        2644
        2648
        2652
        2656
        2660
        2664
        2668
        2672
        2676
        2680
        2684
        2688
        2692
        2696
        2700
        2704
        2708
        2712
        2716
        2720
        2724
        2728
        2732
        2736
        2740
        2744
        2748
        2752
        2756
        2760
        2764
        2768
        2772
        2776
        2780
        2784
        2788
        2792
        2796
        2800
        2804
        2808
        2812
        2816
        2820
        2824
        2828
        2832
        2836
        2840
        2844
        2848
        2852
        2856
        2860
        2864
        2868
        2872
        2876
        2880
        2884
        2888
        2892
        2896
        2900
        2904
        2908
        2912
        2916
        2920
        2924
        2928
        2932
        2936
        2940
        2944
        2948
        2952
        2956
        2960
        2964
        2968
        2972
        2976
        2980
        2984
        2988
        2992
        2996
        3000
        3004
        3008
        3012
        3016
        3020
        3024
        3028
        3032
        3036
        3040
        3044
        3048
        3052
        3056
        3060
        3064
        3068
        3072
        3076
        3080
        3084
        3088
        3092
        3096
        3100
        3104
        3108
        3112
        3116
        3120
        3124
        3128
        3132
        3136
        3140
        3144
        3148
        3152
        3156
        3160
        3164
        3168
        3172
        3176
        3180
        3184
        3188
        3192
        3196
        3200
        3204
        3208
        3212
        3216
        3220
        3224
        3228
        3232
        3236
        3240
        3244
        3248
        3252
        3256
        3260
        3264
        3268
        3272
        3276
        3280
        3284
        3288
        3292
        3296
        3300
        3304
        3308
        3312
        3316
        3320
        3324
        3328
        3332
        3336
        3340
        3344
        3348
        3352
        3356
        3360
        3364
        3368
        3372
        3376
        3380
        3384
        3388
        3392
        3396
        3400
        3404
        3408
        3412
        3416
        3420
        3424
        3428
        3432
        3436
        3440
        3444
        3448
        3452
        3456
        3460
        3464
        3468
        3472
        3476
        3480
        3484
        3488
        3492
        3496
        3500
        3504
        3508
        3512
        3516
        3520
        3524
        3528
        3532
        3536
        3540
        3544
        3548
        3552
        3556
        3560
        3564
        3568
        3572
        3576
        3580
        3584
        3588
        3592
        3596
        3600
        3604
        3608
        3612
        3616
        3620
        3624
        3628
        3632
        3636
        3640
        3644
        3648
        3652
        3656
        3660
        3664
        3668
        3672
        3676
        3680
        3684
        3688
        3692
        3696
        3700
        3704
        3708
        3712
        3716
        3720
        3724
        3728
        3732
        3736
        3740
        3744
        3748
        3752
        3756
        3760
        3764
        3768
        3772
        3776
        3780
        3784
        3788
        3792
        3796
        3800
        3804
        3808
        3812
        3816
        3820
        3824
        3828
        3832
        3836
        3840
        3844
        3848
        3852
        3856
        3860
        3864
        3868
        3872
        3876
        3880
        3884
        3888
        3892
        3896
        3900
        3904
        3908
        3912
        3916
        3920
        3924
        3928
        3932
        3936
        3940
        3944
        3948
        3952
        3956
        3960
        3964
        3968
        3972
        3976
        3980
        3984
        3988
        3992
        3996
        4000
        4004
        4008
        4012
        4016
        4020
        4024
        4028
        4032
        4036
        4040
        4044
        4048
        4052
        4056
        4060
        4064
        4068
        4072
        4076
        4080
        4084
        4088
        4092
        4096
 </DataArray>
 <DataArray  type="UInt8"  Name="types"  format="ascii">
 9
 9
 9
 9
 9
 9
 9
 9
 9
 9
 9
 9
 9
 9
 9
 9
 9
 9
 9
 9
 9
 9
 9
 9
 9
 9
 9
 9
 9
 9
 9
 9
 9
 9
 9
 9
 9
 9
 9
 9
 9
 9
 9
 9
 9
 9
 9
 9
 9
 9
 9
 9
 9
 9
 9
 9
 9
 9
 9
 9
 9
 9
 9
 9
 9
 9
 9
 9
 9
 9
 9
 9
 9
 9
 9
 9
 9
 9
 9
 9
 9
 9
 9
 9
 9
 9
 9
 9
 9
 9
 9
 9
 9
 9
 9
 9
 9
 9
 9
 9
 9
 9
 9
 9
 9
 9
 9
 9
 9
 9
 9
 9
 9
 9
 9
 9
 9
 9
 9
 9
 9
 9
 9
 9
 9
 9
 9
 9
 9
 9
 9
 9
 9
 9
 9
 9
 9
 9
 9
 9
 9
 9
 9
 9
 9
 9
 9
 9
 9
 9
 9
 9
 9
 9
 9
 9
 9
 9
 9
 9
 9
 9
 9
 9
 9
 9
 9
 9
 9
 9
 9
 9
 9
 9
 9
 9
 9
 9
 9
 9
 9
 9
 9
 9
 9
 9
 9
 9
 9
 9
 9
 9
 9
 9
 9
 9
 9
 9
 9
 9
 9
 9
 9
 9
 9
 9
 9
 9
 9
 9
 9
 9
 9
 9
 9
 9
 9
 9
 9
 9
 9
 9
 9
 9
 9
 9
 9
 9
 9
 9
 9
 9
 9
 9
 9
 9
 9
 9
 9
 9
 9
 9
 9
 9
 9
 9
 9
 9
 9
 9
 9
 9
 9
 9
 9
 9
 9
 9
 9
 9
 9
 9
 9
 9
 9
 9
 9
 9
 9
 9
 9
 9
 9
 9
 9
 9
 9
 9
 9
 9
 9
 9
 9
 9
 9
 9
 9
 9
 9
 9
 9
 9
 9
 9
 9
 9
 9
 9
 9
 9
 9
 9
 9
 9
 9
 9
 9
 9
 9
 9
 9
 9
 9
 9
 9
 9
 9
 9
 9
 9
 9
 9
 9
 9
 9
 9
 9
 9
 9
 9
 9
 9
 9
 9
 9
 9
 9
 9
 9
 9
 9
 9
 9
 9
 9
 9
 9
 9
 9
 9
 9
 9
 9
 9
 9
 9
 9
 9
 9
 9
 9
 9
 9
 9
 9
 9
 9
 9
 9
 9
 9
 9
 9
 9
 9
 9
 9
 9
 9
 9
 9
 9
 9
 9
 9
 9
 9
 9
 9
 9
 9
 9
 9
 9
 9
 9
 9
 9
 9
 9
 9
 9
 9
 9
 9
 9
 9
 9
 9
 9
 9
 9
 9
 9
 9
 9
 9
 9
 9
 9
 9
 9
 9
 9
 9
 9
 9
 9
 9
 9
 9
 9
 9
 9
 9
 9
 9
 9
 9
 9
 9
 9
 9
 9
 9
 9
 9
 9
 9
 9
 9
 9
 9
 9
 9
 9
 9
 9
 9
 9
 9
 9
 9
 9
 9
 9
 9
 9
 9
 9
 9
 9
 9
 9
 9
 9
 9
 9
 9
 9
 9
 9
 9
 9
 9
 9
 9
 9
 9
 9
 9
 9
 9
 9
 9
 9
 9
 9
 9
 9
 9
 9
 9
 9
 9
 9
 9
 9
 9
 9
 9
 9
 9
 9
 9
 9
 9
 9
 9
 9
 9
 9
 9
 9
 9
 9
 9
 9
 9
 9
 9
 9
 9
 9
 9
 9
 9
 9
 9
 9
 9
 9
 9
 9
 9
 9
 9
 9
 9
 9
 9
 9
 9
 9
 9
 9
 9
 9
 9
 9
 9
 9
 9
 9
 9
 9
 9
 9
 9
 9
 9
 9
 9
 9
 9
 9
 9
 9
 9
 9
 9
 9
 9
 9
 9
 9
 9
 9
 9
 9
 9
 9
 9
 9
 9
 9
 9
 9
 9
 9
 9
 9
 9
 9
 9
 9
 9
 9
 9
 9
 9
 9
 9
 9
 9
 9
 9
 9
 9
 9
 9
 9
 9
 9
 9
 9
 9
 9
 9
 9
 9
 9
 9
 9
 9
 9
 9
 9
 9
 9
 9
 9
 9
 9
 9
 9
 9
 9
 9
 9
 9
 9
 9
 9
 9
 9
 9
 9
 9
 9
 9
 9
 9
 9
 9
 9
 9
 9
 9
 9
 9
 9
 9
 9
 9
 9
 9
 9
 9
 9
 9
 9
 9
 9
 9
 9
 9
 9
 9
 9
 9
 9
 9
 9
 9
 9
 9
 9
 9
 9
 9
 9
 9
 9
 9
 9
 9
 9
 9
 9
 9
 9
 9
 9
 9
 9
 9
 9
 9
 9
 9
 9
 9
 9
 9
 9
 9
 9
 9
 9
 9
 9
 9
 9
 9
 9
 9
 9
 9
 9
 9
 9
 9
 9
 9
 9
 9
 9
 9
 9
 9
 9
 9
 9
 9
 9
 9
 9
 9
 9
 9
 9
 9
 9
 9
 9
 9
 9
 9
 9
 9
 9
 9
 9
 9
 9
 9
 9
 9
 9
 9
 9
 9
 9
 9
 9
 9
 9
 9
 9
 9
 9
 9
 9
 9
 9
 9
 9
 9
 9
 9
 9
 9
 9
 9
 9
 9
 9
 9
 9
 9
 9
 9
 9
 9
 9
 9
 9
 9
 9
 9
 9
 9
 9
 9
 9
 9
 9
 9
 9
 9
 9
 9
 9
 9
 9
 9
 9
 9
 9
 9
 9
 9
 9
 9
 9
 9
 9
 9
 9
 9
 9
 9
 9
 9
 9
 9
 9
 9
 9
 9
 9
 9
 9
 9
 9
 9
 9
 9
 9
 9
 9
 9
 9
 9
 9
 9
 9
 9
 9
 9
 9
 9
 9
 9
 9
 9
 9
 9
 9
 9
 9
 9
 9
 9
 9
 9
 9
 9
 9
 9
 9
 9
 9
 9
 9
 9
 9
 9
 9
 9
 9
 9
 9
 9
 9
 9
 9
 9
 9
 9
 9
 9
 9
 9
 9
 9
 9
 9
 9
 9
 9
 9
 9
 9
 9
 9
 9
 9
 9
 9
 9
 9
 9
 9
 9
 9
 9
 9
 9
 9
 9
 9
 9
 9
 9
 9
 9
 9
 9
 9
 9
 9
 9
 9
 9
 9
 9
 9
 9
 9
 9
 9
 9
 9
 9
 9
 9
 9
 9
 9
 9
 9
 9
 9
 9
 9
 9
 9
 9
 9
 9
 9
 9
 9
 9
 9
 9
 9
 9
 9
 9
 9
 9
 9
 9
 9
 9
 9
 9
 9
 9
 9
 9
 9
 9
 9
 9
 9
 9
 9
 9
 9
 9
 </DataArray>
 </Cells> 
 <PointData>
 <DataArray  type="Float64" Name="disp" NumberOfComponents="3" format="ascii">
   6.5344601488311338E-002   6.2798782236223732E-002   0.0000000000000000     
   6.8502316579407030E-002   6.8195845076768818E-002   0.0000000000000000     
   7.1518267549433967E-002   7.3772741692378102E-002   0.0000000000000000     
   7.4392454398392149E-002   7.9529472083051528E-002   0.0000000000000000     
   7.7124877126281577E-002   8.5466036248789123E-002   0.0000000000000000     
   6.0160593960531861E-002   6.1906668751373337E-002   0.0000000000000000     
   6.3134733178221283E-002   6.7319252614024647E-002   0.0000000000000000     
   6.5968823212591787E-002   7.2916575834675132E-002   0.0000000000000000     
   6.8662864063643400E-002   7.8698638413324765E-002   0.0000000000000000     
   7.1216855731376080E-002   8.4665440349973545E-002   0.0000000000000000     
   5.5174424809946387E-002   6.1061585323094823E-002   0.0000000000000000     
   5.7958994906430972E-002   6.6495766455874974E-002   0.0000000000000000     
   6.0609446602046015E-002   7.2116923280414330E-002   0.0000000000000000     
   6.3125779896791509E-002   7.7925055796712883E-002   0.0000000000000000     
   6.5507994790667462E-002   8.3920164004770634E-002   0.0000000000000000     
   5.0386094036554904E-002   6.0263531951388186E-002   0.0000000000000000     
   5.2975101764036095E-002   6.5725386602319802E-002   0.0000000000000000     
   5.5440137717796614E-002   7.1373784029595683E-002   0.0000000000000000     
   5.7781201897836504E-002   7.7208724233215897E-002   0.0000000000000000     
   5.9998294304155722E-002   8.3230207213180404E-002   0.0000000000000000     
   4.5795601640357425E-002   5.9512508636253431E-002   0.0000000000000000     
   4.8183053751036653E-002   6.5008113053359087E-002   0.0000000000000000     
   5.0460896559843621E-002   7.0687158082219204E-002   0.0000000000000000     
   5.2629130066778364E-002   7.6549643722833793E-002   0.0000000000000000     
   5.4687754271840860E-002   8.2595569975202843E-002   0.0000000000000000     
   7.7124877126281577E-002   8.5466036248789123E-002   0.0000000000000000     
   7.9751041432594677E-002   9.1571076253521178E-002   0.0000000000000000     
   8.2306453016823877E-002   9.7833234161177979E-002   0.0000000000000000     
   8.4791111878969178E-002  0.10425250997175954        0.0000000000000000     
   8.7205018019030578E-002  0.11082890368526588        0.0000000000000000     
   7.1216855731376080E-002   8.4665440349973545E-002   0.0000000000000000     
   7.3670237098445182E-002   9.0802209868347208E-002   0.0000000000000000     
   7.6062447047506004E-002   9.7094175192171464E-002   0.0000000000000000     
   7.8393485578558533E-002  0.10354133632144630        0.0000000000000000     
   8.0663352691602797E-002  0.11014369325617174        0.0000000000000000     
   6.5507994790667462E-002   8.3920164004770634E-002   0.0000000000000000     
   6.7795449114728873E-002   9.0085687185464433E-002   0.0000000000000000     
   7.0027500700030748E-002   9.6405064619671119E-002   0.0000000000000000     
   7.2204149546573074E-002  0.10287829630739070        0.0000000000000000     
   7.4325395654355864E-002  0.10950538224862313        0.0000000000000000     
   5.9998294304155722E-002   8.3230207213180404E-002   0.0000000000000000     
   6.2126677481445784E-002   8.9421508204872865E-002   0.0000000000000000     
   6.4201613974398150E-002   9.5765902443676984E-002   0.0000000000000000     
   6.6223103783012799E-002  0.10226338992959270        0.0000000000000000     
   6.8191146907289779E-002  0.10891397066262008        0.0000000000000000     
   5.4687754271840860E-002   8.2595569975202843E-002   0.0000000000000000     
   5.6663922198595881E-002   8.8809672926572519E-002   0.0000000000000000     
   5.8584786870608162E-002   9.5176688664189046E-002   0.0000000000000000     
   6.0450348287877716E-002  0.10169661718805238        0.0000000000000000     
   6.2260606450404543E-002  0.10836945849816257        0.0000000000000000     
   8.7205018019030578E-002  0.11082890368526588        0.0000000000000000     
   8.9530485069453089E-002  0.11755016640455090        0.0000000000000000     
   9.1749826662681722E-002  0.12440404923246863        0.0000000000000000     
   9.3863042798716503E-002  0.13139055216901901        0.0000000000000000     
   9.5870133477557407E-002  0.13850967521420210        0.0000000000000000     
   8.0663352691602797E-002  0.11014369325617174        0.0000000000000000     
   8.2851566292420492E-002  0.11689069840578449        0.0000000000000000     
   8.4937644286793332E-002  0.12377180417972129        0.0000000000000000     
   8.6921586674721288E-002  0.13078701057798212        0.0000000000000000     
   8.8803393456204430E-002  0.13793631760056707        0.0000000000000000     
   7.4325395654355864E-002  0.10950538224862313        0.0000000000000000     
   7.6370792877832383E-002  0.11627694598660961        0.0000000000000000     
   7.8319895071455897E-002  0.12318361106459129        0.0000000000000000     
   8.0172702235226434E-002  0.13022537748256813        0.0000000000000000     
   8.1929214369143952E-002  0.13740224524054015        0.0000000000000000     
   6.8191146907289779E-002  0.10891397066262008        0.0000000000000000     
   7.0088164825688762E-002  0.11570890914702629        0.0000000000000000     
   7.1896579016669473E-002  0.12263946988707856        0.0000000000000000     
   7.3616389480231859E-002  0.12970565288277694        0.0000000000000000     
   7.5247596216375973E-002  0.13690745813412139        0.0000000000000000     
   6.2260606450404543E-002  0.10836945849816257        0.0000000000000000     
   6.4003682135989642E-002  0.11518658788703452        0.0000000000000000     
   6.5667696122433991E-002  0.12213938064718319        0.0000000000000000     
   6.7252648409737617E-002  0.12922783677860861        0.0000000000000000     
   6.8758538997900506E-002  0.13645195628131074        0.0000000000000000     
   9.5870133477557407E-002  0.13850967521420210        0.0000000000000000     
   9.7778952352138723E-002  0.14575004144806289        0.0000000000000000     
   9.9597353075394801E-002  0.15310027395064643        0.0000000000000000     
  0.10132533564732560       0.16056037272195267        0.0000000000000000     
  0.10296290006793116       0.16813033776198166        0.0000000000000000     
   8.8803393456204430E-002  0.13793631760056707        0.0000000000000000     
   9.0592049159982133E-002  0.14520670876843930        0.0000000000000000     
   9.2296538314793883E-002  0.15258516760256213        0.0000000000000000     
   9.3916860920639680E-002  0.16007169410293562        0.0000000000000000     
   9.5453016977519525E-002  0.16766628826955965        0.0000000000000000     
   8.1929214369143952E-002  0.13740224524054015        0.0000000000000000     
   8.3598047940920461E-002  0.14470020250699739        0.0000000000000000     
   8.5187819418267960E-002  0.15210523745042986        0.0000000000000000     
   8.6698528801186447E-002  0.15961735007083760        0.0000000000000000     
   8.8130176089675938E-002  0.16723654036822055        0.0000000000000000     
   7.5247596216375973E-002  0.13690745813412139        0.0000000000000000     
   7.6796948694953723E-002  0.14423052266373720        0.0000000000000000     
   7.8271196385817046E-002  0.15166048349424960        0.0000000000000000     
   7.9670339288965927E-002  0.15919734062565868        0.0000000000000000     
   8.0994377404400353E-002  0.16684109405796432        0.0000000000000000     
   6.8758538997900506E-002  0.13645195628131074        0.0000000000000000     
   7.0188751422081919E-002  0.14379766923865864        0.0000000000000000     
   7.1546669217441100E-002  0.15125090573402131        0.0000000000000000     
   7.2832292383978064E-002  0.15881166576739877        0.0000000000000000     
   7.4045620921692812E-002  0.16647994933879101        0.0000000000000000     
  0.10296290006793116       0.16813033776198166        0.0000000000000000     
  0.10451236531759492       0.17579997106827322        0.0000000000000000     
  0.10597605037670044       0.18355907463836724        0.0000000000000000     
  0.10735395524524767       0.19140764847226369        0.0000000000000000     
  0.10864607992323666       0.19934569256996260        0.0000000000000000     
   9.5453016977519525E-002  0.16766628826955965        0.0000000000000000     
   9.6904886478623997E-002  0.17536023625190703        0.0000000000000000     
   9.8272349417143676E-002  0.18314482419945036        0.0000000000000000     
   9.9555405793078575E-002  0.19102005211218967        0.0000000000000000     
  0.10075405560642869       0.19898591999012499        0.0000000000000000     
   8.8130176089675938E-002  0.16723654036822055        0.0000000000000000     
   8.9481269468159860E-002  0.17495486947764871        0.0000000000000000     
   9.0750317121061685E-002  0.18276439853419205        0.0000000000000000     
   9.1937319048381441E-002  0.19066512753785056        0.0000000000000000     
   9.3042275250119114E-002  0.19865705648862425        0.0000000000000000     
   8.0994377404400353E-002  0.16684109405796432        0.0000000000000000     
   8.2241514286202494E-002  0.17458387074549833        0.0000000000000000     
   8.3409953488454452E-002  0.18241779764259233        0.0000000000000000     
   8.4499695011156256E-002  0.19034287474924638        0.0000000000000000     
   8.5510738854307891E-002  0.19835910206546037        0.0000000000000000     
   7.4045620921692812E-002  0.16647994933879101        0.0000000000000000     
   7.5185620932751926E-002  0.17424724005545586        0.0000000000000000     
   7.6251258519322018E-002  0.18210502152465119        0.0000000000000000     
   7.7242533681403047E-002  0.19005329374637703        0.0000000000000000     
   7.8159446418995068E-002  0.19809205672063335        0.0000000000000000     
  0.10864607992323666       0.19934569256996260        0.0000000000000000     
  0.10985732300982333       0.20736941629094366        0.0000000000000000     
  0.11099258310416366       0.21547502899468660        0.0000000000000000     
  0.11205186020625765       0.22366253068119143        0.0000000000000000     
  0.11303515431610531       0.23193192135045812        0.0000000000000000     
  0.10075405560642869       0.19898591999012499        0.0000000000000000     
  0.10187373985775455       0.20703583530123582        0.0000000000000000     
  0.10291989954761670       0.21516320551350174        0.0000000000000000     
  0.10389253467601507       0.22336803062692268        0.0000000000000000     
  0.10479164524294975       0.23165031064149869        0.0000000000000000     
   9.3042275250119114E-002  0.19865705648862425        0.0000000000000000     
   9.4070048856364372E-002  0.20673201382688092        0.0000000000000000     
   9.5025502997206829E-002  0.21488182799298836        0.0000000000000000     
   9.5908637672646554E-002  0.22310649898694651        0.0000000000000000     
   9.6719452882683465E-002  0.23140602680875544        0.0000000000000000     
   8.5510738854307891E-002  0.19835910206546037        0.0000000000000000     
   8.6446250005652731E-002  0.20645795186787891        0.0000000000000000     
   8.7309393452934106E-002  0.21463089643314637        0.0000000000000000     
   8.8100169196152003E-002  0.22287793576126286        0.0000000000000000     
   8.8818577235306465E-002  0.23119906985222827        0.0000000000000000     
   7.8159446418995068E-002  0.19809205672063335        0.0000000000000000     
   7.9002343305619657E-002  0.20621364942422973        0.0000000000000000     
   7.9771570914798473E-002  0.21441041083397588        0.0000000000000000     
   8.0467129246531530E-002  0.22268234094987174        0.0000000000000000     
   8.1089018300818758E-002  0.23102943977191734        0.0000000000000000     
  0.11303515431610531       0.23193192135045812        0.0000000000000000     
  0.11397084925825095       0.24029956542106501        0.0000000000000000     
  0.11488732885723893       0.24878182731159038        0.0000000000000000     
  0.11578459311306924       0.25737870702203425        0.0000000000000000     
  0.11666264202574189       0.26609020455239663        0.0000000000000000     
  0.10479164524294975       0.23165031064149869        0.0000000000000000     
  0.10562229703043199       0.24003349928050388        0.0000000000000000     
  0.10638955582047316       0.24854105026721229        0.0000000000000000     
  0.10709342161307324       0.25717296360162401        0.0000000000000000     
  0.10773389440823222       0.26592923928373896        0.0000000000000000     
   9.6719452882683465E-002  0.23140602680875544        0.0000000000000000     
   9.7448756238945347E-002  0.23980694078737078        0.0000000000000000     
   9.8087355353059943E-002  0.24833577025174833        0.0000000000000000     
   9.8635250225027227E-002  0.25699251520188798        0.0000000000000000     
   9.9092440854847183E-002  0.26577717563778974        0.0000000000000000     
   8.8818577235306465E-002  0.23119906985222827        0.0000000000000000     
   8.9450226883791034E-002  0.23961988994166578        0.0000000000000000     
   8.9980727454999285E-002  0.24816598726519845        0.0000000000000000     
   9.0410078948931216E-002  0.25683736182282613        0.0000000000000000     
   9.0738281365586829E-002  0.26563401361454902        0.0000000000000000     
   8.1089018300818758E-002  0.23102943977191734        0.0000000000000000     
   8.1626708964969041E-002  0.23947234674338885        0.0000000000000000     
   8.2069672126291196E-002  0.24803170130756261        0.0000000000000000     
   8.2417907784785235E-002  0.25670750346443855        0.0000000000000000     
   8.2671415940451132E-002  0.26549975321401670        0.0000000000000000     
  0.11666264202574189       0.26609020455239663        0.0000000000000000     
  0.11746185054939895       0.27508096660881193        0.0000000000000000     
  0.11812259363818250       0.28451563989741468        0.0000000000000000     
  0.11864487129209252       0.29439422441820484        0.0000000000000000     
  0.11902868351112902       0.30471672017118251        0.0000000000000000     
  0.10773389440823222       0.26592923928373896        0.0000000000000000     
  0.10829206898136008       0.27494195450865738        0.0000000000000000     
  0.10874904010786675       0.28434318647147960        0.0000000000000000     
  0.10910480778775226       0.29413293517220546        0.0000000000000000     
  0.10935937202101659       0.30431120061083516        0.0000000000000000     
   9.9092440854847183E-002  0.26577717563778974        0.0000000000000000     
   9.9470039702783938E-002  0.27478789557518846        0.0000000000000000     
   9.9779159229101536E-002  0.28412281902981873        0.0000000000000000     
  0.10001979943380003       0.29378194600168056        0.0000000000000000     
  0.10019196031687932       0.30376527649077395        0.0000000000000000     
   9.0738281365586829E-002  0.26563401361454902        0.0000000000000000     
   9.0995762713670575E-002  0.27461878980840498        0.0000000000000000     
   9.1212951001886894E-002  0.28385453757243195        0.0000000000000000     
   9.1389846230235786E-002  0.29334125690662999        0.0000000000000000     
   9.1526448398717264E-002  0.30307894781099909        0.0000000000000000     
   8.2671415940451132E-002  0.26549975321401670        0.0000000000000000     
   8.2869238014019964E-002  0.27443463720830696        0.0000000000000000     
   8.3050415426222782E-002  0.28353834209931938        0.0000000000000000     
   8.3214948177059572E-002  0.29281086788705391        0.0000000000000000     
   8.3362836266530377E-002  0.30225221457151052        0.0000000000000000     
   4.5795601640357425E-002   5.9512508636253431E-002   0.0000000000000000     
   4.8183053751036653E-002   6.5008113053359087E-002   0.0000000000000000     
   5.0460896559843621E-002   7.0687158082219204E-002   0.0000000000000000     
   5.2629130066778364E-002   7.6549643722833793E-002   0.0000000000000000     
   5.4687754271840860E-002   8.2595569975202843E-002   0.0000000000000000     
   4.1374778627015336E-002   5.8820825451195075E-002   0.0000000000000000     
   4.3559904203079883E-002   6.4347555401702991E-002   0.0000000000000000     
   4.5649771247089285E-002   7.0054821331137190E-002   0.0000000000000000     
   4.7644379759043530E-002   7.5942623239497645E-002   0.0000000000000000     
   4.9543729738942610E-002   8.2010961126784368E-002   0.0000000000000000     
   3.7095456002190046E-002   5.8200792469717655E-002   0.0000000000000000     
   3.9082706455813084E-002   6.3747323240061590E-002   0.0000000000000000     
   4.0984809898435864E-002   6.9474549669201871E-002   0.0000000000000000     
   4.2801766330058395E-002   7.5382471757138483E-002   0.0000000000000000     
   4.4533575750680669E-002   8.1471089503871413E-002   0.0000000000000000     
   3.2957633765881553E-002   5.7652409691821151E-002   0.0000000000000000     
   3.4751460509236221E-002   6.3207416568434899E-002   0.0000000000000000     
   3.6466012513883365E-002   6.8946343096413273E-002   0.0000000000000000     
   3.8101289779822980E-002   7.4869189275756323E-002   0.0000000000000000     
   3.9657292307055080E-002   8.0975955106463979E-002   0.0000000000000000     
   2.8961311918089851E-002   5.7175677117505597E-002   0.0000000000000000     
   3.0566166363349308E-002   6.2727835386822889E-002   0.0000000000000000     
   3.2093379093431788E-002   6.8470201612771411E-002   0.0000000000000000     
   3.3542950108337286E-002   7.4402775795351123E-002   0.0000000000000000     
   3.4914879408065806E-002   8.0525557934562064E-002   0.0000000000000000     
   5.4687754271840860E-002   8.2595569975202843E-002   0.0000000000000000     
   5.6663922198595881E-002   8.8809672926572519E-002   0.0000000000000000     
   5.8584786870608162E-002   9.5176688664189046E-002   0.0000000000000000     
   6.0450348287877716E-002  0.10169661718805238        0.0000000000000000     
   6.2260606450404543E-002  0.10836945849816257        0.0000000000000000     
   4.9543729738942610E-002   8.2010961126784368E-002   0.0000000000000000     
   5.1367063262457033E-002   8.8246017888160527E-002   0.0000000000000000     
   5.3133622405257319E-002   9.4633976418789220E-002   0.0000000000000000     
   5.4843407167343441E-002  0.10117483671867053        0.0000000000000000     
   5.6496417548715434E-002  0.10786859878780440        0.0000000000000000     
   4.4533575750680669E-002   8.1471089503871413E-002   0.0000000000000000     
   4.6195980669307107E-002   8.7726379627233994E-002   0.0000000000000000     
   4.7804723594942096E-002   9.4134318845059517E-002   0.0000000000000000     
   4.9359804527585635E-002  0.10069490715734800        0.0000000000000000     
   5.0861223467237732E-002  0.10740814456409942        0.0000000000000000     
   3.9657292307055080E-002   8.0975955106463979E-002   0.0000000000000000     
   4.1150674419146091E-002   8.7250758143792961E-002   0.0000000000000000     
   4.2598090439662492E-002   9.3677715942999867E-002   0.0000000000000000     
   4.3999540368604276E-002  0.10025682850408478        0.0000000000000000     
   4.5355024205971435E-002  0.10698809582704762        0.0000000000000000     
   3.4914879408065806E-002   8.0525557934562064E-002   0.0000000000000000     
   3.6231144511973991E-002   8.6819153437837387E-002   0.0000000000000000     
   3.7513722939418521E-002   9.3264167712610327E-002   0.0000000000000000     
   3.8762614690399363E-002   9.9860600758880869E-002   0.0000000000000000     
   3.9977819764916545E-002  0.10660845257664900        0.0000000000000000     
   6.2260606450404543E-002  0.10836945849816257        0.0000000000000000     
   6.4003682135989642E-002  0.11518658788703452        0.0000000000000000     
   6.5667696122433991E-002  0.12213938064718319        0.0000000000000000     
   6.7252648409737617E-002  0.12922783677860861        0.0000000000000000     
   6.8758538997900506E-002  0.13645195628131074        0.0000000000000000     
   5.6496417548715434E-002  0.10786859878780440        0.0000000000000000     
   5.8086139046398720E-002  0.11470663644661039        0.0000000000000000     
   5.9606057157418756E-002  0.12168032351550805        0.0000000000000000     
   6.1056171881775562E-002  0.12878965999449737        0.0000000000000000     
   6.2436483219469124E-002  0.13603464588357836        0.0000000000000000     
   5.0861223467237732E-002  0.10740814456409942        0.0000000000000000     
   5.2304329794579739E-002  0.11426570906573003        0.0000000000000000     
   5.3684472890293031E-002  0.12125927866265605        0.0000000000000000     
   5.5001652754377572E-002  0.12838885335487751        0.0000000000000000     
   5.6255869386833413E-002  0.13565443314239434        0.0000000000000000     
   4.5355024205971435E-002  0.10698809582704762        0.0000000000000000     
   4.6658254380532692E-002  0.11386380574439345        0.0000000000000000     
   4.7902943321056761E-002  0.12087624608862720        0.0000000000000000     
   4.9089091027543649E-002  0.12802541685974897        0.0000000000000000     
   5.0216697499993364E-002  0.13531131805775867        0.0000000000000000     
   3.9977819764916545E-002  0.10660845257664900        0.0000000000000000     
   4.1147912804257586E-002  0.11350092648260060        0.0000000000000000     
   4.2261468449710002E-002  0.12053122579342153        0.0000000000000000     
   4.3318486701273813E-002  0.12769935050911180        0.0000000000000000     
   4.4318967558948992E-002  0.13500530062967142        0.0000000000000000     
   6.8758538997900506E-002  0.13645195628131074        0.0000000000000000     
   7.0188751422081919E-002  0.14379766923865864        0.0000000000000000     
   7.1546669217441100E-002  0.15125090573402131        0.0000000000000000     
   7.2832292383978064E-002  0.15881166576739877        0.0000000000000000     
   7.4045620921692812E-002  0.16647994933879101        0.0000000000000000     
   6.2436483219469124E-002  0.13603464588357836        0.0000000000000000     
   6.3747184582148828E-002  0.14340163148164539        0.0000000000000000     
   6.4988469381464048E-002  0.15087696708759282        0.0000000000000000     
   6.6160337617414827E-002  0.15846065270142062        0.0000000000000000     
   6.7262789290001096E-002  0.16615268832312888        0.0000000000000000     
   5.6255869386833413E-002  0.13565443314239434        0.0000000000000000     
   5.7445976634998237E-002  0.14304239864258103        0.0000000000000000     
   5.8570828346209788E-002  0.15053913047281189        0.0000000000000000     
   5.9630424520468045E-002  0.15814462863308701        0.0000000000000000     
   6.0624765157773028E-002  0.16585889312340624        0.0000000000000000     
   5.0216697499993364E-002  0.13531131805775867        0.0000000000000000     
   5.1285127580630155E-002  0.14271997072146550        0.0000000000000000     
   5.2293746111678287E-002  0.15023739588967852        0.0000000000000000     
   5.3242553093137780E-002  0.15786359356239771        0.0000000000000000     
   5.4131548525008615E-002  0.16559856373962312        0.0000000000000000     
   4.4318967558948992E-002  0.13500530062967142        0.0000000000000000     
   4.5264637419044573E-002  0.14243434771829885        0.0000000000000000     
   4.6157222677869578E-002  0.14997176333819270        0.0000000000000000     
   4.6996723335423991E-002  0.15761754748935289        0.0000000000000000     
   4.7783139391707821E-002  0.16537170017177949        0.0000000000000000     
   7.4045620921692812E-002  0.16647994933879101        0.0000000000000000     
   7.5185620932751926E-002  0.17424724005545586        0.0000000000000000     
   7.6251258519322018E-002  0.18210502152465119        0.0000000000000000     
   7.7242533681403047E-002  0.19005329374637703        0.0000000000000000     
   7.8159446418995068E-002  0.19809205672063335        0.0000000000000000     
   6.7262789290001096E-002  0.16615268832312888        0.0000000000000000     
   6.8295736828407574E-002  0.17394374760032341        0.0000000000000000     
   6.9259092661818872E-002  0.18182450418061022        0.0000000000000000     
   7.0152856790234974E-002  0.18979495806398924        0.0000000000000000     
   7.0977029213655923E-002  0.19785510925046054        0.0000000000000000     
   6.0624765157773028E-002  0.16585889312340624        0.0000000000000000     
   6.1554009393768844E-002  0.17367216357290310        0.0000000000000000     
   6.2418316364099571E-002  0.18157467961071086        0.0000000000000000     
   6.3217686068765253E-002  0.18956644123682964        0.0000000000000000     
   6.3952118507765832E-002  0.19764744845125926        0.0000000000000000     
   5.4131548525008615E-002  0.16559856373962312        0.0000000000000000     
   5.4960438628835748E-002  0.17343248797319491        0.0000000000000000     
   5.5728929626164166E-002  0.18135554781495325        0.0000000000000000     
   5.6437021516993827E-002  0.18936774326489814        0.0000000000000000     
   5.7084714301324786E-002  0.19746907432302957        0.0000000000000000     
   4.7783139391707821E-002  0.16537170017177949        0.0000000000000000     
   4.8515024533608286E-002  0.17322472080119880        0.0000000000000000     
   4.9190932448012606E-002  0.18116710879333722        0.0000000000000000     
   4.9810863134920766E-002  0.18919886414819478        0.0000000000000000     
   5.0374816594332787E-002  0.19731998686577146        0.0000000000000000     
   7.8159446418995068E-002  0.19809205672063335        0.0000000000000000     
   7.9002343305619657E-002  0.20621364942422973        0.0000000000000000     
   7.9771570914798473E-002  0.21441041083397588        0.0000000000000000     
   8.0467129246531530E-002  0.22268234094987174        0.0000000000000000     
   8.1089018300818758E-002  0.23102943977191734        0.0000000000000000     
   7.0977029213655923E-002  0.19785510925046054        0.0000000000000000     
   7.1729236278233188E-002  0.20599833631970882        0.0000000000000000     
   7.2407104330118238E-002  0.21421801785141892        0.0000000000000000     
   7.3010633369311087E-002  0.22251415384559076        0.0000000000000000     
   7.3539823395811749E-002  0.23088674430222447        0.0000000000000000     
   6.3952118507765832E-002  0.19764744845125926        0.0000000000000000     
   6.4617836445461305E-002  0.20581124237809140        0.0000000000000000     
   6.5211062646211654E-002  0.21405136414141751        0.0000000000000000     
   6.5731797110016837E-002  0.22236781374123762        0.0000000000000000     
   6.6180039836876883E-002  0.23076059117755168        0.0000000000000000     
   5.7084714301324786E-002  0.19746907432302957        0.0000000000000000     
   5.7668143807304062E-002  0.20565236759937744        0.0000000000000000     
   5.8183445863078713E-002  0.21391044970397169        0.0000000000000000     
   5.8630620468648753E-002  0.22224332063681218        0.0000000000000000     
   5.9009667624014162E-002  0.23065098039789900        0.0000000000000000     
   5.0374816594332787E-002  0.19731998686577146        0.0000000000000000     
   5.0880158363761419E-002  0.20552171198356703        0.0000000000000000     
   5.1324253980719430E-002  0.21379527453908143        0.0000000000000000     
   5.1707103445206820E-002  0.22214067453231456        0.0000000000000000     
   5.2028706757223590E-002  0.23055791196326642        0.0000000000000000     
   8.1089018300818758E-002  0.23102943977191734        0.0000000000000000     
   8.1626708964969041E-002  0.23947234674338885        0.0000000000000000     
   8.2069672126291196E-002  0.24803170130756261        0.0000000000000000     
   8.2417907784785235E-002  0.25670750346443855        0.0000000000000000     
   8.2671415940451132E-002  0.26549975321401670        0.0000000000000000     
   7.3539823395811749E-002  0.23088674430222447        0.0000000000000000     
   7.3991616303487107E-002  0.23934938475514875        0.0000000000000000     
   7.4362953986204058E-002  0.24791567073819240        0.0000000000000000     
   7.4653836443962632E-002  0.25658560225135546        0.0000000000000000     
   7.4864263676762813E-002  0.26535917929463793        0.0000000000000000     
   6.6180039836876883E-002  0.23076059117755168        0.0000000000000000     
   6.6558362720352968E-002  0.23923607753955417        0.0000000000000000     
   6.6869337654006281E-002  0.24780065391643930        0.0000000000000000     
   6.7112964637836808E-002  0.25645432030820725        0.0000000000000000     
   6.7289243671844579E-002  0.26519707671485787        0.0000000000000000     
   5.9009667624014162E-002  0.23065098039789900        0.0000000000000000     
   5.9326948215566631E-002  0.23913242509660509        0.0000000000000000     
   5.9588823129697842E-002  0.24768665084230335        0.0000000000000000     
   5.9795292366407765E-002  0.25631365763499386        0.0000000000000000     
   5.9946355925696429E-002  0.26501344547467653        0.0000000000000000     
   5.2028706757223590E-002  0.23055791196326642        0.0000000000000000     
   5.2297372789128105E-002  0.23903842742630160        0.0000000000000000     
   5.2521410413278749E-002  0.24757366151578453        0.0000000000000000     
   5.2700819629675502E-002  0.25616361423171524        0.0000000000000000     
   5.2835600438318378E-002  0.26480828557409380        0.0000000000000000     
   8.2671415940451132E-002  0.26549975321401670        0.0000000000000000     
   8.2869238014019964E-002  0.27443463720830696        0.0000000000000000     
   8.3050415426222782E-002  0.28353834209931938        0.0000000000000000     
   8.3214948177059572E-002  0.29281086788705391        0.0000000000000000     
   8.3362836266530377E-002  0.30225221457151052        0.0000000000000000     
   7.4864263676762813E-002  0.26535917929463793        0.0000000000000000     
   7.5035213065083928E-002  0.27422984953347551        0.0000000000000000     
   7.5207661989405317E-002  0.28319106063330374        0.0000000000000000     
   7.5381610449726938E-002  0.29224281259412277        0.0000000000000000     
   7.5557058446048847E-002  0.30138510541593255        0.0000000000000000     
   6.7289243671844579E-002  0.26519707671485787        0.0000000000000000     
   6.7438435328114263E-002  0.27399883854249135        0.0000000000000000     
   6.7600800178730547E-002  0.28282952119720789        0.0000000000000000     
   6.7776338223693430E-002  0.29168912467900732        0.0000000000000000     
   6.7965049463002913E-002  0.30057764898788980        0.0000000000000000     
   5.9946355925696429E-002  0.26501344547467653        0.0000000000000000     
   6.0078904803110976E-002  0.27374160423535460        0.0000000000000000     
   6.0229829994198500E-002  0.28245372379103167        0.0000000000000000     
   6.0399131498959029E-002  0.29114980414170749        0.0000000000000000     
   6.0586809317392569E-002  0.29982984528738205        0.0000000000000000     
   5.2835600438318378E-002  0.26480828557409380        0.0000000000000000     
   5.2956621490074046E-002  0.27345814661206536        0.0000000000000000     
   5.3094751435809169E-002  0.28206366841477515        0.0000000000000000     
   5.3249990275523754E-002  0.29062485098222318        0.0000000000000000     
   5.3422338009217800E-002  0.29914169431440951        0.0000000000000000     
   2.8961311918089851E-002   5.7175677117505597E-002   0.0000000000000000     
   3.0566166363349308E-002   6.2727835386822889E-002   0.0000000000000000     
   3.2093379093431788E-002   6.8470201612771411E-002   0.0000000000000000     
   3.3542950108337286E-002   7.4402775795351123E-002   0.0000000000000000     
   3.4914879408065806E-002   8.0525557934562064E-002   0.0000000000000000     
   2.5068014195576444E-002   5.6748179295660055E-002   0.0000000000000000     
   2.6493687221443473E-002   6.2303161110835767E-002   0.0000000000000000     
   2.7840388378217045E-002   6.8052149843968249E-002   0.0000000000000000     
   2.9108117665897167E-002   7.3995145495057521E-002   0.0000000000000000     
   3.0296875084483831E-002   8.0132148064103598E-002   0.0000000000000000     
   2.1239264335102828E-002   5.6347500775173628E-002   0.0000000000000000     
   2.2500886286809848E-002   6.1927975156083670E-002   0.0000000000000000     
   2.3680519109375072E-002   6.7698212415695819E-002   0.0000000000000000     
   2.4778162802798494E-002   7.3658212554010116E-002   0.0000000000000000     
   2.5793817367080123E-002   7.9807975571026535E-002   0.0000000000000000     
   1.7475062336669008E-002   5.5973641556046332E-002   0.0000000000000000     
   1.8587763559448432E-002   6.1602277522566591E-002   0.0000000000000000     
   1.9613771286905848E-002   6.7408389327954107E-002   0.0000000000000000     
   2.0553085519041264E-002   7.3391976972208867E-002   0.0000000000000000     
   2.1405706255854688E-002   7.9553040455330903E-002   0.0000000000000000     
   1.3775408200274980E-002   5.5626601638278150E-002   0.0000000000000000     
   1.4754319039359219E-002   6.1326068210284551E-002   0.0000000000000000     
   1.5640144910809388E-002   6.7182680580743115E-002   0.0000000000000000     
   1.6432885814625486E-002   7.3196438749653814E-002   0.0000000000000000     
   1.7132541750807518E-002   7.9367342717016690E-002   0.0000000000000000     
   3.4914879408065806E-002   8.0525557934562064E-002   0.0000000000000000     
   3.6231144511973991E-002   8.6819153437837387E-002   0.0000000000000000     
   3.7513722939418521E-002   9.3264167712610327E-002   0.0000000000000000     
   3.8762614690399363E-002   9.9860600758880869E-002   0.0000000000000000     
   3.9977819764916545E-002  0.10660845257664900        0.0000000000000000     
   3.0296875084483831E-002   8.0132148064103598E-002   0.0000000000000000     
   3.1435363234209979E-002   8.6441577839805578E-002   0.0000000000000000     
   3.2552284715308542E-002   9.2901855110862547E-002   0.0000000000000000     
   3.3647639527779535E-002   9.9512979877274546E-002   0.0000000000000000     
   3.4721427671622951E-002  0.10627495213904153        0.0000000000000000     
   2.5793817367080123E-002   7.9807975571026535E-002   0.0000000000000000     
   2.6761302872273199E-002   8.6128043680135713E-002   0.0000000000000000     
   2.7714439388430958E-002   9.2598959094728234E-002   0.0000000000000000     
   2.8653226915553387E-002   9.9220721814804083E-002   0.0000000000000000     
   2.9577665453640517E-002  0.10599333184036325        0.0000000000000000     
   2.1405706255854688E-002   7.9553040455330903E-002   0.0000000000000000     
   2.2208963426163662E-002   8.5878550958827862E-002   0.0000000000000000     
   2.3000186958785741E-002   9.2355479664207374E-002   0.0000000000000000     
   2.3779376853720939E-002   9.8983826571469466E-002   0.0000000000000000     
   2.4546533110969243E-002  0.10576359168061411        0.0000000000000000     
   1.7132541750807518E-002   7.9367342717016690E-002   0.0000000000000000     
   1.7778344895881364E-002   8.5693099675881970E-002   0.0000000000000000     
   1.8409527426372918E-002   9.2171416819299967E-002   0.0000000000000000     
   1.9026089342282171E-002   9.8802294147270722E-002   0.0000000000000000     
   1.9628030643609132E-002  0.10558573165979415        0.0000000000000000     
   3.9977819764916545E-002  0.10660845257664900        0.0000000000000000     
   4.1147912804257586E-002  0.11350092648260060        0.0000000000000000     
   4.2261468449710002E-002  0.12053122579342153        0.0000000000000000     
   4.3318486701273813E-002  0.12769935050911180        0.0000000000000000     
   4.4318967558948992E-002  0.13500530062967142        0.0000000000000000     
   3.4721427671622951E-002  0.10627495213904153        0.0000000000000000     
   3.5757342659347761E-002  0.11318190860426738        0.0000000000000000     
   3.6739078003462954E-002  0.12022798598105593        0.0000000000000000     
   3.7666633703968513E-002  0.12741318426940712        0.0000000000000000     
   3.8540009760864455E-002  0.13473750346932103        0.0000000000000000     
   2.9577665453640517E-002  0.10599333184036325        0.0000000000000000     
   3.0470581539396573E-002  0.11291158943330969        0.0000000000000000     
   3.1314801709525823E-002  0.11997029485554729        0.0000000000000000     
   3.2110325964028269E-002  0.12716944810707606        0.0000000000000000     
   3.2857154302903910E-002  0.13450904918789608        0.0000000000000000     
   2.4546533110969243E-002  0.10576359168061411        0.0000000000000000     
   2.5287629444404023E-002  0.11268996896972749        0.0000000000000000     
   2.5988639567898632E-002  0.11975815241689566        0.0000000000000000     
   2.6649563481453087E-002  0.12696814202211867        0.0000000000000000     
   2.7270401185067374E-002  0.13431993778539650        0.0000000000000000     
   1.9628030643609132E-002  0.10558573165979415        0.0000000000000000     
   2.0208486374370099E-002  0.11251704721352077        0.0000000000000000     
   2.0760591578581369E-002  0.11959155866510100        0.0000000000000000     
   2.1284346256242950E-002  0.12680926601453488        0.0000000000000000     
   2.1779750407354834E-002  0.13417016926182240        0.0000000000000000     
   4.4318967558948992E-002  0.13500530062967142        0.0000000000000000     
   4.5264637419044573E-002  0.14243434771829885        0.0000000000000000     
   4.6157222677869578E-002  0.14997176333819270        0.0000000000000000     
   4.6996723335423991E-002  0.15761754748935289        0.0000000000000000     
   4.7783139391707821E-002  0.16537170017177949        0.0000000000000000     
   3.8540009760864455E-002  0.13473750346932103        0.0000000000000000     
   3.9363274800929757E-002  0.14218529901170920        0.0000000000000000     
   4.0140497450943412E-002  0.14974092632748326        0.0000000000000000     
   4.0871677710905434E-002  0.15740438541664320        0.0000000000000000     
   4.1556815580815816E-002  0.16517567627918900        0.0000000000000000     
   3.2857154302903910E-002  0.13450904918789608        0.0000000000000000     
   3.3559808376973949E-002  0.14197259398032455        0.0000000000000000     
   3.4222809837059602E-002  0.14954357836667889        0.0000000000000000     
   3.4846158683160849E-002  0.15722200234695916        0.0000000000000000     
   3.5429854915277725E-002  0.16500786592116526        0.0000000000000000     
   2.7270401185067374E-002  0.13431993778539650        0.0000000000000000     
   2.7854238147177163E-002  0.14179623262414492        0.0000000000000000     
   2.8404159836218117E-002  0.14937971945577971        0.0000000000000000     
   2.8920166252190248E-002  0.15707039828030084        0.0000000000000000     
   2.9402257395093539E-002  0.16486826909770830        0.0000000000000000     
   2.1779750407354834E-002  0.13417016926182240        0.0000000000000000     
   2.2246564111539392E-002  0.14165621494317035        0.0000000000000000     
   2.2684547448418982E-002  0.14924934959478561        0.0000000000000000     
   2.3093700417993610E-002  0.15694957321666819        0.0000000000000000     
   2.3474023020263274E-002  0.16475688580881809        0.0000000000000000     
   4.7783139391707821E-002  0.16537170017177949        0.0000000000000000     
   4.8515024533608286E-002  0.17322472080119880        0.0000000000000000     
   4.9190932448012606E-002  0.18116710879333722        0.0000000000000000     
   4.9810863134920766E-002  0.18919886414819478        0.0000000000000000     
   5.0374816594332787E-002  0.19731998686577146        0.0000000000000000     
   4.1556815580815816E-002  0.16517567627918900        0.0000000000000000     
   4.2193399042849092E-002  0.17304577212299249        0.0000000000000000     
   4.2778916079179809E-002  0.18100564615592554        0.0000000000000000     
   4.3313366689807974E-002  0.18905529837798812        0.0000000000000000     
   4.3796750874733566E-002  0.19719472878918023        0.0000000000000000     
   3.5429854915277725E-002  0.16500786592116526        0.0000000000000000     
   3.5971194091320796E-002  0.17289255200465364        0.0000000000000000     
   3.6467471769200677E-002  0.18086744351278081        0.0000000000000000     
   3.6918687948917367E-002  0.18893254044554669        0.0000000000000000     
   3.7324842630470867E-002  0.19708784280295133        0.0000000000000000     
   2.9402257395093539E-002  0.16486826909770830        0.0000000000000000     
   2.9848409679023396E-002  0.17276506044618228        0.0000000000000000     
   3.0256599518075206E-002  0.18075250086390302        0.0000000000000000     
   3.0626826912248967E-002  0.18883059035087046        0.0000000000000000     
   3.0959091861544680E-002  0.19699932890708466        0.0000000000000000     
   2.3474023020263274E-002  0.16475688580881809        0.0000000000000000     
   2.3825045805956891E-002  0.17266329744757838        0.0000000000000000     
   2.4146299325803391E-002  0.18066081820929217        0.0000000000000000     
   2.4437783579802766E-002  0.18874944809395949        0.0000000000000000     
   2.4699498567955024E-002  0.19692918710158028        0.0000000000000000     
   5.0374816594332787E-002  0.19731998686577146        0.0000000000000000     
   5.0880158363761419E-002  0.20552171198356703        0.0000000000000000     
   5.1324253980719430E-002  0.21379527453908143        0.0000000000000000     
   5.1707103445206820E-002  0.22214067453231456        0.0000000000000000     
   5.2028706757223590E-002  0.23055791196326642        0.0000000000000000     
   4.3796750874733566E-002  0.19719472878918023        0.0000000000000000     
   4.4228012087726074E-002  0.20541312644693160        0.0000000000000000     
   4.4606093782554972E-002  0.21369968040867193        0.0000000000000000     
   4.4930995959220253E-002  0.22205439067440111        0.0000000000000000     
   4.5202718617721904E-002  0.23047725724411933        0.0000000000000000     
   3.7324842630470867E-002  0.19708784280295133        0.0000000000000000     
   3.7685836952090733E-002  0.20532046190574257        0.0000000000000000     
   3.8001572052006528E-002  0.21361750907466823        0.0000000000000000     
   3.8272047930218246E-002  0.22197898430972843        0.0000000000000000     
   3.8497264586725879E-002  0.23040488761092312        0.0000000000000000     
   3.0959091861544680E-002  0.19699932890708466        0.0000000000000000     
   3.1253632956855383E-002  0.20524371835999988        0.0000000000000000     
   3.1510688789074086E-002  0.21354876053707050        0.0000000000000000     
   3.1730259358200792E-002  0.22191445543829644        0.0000000000000000     
   3.1912344664235509E-002  0.23034080306367777        0.0000000000000000     
   2.4699498567955024E-002  0.19692918710158028        0.0000000000000000     
   2.4931400102020031E-002  0.20518289580970361        0.0000000000000000     
   2.5133443993757661E-002  0.21349343479587857        0.0000000000000000     
   2.5305630243167909E-002  0.22186080406010514        0.0000000000000000     
   2.5447958850250783E-002  0.23028500360238327        0.0000000000000000     
   5.2028706757223590E-002  0.23055791196326642        0.0000000000000000     
   5.2297372789128105E-002  0.23903842742630160        0.0000000000000000     
   5.2521410413278749E-002  0.24757366151578453        0.0000000000000000     
   5.2700819629675502E-002  0.25616361423171524        0.0000000000000000     
   5.2835600438318378E-002  0.26480828557409380        0.0000000000000000     
   4.5202718617721904E-002  0.23047725724411933        0.0000000000000000     
   4.5430250119970081E-002  0.23895282223938460        0.0000000000000000     
   4.5622578827874891E-002  0.24746562778175507        0.0000000000000000     
   4.5779704741436326E-002  0.25601567387123075        0.0000000000000000     
   4.5901627860654402E-002  0.26460296050781162        0.0000000000000000     
   3.8497264586725879E-002  0.23040488761092312        0.0000000000000000     
   3.8686193887025253E-002  0.23887434724659509        0.0000000000000000     
   3.8847807696612141E-002  0.24736649148508719        0.0000000000000000     
   3.8982106015486573E-002  0.25588132032639943        0.0000000000000000     
   3.9089088843648506E-002  0.26441883377053177        0.0000000000000000     
   3.1912344664235509E-002  0.23034080306367777        0.0000000000000000     
   3.2065204090293620E-002  0.23880300244793304        0.0000000000000000     
   3.2197097019490521E-002  0.24727625262578090        0.0000000000000000     
   3.2308023451826207E-002  0.25576055359722133        0.0000000000000000     
   3.2397983387300683E-002  0.26425590536225430        0.0000000000000000     
   2.5447958850250783E-002  0.23028500360238327        0.0000000000000000     
   2.5567280729775183E-002  0.23873878784339847        0.0000000000000000     
   2.5670446796510010E-002  0.24719491120383622        0.0000000000000000     
   2.5757457050455266E-002  0.25565337368369639        0.0000000000000000     
   2.5828311491610946E-002  0.26411417528297909        0.0000000000000000     
   5.2835600438318378E-002  0.26480828557409380        0.0000000000000000     
   5.2956621490074046E-002  0.27345814661206536        0.0000000000000000     
   5.3094751435809169E-002  0.28206366841477515        0.0000000000000000     
   5.3249990275523754E-002  0.29062485098222318        0.0000000000000000     
   5.3422338009217800E-002  0.29914169431440951        0.0000000000000000     
   4.5901627860654402E-002  0.26460296050781162        0.0000000000000000     
   4.6012521816804493E-002  0.27317720252218802        0.0000000000000000     
   4.6136560241161972E-002  0.28168811474505018        0.0000000000000000     
   4.6273743133726834E-002  0.29013569717639820        0.0000000000000000     
   4.6424070494499092E-002  0.29851994981623198        0.0000000000000000     
   3.9089088843648506E-002  0.26441883377053177        0.0000000000000000     
   3.9187542211103314E-002  0.27292750881528721        0.0000000000000000     
   3.9296252147856321E-002  0.28135582245846869        0.0000000000000000     
   3.9415218653907534E-002  0.28970377470007613        0.0000000000000000     
   3.9544441729256953E-002  0.29797136554010961        0.0000000000000000     
   3.2397983387300683E-002  0.26425590536225430        0.0000000000000000     
   3.2481682672970510E-002  0.27270906549136303        0.0000000000000000     
   3.2573827155892222E-002  0.28106679155503056        0.0000000000000000     
   3.2674416836065846E-002  0.28932908355325687        0.0000000000000000     
   3.2783451713491361E-002  0.29749594148604230        0.0000000000000000     
   2.5828311491610946E-002  0.26411417528297909        0.0000000000000000     
   2.5894943202406075E-002  0.27252187255041521        0.0000000000000000     
   2.5969285265269683E-002  0.28082102203473580        0.0000000000000000     
   2.6051337680201767E-002  0.28901162373594075        0.0000000000000000     
   2.6141100447202324E-002  0.29709367765403016        0.0000000000000000     
   1.3775408200274980E-002   5.5626601638278150E-002   0.0000000000000000     
   1.4754319039359219E-002   6.1326068210284551E-002   0.0000000000000000     
   1.5640144910809388E-002   6.7182680580743115E-002   0.0000000000000000     
   1.6432885814625486E-002   7.3196438749653814E-002   0.0000000000000000     
   1.7132541750807518E-002   7.9367342717016690E-002   0.0000000000000000     
   1.0247639528845042E-002   5.5398034036301086E-002   0.0000000000000000     
   1.1062840442934763E-002   6.1145981001165681E-002   0.0000000000000000     
   1.1785576541312456E-002   6.7036191318114016E-002   0.0000000000000000     
   1.2415847823978116E-002   7.3068664987146079E-002   0.0000000000000000     
   1.2953654290931749E-002   7.9243402008261923E-002   0.0000000000000000     
   6.9990939253034906E-003   5.5379591764547188E-002   0.0000000000000000     
   7.5756154865676073E-003   6.1108649677138069E-002   0.0000000000000000     
   8.0760027386418166E-003   6.6984026684117945E-002   0.0000000000000000     
   8.5002556815261220E-003   7.3005722785486823E-002   0.0000000000000000     
   8.8483743152205190E-003   7.9173737981244677E-002   0.0000000000000000     
   4.0297713896503239E-003   5.5571274823016423E-002   0.0000000000000000     
   4.2926441702577532E-003   6.1214074238201729E-002   0.0000000000000000     
   4.5114235027974769E-003   6.7026186678754943E-002   0.0000000000000000     
   4.6861093872695003E-003   7.3007612144675993E-002   0.0000000000000000     
   4.8167018236738232E-003   7.9158350635964991E-002   0.0000000000000000     
   1.3396719218855442E-003   5.5973083211708803E-002   0.0000000000000000     
   1.2139264940051976E-003   6.1462254684356656E-002   0.0000000000000000     
   1.0918388337794354E-003   6.7162671302024954E-002   0.0000000000000000     
   9.7340894120825656E-004   7.3074333064713670E-002   0.0000000000000000     
   8.5863681629166216E-004   7.9197239972422812E-002   0.0000000000000000     
   1.7132541750807518E-002   7.9367342717016690E-002   0.0000000000000000     
   1.7778344895881364E-002   8.5693099675881970E-002   0.0000000000000000     
   1.8409527426372918E-002   9.2171416819299967E-002   0.0000000000000000     
   1.9026089342282171E-002   9.8802294147270722E-002   0.0000000000000000     
   1.9628030643609132E-002  0.10558573165979415        0.0000000000000000     
   1.2953654290931749E-002   7.9243402008261923E-002   0.0000000000000000     
   1.3436868017406463E-002   8.5566246179651834E-002   0.0000000000000000     
   1.3903361078635358E-002   9.2043041299506162E-002   0.0000000000000000     
   1.4353133474618439E-002   9.8673787367824964E-002   0.0000000000000000     
   1.4786185205355701E-002  0.10545848438460817        0.0000000000000000     
   8.8483743152205190E-003   7.9173737981244677E-002   0.0000000000000000     
   9.1519535267190980E-003   8.5492546818491236E-002   0.0000000000000000     
   9.4425882030159496E-003   9.1966623844326134E-002   0.0000000000000000     
   9.7202783441110701E-003   9.8595969058749400E-002   0.0000000000000000     
   9.9850239500044614E-003  0.10538058246176102        0.0000000000000000     
   4.8167018236738232E-003   7.9158350635964991E-002   0.0000000000000000     
   4.9236014238192754E-003   8.5472001592400135E-002   0.0000000000000000     
   5.0272087995146906E-003   9.1942164453759814E-002   0.0000000000000000     
   5.1275239507600706E-003   9.8568839220044016E-002   0.0000000000000000     
   5.2245468775554138E-003  0.10535202589125271        0.0000000000000000     
   8.5863681629166216E-004   7.9197239972422812E-002   0.0000000000000000     
   7.5181170870699176E-004   8.5504610501378614E-002   0.0000000000000000     
   6.5722286813158426E-004   9.1969663127807272E-002   0.0000000000000000     
   5.7487029456544019E-004   9.8592397851708813E-002   0.0000000000000000     
   5.0475398800855923E-004  0.10537281467308324        0.0000000000000000     
   1.9628030643609132E-002  0.10558573165979415        0.0000000000000000     
   2.0208486374370099E-002  0.11251704721352077        0.0000000000000000     
   2.0760591578581369E-002  0.11959155866510100        0.0000000000000000     
   2.1284346256242950E-002  0.12680926601453488        0.0000000000000000     
   2.1779750407354834E-002  0.13417016926182240        0.0000000000000000     
   1.4786185205355701E-002  0.10545848438460817        0.0000000000000000     
   1.5202983599717623E-002  0.11239234518383392        0.0000000000000000     
   1.5603995986574673E-002  0.11947058259948032        0.0000000000000000     
   1.5989222365926856E-002  0.12669319663154735        0.0000000000000000     
   1.6358662737774164E-002  0.13406018728003502        0.0000000000000000     
   9.9850239500044614E-003  0.10538058246176102        0.0000000000000000     
   1.0240952390869406E-002  0.11231538389981131        0.0000000000000000     
   1.0492191036879182E-002  0.11939529321935055        0.0000000000000000     
   1.0738739888033791E-002  0.12662031042037869        0.0000000000000000     
   1.0980598944333233E-002  0.13399043550289580        0.0000000000000000     
   5.2245468775554138E-003  0.10535202589125271        0.0000000000000000     
   5.3223927478254470E-003  0.11228616336145295        0.0000000000000000     
   5.4251767294948971E-003  0.11936569052471169        0.0000000000000000     
   5.5328988225637581E-003  0.12659060738102892        0.0000000000000000     
   5.6455590270320394E-003  0.13396091393040471        0.0000000000000000     
   5.0475398800855923E-004  0.10537281467308324        0.0000000000000000     
   4.4730467058574832E-004  0.11230468356875882        0.0000000000000000     
   4.0295306442181592E-004  0.11938177451556374        0.0000000000000000     
   3.7169916951676046E-004  0.12660408751349805        0.0000000000000000     
   3.5354298587058275E-004  0.13397162256256173        0.0000000000000000     
   2.1779750407354834E-002  0.13417016926182240        0.0000000000000000     
   2.2246564111539392E-002  0.14165621494317035        0.0000000000000000     
   2.2684547448418982E-002  0.14924934959478561        0.0000000000000000     
   2.3093700417993610E-002  0.15694957321666819        0.0000000000000000     
   2.3474023020263274E-002  0.16475688580881809        0.0000000000000000     
   1.6358662737774164E-002  0.13406018728003502        0.0000000000000000     
   1.6708294032634245E-002  0.14155293587695084        0.0000000000000000     
   1.7034093181024737E-002  0.14915282375430222        0.0000000000000000     
   1.7336060182945642E-002  0.15685985091208918        0.0000000000000000     
   1.7614195038396955E-002  0.16467401735031170        0.0000000000000000     
   1.0980598944333233E-002  0.13399043550289580        0.0000000000000000     
   1.1210935673035338E-002  0.14148679036503639        0.0000000000000000     
   1.1422917541397940E-002  0.14909049690493498        0.0000000000000000     
   1.1616544549421038E-002  0.15680155512259158        0.0000000000000000     
   1.1791816697104631E-002  0.16461996501800621        0.0000000000000000     
   5.6455590270320394E-003  0.13396091393040471        0.0000000000000000     
   5.7544890327426695E-003  0.14145777840742704        0.0000000000000000     
   5.8510205295385894E-003  0.14906236904668396        0.0000000000000000     
   5.9351535174197983E-003  0.15677468584817550        0.0000000000000000     
   6.0068879963862962E-003  0.16459472881190157        0.0000000000000000     
   3.5354298587058275E-004  0.13397162256256173        0.0000000000000000     
   3.3895411175623863E-004  0.14146590000412276        0.0000000000000000     
   3.1840214544668710E-004  0.14906844017954915        0.0000000000000000     
   2.9188708694192404E-004  0.15677924308884081        0.0000000000000000     
   2.5940893624195292E-004  0.16459830873199782        0.0000000000000000     
   2.3474023020263274E-002  0.16475688580881809        0.0000000000000000     
   2.3825045805956891E-002  0.17266329744757838        0.0000000000000000     
   2.4146299325803391E-002  0.18066081820929217        0.0000000000000000     
   2.4437783579802766E-002  0.18874944809395949        0.0000000000000000     
   2.4699498567955024E-002  0.19692918710158028        0.0000000000000000     
   1.7614195038396955E-002  0.16467401735031170        0.0000000000000000     
   1.7869924662596019E-002  0.17258751168878531        0.0000000000000000     
   1.8104675970760157E-002  0.18059252254732538        0.0000000000000000     
   1.8318448962889384E-002  0.18868904992593194        0.0000000000000000     
   1.8511243638983689E-002  0.19687709382460500        0.0000000000000000     
   1.1791816697104631E-002  0.16461996501800621        0.0000000000000000     
   1.1951868439415503E-002  0.17253795184974638        0.0000000000000000     
   1.2099834231320435E-002  0.18054774087637973        0.0000000000000000     
   1.2235714072819431E-002  0.18864933209790616        0.0000000000000000     
   1.2359507963912487E-002  0.19684272551432572        0.0000000000000000     
   6.0068879963862962E-003  0.16459472881190157        0.0000000000000000     
   6.0708771364153475E-003  0.17251461793046166        0.0000000000000000     
   6.1317741074842199E-003  0.18052647319645518        0.0000000000000000     
   6.1895789095929091E-003  0.18863029460988209        0.0000000000000000     
   6.2442915427414186E-003  0.19682608217074243        0.0000000000000000     
   2.5940893624195292E-004  0.16459830873199782        0.0000000000000000     
   2.2695075359555452E-004  0.17251750993093118        0.0000000000000000     
   2.0049559925151166E-004  0.18052871950755184        0.0000000000000000     
   1.8004347320982073E-004  0.18863193746185980        0.0000000000000000     
   1.6559437547048611E-004  0.19682716379385512        0.0000000000000000     
   2.4699498567955024E-002  0.19692918710158028        0.0000000000000000     
   2.4931400102020031E-002  0.20518289580970361        0.0000000000000000     
   2.5133443993757661E-002  0.21349343479587857        0.0000000000000000     
   2.5305630243167909E-002  0.22186080406010514        0.0000000000000000     
   2.5447958850250783E-002  0.23028500360238327        0.0000000000000000     
   1.8511243638983689E-002  0.19687709382460500        0.0000000000000000     
   1.8682438307975422E-002  0.20513765097229233        0.0000000000000000     
   1.8831411278796943E-002  0.21345171809794161        0.0000000000000000     
   1.8958162551448242E-002  0.22181929520155289        0.0000000000000000     
   1.9062692125929325E-002  0.23024038228312613        0.0000000000000000     
   1.2359507963912487E-002  0.19684272551432572        0.0000000000000000     
   1.2470047495112317E-002  0.20510764056520453        0.0000000000000000     
   1.2566164256931637E-002  0.21342379669010866        0.0000000000000000     
   1.2647858249370448E-002  0.22179119388903804        0.0000000000000000     
   1.2715129472428748E-002  0.23020983216199276        0.0000000000000000     
   6.2442915427414186E-003  0.19682608217074243        0.0000000000000000     
   6.2942276634307091E-003  0.20509286458844031        0.0000000000000000     
   6.3377029281617451E-003  0.21340967057237964        0.0000000000000000     
   6.3747173369345239E-003  0.22177650012256059        0.0000000000000000     
   6.4052708897490455E-003  0.23019335323898310        0.0000000000000000     
   1.6559437547048611E-004  0.19682716379385512        0.0000000000000000     
   1.5497881293060072E-004  0.20509332304199954        0.0000000000000000     
   1.4602729248726375E-004  0.21340933974475465        0.0000000000000000     
   1.3873981414046899E-004  0.22177521390212057        0.0000000000000000     
   1.3311637789022428E-004  0.23019094551409722        0.0000000000000000     
   2.5447958850250783E-002  0.23028500360238327        0.0000000000000000     
   2.5567280729775183E-002  0.23873878784339847        0.0000000000000000     
   2.5670446796510010E-002  0.24719491120383622        0.0000000000000000     
   2.5757457050455266E-002  0.25565337368369639        0.0000000000000000     
   2.5828311491610946E-002  0.26411417528297909        0.0000000000000000     
   1.9062692125929325E-002  0.23024038228312613        0.0000000000000000     
   1.9150076909481346E-002  0.23868623162881397        0.0000000000000000     
   1.9225393809345466E-002  0.24712809552476905        0.0000000000000000     
   1.9288642825521680E-002  0.25556597397099134        0.0000000000000000     
   1.9339823958009993E-002  0.26399986696748085        0.0000000000000000     
   1.2715129472428748E-002  0.23020983216199276        0.0000000000000000     
   1.2771245733423519E-002  0.23864986200000210        0.0000000000000000     
   1.2819474839671741E-002  0.24708143389409548        0.0000000000000000     
   1.2859816791173420E-002  0.25550454784427284        0.0000000000000000     
   1.2892271587928550E-002  0.26391920385053425        0.0000000000000000     
   6.4052708897490455E-003  0.23019335323898310        0.0000000000000000     
   6.4307872016016896E-003  0.23862967895696280        0.0000000000000000     
   6.4526898874888352E-003  0.24705492631181536        0.0000000000000000     
   6.4709789474104778E-003  0.25546909530354078        0.0000000000000000     
   6.4856543813666219E-003  0.26387218593213907        0.0000000000000000     
   1.3311637789022428E-004  0.23019094551409722        0.0000000000000000     
   1.2870131401586816E-004  0.23862568249969615        0.0000000000000000     
   1.2503895279674564E-004  0.24704857277792885        0.0000000000000000     
   1.2212929423285619E-004  0.25545961634879527        0.0000000000000000     
   1.1997233832419969E-004  0.26385881321229554        0.0000000000000000     
   2.5828311491610946E-002  0.26411417528297909        0.0000000000000000     
   2.5894943202406075E-002  0.27252187255041521        0.0000000000000000     
   2.5969285265269683E-002  0.28082102203473580        0.0000000000000000     
   2.6051337680201767E-002  0.28901162373594075        0.0000000000000000     
   2.6141100447202324E-002  0.29709367765403016        0.0000000000000000     
   1.9339823958009993E-002  0.26399986696748085        0.0000000000000000     
   1.9388515304575311E-002  0.27237220035644738        0.0000000000000000     
   1.9444294962982545E-002  0.28062539998010078        0.0000000000000000     
   1.9507162933231695E-002  0.28875946583844098        0.0000000000000000     
   1.9577119215322764E-002  0.29677439793146804        0.0000000000000000     
   1.2892271587928550E-002  0.26391920385053425        0.0000000000000000     
   1.2923590484643513E-002  0.27226631927346279        0.0000000000000000     
   1.2960524736024671E-002  0.28048681147364174        0.0000000000000000     
   1.3003074342072030E-002  0.28858068045107121        0.0000000000000000     
   1.3051239302785587E-002  0.29654792620575099        0.0000000000000000     
   6.4856543813666219E-003  0.26387218593213907        0.0000000000000000     
   6.5001687426106784E-003  0.27220422930146138        0.0000000000000000     
   6.5179745843960578E-003  0.28040525651535875        0.0000000000000000     
   6.5390719067227633E-003  0.28847526757383135        0.0000000000000000     
   6.5634607095907951E-003  0.29641426247687908        0.0000000000000000     
   1.1997233832419969E-004  0.26385881321229554        0.0000000000000000     
   1.1825007847680738E-004  0.27218593044044320        0.0000000000000000     
   1.1664450809670745E-004  0.28038073510525191        0.0000000000000000     
   1.1515562718390218E-004  0.28844322720672155        0.0000000000000000     
   1.1378343573838906E-004  0.29637340674485219        0.0000000000000000     
   1.3396719218855442E-003   5.5973083211708803E-002   0.0000000000000000     
   1.2139264940051976E-003   6.1462254684356656E-002   0.0000000000000000     
   1.0918388337794354E-003   6.7162671302024954E-002   0.0000000000000000     
   9.7340894120825656E-004   7.3074333064713670E-002   0.0000000000000000     
   8.5863681629166216E-004   7.9197239972422812E-002   0.0000000000000000     
  -1.5300633394388827E-003   5.6346364515603098E-002   0.0000000000000000     
  -2.0194756456240331E-003   6.1696293502204486E-002   0.0000000000000000     
  -2.4603555824355334E-003   6.7296969379531738E-002   0.0000000000000000     
  -2.8527031498733809E-003   7.3148392147584895E-002   0.0000000000000000     
  -3.1965183479375787E-003   7.9250561806363945E-002   0.0000000000000000     
  -5.0382932557709904E-003   5.6452466319678089E-002   0.0000000000000000     
  -5.7665003520639170E-003   6.1759293178346789E-002   0.0000000000000000     
  -6.4227640598706476E-003   6.7332569736879039E-002   0.0000000000000000     
  -7.0070843791911804E-003   7.3172295995274833E-002   0.0000000000000000     
  -7.5194613100255190E-003   7.9278471953534171E-002   0.0000000000000000     
  -9.1850178271107776E-003   5.6291388623933770E-002   0.0000000000000000     
  -1.0027147625314451E-002   6.1651253712783578E-002   0.0000000000000000     
  -1.0795386598525908E-002   6.7269472374066830E-002   0.0000000000000000     
  -1.1489734746745143E-002   7.3146044607783442E-002   0.0000000000000000     
  -1.2110192069972155E-002   7.9280970413933491E-002   0.0000000000000000     
  -1.3970237053458248E-002   5.5863131428370134E-002   0.0000000000000000     
  -1.4801417465375642E-002   6.1372175105514890E-002   0.0000000000000000     
  -1.5578223198401315E-002   6.7107677291095111E-002   0.0000000000000000     
  -1.6300654252535261E-002   7.3069637985110764E-002   0.0000000000000000     
  -1.6968710627777488E-002   7.9258057187561903E-002   0.0000000000000000     
   8.5863681629166216E-004   7.9197239972422812E-002   0.0000000000000000     
   7.5181170870699176E-004   8.5504610501378614E-002   0.0000000000000000     
   6.5722286813158426E-004   9.1969663127807272E-002   0.0000000000000000     
   5.7487029456544019E-004   9.8592397851708813E-002   0.0000000000000000     
   5.0475398800855923E-004  0.10537281467308324        0.0000000000000000     
  -3.1965183479375787E-003   7.9250561806363945E-002   0.0000000000000000     
  -3.5030077389742453E-003   8.5556809814091153E-002   0.0000000000000000     
  -3.7833778853294947E-003   9.2020467628988800E-002   0.0000000000000000     
  -4.0376287870033303E-003   9.8641535251056872E-002   0.0000000000000000     
  -4.2657604439957520E-003  0.10542001268029540        0.0000000000000000     
  -7.5194613100255190E-003   7.9278471953534171E-002   0.0000000000000000     
  -7.9804490395809276E-003   8.5595035799202357E-002   0.0000000000000000     
  -8.4106017550646690E-003   9.2065925719824734E-002   0.0000000000000000     
  -8.8099194564767482E-003   9.8691141715401262E-002   0.0000000000000000     
  -9.1784021438171669E-003  0.10547068378593195        0.0000000000000000     
  -1.2110192069972155E-002   7.9280970413933491E-002   0.0000000000000000     
  -1.2680512193113053E-002   8.5619288456712267E-002   0.0000000000000000     
  -1.3224448741073945E-002   9.2106037400315074E-002   0.0000000000000000     
  -1.3742001713854819E-002   9.8741217244741983E-002   0.0000000000000000     
  -1.4233171111455684E-002  0.10552482798999292        0.0000000000000000     
  -1.6968710627777488E-002   7.9258057187561903E-002   0.0000000000000000     
  -1.7603197199570625E-002   8.5629567786620814E-002   0.0000000000000000     
  -1.8224918843357311E-002   9.2140802670459834E-002   0.0000000000000000     
  -1.8833875559137535E-002   9.8791761839079020E-002   0.0000000000000000     
  -1.9430067346911307E-002  0.10558244529247829        0.0000000000000000     
   5.0475398800855923E-004  0.10537281467308324        0.0000000000000000     
   4.4730467058574832E-004  0.11230468356875882        0.0000000000000000     
   4.0295306442181592E-004  0.11938177451556374        0.0000000000000000     
   3.7169916951676046E-004  0.12660408751349805        0.0000000000000000     
   3.5354298587058275E-004  0.13397162256256173        0.0000000000000000     
  -4.2657604439957520E-003  0.10542001268029540        0.0000000000000000     
  -4.4709812918314424E-003  0.11234953296112782        0.0000000000000000     
  -4.6564997660350849E-003  0.11942372913797758        0.0000000000000000     
  -4.8223158666066794E-003  0.12664260121084470        0.0000000000000000     
  -4.9684295935462268E-003  0.13400614917972922        0.0000000000000000     
  -9.1784021438171669E-003  0.10547068378593195        0.0000000000000000     
  -9.5191345904078739E-003  0.11239929997795887        0.0000000000000000     
  -9.8352015695708297E-003  0.11947173833802412        0.0000000000000000     
  -1.0126603081306033E-002  0.12668799886612767        0.0000000000000000     
  -1.0393339125613483E-002  0.13404808156226952        0.0000000000000000     
  -1.4233171111455684E-002  0.10552482798999292        0.0000000000000000     
  -1.4697155225143550E-002  0.11245398461925202        0.0000000000000000     
  -1.5133152346185421E-002  0.11952580211570331        0.0000000000000000     
  -1.5541162474581302E-002  0.12674028047934685        0.0000000000000000     
  -1.5921185610331186E-002  0.13409741971018263        0.0000000000000000     
  -1.9430067346911307E-002  0.10558244529247829        0.0000000000000000     
  -2.0005043196038470E-002  0.11251358688500718        0.0000000000000000     
  -2.0550352095878865E-002  0.11958592047101517        0.0000000000000000     
  -2.1065994046432480E-002  0.12679944605050228        0.0000000000000000     
  -2.1551969047699331E-002  0.13415416362346849        0.0000000000000000     
   3.5354298587058275E-004  0.13397162256256173        0.0000000000000000     
   3.3895411175623863E-004  0.14146590000412276        0.0000000000000000     
   3.1840214544668710E-004  0.14906844017954915        0.0000000000000000     
   2.9188708694192404E-004  0.15677924308884081        0.0000000000000000     
   2.5940893624195292E-004  0.16459830873199782        0.0000000000000000     
  -4.9684295935462268E-003  0.13400614917972922        0.0000000000000000     
  -5.1041505172742026E-003  0.14149659560593902        0.0000000000000000     
  -5.2387882082110919E-003  0.14909616305078205        0.0000000000000000     
  -5.3723426663568824E-003  0.15680485151425833        0.0000000000000000     
  -5.5048138917115803E-003  0.16462266099636780        0.0000000000000000     
  -1.0393339125613483E-002  0.13404808156226952        0.0000000000000000     
  -1.0643306281698912E-002  0.14153530566369121        0.0000000000000000     
  -1.0884401128768057E-002  0.14913299040763422        0.0000000000000000     
  -1.1116623666820917E-002  0.15684113579409856        0.0000000000000000     
  -1.1339973895857485E-002  0.16465974182308429        0.0000000000000000     
  -1.5921185610331186E-002  0.13409741971018263        0.0000000000000000     
  -1.6278513181517885E-002  0.14158203017737933        0.0000000000000000     
  -1.6618436616224218E-002  0.14917892225010568        0.0000000000000000     
  -1.6940955914450176E-002  0.15688809592836167        0.0000000000000000     
  -1.7246071076195767E-002  0.16470955121214734        0.0000000000000000     
  -2.1551969047699331E-002  0.13415416362346849        0.0000000000000000     
  -2.2009771216731124E-002  0.14163676914700335        0.0000000000000000     
  -2.2440894670579574E-002  0.14923395857819638        0.0000000000000000     
  -2.2845339409244669E-002  0.15694573191704758        0.0000000000000000     
  -2.3223105432726411E-002  0.16477208916355698        0.0000000000000000     
   2.5940893624195292E-004  0.16459830873199782        0.0000000000000000     
   2.2695075359555452E-004  0.17251750993093118        0.0000000000000000     
   2.0049559925151166E-004  0.18052871950755184        0.0000000000000000     
   1.8004347320982073E-004  0.18863193746185980        0.0000000000000000     
   1.6559437547048611E-004  0.19682716379385512        0.0000000000000000     
  -5.5048138917115803E-003  0.16462266099636780        0.0000000000000000     
  -5.6296145288941236E-003  0.17254074944521594        0.0000000000000000     
  -5.7401572225234468E-003  0.18055027480890817        0.0000000000000000     
  -5.8364419725995525E-003  0.18865123708744447        0.0000000000000000     
  -5.9184687791224372E-003  0.19684363628082488        0.0000000000000000     
  -1.1339973895857485E-002  0.16465974182308429        0.0000000000000000     
  -1.1548522530903930E-002  0.17257845806737709        0.0000000000000000     
  -1.1736340286986410E-002  0.18058693409976276        0.0000000000000000     
  -1.1903427164104925E-002  0.18868516992024131        0.0000000000000000     
  -1.2049783162259471E-002  0.19687316552881268        0.0000000000000000     
  -1.7246071076195767E-002  0.16470955121214734        0.0000000000000000     
  -1.7529773252433867E-002  0.17263063579741469        0.0000000000000000     
  -1.7788053594137380E-002  0.18063869738011568        0.0000000000000000     
  -1.8020912101306304E-002  0.18873373596025031        0.0000000000000000     
  -1.8228348773940625E-002  0.19691575153781862        0.0000000000000000     
  -2.3223105432726411E-002  0.16477208916355698        0.0000000000000000     
  -2.3573366693483932E-002  0.17269728263532869        0.0000000000000000     
  -2.3895297143976351E-002  0.18070556464996687        0.0000000000000000     
  -2.4188896784203676E-002  0.18879693520747151        0.0000000000000000     
  -2.4454165614165885E-002  0.19697139430784261        0.0000000000000000     
   1.6559437547048611E-004  0.19682716379385512        0.0000000000000000     
   1.5497881293060072E-004  0.20509332304199954        0.0000000000000000     
   1.4602729248726375E-004  0.21340933974475465        0.0000000000000000     
   1.3873981414046899E-004  0.22177521390212057        0.0000000000000000     
   1.3311637789022428E-004  0.23019094551409722        0.0000000000000000     
  -5.9184687791224372E-003  0.19684363628082488        0.0000000000000000     
  -5.9885685220845029E-003  0.20510710550979253        0.0000000000000000     
  -6.0490720814781532E-003  0.21342127789509061        0.0000000000000000     
  -6.0999794573033872E-003  0.22178615343671904        0.0000000000000000     
  -6.1412906495602049E-003  0.23020173213467796        0.0000000000000000     
  -1.2049783162259471E-002  0.19687316552881268        0.0000000000000000     
  -1.2177283807311099E-002  0.20513230157572954        0.0000000000000000     
  -1.2287804625120854E-002  0.21344395871124439        0.0000000000000000     
  -1.2381345615688728E-002  0.22180813693535725        0.0000000000000000     
  -1.2457906779014731E-002  0.23022483624806811        0.0000000000000000     
  -1.8228348773940625E-002  0.19691575153781862        0.0000000000000000     
  -1.8411167042749189E-002  0.20516891123981054        0.0000000000000000     
  -1.8570170338440835E-002  0.21347738219321602        0.0000000000000000     
  -1.8705358661015553E-002  0.22184116439803511        0.0000000000000000     
  -1.8816732010473351E-002  0.23026025785426774        0.0000000000000000     
  -2.4454165614165885E-002  0.19697139430784261        0.0000000000000000     
  -2.4690218228398772E-002  0.20521693450203554        0.0000000000000000     
  -2.4896169221438100E-002  0.21352154834100553        0.0000000000000000     
  -2.5072018593283861E-002  0.22188523582475264        0.0000000000000000     
  -2.5217766343936066E-002  0.23030799695327683        0.0000000000000000     
   1.3311637789022428E-004  0.23019094551409722        0.0000000000000000     
   1.2870131401586816E-004  0.23862568249969615        0.0000000000000000     
   1.2503895279674564E-004  0.24704857277792885        0.0000000000000000     
   1.2212929423285619E-004  0.25545961634879527        0.0000000000000000     
   1.1997233832419969E-004  0.26385881321229554        0.0000000000000000     
  -6.1412906495602049E-003  0.23020173213467796        0.0000000000000000     
  -6.1752818438092216E-003  0.23863724790948729        0.0000000000000000     
  -6.2042292256110510E-003  0.24706193468166723        0.0000000000000000     
  -6.2281327949656930E-003  0.25547579245121776        0.0000000000000000     
  -6.2469925518731442E-003  0.26387882121813883        0.0000000000000000     
  -1.2457906779014731E-002  0.23022483624806811        0.0000000000000000     
  -1.2521432186348849E-002  0.23866375046762153        0.0000000000000000     
  -1.2575865908941074E-002  0.24709457341226196        0.0000000000000000     
  -1.2621207946791406E-002  0.25551730508198944        0.0000000000000000     
  -1.2657458299899848E-002  0.26393194547680404        0.0000000000000000     
  -1.8816732010473351E-002  0.23026025785426774        0.0000000000000000     
  -1.8909749713603013E-002  0.23870519017409883        0.0000000000000000     
  -1.8989871097193328E-002  0.24714648896971306        0.0000000000000000     
  -1.9057096161244288E-002  0.25558415424111058        0.0000000000000000     
  -1.9111424905755899E-002  0.26401818598829130        0.0000000000000000     
  -2.5217766343936066E-002  0.23030799695327683        0.0000000000000000     
  -2.5340234425571716E-002  0.23876156702891912        0.0000000000000000     
  -2.5446244790367806E-002  0.24721768135402047        0.0000000000000000     
  -2.5535797438324338E-002  0.25567633992858096        0.0000000000000000     
  -2.5608892369441319E-002  0.26413754275260054        0.0000000000000000     
   1.1997233832419969E-004  0.26385881321229554        0.0000000000000000     
   1.1825007847680738E-004  0.27218593044044320        0.0000000000000000     
   1.1664450809670745E-004  0.28038073510525191        0.0000000000000000     
   1.1515562718390218E-004  0.28844322720672155        0.0000000000000000     
   1.1378343573838906E-004  0.29637340674485219        0.0000000000000000     
  -6.2469925518731442E-003  0.26387882121813883        0.0000000000000000     
  -6.2648669729135856E-003  0.27221116839464732        0.0000000000000000     
  -6.2858145346671836E-003  0.28041298139296023        0.0000000000000000     
  -6.3098352371339398E-003  0.28848426021307749        0.0000000000000000     
  -6.3369290803138578E-003  0.29642500485499906        0.0000000000000000     
  -1.2657458299899848E-002  0.26393194547680404        0.0000000000000000     
  -1.2691883876715987E-002  0.27227968886831289        0.0000000000000000     
  -1.2731751585689424E-002  0.28050172952812324        0.0000000000000000     
  -1.2777061426820153E-002  0.28859806745623501        0.0000000000000000     
  -1.2827813400108178E-002  0.29656870265264829        0.0000000000000000     
  -1.9111424905755899E-002  0.26401818598829130        0.0000000000000000     
  -1.9162800632930400E-002  0.27239149186143985        0.0000000000000000     
  -1.9221166644970013E-002  0.28064697951074080        0.0000000000000000     
  -1.9286522941874731E-002  0.28878464893619421        0.0000000000000000     
  -1.9358869523644559E-002  0.29680450013780002        0.0000000000000000     
  -2.5608892369441319E-002  0.26413754275260054        0.0000000000000000     
  -2.5677617241556823E-002  0.27254657737402815        0.0000000000000000     
  -2.5754059712508940E-002  0.28084873134081301        0.0000000000000000     
  -2.5838219782297674E-002  0.28904400465295499        0.0000000000000000     
  -2.5930097450923020E-002  0.29713239731045415        0.0000000000000000     
  -1.3970237053458248E-002   5.5863131428370134E-002   0.0000000000000000     
  -1.4801417465375642E-002   6.1372175105514890E-002   0.0000000000000000     
  -1.5578223198401315E-002   6.7107677291095111E-002   0.0000000000000000     
  -1.6300654252535261E-002   7.3069637985110764E-002   0.0000000000000000     
  -1.6968710627777488E-002   7.9258057187561903E-002   0.0000000000000000     
  -1.8768261075406051E-002   5.5514133299743293E-002   0.0000000000000000     
  -1.9598214803198576E-002   6.1166431778270303E-002   0.0000000000000000     
  -2.0391672188710984E-002   6.7013547801461293E-002   0.0000000000000000     
  -2.1148633231943291E-002   7.3055481369316236E-002   0.0000000000000000     
  -2.1869097932895470E-002   7.9292232481835145E-002   0.0000000000000000     
  -2.2953400033546841E-002   5.5590832804809351E-002   0.0000000000000000     
  -2.3926444569734338E-002   6.1278398152779481E-002   0.0000000000000000     
  -2.4856131898669042E-002   6.7153447218662801E-002   0.0000000000000000     
  -2.5742462020350947E-002   7.3215980002459297E-002   0.0000000000000000     
  -2.6585434934780054E-002   7.9465996504168954E-002   0.0000000000000000     
  -2.6525653927880616E-002   5.6093229943568301E-002   0.0000000000000000     
  -2.7786106764982936E-002   6.1708074229042391E-002   0.0000000000000000     
  -2.8971602328275475E-002   6.7527375542699622E-002   0.0000000000000000     
  -3.0082140617758244E-002   7.3551133884539932E-002   0.0000000000000000     
  -3.1117721633431232E-002   7.9779349254563384E-002   0.0000000000000000     
  -2.9485022758407385E-002   5.7021324716020144E-002   0.0000000000000000     
  -3.1177201388944364E-002   6.2455460007059066E-002   0.0000000000000000     
  -3.2738083477530301E-002   6.8135332773571755E-002   0.0000000000000000     
  -3.4167669024165181E-002   7.4060943015558198E-002   0.0000000000000000     
  -3.5465958028849005E-002   8.0232290733018380E-002   0.0000000000000000     
  -1.6968710627777488E-002   7.9258057187561903E-002   0.0000000000000000     
  -1.7603197199570625E-002   8.5629567786620814E-002   0.0000000000000000     
  -1.8224918843357311E-002   9.2140802670459834E-002   0.0000000000000000     
  -1.8833875559137535E-002   9.8791761839079020E-002   0.0000000000000000     
  -1.9430067346911307E-002  0.10558244529247829        0.0000000000000000     
  -2.1869097932895470E-002   7.9292232481835145E-002   0.0000000000000000     
  -2.2571471733929600E-002   8.5692260525269556E-002   0.0000000000000000     
  -2.3274160077407714E-002   9.2224024885871059E-002   0.0000000000000000     
  -2.3977162963329822E-002   9.8887525563639625E-002   0.0000000000000000     
  -2.4680480391695913E-002  0.10568276255857526        0.0000000000000000     
  -2.6585434934780054E-002   7.9465996504168954E-002   0.0000000000000000     
  -2.7408303471165921E-002   8.5873753409000053E-002   0.0000000000000000     
  -2.8234320458718095E-002   9.2409507402160779E-002   0.0000000000000000     
  -2.9063485897436583E-002   9.9073258483651103E-002   0.0000000000000000     
  -2.9895799787321379E-002  0.10586500665347105        0.0000000000000000     
  -3.1117721633431232E-002   7.9779349254563384E-002   0.0000000000000000     
  -3.2113692411279586E-002   8.6174046437812263E-002   0.0000000000000000     
  -3.3105399987288453E-002   9.2697250219328953E-002   0.0000000000000000     
  -3.4092844361457819E-002   9.9348960599113426E-002   0.0000000000000000     
  -3.5076025533787705E-002  0.10612917757716570        0.0000000000000000     
  -3.5465958028849005E-002   8.0232290733018380E-002   0.0000000000000000     
  -3.6687638554270610E-002   8.6593139611706227E-002   0.0000000000000000     
  -3.7887398663118778E-002   9.3087253337375622E-002   0.0000000000000000     
  -3.9065238355393543E-002   9.9714631910026608E-002   0.0000000000000000     
  -4.0221157631094885E-002  0.10647527532965911        0.0000000000000000     
  -1.9430067346911307E-002  0.10558244529247829        0.0000000000000000     
  -2.0005043196038470E-002  0.11251358688500718        0.0000000000000000     
  -2.0550352095878865E-002  0.11958592047101517        0.0000000000000000     
  -2.1065994046432480E-002  0.12679944605050228        0.0000000000000000     
  -2.1551969047699331E-002  0.13415416362346849        0.0000000000000000     
  -2.4680480391695913E-002  0.10568276255857526        0.0000000000000000     
  -2.5368167269079860E-002  0.11261380612743832        0.0000000000000000     
  -2.6024278502055513E-002  0.11968472652698918        0.0000000000000000     
  -2.6648814090622877E-002  0.12689552375722785        0.0000000000000000     
  -2.7241774034781951E-002  0.13424619781815428        0.0000000000000000     
  -2.9895799787321379E-002  0.10586500665347105        0.0000000000000000     
  -3.0711896210254948E-002  0.11279034169875939        0.0000000000000000     
  -3.1492409248119760E-002  0.11985485340665483        0.0000000000000000     
  -3.2237338900915784E-002  0.12705854177715742        0.0000000000000000     
  -3.2946685168643054E-002  0.13440140681026708        0.0000000000000000     
  -3.5076025533787705E-002  0.10612917757716570        0.0000000000000000     
  -3.6036230019563728E-002  0.11304319359897036        0.0000000000000000     
  -3.6954744334071581E-002  0.12009630111001214        0.0000000000000000     
  -3.7831568477311214E-002  0.12728850011029094        0.0000000000000000     
  -3.8666702449282650E-002  0.13461979059980689        0.0000000000000000     
  -4.0221157631094885E-002  0.10647527532965911        0.0000000000000000     
  -4.1341168697006228E-002  0.11337236182807123        0.0000000000000000     
  -4.2411283759910989E-002  0.12040906963706105        0.0000000000000000     
  -4.3431502819809155E-002  0.12758539875662853        0.0000000000000000     
  -4.4401825876700746E-002  0.13490134918677371        0.0000000000000000     
  -2.1551969047699331E-002  0.13415416362346849        0.0000000000000000     
  -2.2009771216731124E-002  0.14163676914700335        0.0000000000000000     
  -2.2440894670579574E-002  0.14923395857819638        0.0000000000000000     
  -2.2845339409244669E-002  0.15694573191704758        0.0000000000000000     
  -2.3223105432726411E-002  0.16477208916355698        0.0000000000000000     
  -2.7241774034781951E-002  0.13424619781815428        0.0000000000000000     
  -2.7801089531600990E-002  0.14172497122311639        0.0000000000000000     
  -2.8324691778148257E-002  0.14932006648546206        0.0000000000000000     
  -2.8812580774423738E-002  0.15703148360519123        0.0000000000000000     
  -2.9264756520427444E-002  0.16485922258230393        0.0000000000000000     
  -3.2946685168643054E-002  0.13440140681026708        0.0000000000000000     
  -3.3616477270389841E-002  0.14187208505627150        0.0000000000000000     
  -3.4242744425244387E-002  0.14945921306545829        0.0000000000000000     
  -3.4825486633206747E-002  0.15716279083782744        0.0000000000000000     
  -3.5364703894276858E-002  0.16498281837337900        0.0000000000000000     
  -3.8666702449282650E-002  0.13461979059980689        0.0000000000000000     
  -3.9455934433097674E-002  0.14207811064646869        0.0000000000000000     
  -4.0195052611868010E-002  0.14965139831818514        0.0000000000000000     
  -4.0884056985593671E-002  0.15733965361495630        0.0000000000000000     
  -4.1522947554274665E-002  0.16514287653678214        0.0000000000000000     
  -4.4401825876700746E-002  0.13490134918677371        0.0000000000000000     
  -4.5319461019724484E-002  0.14234304799370792        0.0000000000000000     
  -4.6181616338019080E-002  0.14989662224364259        0.0000000000000000     
  -4.6988291831584532E-002  0.15756207193657776        0.0000000000000000     
  -4.7739487500420869E-002  0.16533939707251338        0.0000000000000000     
  -2.3223105432726411E-002  0.16477208916355698        0.0000000000000000     
  -2.3573366693483932E-002  0.17269728263532869        0.0000000000000000     
  -2.3895297143976351E-002  0.18070556464996687        0.0000000000000000     
  -2.4188896784203676E-002  0.18879693520747151        0.0000000000000000     
  -2.4454165614165885E-002  0.19697139430784261        0.0000000000000000     
  -2.9264756520427444E-002  0.16485922258230393        0.0000000000000000     
  -2.9683486509018735E-002  0.17278500320835458        0.0000000000000000     
  -3.0071038233056988E-002  0.18079054527489763        0.0000000000000000     
  -3.0427411692542195E-002  0.18887584878193309        0.0000000000000000     
  -3.0752606887474353E-002  0.19704091372946092        0.0000000000000000     
  -3.5364703894276858E-002  0.16498281837337900        0.0000000000000000     
  -3.5864316354002883E-002  0.17290040214372795        0.0000000000000000     
  -3.6328244157932933E-002  0.18089664862048938        0.0000000000000000     
  -3.6756487306067009E-002  0.18897155780366329        0.0000000000000000     
  -3.7149045798405111E-002  0.19712512969324966        0.0000000000000000     
  -4.1522947554274665E-002  0.16514287653678214        0.0000000000000000     
  -4.2115856228436374E-002  0.17304347944144866        0.0000000000000000     
  -4.2666914918604200E-002  0.18102387468674197        0.0000000000000000     
  -4.3176123624778122E-002  0.18908406227266206        0.0000000000000000     
  -4.3643482346958154E-002  0.19722404219920889        0.0000000000000000     
  -4.7739487500420869E-002  0.16533939707251338        0.0000000000000000     
  -4.8438106132319220E-002  0.17321423510151684        0.0000000000000000     
  -4.9087050515070778E-002  0.18117222347365552        0.0000000000000000     
  -4.9686320648675536E-002  0.18921336218892945        0.0000000000000000     
  -5.0235916533133487E-002  0.19733765124733857        0.0000000000000000     
  -2.4454165614165885E-002  0.19697139430784261        0.0000000000000000     
  -2.4690218228398772E-002  0.20521693450203554        0.0000000000000000     
  -2.4896169221438100E-002  0.21352154834100553        0.0000000000000000     
  -2.5072018593283861E-002  0.22188523582475264        0.0000000000000000     
  -2.5217766343936066E-002  0.23030799695327683        0.0000000000000000     
  -3.0752606887474353E-002  0.19704091372946092        0.0000000000000000     
  -3.1043995417313685E-002  0.20527740905766931        0.0000000000000000     
  -3.1298948881520412E-002  0.21357700370674645        0.0000000000000000     
  -3.1517467280094531E-002  0.22193969767669236        0.0000000000000000     
  -3.1699550613036045E-002  0.23036549096750708        0.0000000000000000     
  -3.7149045798405111E-002  0.19712512969324966        0.0000000000000000     
  -3.7502056662547779E-002  0.20535137260197669        0.0000000000000000     
  -3.7811656926095553E-002  0.21364429484257241        0.0000000000000000     
  -3.8077846589048447E-002  0.22200389641503687        0.0000000000000000     
  -3.8300625651406447E-002  0.23043017731937007        0.0000000000000000     
  -4.3643482346958154E-002  0.19722404219920889        0.0000000000000000     
  -4.4064401964101024E-002  0.20543882513495759        0.0000000000000000     
  -4.4434293355163516E-002  0.21372342174848336        0.0000000000000000     
  -4.4753156520145589E-002  0.22207783203978612        0.0000000000000000     
  -4.5020991459047276E-002  0.23050205600886592        0.0000000000000000     
  -5.0235916533133487E-002  0.19733765124733857        0.0000000000000000     
  -5.0731031321973465E-002  0.20553976665661211        0.0000000000000000     
  -5.1166858168724308E-002  0.21381438442447934        0.0000000000000000     
  -5.1543397073385976E-002  0.22216150455094011        0.0000000000000000     
  -5.1860648035958509E-002  0.23058112703599454        0.0000000000000000     
  -2.5217766343936066E-002  0.23030799695327683        0.0000000000000000     
  -2.5340234425571716E-002  0.23876156702891912        0.0000000000000000     
  -2.5446244790367806E-002  0.24721768135402047        0.0000000000000000     
  -2.5535797438324338E-002  0.25567633992858096        0.0000000000000000     
  -2.5608892369441319E-002  0.26413754275260054        0.0000000000000000     
  -3.1699550613036045E-002  0.23036549096750708        0.0000000000000000     
  -3.1853042036606265E-002  0.23882837928354436        0.0000000000000000     
  -3.1985784707066492E-002  0.24730235832915828        0.0000000000000000     
  -3.2097778624416741E-002  0.25578742810434874        0.0000000000000000     
  -3.2189023788656998E-002  0.26428358860911577        0.0000000000000000     
  -3.8300625651406447E-002  0.23043017731937007        0.0000000000000000     
  -3.8488328261057941E-002  0.23890112518943643        0.0000000000000000     
  -3.8649288565891352E-002  0.24739472765910042        0.0000000000000000     
  -3.8783506565906657E-002  0.25591098472836199        0.0000000000000000     
  -3.8890982261103858E-002  0.26444989639722111        0.0000000000000000     
  -4.5020991459047276E-002  0.23050205600886592        0.0000000000000000     
  -4.5246093098926791E-002  0.23897980474659530        0.0000000000000000     
  -4.5436756366842398E-002  0.24749478934384686        0.0000000000000000     
  -4.5592981262794097E-002  0.25604700980062056        0.0000000000000000     
  -4.5714767786781893E-002  0.26463646611691655        0.0000000000000000     
  -5.1860648035958509E-002  0.23058112703599454        0.0000000000000000     
  -5.2126336550212773E-002  0.23906441795502095        0.0000000000000000     
  -5.2348188109919626E-002  0.24760254338339768        0.0000000000000000     
  -5.2526202715079073E-002  0.25619550332112473        0.0000000000000000     
  -5.2660380365691123E-002  0.26484329776820204        0.0000000000000000     
  -2.5608892369441319E-002  0.26413754275260054        0.0000000000000000     
  -2.5677617241556823E-002  0.27254657737402815        0.0000000000000000     
  -2.5754059712508940E-002  0.28084873134081301        0.0000000000000000     
  -2.5838219782297674E-002  0.28904400465295499        0.0000000000000000     
  -2.5930097450923020E-002  0.29713239731045415        0.0000000000000000     
  -3.2189023788656998E-002  0.26428358860911577        0.0000000000000000     
  -3.2274176601962530E-002  0.27273853421114813        0.0000000000000000     
  -3.2367893466508590E-002  0.28109995927813464        0.0000000000000000     
  -3.2470174382295186E-002  0.28936786381007523        0.0000000000000000     
  -3.2581019349322310E-002  0.29754224780697003        0.0000000000000000     
  -3.8890982261103858E-002  0.26444989639722111        0.0000000000000000     
  -3.8990321613514810E-002  0.27296095117786989        0.0000000000000000     
  -3.9100130585171346E-002  0.28139363758250052        0.0000000000000000     
  -3.9220409176073487E-002  0.28974795561111283        0.0000000000000000     
  -3.9351157386221212E-002  0.29802390526370692        0.0000000000000000     
  -4.5714767786781893E-002  0.26463646611691655        0.0000000000000000     
  -4.5826052276213641E-002  0.27321382827419355        0.0000000000000000     
  -4.5950771068497188E-002  0.28172976625391061        0.0000000000000000     
  -4.6088924163632562E-002  0.29018428005606778        0.0000000000000000     
  -4.6240511561619721E-002  0.29857736968066495        0.0000000000000000     
  -5.2660380365691123E-002  0.26484329776820204        0.0000000000000000     
  -5.2781368590059045E-002  0.27349716550011904        0.0000000000000000     
  -5.2919814916486146E-002  0.28210834529236506        0.0000000000000000     
  -5.3075719344972398E-002  0.29067683714494003        0.0000000000000000     
  -5.3249081875517842E-002  0.29920264105784400        0.0000000000000000     
  -2.9485022758407385E-002   5.7021324716020144E-002   0.0000000000000000     
  -3.1177201388944364E-002   6.2455460007059066E-002   0.0000000000000000     
  -3.2738083477530301E-002   6.8135332773571755E-002   0.0000000000000000     
  -3.4167669024165181E-002   7.4060943015558198E-002   0.0000000000000000     
  -3.5465958028849005E-002   8.0232290733018380E-002   0.0000000000000000     
  -3.2445518317553920E-002   5.8061322446034958E-002   0.0000000000000000     
  -3.4574460457710510E-002   6.3310658759862012E-002   0.0000000000000000     
  -3.6518108134940080E-002   6.8845199134822607E-002   0.0000000000000000     
  -3.8276461349242626E-002   7.4664943570916742E-002   0.0000000000000000     
  -3.9849520100618145E-002   8.0769892068144417E-002   0.0000000000000000     
  -3.6021152397747003E-002   5.8899428457482791E-002   0.0000000000000000     
  -3.8452615987373255E-002   6.4063773760483764E-002   0.0000000000000000     
  -4.0674209089011405E-002   6.9524854849995613E-002   0.0000000000000000     
  -4.2685931702661453E-002   7.5282671726018352E-002   0.0000000000000000     
  -4.4487783828323413E-002   8.1337224388552010E-002   0.0000000000000000     
  -4.0211924998986633E-002   5.9535642750363653E-002   0.0000000000000000     
  -4.2811667977932594E-002   6.4714805008924292E-002   0.0000000000000000     
  -4.5206386339744276E-002   7.0174299919090743E-002   0.0000000000000000     
  -4.7396080084421671E-002   7.5914127480863028E-002   0.0000000000000000     
  -4.9380749211964801E-002   8.1934287694241159E-002   0.0000000000000000     
  -4.5017836121272817E-002   5.9969965324677549E-002   0.0000000000000000     
  -4.7651616429388532E-002   6.5263752505183639E-002   0.0000000000000000     
  -5.0114639887138691E-002   7.0793534342108042E-002   0.0000000000000000     
  -5.2406906494523287E-002   7.6559310835450770E-002   0.0000000000000000     
  -5.4528416251542332E-002   8.2561081985211809E-002   0.0000000000000000     
  -3.5465958028849005E-002   8.0232290733018380E-002   0.0000000000000000     
  -3.6687638554270610E-002   8.6593139611706227E-002   0.0000000000000000     
  -3.7887398663118778E-002   9.3087253337375622E-002   0.0000000000000000     
  -3.9065238355393543E-002   9.9714631910026608E-002   0.0000000000000000     
  -4.0221157631094885E-002  0.10647527532965911        0.0000000000000000     
  -3.9849520100618145E-002   8.0769892068144417E-002   0.0000000000000000     
  -4.1309181678616150E-002   8.7087456325760731E-002   0.0000000000000000     
  -4.2727343372786136E-002   9.3545048043020773E-002   0.0000000000000000     
  -4.4104005183128098E-002  0.10014266721992457        0.0000000000000000     
  -4.5439167109642055E-002  0.10688031385647209        0.0000000000000000     
  -4.4487783828323413E-002   8.1337224388552010E-002   0.0000000000000000     
  -4.6157361562793403E-002   8.7613419975054674E-002   0.0000000000000000     
  -4.7772261002867550E-002   9.4036165622984461E-002   0.0000000000000000     
  -4.9332482148545867E-002  0.10060546133234136        0.0000000000000000     
  -5.0838024999828341E-002  0.10732130710312537        0.0000000000000000     
  -4.9380749211964801E-002   8.1934287694241159E-002   0.0000000000000000     
  -5.1232178206802356E-002   8.8171030559588026E-002   0.0000000000000000     
  -5.3022151553363026E-002   9.4560606077266615E-002   0.0000000000000000     
  -5.4750669251646816E-002  0.10110301424727690        0.0000000000000000     
  -5.6417731301653735E-002  0.10779825506961893        0.0000000000000000     
  -5.4528416251542332E-002   8.2561081985211809E-002   0.0000000000000000     
  -5.6533631610643030E-002   8.8760288079360788E-002   0.0000000000000000     
  -5.8477015024272577E-002   9.5118369405867292E-002   0.0000000000000000     
  -6.0358566492430973E-002  0.10163532596473128        0.0000000000000000     
  -6.2178286015118246E-002  0.10831115775595279        0.0000000000000000     
  -4.0221157631094885E-002  0.10647527532965911        0.0000000000000000     
  -4.1341168697006228E-002  0.11337236182807123        0.0000000000000000     
  -4.2411283759910989E-002  0.12040906963706105        0.0000000000000000     
  -4.3431502819809155E-002  0.12758539875662853        0.0000000000000000     
  -4.4401825876700746E-002  0.13490134918677371        0.0000000000000000     
  -4.5439167109642055E-002  0.10688031385647209        0.0000000000000000     
  -4.6724164723593704E-002  0.11375795120777370        0.0000000000000000     
  -4.7950333596248750E-002  0.12077554252893974        0.0000000000000000     
  -4.9117673727607190E-002  0.12793308781997018        0.0000000000000000     
  -5.0226185117669048E-002  0.13523058708086511        0.0000000000000000     
  -5.0838024999828341E-002  0.10732130710312537        0.0000000000000000     
  -5.2282670580337441E-002  0.11418006655978938        0.0000000000000000     
  -5.3660199913695625E-002  0.12117810332678630        0.0000000000000000     
  -5.4970612999902912E-002  0.12831541740411609        0.0000000000000000     
  -5.6213909838959283E-002  0.13559200879177877        0.0000000000000000     
  -5.6417731301653735E-002  0.10779825506961893        0.0000000000000000     
  -5.8016686267237445E-002  0.11463870788411830        0.0000000000000000     
  -5.9540882712251636E-002  0.12161675203060072        0.0000000000000000     
  -6.0990320636696294E-002  0.12873238750906615        0.0000000000000000     
  -6.2365000040571425E-002  0.13598561431951464        0.0000000000000000     
  -6.2178286015118246E-002  0.10831115775595279        0.0000000000000000     
  -6.3926211784293724E-002  0.11513387518076049        0.0000000000000000     
  -6.5592381991916762E-002  0.12209148864038304        0.0000000000000000     
  -6.7176796637987354E-002  0.12918399813482045        0.0000000000000000     
  -6.8679455722505514E-002  0.13641140366407276        0.0000000000000000     
  -4.4401825876700746E-002  0.13490134918677371        0.0000000000000000     
  -4.5319461019724484E-002  0.14234304799370792        0.0000000000000000     
  -4.6181616338019080E-002  0.14989662224364259        0.0000000000000000     
  -4.6988291831584532E-002  0.15756207193657776        0.0000000000000000     
  -4.7739487500420869E-002  0.16533939707251338        0.0000000000000000     
  -5.0226185117669048E-002  0.13523058708086511        0.0000000000000000     
  -5.1275234803568125E-002  0.14265240238453200        0.0000000000000000     
  -5.2264189822438273E-002  0.15018289580387839        0.0000000000000000     
  -5.3193050174279451E-002  0.15782206733890430        0.0000000000000000     
  -5.4061815859091700E-002  0.16556991698960971        0.0000000000000000     
  -5.6213909838959283E-002  0.13559200879177877        0.0000000000000000     
  -5.7391433557926474E-002  0.14299167910548369        0.0000000000000000     
  -5.8504527283866223E-002  0.15049822996094023        0.0000000000000000     
  -5.9553191016778549E-002  0.15811166135814839        0.0000000000000000     
  -6.0537424756663426E-002  0.16583197329710814        0.0000000000000000     
  -6.2365000040571425E-002  0.13598561431951464        0.0000000000000000     
  -6.3668057282799492E-002  0.14336087815656298        0.0000000000000000     
  -6.4902628722302957E-002  0.15084262471482812        0.0000000000000000     
  -6.6068714359081793E-002  0.15843085399430998        0.0000000000000000     
  -6.7166314193136026E-002  0.16612556599500861        0.0000000000000000     
  -6.8679455722505514E-002  0.13641140366407276        0.0000000000000000     
  -7.0105105978187213E-002  0.14375999953776991        0.0000000000000000     
  -7.1458494137748449E-002  0.15121608006554205        0.0000000000000000     
  -7.2739620201189223E-002  0.15877964524738913        0.0000000000000000     
  -7.3948484168509548E-002  0.16645069508331115        0.0000000000000000     
  -4.7739487500420869E-002  0.16533939707251338        0.0000000000000000     
  -4.8438106132319220E-002  0.17321423510151684        0.0000000000000000     
  -4.9087050515070778E-002  0.18117222347365552        0.0000000000000000     
  -4.9686320648675536E-002  0.18921336218892945        0.0000000000000000     
  -5.0235916533133487E-002  0.19733765124733857        0.0000000000000000     
  -5.4061815859091700E-002  0.16556991698960971        0.0000000000000000     
  -5.4871690156919922E-002  0.17341562448394932        0.0000000000000000     
  -5.5623876347809111E-002  0.18134836954987768        0.0000000000000000     
  -5.6318374431759223E-002  0.18936815218739483        0.0000000000000000     
  -5.6955184408770274E-002  0.19747497239650080        0.0000000000000000     
  -6.0537424756663426E-002  0.16583197329710814        0.0000000000000000     
  -6.1457232393507054E-002  0.17365060294876289        0.0000000000000000     
  -6.2312617817295642E-002  0.18155898748405602        0.0000000000000000     
  -6.3103581028029182E-002  0.18955712690298762        0.0000000000000000     
  -6.3830122025707675E-002  0.19764502120555758        0.0000000000000000     
  -6.7166314193136026E-002  0.16612556599500861        0.0000000000000000     
  -6.8194732842080580E-002  0.17391917049595762        0.0000000000000000     
  -6.9153274923530364E-002  0.18180407727619066        0.0000000000000000     
  -7.0041940437485420E-002  0.18978028633570779        0.0000000000000000     
  -7.0860729383945692E-002  0.19784779767450889        0.0000000000000000     
  -7.3948484168509548E-002  0.16645069508331115        0.0000000000000000     
  -7.5084191502640507E-002  0.17422132712553348        0.0000000000000000     
  -7.6145847666513305E-002  0.18208363892628157        0.0000000000000000     
  -7.7133452660127916E-002  0.19003763048555533        0.0000000000000000     
  -7.8047006483484324E-002  0.19808330180335482        0.0000000000000000     
  -5.0235916533133487E-002  0.19733765124733857        0.0000000000000000     
  -5.0731031321973465E-002  0.20553976665661211        0.0000000000000000     
  -5.1166858168724308E-002  0.21381438442447934        0.0000000000000000     
  -5.1543397073385976E-002  0.22216150455094011        0.0000000000000000     
  -5.1860648035958509E-002  0.23058112703599454        0.0000000000000000     
  -5.6955184408770274E-002  0.19747497239650080        0.0000000000000000     
  -5.7529838140891666E-002  0.20566254927023106        0.0000000000000000     
  -5.8037867490172798E-002  0.21392460190162127        0.0000000000000000     
  -5.8479272456613662E-002  0.22226113029067135        0.0000000000000000     
  -5.8854053040214280E-002  0.23067213443738127        0.0000000000000000     
  -6.3830122025707675E-002  0.19764502120555758        0.0000000000000000     
  -6.4488715825582216E-002  0.20581552507910528        0.0000000000000000     
  -6.5075837442903892E-002  0.21406149321097015        0.0000000000000000     
  -6.5591486877672717E-002  0.22238292560115222        0.0000000000000000     
  -6.6035664129888677E-002  0.23077982224965138        0.0000000000000000     
  -7.0860729383945692E-002  0.19784779767450889        0.0000000000000000     
  -7.1607664376045127E-002  0.20599869408323476        0.0000000000000000     
  -7.2280768026917588E-002  0.21422505835252603        0.0000000000000000     
  -7.2880040336563104E-002  0.22252689048238275        0.0000000000000000     
  -7.3405481304981687E-002  0.23090419047280486        0.0000000000000000     
  -7.8047006483484324E-002  0.19808330180335482        0.0000000000000000     
  -7.8886683792280393E-002  0.20621205628261952        0.0000000000000000     
  -7.9652659242213902E-002  0.21441529732628892        0.0000000000000000     
  -8.0344932833284866E-002  0.22269302493436297        0.0000000000000000     
  -8.0963504565493283E-002  0.23104523910684174        0.0000000000000000     
  -5.1860648035958509E-002  0.23058112703599454        0.0000000000000000     
  -5.2126336550212773E-002  0.23906441795502095        0.0000000000000000     
  -5.2348188109919626E-002  0.24760254338339768        0.0000000000000000     
  -5.2526202715079073E-002  0.25619550332112473        0.0000000000000000     
  -5.2660380365691123E-002  0.26484329776820204        0.0000000000000000     
  -5.8854053040214280E-002  0.23067213443738127        0.0000000000000000     
  -5.9168189762093065E-002  0.23915689368529400        0.0000000000000000     
  -5.9427663143368455E-002  0.24771468737795227        0.0000000000000000     
  -5.9632473184040462E-002  0.25634551551535611        0.0000000000000000     
  -5.9782619884109066E-002  0.26504937809750567        0.0000000000000000     
  -6.6035664129888677E-002  0.23077982224965138        0.0000000000000000     
  -6.6410783881744845E-002  0.23925916080799495        0.0000000000000000     
  -6.6719260815434348E-002  0.24782791892771014        0.0000000000000000     
  -6.6961094930957157E-002  0.25648609660879695        0.0000000000000000     
  -6.7136286228313274E-002  0.26523369385125545        0.0000000000000000     
  -7.3405481304981687E-002  0.23090419047280486        0.0000000000000000     
  -7.3854118909168112E-002  0.23937121932312391        0.0000000000000000     
  -7.4222981126117277E-002  0.24794223803267129        0.0000000000000000     
  -7.4512067955829167E-002  0.25661724660144708        0.0000000000000000     
  -7.4721379398303783E-002  0.26539624502945131        0.0000000000000000     
  -8.0963504565493283E-002  0.23104523910684174        0.0000000000000000     
  -8.1498194844362853E-002  0.23949306923068081        0.0000000000000000     
  -8.1938824075417263E-002  0.24805764469283575        0.0000000000000000     
  -8.2285392258656484E-002  0.25673896549330655        0.0000000000000000     
  -8.2537899394080544E-002  0.26553703163209330        0.0000000000000000     
  -5.2660380365691123E-002  0.26484329776820204        0.0000000000000000     
  -5.2781368590059045E-002  0.27349716550011904        0.0000000000000000     
  -5.2919814916486146E-002  0.28210834529236506        0.0000000000000000     
  -5.3075719344972398E-002  0.29067683714494003        0.0000000000000000     
  -5.3249081875517842E-002  0.29920264105784400        0.0000000000000000     
  -5.9782619884109066E-002  0.26504937809750567        0.0000000000000000     
  -5.9914813089038413E-002  0.27378240832432277        0.0000000000000000     
  -6.0065762644292670E-002  0.28250073939572973        0.0000000000000000     
  -6.0235468549871808E-002  0.29120437131172633        0.0000000000000000     
  -6.0423930805775836E-002  0.29989330407231263        0.0000000000000000     
  -6.7136286228313274E-002  0.26523369385125545        0.0000000000000000     
  -6.7284928307139169E-002  0.27404100221548133        0.0000000000000000     
  -6.7447114767071242E-002  0.28287831326187068        0.0000000000000000     
  -6.7622845608109522E-002  0.29174562699042339        0.0000000000000000     
  -6.7812120830253994E-002  0.30064294340113945        0.0000000000000000     
  -7.4721379398303783E-002  0.26539624502945131        0.0000000000000000     
  -7.4891714244361293E-002  0.27427294717359463        0.0000000000000000     
  -7.5063871284821893E-002  0.28324106689078793        0.0000000000000000     
  -7.5237850519685526E-002  0.29230060418103126        0.0000000000000000     
  -7.5413651948952276E-002  0.30145155904432452        0.0000000000000000     
  -8.2537899394080544E-002  0.26553703163209330        0.0000000000000000     
  -8.2735170900704799E-002  0.27447824319866271        0.0000000000000000     
  -8.2916032197544565E-002  0.28358900028248157        0.0000000000000000     
  -8.3080483284599896E-002  0.29286930288354984        0.0000000000000000     
  -8.3228524161870737E-002  0.30231915100186768        0.0000000000000000     
  -4.5017836121272817E-002   5.9969965324677549E-002   0.0000000000000000     
  -4.7651616429388532E-002   6.5263752505183639E-002   0.0000000000000000     
  -5.0114639887138691E-002   7.0793534342108042E-002   0.0000000000000000     
  -5.2406906494523287E-002   7.6559310835450770E-002   0.0000000000000000     
  -5.4528416251542332E-002   8.2561081985211809E-002   0.0000000000000000     
  -5.0098300003191695E-002   6.0409819164504650E-002   0.0000000000000000     
  -5.2747685018017652E-002   6.5828087923326353E-002   0.0000000000000000     
  -5.5262731074751284E-002   7.1436391422959281E-002   0.0000000000000000     
  -5.7643438173392549E-002   7.7234729663403431E-002   0.0000000000000000     
  -5.9889806313941488E-002   8.3223102644658806E-002   0.0000000000000000     
  -5.5112730883329401E-002   6.1062627253925125E-002   0.0000000000000000     
  -5.7875097420096562E-002   6.6525282937417038E-002   0.0000000000000000     
  -6.0514421246138664E-002   7.2156704465556304E-002   0.0000000000000000     
  -6.3030702361455748E-002   7.7956891838342951E-002   0.0000000000000000     
  -6.5423940766047781E-002   8.3925845055776882E-002   0.0000000000000000     
  -6.0061128761685956E-002   6.1928389592938962E-002   0.0000000000000000     
  -6.3033853635625220E-002   6.7355337547455735E-002   0.0000000000000000     
  -6.5869710401300838E-002   7.2954473469899153E-002   0.0000000000000000     
  -6.8568699058712851E-002   7.8725797360269259E-002   0.0000000000000000     
  -7.1130819607861218E-002   8.4669309218566066E-002   0.0000000000000000     
  -6.4943493638261338E-002   6.3007106181546188E-002   0.0000000000000000     
  -6.8223953664603654E-002   6.8318251753442361E-002   0.0000000000000000     
  -7.1328598540237834E-002   7.3829698435987787E-002   0.0000000000000000     
  -7.4257428265163877E-002   7.9541446229182439E-002   0.0000000000000000     
  -7.7010442839381771E-002   8.5453495133026330E-002   0.0000000000000000     
  -5.4528416251542332E-002   8.2561081985211809E-002   0.0000000000000000     
  -5.6533631610643030E-002   8.8760288079360788E-002   0.0000000000000000     
  -5.8477015024272577E-002   9.5118369405867292E-002   0.0000000000000000     
  -6.0358566492430973E-002  0.10163532596473128        0.0000000000000000     
  -6.2178286015118246E-002  0.10831115775595279        0.0000000000000000     
  -5.9889806313941488E-002   8.3223102644658806E-002   0.0000000000000000     
  -6.2038913021126296E-002   8.9388200255367228E-002   0.0000000000000000     
  -6.4127835819675197E-002   9.5716712384170580E-002   0.0000000000000000     
  -6.6156574709588217E-002  0.10220863903106882        0.0000000000000000     
  -6.8125129690865316E-002  0.10886398019606197        0.0000000000000000     
  -6.5423940766047781E-002   8.3925845055776882E-002   0.0000000000000000     
  -6.7725213685063082E-002   9.0061774808601655E-002   0.0000000000000000     
  -6.9965598343649960E-002   9.6362891787560689E-002   0.0000000000000000     
  -7.2145094741808399E-002  0.10282919599265399        0.0000000000000000     
  -7.4263702879538443E-002  0.10946068742388157        0.0000000000000000     
  -7.1130819607861218E-002   8.4669309218566066E-002   0.0000000000000000     
  -7.3592533602453380E-002   9.0781011739063985E-002   0.0000000000000000     
  -7.5990302596196838E-002   9.7056907616037552E-002   0.0000000000000000     
  -7.8324126589091561E-002  0.10349699684948674        0.0000000000000000     
  -8.0594005581137593E-002  0.11010127943941155        0.0000000000000000     
  -7.7010442839381771E-002   8.5453495133026330E-002   0.0000000000000000     
  -7.9640872773297205E-002   9.1545911046754302E-002   0.0000000000000000     
  -8.2201948577315845E-002   9.7798759869601237E-002   0.0000000000000000     
  -8.4693670251437703E-002  0.10421204160156711        0.0000000000000000     
  -8.7116037795662765E-002  0.11078575624265193        0.0000000000000000     
  -6.2178286015118246E-002  0.10831115775595279        0.0000000000000000     
  -6.3926211784293724E-002  0.11513387518076049        0.0000000000000000     
  -6.5592381991916762E-002  0.12209148864038304        0.0000000000000000     
  -6.7176796637987354E-002  0.12918399813482045        0.0000000000000000     
  -6.8679455722505514E-002  0.13641140366407276        0.0000000000000000     
  -6.8125129690865316E-002  0.10886398019606197        0.0000000000000000     
  -7.0019328222975838E-002  0.11566723393507204        0.0000000000000000     
  -7.1824997765389059E-002  0.12260289830402100        0.0000000000000000     
  -7.3542138318105008E-002  0.12967097330290892        0.0000000000000000     
  -7.5170749881123655E-002  0.13687145893173572        0.0000000000000000     
  -7.4263702879538443E-002  0.10946068742388157        0.0000000000000000     
  -7.6304116674753397E-002  0.11624044963240913        0.0000000000000000     
  -7.8249030045366666E-002  0.12315156616940243        0.0000000000000000     
  -8.0098442991378180E-002  0.13019403703486146        0.0000000000000000     
  -8.1852355512788022E-002  0.13736786222878616        0.0000000000000000     
  -8.0594005581137593E-002  0.11010127943941155        0.0000000000000000     
  -8.2780577139626374E-002  0.11685352227277181        0.0000000000000000     
  -8.4864478831849471E-002  0.12373749223652730        0.0000000000000000     
  -8.6845710657806885E-002  0.13075318933067809        0.0000000000000000     
  -8.8724272617498628E-002  0.13790061355522415        0.0000000000000000     
  -8.7116037795662765E-002  0.11078575624265193        0.0000000000000000     
  -8.9448709617594824E-002  0.11750645185616000        0.0000000000000000     
  -9.1671344124837600E-002  0.12436067650539563        0.0000000000000000     
  -9.3783941317391137E-002  0.13134843019035883        0.0000000000000000     
  -9.5786501195255419E-002  0.13846971291104962        0.0000000000000000     
  -6.8679455722505514E-002  0.13641140366407276        0.0000000000000000     
  -7.0105105978187213E-002  0.14375999953776991        0.0000000000000000     
  -7.1458494137748449E-002  0.15121608006554205        0.0000000000000000     
  -7.2739620201189223E-002  0.15877964524738913        0.0000000000000000     
  -7.3948484168509548E-002  0.16645069508331115        0.0000000000000000     
  -7.5170749881123655E-002  0.13687145893173572        0.0000000000000000     
  -7.6717108680567053E-002  0.14419260233569706        0.0000000000000000     
  -7.8187490942557211E-002  0.15162265065998856        0.0000000000000000     
  -7.9581896667094101E-002  0.15916160390461026        0.0000000000000000     
  -8.0900325854177779E-002  0.16680946206956207        0.0000000000000000     
  -8.1852355512788022E-002  0.13736786222878616        0.0000000000000000     
  -8.3518594426416445E-002  0.14466224563693697        0.0000000000000000     
  -8.5104986549083661E-002  0.15206639114507414        0.0000000000000000     
  -8.6611531880789697E-002  0.15958029875319774        0.0000000000000000     
  -8.8038230421534580E-002  0.16720396846130775        0.0000000000000000     
  -8.8724272617498628E-002  0.13790061355522415        0.0000000000000000     
  -9.0509563215735347E-002  0.14516892944148968        0.0000000000000000     
  -9.2210980957327812E-002  0.15254730152079879        0.0000000000000000     
  -9.3828525842276023E-002  0.16003572979315167        0.0000000000000000     
  -9.5362197870579965E-002  0.16763421425854810        0.0000000000000000     
  -9.5786501195255419E-002  0.13846971291104962        0.0000000000000000     
  -9.7690015048523815E-002  0.14571265374935513        0.0000000000000000     
  -9.9505474167289693E-002  0.15306538178716259        0.0000000000000000     
 -0.10123287855155305       0.16052789702447195        0.0000000000000000     
 -0.10287222820131391       0.16810019946128324        0.0000000000000000     
  -7.3948484168509548E-002  0.16645069508331115        0.0000000000000000     
  -7.5084191502640507E-002  0.17422132712553348        0.0000000000000000     
  -7.6145847666513305E-002  0.18208363892628157        0.0000000000000000     
  -7.7133452660127916E-002  0.19003763048555533        0.0000000000000000     
  -7.8047006483484324E-002  0.19808330180335482        0.0000000000000000     
  -8.0900325854177779E-002  0.16680946206956207        0.0000000000000000     
  -8.2142001241487447E-002  0.17455750417221830        0.0000000000000000     
  -8.3306145566702364E-002  0.18239700922995319        0.0000000000000000     
  -8.4392758829822528E-002  0.19032797724276668        0.0000000000000000     
  -8.5401841030847969E-002  0.19835040821065883        0.0000000000000000     
  -8.8038230421534580E-002  0.16720396846130775        0.0000000000000000     
  -8.9384554924921950E-002  0.17492813297073995        0.0000000000000000     
  -9.0649978144555471E-002  0.18274352498283009        0.0000000000000000     
  -9.1834500080435158E-002  0.19065014449757831        0.0000000000000000     
  -9.2938120732560997E-002  0.19864799151498450        0.0000000000000000     
  -9.5362197870579965E-002  0.16763421425854810        0.0000000000000000     
  -9.6811852552944014E-002  0.17533321352109832        0.0000000000000000     
  -9.8177345400072627E-002  0.18312318618491236        0.0000000000000000     
  -9.9458676411965735E-002  0.19100413224999016        0.0000000000000000     
 -0.10065584558862339       0.19897605171633179        0.0000000000000000     
 -0.10287222820131391       0.16810019946128324        0.0000000000000000     
 -0.10442389412555368       0.17577274582329352        0.0000000000000000     
 -0.10588824733325383       0.18353599283619984        0.0000000000000000     
 -0.10726528782441433       0.19138994050000227        0.0000000000000000     
 -0.10855501559903519       0.19933458881470073        0.0000000000000000     
  -7.8047006483484324E-002  0.19808330180335482        0.0000000000000000     
  -7.8886683792280393E-002  0.20621205628261952        0.0000000000000000     
  -7.9652659242213902E-002  0.21441529732628892        0.0000000000000000     
  -8.0344932833284866E-002  0.22269302493436297        0.0000000000000000     
  -8.0963504565493283E-002  0.23104523910684174        0.0000000000000000     
  -8.5401841030847969E-002  0.19835040821065883        0.0000000000000000     
  -8.6335768707989244E-002  0.20645547350809837        0.0000000000000000     
  -8.7196918399457035E-002  0.21463434450955410        0.0000000000000000     
  -8.7985290105251274E-002  0.22288702121502596        0.0000000000000000     
  -8.8700883825372029E-002  0.23121350362451407        0.0000000000000000     
  -9.2938120732560997E-002  0.19864799151498450        0.0000000000000000     
  -9.3964913756873020E-002  0.20672880759051021        0.0000000000000000     
  -9.4918952809311272E-002  0.21488433427961703        0.0000000000000000     
  -9.5800237889875725E-002  0.22311457158230491        0.0000000000000000     
  -9.6608768998566422E-002  0.23141951949857387        0.0000000000000000     
 -0.10065584558862339       0.19897605171633179        0.0000000000000000     
 -0.10177411893893164       0.20703205852985504        0.0000000000000000     
 -0.10281876247177657       0.21516526663647767        0.0000000000000000     
 -0.10378977618715816       0.22337567603619976        0.0000000000000000     
 -0.10468716008507643       0.23166328672902123        0.0000000000000000     
 -0.10855501559903519       0.19933458881470073        0.0000000000000000     
 -0.10976338425416514       0.20736522632613280        0.0000000000000000     
 -0.11089634738685294       0.21547714158013606        0.0000000000000000     
 -0.11195390499709859       0.22367033457671051        0.0000000000000000     
 -0.11293605708490209       0.23194480531585610        0.0000000000000000     
  -8.0963504565493283E-002  0.23104523910684174        0.0000000000000000     
  -8.1498194844362853E-002  0.23949306923068081        0.0000000000000000     
  -8.1938824075417263E-002  0.24805764469283575        0.0000000000000000     
  -8.2285392258656484E-002  0.25673896549330655        0.0000000000000000     
  -8.2537899394080544E-002  0.26553703163209330        0.0000000000000000     
  -8.8700883825372029E-002  0.23121350362451407        0.0000000000000000     
  -8.9329827364080863E-002  0.23963965763283182        0.0000000000000000     
  -8.9858248525639423E-002  0.24819134913479274        0.0000000000000000     
  -9.0286147310047679E-002  0.25686857813039693        0.0000000000000000     
  -9.0613523717305675E-002  0.26567134461964431        0.0000000000000000     
  -9.6608768998566422E-002  0.23141951949857387        0.0000000000000000     
  -9.7335832145073950E-002  0.23982593163174312        0.0000000000000000     
  -9.7972713339088913E-002  0.24836056158513173        0.0000000000000000     
  -9.8519412580611351E-002  0.25702340935873974        0.0000000000000000     
  -9.8975929869641238E-002  0.26581447495256733        0.0000000000000000     
 -0.10468716008507643       0.23166328672902123        0.0000000000000000     
 -0.10551620918734206       0.24005189122741469        0.0000000000000000     
 -0.10628221851576575       0.24856528204385267        0.0000000000000000     
 -0.10698518807034745       0.25720345917833515        0.0000000000000000     
 -0.10762511785108723       0.26596642263086212        0.0000000000000000     
 -0.11293605708490209       0.23194480531585610        0.0000000000000000     
 -0.11387095849088524       0.24031753641984652        0.0000000000000000     
 -0.11478676405566990       0.24880551051095548        0.0000000000000000     
 -0.11568347377925603       0.25740872758918293        0.0000000000000000     
 -0.11656108766164366       0.26612718765452892        0.0000000000000000     
  -8.2537899394080544E-002  0.26553703163209330        0.0000000000000000     
  -8.2735170900704799E-002  0.27447824319866271        0.0000000000000000     
  -8.2916032197544565E-002  0.28358900028248157        0.0000000000000000     
  -8.3080483284599896E-002  0.29286930288354984        0.0000000000000000     
  -8.3228524161870737E-002  0.30231915100186768        0.0000000000000000     
  -9.0613523717305675E-002  0.26567134461964431        0.0000000000000000     
  -9.0870567062581259E-002  0.27466265961166680        0.0000000000000000     
  -9.1087466661042352E-002  0.28390553411559627        0.0000000000000000     
  -9.1264222512688981E-002  0.29339996813143282        0.0000000000000000     
  -9.1400834617521090E-002  0.30314596165917634        0.0000000000000000     
  -9.8975929869641238E-002  0.26581447495256733        0.0000000000000000     
  -9.9353171516402300E-002  0.27483196573358831        0.0000000000000000     
  -9.9662043831118333E-002  0.28417408906877717        0.0000000000000000     
  -9.9902546813789267E-002  0.29384084495813367        0.0000000000000000     
 -0.10007468046441514       0.30383223340165799        0.0000000000000000     
 -0.10762511785108723       0.26596642263086212        0.0000000000000000     
 -0.10818298426216794       0.27498616156442723        0.0000000000000000     
 -0.10863976370777247       0.28439466514202399        0.0000000000000000     
 -0.10899545618790075       0.29419193336365251        0.0000000000000000     
 -0.10925006170255290       0.30437796622931262        0.0000000000000000     
 -0.11656108766164366       0.26612718765452892        0.0000000000000000     
 -0.11736000529987811       0.27512524710418351        0.0000000000000000     
 -0.11802062629100472       0.28456726233533697        0.0000000000000000     
 -0.11854295063502344       0.29445323334798917        0.0000000000000000     
 -0.11892697833193432       0.30478316014214019        0.0000000000000000     
 </DataArray>
 <DataArray  type="Float64" Name="stress" NumberOfComponents="3" format="ascii">
   6232422535.7837420        111720015.51336169        17884974.746990450     
   5941217081.7734776        48325543.652513981        17334470.543055419     
   5653961473.4038038       -1902776.0730366707        16493762.326873751     
   5370655710.6747265       -38964943.663262129        15362850.098451849     
   5091299793.5862350       -62860959.118201256        13941733.857780747     
   5873056926.3392544        94208041.298023462        173631392.83884409     
   5589315867.2088995        44719284.104566336        172277689.96642220     
   5307835106.9886389        2764856.6113789082        173747022.24448419     
   5028614645.6784410       -31655241.181574583        178039389.67302817     
   4751654483.2783298       -58541009.274247885        185154792.25204322     
   5496598738.1202621        71568293.450333595        334850455.31967789     
   5229217042.9061975        38653741.635185003        330722415.92651308     
   4962406099.8716869        7641697.0852382183        332530650.84654731     
   4696165909.0167513       -21467840.199484825        340275160.07978666     
   4430496470.3413687       -48674870.219004154        353955943.62622827     
   5103047971.1267900        43800771.970298290        501542162.18951172     
   4860920608.8653526        30128916.244359016        492668648.42332369     
   4617674452.0529671        12727745.348583937        492844648.13306910     
   4373309500.6896296       -8402740.7170262337        502070161.31873417     
   4127825754.7753372       -33262541.952491760        520345187.98033297     
   4692404625.3588285        10905476.857916117        673706513.44833207     
   4484426565.0863810        19144807.932098627        658116387.45685935     
   4273640163.5324664        18023001.401389837        654689014.10404038     
   4060045420.6970887        7540057.2657973766        663424393.38986731     
   3843642336.5802383       -12304024.474692583        684322525.31435311     
   5091299793.5862350       -62860959.118201256        13941733.857780747     
   4963044869.0115776       -37559953.030103683       -157700.80369391051     
   4833389587.0087595       -16926805.035859585       -5773972.5193944452     
   4702333947.5777903       -961515.13545084000       -2907081.2893279027     
   4569877950.7186813        10335916.671144724        8442972.8865166046     
   4751654483.2783298       -58541009.274247885        185154792.25204322     
   4641731441.6311798       -33454072.845119238        174698778.21493036     
   4530775508.7415848       -11810107.224115849        169910450.32835713     
   4418786684.6095581        6390887.5887711048        170789808.59231034     
   4305764969.2350864        21148911.593498707        177336853.00679612     
   4430496470.3413687       -48674870.219004154        353955943.62622827     
   4330861092.2067528       -26215269.273328543        347572060.76348114     
   4230560289.0154128       -5973751.8500652313        344040387.25602376     
   4129594060.7673421        12049682.050764322        343360923.10385960     
   4027962407.4625478        27855032.429178953        345533668.30698580     
   4127825754.7753372       -33262541.952491760        520345187.98033297     
   4030433820.7382927       -15843542.314748526        518462146.84193963     
   3932743927.8302279        582261.08626818657        516615838.26359957     
   3834756076.0511532        16014868.250575781        514806262.24532145     
   3736470265.4010630        30454279.178164244        513033418.78708923     
   3843642336.5802383       -12304024.474692583        684322525.31435311     
   3740449627.2257919       -2338891.9693861008        687369036.45031548     
   3637326425.1860390        7857931.5849120617        687636803.35109329     
   3534272730.4609818        18286446.188190699        685125826.01668262     
   3431288543.0506253        28946651.840470076        679836104.44709444     
   4569877950.7186813        10335916.671144724        8442972.8865166046     
   4362633674.3882256       -1275411.7229313850        7075432.8712875089     
   4156478364.4798107       -9256852.0435562134        7970899.2518207496     
   3951412020.9934425       -13608404.290683985        11129372.028100314     
   3747434643.9291081       -14330068.464364052        16550851.200143494     
   4305764969.2350864        21148911.593498707        177336853.00679612     
   4106189506.6107883        9565250.7595937252        172954608.71220067     
   3907399312.8133073        599152.68174457550        172202060.66652900     
   3709394387.8426328       -5749382.6400818825        175079208.86979550     
   3512174731.6987734       -9480355.2058463097        181586053.32200432     
   4027962407.4625478        27855032.429178953        345533668.30698580     
   3839960586.6963453        17470487.601038456        337782405.87190545     
   3652440337.1617336        8691180.2115092278        335027529.53894168     
   3465401658.8587046        1517110.2606110573        337269039.30810118     
   3278844551.7872639       -4051722.2516775131        344506935.17937219     
   3736470265.4010630        30454279.178164244        513033418.78708923     
   3563946914.6449065        22440298.801373959        501558824.35043323     
   3391601437.5251060        15019230.545772076        496447305.86907369     
   3219433834.0416613        8191074.4113562107        497698863.34301573     
   3047444104.1945844        1955830.3981518745        505313496.77224302     
   3431288543.0506253        28946651.840470076        679836104.44709444     
   3278148490.4564528        24474684.360598207        664283864.14776421     
   3124882613.9034166        19583303.684509754        656461389.65691233     
   2971490913.3915062        14272509.812174439        656368680.97453773     
   2817973388.9207239        8542302.7436136007        664005738.10064554     
   3747434643.9291081       -14330068.464364052        16550851.200143494     
   3576445254.9718657       -5618529.8401539326        8821063.0287496224     
   3404061497.1963506       -1554887.2768328190        6131405.0263212742     
   3230283370.6025972       -2139140.7743080854        8481877.1928802263     
   3055110875.1905956       -7371290.3326240778        15872479.528404700     
   3512174731.6987734       -9480355.2058463097        181586053.32200432     
   3352819174.9659595       -1999630.9330961704        172779910.44067353     
   3192581074.9108596        2539282.2653683424        168166773.18256661     
   3031460431.5334826        4136384.3895747662        167746641.54769191     
   2869457244.8338237        2791675.4395093918        171519515.53605774     
   3278844551.7872639       -4051722.2516775131        344506935.17937219     
   3128702471.4339008        1472080.9161328077        335221567.33340830     
   2978189673.2542138        5760157.9962102175        329282080.56492829     
   2827306157.2482228        8812508.9886012077        326688474.87393582     
   2676051923.4159131        10629133.893267751        327440750.26042235     
   3047444104.1945844        1955830.3981518745        505313496.77224302     
   2904095144.3756723        4796605.7075022459        496146033.70694900     
   2760887292.2264137        8107739.9157119989        489477327.17339200     
   2617820547.7468133        11889233.022775769        485307377.17156965     
   2474894910.9368758        16141085.028704882        483636183.70149213     
   2817973388.9207239        8542302.7436136007        664005738.10064554     
   2678997193.7912803        7973943.4410229921        655553309.56131053     
   2540673931.8274670        9582028.0238664150        648752513.00796807     
   2403003603.0292730        13366556.492116928        643603348.44062388     
   2265986207.3967133        19327528.845810890        640105815.85926580     
   3055110875.1905956       -7371290.3326240778        15872479.528404700     
   2889493457.2137303       -10436130.682617784        11046413.515175119     
   2724809387.8207021       -10389809.086465597        6870210.9792715060     
   2561058667.0115228       -7232325.5441603661        3343871.9206989855     
   2398241294.7861953       -963680.05568492413        467396.33943193580     
   2869457244.8338237        2791675.4395093918        171519515.53605774     
   2706780092.2410212        736500.67277824879        165208645.09130645     
   2544650355.9054389        506046.76345884800        160276654.02237067     
   2383068035.8270822        2100313.7115321159        156723542.32926384     
   2222033132.0059323        5519301.5169816017        154549310.01197633     
   2676051923.4159131        10629133.893267751        327440750.26042235     
   2518397938.7743254        10208495.479964972        319194821.00307918     
   2360905438.0633230        10326136.835300922        313056787.02005768     
   2203574421.2829142        10982057.959279895        309026648.31134987     
   2046404888.4330986        12176258.851896763        307104404.87696433     
   2474894910.9368758        16141085.028704882        483636183.70149213     
   2324346996.8136320        17979853.738958955        473004941.25049555     
   2173574634.2943525        19070461.129099846        465210609.97230566     
   2022577823.3790441        19412907.199130297        460253189.86695164     
   1871356564.0676899        19007191.949029446        458132680.93440211     
   2265986207.3967133        19327528.845810890        640105815.85926580     
   2124627266.3589506        24050575.449753284        626639005.83354628     
   1982657944.5985394        26739019.644859195        616738122.87914658     
   1840078242.1154537        27392861.431061387        610403166.99605608     
   1696888158.9097066        26012100.808389902        607634138.18428922     
   2398241294.7861953       -963680.05568492413        467396.33943193580     
   2254867761.7544999        7415693.5485697985       -6543518.8032293171     
   2108106534.8803248        4502754.3445812464       -11276207.624595528     
   1957957614.1636610       -9702497.6677094698       -13730670.124665419     
   1804420999.6045282       -35200062.488242030       -13906906.303422336     
   2222033132.0059323        5519301.5169816017        154549310.01197633     
   2083118982.2971456        13029329.188931704        144004198.12348783     
   1941979271.4736366        13120819.811776876        134811773.06955844     
   1798613999.5353880        5793773.3855053186        126972034.85015927     
   1653023166.4824140       -8951810.0898501873        120484983.46531536     
   2046404888.4330986        12176258.851896763        307104404.87696433     
   1909305723.5136313        18023621.031405210        294380917.75836468     
   1771143130.2071915        20326221.921017408        282084577.98757082     
   1631917108.5137701        19084061.520689428        270215385.56455553     
   1491627658.4333727        14297139.830436766        258773340.48935312     
   1871356564.0676899        19007191.949029446        458132680.93440211     
   1733427985.4039667        22398569.076067090        444586640.10140824     
   1595598111.0810177        26118960.672360003        430542207.12945390     
   1457866941.0988345        30168366.737865269        415999382.01854104     
   1320234475.4574265        34546787.272638977        400958164.76867306     
   1696888158.9097066        26012100.808389902        607634138.18428922     
   1555485767.9681435        26154173.322871387        594621365.15260506     
   1415344214.0950966        30499036.065746844        580184660.49520278     
   1276463497.2905841        39046689.037071884        564324024.21209729     
   1138843617.5545902        51797132.236794114        547039456.30328023     
   1804420999.6045282       -35200062.488242030       -13906906.303422336     
   1773027758.3140419       -16866003.914140105       -8200589.8478612397     
   1749761954.6555233        28559513.433187485       -41345369.322419979     
   1734623588.6289775        101076489.55376869       -113341244.72707421     
   1727612660.2344067        200684924.44757795       -224188216.06185597     
   1653023166.4824140       -8951810.0898501873        120484983.46531536     
   1529800285.6247654       -13979562.659034073        136115670.05834630     
   1410785896.8143620       -4979008.4040771723        125350455.48595849     
   1295980000.0511727        18049852.674926400        88189339.748176873     
   1185382595.3352103        55107020.578008533        24632322.844970062     
   1491627658.4333727        14297139.830436766        258773340.48935312     
   1312161408.7648864       -3416542.6550922990        279756294.03764063     
   1132984705.5588875       -20165070.265662372        286798541.18522322     
   954097548.81536138       -35948443.001331389        279900081.93210918     
   775499938.53431308       -50766660.862057716        259060916.27829155     
   1320234475.4574265        34546787.272638977        400958164.76867306     
   1120111127.7344072        14823056.097674608        422721282.09001338     
   916358380.88911116       -16998672.151538074        442998887.77536905     
   708976234.92154479       -60918397.474983990        461790981.82472086     
   497964689.83171892       -116936119.87263972        479097564.23808289     
   1138843617.5545902        51797132.236794114        547039456.30328023     
   953649442.53331220        40739233.599226654        565010634.21547925     
   760906922.80503416        4520185.9383042455        593951495.25639725     
   560616058.36972737       -56860010.746044755        633862039.42601562     
   352776849.22741312       -143401356.45373514        684742266.72433889     
   1727612660.2344067        200684924.44757795       -224188216.06185597     
   1456940732.1412909        184623947.32771879       -96694183.577517018     
   1154028545.2486451        61095440.876083136        59991912.816334747     
   818876099.55646062       -169900594.90731031        245870073.11975059     
   451483395.06479859       -508364160.02236140        460940297.33269465     
   1185382595.3352103        55107020.578008533        24632322.844970062     
   978170784.57758307        12103043.094782710        155865725.95407411     
   733073455.24050784       -157185996.31995830        312940155.49555916     
   450090607.32400995       -452760097.66611856        495855611.46941245     
   129222240.82805592       -874619260.94379997        704612093.87567747     
   775499938.53431308       -50766660.862057716        259060916.27829155     
   622173852.32029641       -123585956.54627362        387447553.60225183     
   425316987.74693668       -341507846.76164639        538324179.88145101     
   184929344.81421375       -704532331.50819802        711690795.11586940     
  -98989076.477836967       -1212659410.7859035        907547399.30552280     
   497964689.83171892       -116936119.87263972        479097564.23808289     
   388949935.36944199       -222443051.59537697        598051299.36700845     
   230759142.76792535       -491870110.44895828        736143985.97401381     
   23392312.027113438       -925217296.43348825        893375624.05909073     
  -233150556.85292852       -1522484609.5488334        1069746213.6222550     
   352776849.22741312       -143401356.45373514        684742266.72433889     
   278499033.72502744       -284468242.05252177        787676963.24834132     
   149399920.30346370       -608272787.38190198        906399573.77325499     
  -34520491.037287712       -1114814992.4419079        1040910098.2991005     
  -273262200.29721719       -1804094857.2324960        1191208536.8258624     
   4692404625.3588285        10905476.857916117        673706513.44833207     
   4484426565.0863810        19144807.932098627        658116387.45685935     
   4273640163.5324664        18023001.401389837        654689014.10404038     
   4060045420.6970887        7540057.2657973766        663424393.38986731     
   3843642336.5802383       -12304024.474692583        684322525.31435311     
   4295730814.1259193        29471724.363431215        802256597.14050281     
   4110863130.8146238        22900718.478793383        787808708.20377088     
   3925126715.1385655        13433938.044925451        782393049.74285042     
   3738521567.0977335        1071383.0618145466        786009621.75774169     
   3551047686.6921296       -14186946.470531702        798658424.24844491     
   3912921167.9305234        52197221.380196571        921312376.89517450     
   3742219512.5437031        28132573.825735807        910269602.08266473     
   3572588733.7088113        7637514.7776973248        905128535.58312476     
   3404028831.4258404       -9287955.7639312744        905889177.39655459     
   3236539805.6947994       -22643837.799137354        912551527.52295589     
   3543975686.7726588        79081967.908221960        1030873852.7123550     
   3378495710.2736206        34840373.972930431        1025499069.0935408     
   3216026219.2432041        633731.59971201420        1022895471.6248629     
   3056567213.6814122       -23537959.211436749        1023063060.3063121     
   2900118693.5882382       -37674698.460513711        1026001835.1378907     
   3188894370.6523094        110125963.94750476        1130941024.5920415     
   3019691724.0043726        43024118.920380354        1133497109.2364097     
   2855439171.7417507       -7577411.4890211821        1135693857.8680613     
   2696136713.8644466       -41678627.280701876        1137531270.4870028     
   2541784350.3724589       -59279528.454655647        1139009347.0932403     
   3843642336.5802383       -12304024.474692583        684322525.31435311     
   3740449627.2257919       -2338891.9693861008        687369036.45031548     
   3637326425.1860390        7857931.5849120617        687636803.35109329     
   3534272730.4609818        18286446.188190699        685125826.01668262     
   3431288543.0506253        28946651.840470076        679836104.44709444     
   3551047686.6921296       -14186946.470531702        798658424.24844491     
   3444295043.3545332       -6673054.3586299419        795719543.15671575     
   3337458945.9139037        562657.40982651711        793386666.40392184     
   3230539394.3702469        7520188.8348566294        791659793.99005997     
   3123536388.7235637        14199539.916460276        790538925.91513431     
   3236539805.6947994       -22643837.799137354        912551527.52295589     
   3135897938.5858283       -14679973.017113924        903448799.21618140     
   3035019655.9561009       -7504159.9709526300        898336823.82246745     
   2933904957.8056154       -1116398.6606462002        897215601.34180832     
   2832553844.1343699        4483310.9138008356        900085131.77420592     
   2900118693.5882382       -37674698.460513711        1026001835.1378907     
   2815258312.9196725       -26359647.944830179        1010556804.6287234     
   2730008555.3126225       -16342520.557431102        1002487275.6067344     
   2644369420.7670884       -7623316.2983144522        1001793248.0719272     
   2558340909.2830648       -202035.16748869419        1008474722.0242966     
   2541784350.3724589       -59279528.454655647        1139009347.0932403     
   2482376166.3560743       -41712079.141780734        1117043559.3943369     
   2422425643.9834714       -25952424.349624038        1105838021.7567275     
   2361932783.2546620       -12000564.078162313        1105392734.1804221     
   2300897584.1696382        143501.67258858681        1115707696.6654146     
   3431288543.0506253        28946651.840470076        679836104.44709444     
   3278148490.4564528        24474684.360598207        664283864.14776421     
   3124882613.9034166        19583303.684509754        656461389.65691233     
   2971490913.3915062        14272509.812174439        656368680.97453773     
   2817973388.9207239        8542302.7436136007        664005738.10064554     
   3123536388.7235637        14199539.916460276        790538925.91513431     
   2989055960.2412152        12673119.620064378        779952881.09307241     
   2854683681.7779770        11507199.387343884        775310885.81390941     
   2720419553.3338299        10701779.218276024        776612940.07763600     
   2586263574.9087887        10256859.112888575        783859043.88426840     
   2832553844.1343699        4483310.9138008356        900085131.77420592     
   2711630993.2907624        4371823.8589496613        894738252.07037604     
   2591050266.4442263        5400750.1276714802        893549705.64386547     
   2470811663.5947614        7570089.7199633121        896519492.49466479     
   2350915184.7423663        10879842.635831118        903647612.62278342     
   2558340909.2830648       -202035.16748869419        1008474722.0242966     
   2445873589.6051002       -429202.92272329330        1008639977.0796691     
   2333982367.9021816        1263955.9055159092        1011177849.1467780     
   2222667244.1743054        4877441.3172359467        1016088338.2256136     
   2111928218.4214711        10411253.312431693        1023371444.3161851     
   2300897584.1696382        143501.67258858681        1115707696.6654146     
   2191783749.1842275       -1729960.7249606848        1121658056.1209586     
   2083479986.1518335       -903183.27912557125        1128195316.3226469     
   1975986295.0724516        2623834.0100847483        1135319477.2704928     
   1869302675.9460847        8851091.1426781416        1143030538.9644821     
   2817973388.9207239        8542302.7436136007        664005738.10064554     
   2678997193.7912803        7973943.4410229921        655553309.56131053     
   2540673931.8274670        9582028.0238664150        648752513.00796807     
   2403003603.0292730        13366556.492116928        643603348.44062388     
   2265986207.3967133        19327528.845810890        640105815.85926580     
   2586263574.9087887        10256859.112888575        783859043.88426840     
   2453174487.7415128        10892574.087920189        775217138.55905235     
   2320478723.7659745        12839366.368746758        769174282.53929925     
   2188176282.9821587        16097235.955312252        765730475.82500279     
   2056267165.3900695        20666182.847650766        764885718.41615796     
   2350915184.7423663        10879842.635831118        903647612.62278342     
   2226420112.1642976        13531703.876599669        894513352.20881128     
   2102058752.8040655        16629275.843488455        888925558.41976130     
   1977831106.6616657        20172558.536490798        886884231.25562596     
   1853737173.7371004        24161551.955603242        888389370.71640873     
   2111928218.4214711        10411253.312431693        1023371444.3161851     
   1998734067.0596459        15891332.807053328        1013441950.5105767     
   1885414018.9417505        20951756.448113680        1008006340.6493528     
   1771968074.0678005        25592524.235655904        1007064614.7325085     
   1658396232.4377785        29813636.169634759        1010616772.7600435     
   1869302675.9460847        8851091.1426781416        1143030538.9644821     
   1770116352.4275331        17971460.879242063        1132002933.4643600     
   1670544522.1790245        25806808.182622075        1126416629.2280767     
   1570587185.2005630        32357133.052816808        1126271626.2556410     
   1470244341.4921312        37622435.489788592        1131567924.5470517     
   2265986207.3967133        19327528.845810890        640105815.85926580     
   2124627266.3589506        24050575.449753284        626639005.83354628     
   1982657944.5985394        26739019.644859195        616738122.87914658     
   1840078242.1154537        27392861.431061387        610403166.99605608     
   1696888158.9097066        26012100.808389902        607634138.18428922     
   2056267165.3900695        20666182.847650766        764885718.41615796     
   1923988142.8240128        25123019.596548676        753306209.90704954     
   1791315046.3071406        28266276.509422183        745206760.04063404     
   1658247875.8394787        30095953.586316943        740587368.81692398     
   1524786631.4210119        30612050.827188969        739448036.23589659     
   1853737173.7371004        24161551.955603242        888389370.71640873     
   1730292731.2752366        28278577.339174151        878949521.62442982     
   1606670521.6344309        31803045.459618568        872903862.74651444     
   1482870544.8146834        34734956.316919744        870252394.08266926     
   1358892800.8159978        37074309.911085546        870995115.63289988     
   1658396232.4377785        29813636.169634759        1010616772.7600435     
   1543541031.7126245        33517248.677658141        1003568940.9856893     
   1428724370.5803890        37349326.495408595        999829430.99677455     
   1313946249.0410681        41309869.622876525        999398242.79330468     
   1199206667.0946741        45398878.060095906        1002275376.3752868     
   1470244341.4921312        37622435.489788592        1131567924.5470517     
   1363733044.1361849        40839033.611983836        1127164467.9908180     
   1257476593.1450181        44905119.616784871        1125983464.7914135     
   1151474988.5186315        49820693.504186571        1128024914.9488299     
   1045728230.2570305        55585755.274203658        1133288818.4630716     
   1696888158.9097066        26012100.808389902        607634138.18428922     
   1555485767.9681435        26154173.322871387        594621365.15260506     
   1415344214.0950966        30499036.065746844        580184660.49520278     
   1276463497.2905841        39046689.037071884        564324024.21209729     
   1138843617.5545902        51797132.236794114        547039456.30328023     
   1524786631.4210119        30612050.827188969        739448036.23589659     
   1381295475.2922735        28077878.294832289        730486796.60308158     
   1238171164.8109679        26766524.587241828        721960341.15512693     
   1095413699.9770668        26677989.704335093        713868669.89203012     
   953023080.79058743        27812273.646173120        706211782.81376481     
   1358892800.8159978        37074309.911085546        870995115.63289988     
   1218623496.1017151        33457077.312424779        865042419.40767193     
   1077827045.6137350        28082692.134771347        861383223.17785132     
   936503449.35207129        20951154.378167927        860017526.94345295     
   794652707.31670880        12062464.042579412        860945330.70446801     
   1199206667.0946741        45398878.060095906        1002275376.3752868     
   1067469830.3964462        42291770.375581741        998288233.56634855     
   934311856.50341511        34447538.708378553        998453306.56338060     
   799732745.41559076        21866183.058545351        1002770595.3663940     
   663732497.13297188        4547703.4260365665        1011240099.9753908     
   1045728230.2570305        55585755.274203658        1133288818.4630716     
   927834478.17647946        54581957.484342545        1130224239.0791216     
   807625597.48000920        45861064.308081567        1133170591.3117142     
   685101588.16764128        29423075.745490879        1142127875.1608541     
   560262450.23936069        5267991.7965247631        1157096090.6265314     
   1138843617.5545902        51797132.236794114        547039456.30328023     
   953649442.53331220        40739233.599226654        565010634.21547925     
   760906922.80503416        4520185.9383042455        593951495.25639725     
   560616058.36972737       -56860010.746044755        633862039.42601562     
   352776849.22741312       -143401356.45373514        684742266.72433889     
   953023080.79058743        27812273.646173120        706211782.81376481     
   793582237.44201219        11256235.551288456        723906532.19146168     
   625483171.66264462       -34160543.979556531        751710654.98651934     
   448725883.45250756       -108438064.94630423        789624151.19893587     
   263310372.81158400       -211576327.34901214        837647020.82871258     
   794652707.31670880        12062464.042579412        860945330.70446801     
   658507167.89411807       -10729121.833653003        877068794.20326221     
   512593528.31698209       -66081041.558373392        902441321.40806925     
   356911788.58529973       -153993295.13158697        937062912.31889415     
   191461948.69907320       -274465882.55326694        980933566.93573213     
   663732497.13297188        4547703.4260365665        1011240099.9753908     
   548424233.88966417       -25216838.555539846        1024497420.2508909     
   422237992.76803672       -91241306.798178017        1046143494.5210584     
   285173773.76809949       -193525701.30185401        1076178322.7858961     
   137231576.88985962       -332070022.06653261        1114601905.0454056     
   560262450.23936069        5267991.7965247631        1157096090.6265314     
   463333435.42862499       -32206914.614419013        1166192410.3343537     
   354416565.01580173       -109641339.69898787        1182817174.3254862     
   233511839.00091398       -227035283.45711619        1206970382.5999408     
   100619257.38394794       -384388745.88882768        1238652035.1577141     
   352776849.22741312       -143401356.45373514        684742266.72433889     
   278499033.72502744       -284468242.05252177        787676963.24834132     
   149399920.30346370       -608272787.38190198        906399573.77325499     
  -34520491.037287712       -1114814992.4419079        1040910098.2991005     
  -273262200.29721719       -1804094857.2324960        1191208536.8258624     
   263310372.81158400       -211576327.34901214        837647020.82871258     
   224343257.56251365       -351063741.91426682        886552117.94219601     
   141100076.31777334       -638138043.13176024        946466884.85726619     
   13580829.077347517       -1072799231.0015247        1017391321.5739012     
  -158214484.15875608       -1655047305.5235486        1099325428.0921409     
   191461948.69907320       -274465882.55326694        980933566.93573213     
   174153407.41948786       -416469463.97013891        988111835.21612895     
   123114032.06772745       -670909158.96091354        1001521529.0987611     
   38343822.643803537       -1037784967.5255890        1021162648.5836312     
  -80157220.852299631       -1517096889.6641760        1047035193.6707602     
   137231576.88985962       -332070022.06653261        1114601905.0454056     
   127929483.29592827       -480685408.22019112        1092356115.0701241     
   95441787.553330153       -706586134.86937821        1071563506.4977500     
   39768489.662070751       -1009772202.0141196        1052224079.3282788     
  -39090410.377856255       -1390243609.6544139        1034337833.5617100     
   100619257.38394794       -384388745.88882768        1238652035.1577141     
   85671485.191839039       -543711574.66439545        1199284957.5041978     
   58083342.774575293       -745168970.85715163        1156592817.0542443     
   17854830.132157445       -988760934.46708834        1110575613.8078427     
  -35014052.735436261       -1274487465.4942722        1061233347.7650005     
   3188894370.6523094        110125963.94750476        1130941024.5920415     
   3019691724.0043726        43024118.920380354        1133497109.2364097     
   2855439171.7417507       -7577411.4890211821        1135693857.8680613     
   2696136713.8644466       -41678627.280701876        1137531270.4870028     
   2541784350.3724589       -59279528.454655647        1139009347.0932403     
   2829220238.9041843        53716783.032572389        1179289524.7043412     
   2671559855.9143729        33602135.264648438        1195824174.1915326     
   2513758613.0964556        13017954.736375213        1210753624.6763279     
   2355816510.4504395       -8035758.5522366762        1224077876.1587315     
   2197733547.9763169       -29559004.601189852        1235796928.6387398     
   2503249277.1921358        7418553.1284663677        1247347947.4007890     
   2353571549.3184934        33223220.057149291        1271921715.1484838     
   2198662007.4033270        41588506.847420454        1293644420.9040968     
   2038520651.4466391        32514413.499287605        1312516064.6676326     
   1873147481.4484308        6000940.0127476454        1328536646.4390900     
   2210981485.5161619       -28768725.764817953        1335116292.6813824     
   2065726804.2167325        41887373.297889829        1361789732.1072521     
   1910149354.6623588        78134244.844115853        1384366246.5513642     
   1744249136.8530478        79971888.873877764        1402845836.0137088     
   1568026150.7887917        47400305.387160122        1417228500.4942946     
   1952416863.8762586       -54845053.647282958        1442594560.5461202     
   1808025620.6090887        59594594.986862063        1465428225.0678492     
   1648220654.8735552        122655168.72645921        1482919101.6181324     
   1473001966.6696625        134336667.57152498        1495067190.1969626     
   1282369555.9974070        94639091.522049069        1501872490.8043520     
   2541784350.3724589       -59279528.454655647        1139009347.0932403     
   2482376166.3560743       -41712079.141780734        1117043559.3943369     
   2422425643.9834714       -25952424.349624038        1105838021.7567275     
   2361932783.2546620       -12000564.078162313        1105392734.1804221     
   2300897584.1696382        143501.67258858681        1115707696.6654146     
   2197733547.9763169       -29559004.601189852        1235796928.6387398     
   2160608390.5204878       -15282850.237461925        1218411842.6060872     
   2123302373.4909153       -1609561.1195440292        1208166825.7777505     
   2085815496.8876004        11460862.752567053        1205061878.1537285     
   2048147760.7105384        23928421.378850102        1209096999.7340236     
   1873147481.4484308        6000940.0127476454        1328536646.4390900     
   1847961976.6760616        13882787.264214039        1316153987.3189037     
   1822957091.1124129        22366698.544751644        1307291216.5460491     
   1798132824.7574885        31452673.854371428        1301948334.1205273     
   1773489177.6112854        41140713.193055749        1300125340.0423326     
   1568026150.7887917        47400305.387160122        1417228500.4942946     
   1544436924.8227832        45784833.363226533        1410269993.5327861     
   1521389796.8479657        45976354.643264115        1403211194.0616264     
   1498884766.8643372        47974869.227263927        1396052102.0808125     
   1476921834.8718989        51780377.115226448        1388792717.5903425     
   1282369555.9974070        94639091.522049069        1501872490.8043520     
   1250033234.9606624        80423288.059594572        1500759861.2477374     
   1218600490.6975696        69219407.175982714        1495926758.3244781     
   1188071323.2081425        61027448.871252775        1487373182.0345855     
   1158445732.4923642        55847413.145352483        1475099132.3780541     
   2300897584.1696382        143501.67258858681        1115707696.6654146     
   2191783749.1842275       -1729960.7249606848        1121658056.1209586     
   2083479986.1518335       -903183.27912557125        1128195316.3226469     
   1975986295.0724516        2623834.0100847483        1135319477.2704928     
   1869302675.9460847        8851091.1426781416        1143030538.9644821     
   2048147760.7105384        23928421.378850102        1209096999.7340236     
   1941994778.4292519        16834866.209503293        1209490182.3335502     
   1836671750.2507038        12507824.715942979        1212778679.9835916     
   1732178676.1748939        10947296.898180723        1218962492.6841488     
   1628515556.2018216        12153282.756208479        1228041620.4352188     
   1773489177.6112854        41140713.193055749        1300125340.0423326     
   1676892517.4751697        30805706.084232688        1294984541.6271882     
   1581145693.5915122        23303486.483605325        1295047472.5669255     
   1486248705.9603133        18634054.391173244        1300314132.8615386     
   1392201554.5815747        16797409.806940496        1310784522.5110283     
   1476921834.8718989        51780377.115226448        1388792717.5903425     
   1396476966.3219881        40182558.899236977        1378141134.0018721     
   1316901816.1742566        31483802.023844004        1375001694.0726428     
   1238196384.4287050        25684106.489052415        1379374397.8026571     
   1160360671.0853381        22783472.294873834        1391259245.1919122     
   1158445732.4923642        55847413.145352483        1475099132.3780541     
   1100748124.9696968        44965424.654499948        1458959959.4575970     
   1043940117.9989355        37048771.336661279        1452641344.5007460     
   988021711.58007479        32097453.191827178        1456143287.5075002     
   932992905.71312141        30111470.220019817        1469465788.4778631     
   1869302675.9460847        8851091.1426781416        1143030538.9644821     
   1770116352.4275331        17971460.879242063        1132002933.4643600     
   1670544522.1790245        25806808.182622075        1126416629.2280767     
   1570587185.2005630        32357133.052816808        1126271626.2556410     
   1470244341.4921312        37622435.489788592        1131567924.5470517     
   1628515556.2018216        12153282.756208479        1228041620.4352188     
   1542289127.4057117        19403149.766351998        1217942332.0953591     
   1455768705.2534957        25673038.922805071        1212802546.7534773     
   1368954289.7451608        30962950.225528717        1212622264.4095776     
   1281845880.8807130        35272883.674545348        1217401485.0636470     
   1392201554.5815747        16797409.806940496        1310784522.5110283     
   1317558454.0340135        21763804.148508847        1301720316.9342515     
   1242712873.5041840        26055265.215853214        1297133816.0895882     
   1167664812.9920859        29671793.008965433        1297025019.9770381     
   1092414272.4977183        32613387.527842462        1301393928.5966039     
   1160360671.0853381        22783472.294873834        1391259245.1919122     
   1095924332.3124270        25053424.025694311        1383336887.9810314     
   1031377026.9310921        26953487.061773956        1379410437.2364085     
   966718754.94133210        28483661.403098524        1379479892.9580295     
   901949516.34314334        29643947.049665391        1383545255.1459019     
   932992905.71312141        30111470.220019817        1469465788.4778631     
   877386762.24095547        29272009.397907525        1462792045.2357066     
   821761165.53421366        28367704.460545450        1459632410.1939373     
   766116115.59288931        27398555.407904893        1459986883.3525491     
   710451612.41698670        26364562.240007281        1463855464.7115531     
   1470244341.4921312        37622435.489788592        1131567924.5470517     
   1363733044.1361849        40839033.611983836        1127164467.9908180     
   1257476593.1450181        44905119.616784871        1125983464.7914135     
   1151474988.5186315        49820693.504186571        1128024914.9488299     
   1045728230.2570305        55585755.274203658        1133288818.4630716     
   1281845880.8807130        35272883.674545348        1217401485.0636470     
   1184122928.5982771        36354833.896139145        1213343791.1811914     
   1086665209.0991962        38320893.395584524        1213316520.4370568     
   989472722.38346696        41171062.172868609        1217319672.8312490     
   892545468.45109141        44905340.227998167        1225353248.3637574     
   1092414272.4977183        32613387.527842462        1301393928.5966039     
   1005788150.3787869        32253235.375831306        1297694114.8762524     
   919437647.46178198        32811813.896907419        1298832694.0757244     
   833362763.74670017        34289123.091060221        1304809666.1950164     
   747563499.23354256        36685162.958296448        1315625031.2341290     
   901949516.34314334        29643947.049665391        1383545255.1459019     
   828728709.47771156        28534238.051048875        1380215439.0759959     
   755793908.23277450        28377881.120751888        1382531985.7074082     
   683145112.60833240        29174876.258766323        1390494895.0401354     
   610782322.60439479        30925223.465135038        1404104167.0741858     
   710451612.41698670        26364562.240007281        1463855464.7115531     
   652944605.89504278        25197841.921768427        1460907763.7804220     
   595733991.41217554        25019095.067118883        1464414395.3321052     
   538819768.96837068        25828321.676007599        1474375359.3666070     
   482201938.56363410        27625521.748463109        1490790655.8839257     
   1045728230.2570305        55585755.274203658        1133288818.4630716     
   927834478.17647946        54581957.484342545        1130224239.0791216     
   807625597.48000920        45861064.308081567        1133170591.3117142     
   685101588.16764128        29423075.745490879        1142127875.1608541     
   560262450.23936069        5267991.7965247631        1157096090.6265314     
   892545468.45109141        44905340.227998167        1225353248.3637574     
   790119966.03856051        43835915.100044489        1222386538.2723622     
   685349519.65210080        34950010.058986098        1225322694.9255278     
   578234129.29172051        18247625.104860485        1234161718.3232682     
   468773794.95740783       -6271239.7623675168        1248903608.4655769     
   747563499.23354256        36685162.958296448        1315625031.2341290     
   660297489.71197629        35457483.459150165        1312721405.8509212     
   570656720.85846233        26313939.520177424        1315612582.3403127     
   478641192.67300117        9254531.1413836479        1324298560.7023015     
   384250905.15559542       -15720741.677231014        1338779340.9368916     
   610782322.60439479        30925223.465135038        1404104167.0741858     
   538367049.19671810        29446662.561648637        1401228841.8148153     
   463547201.09908831        19952852.691645145        1404040253.5560703     
   386322778.31148934        2443793.8550791591        1412538402.2979560     
   306693780.83392251       -23080513.948042646        1426723288.0404646     
   482201938.56363410        27625521.748463109        1490790655.8839257     
   424328644.49280250        25803452.407573193        1487908846.1640356     
   364020960.37398249        15866749.573388368        1490605708.5727983     
   301278886.20718098       -2184586.7540655583        1498881243.1102169     
   236102421.99238735       -28350556.574826285        1512735449.7762923     
   560262450.23936069        5267991.7965247631        1157096090.6265314     
   463333435.42862499       -32206914.614419013        1166192410.3343537     
   354416565.01580173       -109641339.69898787        1182817174.3254862     
   233511839.00091398       -227035283.45711619        1206970382.5999408     
   100619257.38394794       -384388745.88882768        1238652035.1577141     
   468773794.95740783       -6271239.7623675168        1248903608.4655769     
   391000780.21030295       -40216738.455182552        1246963065.4275255     
   303089525.01841754       -107956371.96393289        1251414984.0662925     
   205040029.38172165       -209490140.28871527        1262259364.3818936     
   96852293.300237954       -344818043.42946255        1279496206.3743138     
   384250905.15559542       -15720741.677231014        1338779340.9368916     
   322388225.88216096       -47110532.028833851        1327959819.5031183     
   252236921.32120764       -106129073.33883972        1322396777.1396818     
   173796991.47273588       -192776365.60723925        1322090213.8465817     
   87068436.336745456       -307052408.83403546        1327040129.6238096     
   306693780.83392251       -23080513.948042646        1426723288.0404646     
   257495772.44416893       -52888295.335465908        1409182672.5611296     
   201858753.92417794       -104159443.82369211        1395762553.5456429     
   139782725.27394068       -176893959.41273922        1386462930.9939928     
   71267686.493473679       -271091842.10254055        1381283804.9061892     
   236102421.99238735       -28350556.574826285        1512735449.7762923     
   196323419.89634031       -57550028.375052318        1490631624.6015623     
   151955022.82733357       -102047483.41847727        1471512313.2841837     
   102997230.78535786       -161842921.70512930        1455377515.8241494     
   49450043.770424619       -236936343.23497874        1442227232.2214680     
   100619257.38394794       -384388745.88882768        1238652035.1577141     
   85671485.191839039       -543711574.66439545        1199284957.5041978     
   58083342.774575293       -745168970.85715163        1156592817.0542443     
   17854830.132157445       -988760934.46708834        1110575613.8078427     
  -35014052.735436261       -1274487465.4942722        1061233347.7650005     
   96852293.300237954       -344818043.42946255        1279496206.3743138     
   79902637.159523636       -485441493.75913441        1224396907.6681263     
   51552559.152954698       -664066350.30832982        1166767519.8488674     
   11802059.280542076       -880692613.07700038        1106608042.9165130     
  -39348862.457725644       -1135320282.0651820        1043918476.8710999     
   87068436.336745456       -307052408.83403546        1327040129.6238096     
   70388249.628446013       -428295074.70352536        1257655216.2841480     
   43547589.413615555       -583405985.59478951        1186535187.5147781     
   6546455.6922329664       -772385141.50789690        1113680043.3156834     
  -40615151.535685122       -995232542.44277930        1039089783.6868691     
   71267686.493473679       -271091842.10254055        1381283804.9061892     
   57128322.598620832       -372272317.49752891        1299059883.3522606     
   34068433.556541979       -503187876.71660650        1215895820.0519607     
   2088019.3672268093       -663838519.75980091        1131791615.0053113     
  -38812919.969317168       -854224246.62709177        1046747268.2122977     
   49450043.770424619       -236936343.23497874        1442227232.2214680     
   40122856.070043594       -317373222.14115149        1348610908.8724480     
   23115091.581758231       -423412023.67368329        1254849417.4604292     
  -1573249.6944795847       -555052747.83272183        1160942757.9854119     
  -33942167.758617610       -712295394.61809146        1066890930.4473908     
   1952416863.8762586       -54845053.647282958        1442594560.5461202     
   1808025620.6090887        59594594.986862063        1465428225.0678492     
   1648220654.8735552        122655168.72645921        1482919101.6181324     
   1473001966.6696625        134336667.57152498        1495067190.1969626     
   1282369555.9974070        94639091.522049069        1501872490.8043520     
   1739355092.8585668        284677049.07584983        1690086019.4488378     
   1553629664.2005780        257367107.43954372        1646567530.7155576     
   1364477762.1687596        218635587.89046466        1609307746.6385906     
   1171899386.7631068        168482490.42860720        1578306667.2179224     
   975894537.98361957        106907815.05397025        1553564292.4535625     
   1351542506.6191528        571773907.23246086        1880835172.2823610     
   1157630014.3639321        412658511.86379141        1784949654.2376940     
   972278297.82940352        282079035.56410128        1706924333.4770858     
   795487357.01557183        180035478.33339530        1646759210.0005348     
   627257191.92243338        106527840.17167026        1604454283.8080432     
   788979105.15802503        806445520.82256103        2014842019.0466933     
   620026671.09914637        525468808.25959468        1880574595.6342528     
   471622261.85549057        312985511.74736947        1775768862.1336229     
   343765877.42705697        168995631.28588629        1700424818.5448067     
   236457517.81384721        93499166.875149399        1654542464.8678033     
   51664888.475176692        988691889.84614336        2092106559.7418272     
  -59180365.593779325        595797996.62695253        1933442354.9052320     
  -137490345.75298166        311355016.44027245        1815841332.6082010     
  -183265052.00243500        135362949.28608888        1739303492.8507340     
  -196504484.34213638        67821795.164412662        1703828835.6328335     
   1282369555.9974070        94639091.522049069        1501872490.8043520     
   1250033234.9606624        80423288.059594572        1500759861.2477374     
   1218600490.6975696        69219407.175982714        1495926758.3244781     
   1188071323.2081425        61027448.871252775        1487373182.0345855     
   1158445732.4923642        55847413.145352483        1475099132.3780541     
   975894537.98361957        106907815.05397025        1553564292.4535625     
   938416805.78783298        88994298.641235650        1540891540.4610448     
   901796112.23189974        73937577.694678485        1528837648.5475056     
   866032457.31581700        61737652.214290112        1517402616.7129459     
   831125841.03958750        52394522.200081646        1506586444.9573612     
   627257191.92243338        106527840.17167026        1604454283.8080432     
   597036144.12651396        88636039.476337358        1580167114.8901877     
   567625596.83664072        73445907.134493843        1560838139.4969249     
   539025550.05281460        60957443.146140918        1546467357.6282597     
   511236003.77503633        51170647.511278421        1537054769.2841897     
   236457517.81384721        93499166.875149399        1654542464.8678033     
   225891249.97669923        79348510.564886644        1618586584.5351653     
   216088944.51179576        67744395.495440274        1591928231.1727397     
   207050601.41912964        58686821.666783653        1574567404.7805285     
   198776220.69870481        52175789.078932777        1566504105.3585289     
  -196504484.34213638        67821795.164412662        1703828835.6328335     
  -175017876.66160893        61131711.906886213        1656149949.3959773     
  -152813844.74264020        56833042.777497754        1622107923.5749516     
  -129892388.58524038        54925787.776212141        1601702758.1697533     
  -106253508.18939815        55409946.903069004        1594934453.1803868     
   1158445732.4923642        55847413.145352483        1475099132.3780541     
   1100748124.9696968        44965424.654499948        1458959959.4575970     
   1043940117.9989355        37048771.336661279        1452641344.5007460     
   988021711.58007479        32097453.191827178        1456143287.5075002     
   932992905.71312141        30111470.220019817        1469465788.4778631     
   831125841.03958750        52394522.200081646        1506586444.9573612     
   798922324.85922241        46079916.296699464        1493377562.3525348     
   767323919.98321378        41782348.074504077        1488904949.9118421     
   736330626.41157448        39501817.533541054        1493168607.6352820     
   705942444.14429235        39238324.673768371        1506168535.5228550     
   511236003.77503633        51170647.511278421        1537054769.2841897     
   501428613.79561394        48494034.652942911        1526444272.8728609     
   491941845.87301278        46886161.984008878        1523485758.8261950     
   482775700.00723678        46347029.504493505        1528179227.1441903     
   473930176.19827789        46876637.214367926        1540524677.8268373     
   198776220.69870481        52175789.078932777        1566504105.3585289     
   208266991.77887633        52207779.723247215        1558160091.0185716     
   217793895.66832832        52360213.065162376        1556383771.2437997     
   227356932.36706281        52633089.104686841        1561175146.0342138     
   236956101.87507737        53026407.841811694        1572534215.3898115     
  -106253508.18939815        55409946.903069004        1594934453.1803868     
  -80562541.190985516        57221151.507627569        1588525016.7896688     
  -55119930.630834505        58204501.317980677        1587598987.1646593     
  -29925676.508937635        58359996.334152654        1592156364.3053653     
  -4979778.8253097199        57687636.556096166        1602197148.2117810     
   932992905.71312141        30111470.220019817        1469465788.4778631     
   877386762.24095547        29272009.397907525        1462792045.2357066     
   821761165.53421366        28367704.460545450        1459632410.1939373     
   766116115.59288931        27398555.407904893        1459986883.3525491     
   710451612.41698670        26364562.240007281        1463855464.7115531     
   705942444.14429235        39238324.673768371        1506168535.5228550     
   658921919.79996347        35028980.931376994        1497972197.8202267     
   611984538.04610467        31096779.157214224        1493643739.6125393     
   565130298.88270593        27441719.351256996        1493183160.8997922     
   518359202.30977958        24063801.513535738        1496590461.6819839     
   473930176.19827789        46876637.214367926        1540524677.8268373     
   436506046.10908562        39600643.089887425        1530925440.7929590     
   399267654.43540502        32943777.017112523        1525547854.5485744     
   362215001.17722869        26906038.996021003        1524391919.0936813     
   325348086.33456814        21487429.026646361        1527457634.4282846     
   236956101.87507737        53026407.841811694        1572534215.3898115     
   210139141.16831574        42986995.873423539        1561651774.1539018     
   183610514.70210925        33908698.040218621        1555344755.0020378     
   157370222.47645652        25791514.342193171        1553613157.9342189     
   131418264.49136148        18635444.779360041        1556456982.9504499     
  -4979778.8253097199        57687636.556096166        1602197148.2117810     
  -20178795.022341508        45188039.281996801        1590151197.9030559     
  -34986881.153772146        33991542.226566538        1583034440.9729300     
  -49404037.219607413        24098145.389787178        1580846877.4214058     
  -63430263.219841160        15507848.771681599        1583588507.2484841     
   710451612.41698670        26364562.240007281        1463855464.7115531     
   652944605.89504278        25197841.921768427        1460907763.7804220     
   595733991.41217554        25019095.067118883        1464414395.3321052     
   538819768.96837068        25828321.676007599        1474375359.3666070     
   482201938.56363410        27625521.748463109        1490790655.8839257     
   518359202.30977958        24063801.513535738        1496590461.6819839     
   477760618.56380802        22996411.650444210        1493659506.6359158     
   437381380.66246963        22660174.602794871        1497257775.7527494     
   397221488.60575688        23055090.370563865        1507385269.0324798     
   357280942.39367121        24181158.953756660        1524041986.4751041     
   325348086.33456814        21487429.026646361        1527457634.4282846     
   301871901.59337592        20583562.487344116        1524453538.0404341     
   278538016.50237459        20154028.115347475        1528053557.4955664     
   255346431.06155819        20198825.910631344        1538257692.7936816     
   232297145.27093151        20717955.873217158        1555065943.9347742     
   131418264.49136148        18635444.779360041        1556456982.9504499     
   125278454.98375565        17959294.432499219        1553289857.9939730     
   119203898.93189284        17500655.604780730        1556801740.5605605     
   113194596.33578555        17259528.296246611        1566992630.6502025     
   107250547.19542159        17235912.506856576        1583862528.2629170     
  -63430263.219841160        15507848.771681599        1583588507.2484841     
  -52019721.265060380        15123607.485882286        1580168466.4965301     
  -40620972.048972622        14700057.071105525        1583502324.9477229     
  -29234015.571572941        14237197.527367793        1593590082.6020582     
  -17858851.832870502        13735028.854641361        1610431739.4595339     
   482201938.56363410        27625521.748463109        1490790655.8839257     
   424328644.49280250        25803452.407573193        1487908846.1640356     
   364020960.37398249        15866749.573388368        1490605708.5727983     
   301278886.20718098       -2184586.7540655583        1498881243.1102169     
   236102421.99238735       -28350556.574826285        1512735449.7762923     
   357280942.39367121        24181158.953756660        1524041986.4751041     
   313942223.96152687        21937632.469337478        1518746461.4506631     
   268834614.58479488        13797802.836294383        1519149966.4373691     
   221958114.26347747       -238329.94536614418        1525252501.4352255     
   173312722.99757221       -20170765.875655659        1537054066.4442258     
   232297145.27093151        20717955.873217158        1555065943.9347742     
   203836882.14175296        18156136.144557290        1548133119.2264035     
   174273227.17138436        11916343.611932687        1547019682.4116802     
   143606180.35982853        1998578.2753494158        1551725633.4906092     
   111835741.70708577       -11597159.865189753        1562250972.4631777     
   107250547.19542159        17235912.506856576        1583862528.2629170     
   94012619.033482462        14458963.433232289        1576068819.4912531     
   80336798.133755803        10222371.900316004        1574214856.4957347     
   66223084.496231385        4526137.9080739580        1578300639.2763565     
   51671478.120928317       -2629738.5434301458        1588326167.8331323     
  -17858851.832870502        13735028.854641361        1610431739.4595339     
  -15530565.363288345        10846114.335353861        1602553562.2452149     
  -12974672.528103109        8715887.7014085613        1600735488.6895330     
  -10191173.327304089        7344348.9528432321        1604977518.7924883     
  -7180067.7608977854        6731498.0896355230        1615279652.5540895     
   236102421.99238735       -28350556.574826285        1512735449.7762923     
   196323419.89634031       -57550028.375052318        1490631624.6015623     
   151955022.82733357       -102047483.41847727        1471512313.2841837     
   102997230.78535786       -161842921.70512930        1455377515.8241494     
   49450043.770424619       -236936343.23497874        1442227232.2214680     
   173312722.99757221       -20170765.875655659        1537054066.4442258     
   143497772.72673601       -42319477.842527919        1510773505.9536977     
   110265729.88284665       -75858498.386245430        1487545988.4328973     
   73616594.465887517       -120787827.50686026        1467371513.8818345     
   33550366.475872628       -177107465.20433030        1450250082.3004954     
   111835741.70708577       -11597159.865189753        1562250972.4631777     
   92180640.725423455       -26636372.759504329        1533161362.7900546     
   70280749.570603073       -49158219.564346433        1507193325.1990502     
   46136068.242620245       -79162700.279730082        1484346859.6901660     
   19746596.741475925       -116649814.90564854        1464621966.2633960     
   51671478.120928317       -2629738.5434301458        1588326167.8331323     
   42372023.892394222       -10500713.126008227        1557795195.1106391     
   32000081.890601851       -21946646.952781796        1530454323.5826483     
   20555652.115549169       -36967540.023754478        1506303553.2491624     
   8038734.5672398359       -55563392.338918611        1485342884.1101849     
  -7180067.7608977854        6731498.0896355230        1615279652.5540895     
  -5928077.7723448612        6087501.0579849035        1584675002.9154451     
  -4576273.1571467193        5776219.4484836170        1557328983.5836885     
  -3124653.9153099032        5797653.2611126322        1533241594.5588205     
  -1573220.0468330872        6151802.4958735965        1512412835.8408365     
   49450043.770424619       -236936343.23497874        1442227232.2214680     
   40122856.070043594       -317373222.14115149        1348610908.8724480     
   23115091.581758231       -423412023.67368329        1254849417.4604292     
  -1573249.6944795847       -555052747.83272183        1160942757.9854119     
  -33942167.758617610       -712295394.61809146        1066890930.4473908     
   33550366.475872628       -177107465.20433030        1450250082.3004954     
   29332770.342136651       -236531314.77171358        1349235801.1780961     
   19394595.511043489       -315023759.99695277        1247447982.5533266     
   3735841.9825995266       -412584800.88003421        1144886626.4261718     
  -17643490.243194044       -529214437.42093939        1041551732.7966340     
   19746596.741475925       -116649814.90564854        1464621966.2633960     
   18843250.919012621       -155599237.51087072        1358496391.8066180     
   14179324.489770278       -207083928.80535644        1250968910.4080923     
   5754817.4537421018       -271103888.78912091        1142039522.0678127     
  -6430270.1890603304       -347659117.46214753        1031708226.7857590     
   8038734.5672398359       -55563392.338918611        1485342884.1101849     
   8654297.8006847501       -74576990.358580753        1376392680.7580349     
   7469278.5179227442       -99592530.098935768        1265412201.0247469     
   4483676.7189479023       -130610011.55999874        1152401444.9103320     
  -302507.59624024481       -167629434.74176979        1037360412.4147739     
  -1573220.0468330872        6151802.4958735965        1512412835.8408365     
  -1234089.0128482403        6535426.6851477036        1402924668.0323169     
  -735542.40449933568        7450436.1222992251        1290777854.4032722     
  -77580.221784909721        8896830.8073385954        1175972394.9537153     
   739797.53528698487        10874610.740233419        1058508289.6836590     
   51664888.475176692        988691889.84614336        2092106559.7418272     
  -59180365.593779325        595797996.62695253        1933442354.9052320     
  -137490345.75298166        311355016.44027245        1815841332.6082010     
  -183265052.00243500        135362949.28608888        1739303492.8507340     
  -196504484.34213638        67821795.164412662        1703828835.6328335     
  -932088315.80114257        180581288.91017193        1503192334.0875058     
  -887399414.29409826        18937129.942286551        1465911883.5173628     
  -825239181.14439452       -84469256.883400977        1453844585.2542789     
  -745607616.35203397       -129637871.56689776        1466990439.2982509     
  -648504719.91701114       -116568714.10818954        1505349445.6492794     
  -1629732235.8570716       -541696526.75968254        994061364.84994769     
  -1474794979.4383366       -485676691.67555368        1060590069.2346554     
  -1317450333.6440353       -421632225.33953899        1136481895.6939056     
  -1157698298.4741690       -349563127.75164014        1221736844.2277076     
  -995538873.92873669       -269469398.91185695        1316354914.8360586     
  -2041266871.6926136       -1178141557.1634200        564713652.02916527     
  -1821367061.0264945       -918043468.22656894        717476912.05710387     
  -1614123803.2519040       -700133888.92814231        863753263.92708719     
  -1419537098.3688421       -524412819.26814818        1003542707.6391088     
  -1237606946.3773067       -390880259.24657440        1136845243.1931729     
  -2166692223.3077664       -1728753802.3010426        215149195.62514466     
  -1927115659.0585728       -1278163199.7107620        436572411.98471260     
  -1715259589.9680033       -919974247.64922214        635658689.95381653     
  -1531124016.0360522       -654186946.11641252        812408029.53245103     
  -1374708937.2627220       -480801295.11234206        966820430.72061968     
  -196504484.34213638        67821795.164412662        1703828835.6328335     
  -175017876.66160893        61131711.906886213        1656149949.3959773     
  -152813844.74264020        56833042.777497754        1622107923.5749516     
  -129892388.58524038        54925787.776212141        1601702758.1697533     
  -106253508.18939815        55409946.903069004        1594934453.1803868     
  -648504719.91701114       -116568714.10818954        1505349445.6492794     
  -590486450.68460727       -90337649.294562280        1490822796.6782537     
  -533530307.26032555       -67647003.841343164        1483163377.3918042     
  -477636289.64415681       -48496777.748499826        1482371187.7899344     
  -422804397.83611465       -32886971.016079485        1488446227.8726456     
  -995538873.92873669       -269469398.91185695        1316354914.8360586     
  -920330745.23374403       -216119726.65386140        1332904361.4098773     
  -847964292.39342797       -172242307.24478924        1349551406.9370255     
  -778439515.40779209       -137837140.68465078        1366296051.4175005     
  -711756414.27683282       -112904226.97343345        1383138294.8513024     
  -1237606946.3773067       -390880259.24657440        1136845243.1931729     
  -1164550760.3090150       -316214520.17100298        1182394643.5908535     
  -1096115800.1419539       -256952867.43286571        1221272012.2106116     
  -1032302065.8761353       -213095301.03220242        1253477349.0524449     
  -973109557.51155090       -184641820.96898997        1279010654.1163564     
  -1374708937.2627220       -480801295.11234206        966820430.72061968     
  -1323146495.9104173       -390622029.84597057        1039293643.2211790     
  -1277984830.5059075       -321778684.40558296        1098325193.2125628     
  -1239223941.0491900       -274271258.79116899        1143915080.6947744     
  -1206863827.5402670       -248099753.00273576        1176063305.6678119     
  -106253508.18939815        55409946.903069004        1594934453.1803868     
  -80562541.190985516        57221151.507627569        1588525016.7896688     
  -55119930.630834505        58204501.317980677        1587598987.1646593     
  -29925676.508937635        58359996.334152654        1592156364.3053653     
  -4979778.8253097199        57687636.556096166        1602197148.2117810     
  -422804397.83611465       -32886971.016079485        1488446227.8726456     
  -382263981.65729511       -23847441.665119529        1490686964.9311657     
  -342166605.40180391       -16284712.058585152        1497198873.4981928     
  -302512269.06963569       -10198782.196462750        1507981953.5737231     
  -263300972.66079590       -5589652.0787667781        1523036205.1577663     
  -711756414.27683282       -112904226.97343345        1383138294.8513024     
  -659830078.22390461       -97675431.667958245        1393802074.6264822     
  -608541465.57936811       -84572381.057120308        1407524790.6529648     
  -557890576.34322691       -73595075.140936330        1424306442.9307518     
  -507877410.51548022       -64743513.919397533        1444147031.4598410     
  -973109557.51155090       -184641820.96898997        1279010654.1163564     
  -913260830.89081228       -164262818.50088394        1297870345.8756201     
  -854244511.16353595       -146658505.67765445        1318576738.6289787     
  -796060598.32971692       -131828882.49928111        1341129832.3764365     
  -738709092.38936114       -119773948.96578641        1365529627.1179931     
  -1206863827.5402670       -248099753.00273576        1176063305.6678119     
  -1142556239.6580193       -223609602.16390279        1202891778.6785755     
  -1079275742.1542931       -202543085.92013788        1230354717.4262354     
  -1017022335.0291036       -184900204.27149633        1258452121.9107871     
  -955796018.28243673       -170680957.21793038        1287183992.1322360     
  -4979778.8253097199        57687636.556096166        1602197148.2117810     
  -20178795.022341508        45188039.281996801        1590151197.9030559     
  -34986881.153772146        33991542.226566538        1583034440.9729300     
  -49404037.219607413        24098145.389787178        1580846877.4214058     
  -63430263.219841160        15507848.771681599        1583588507.2484841     
  -263300972.66079590       -5589652.0787667781        1523036205.1577663     
  -263247736.39841828       -12344887.733835131        1516708976.3437526     
  -262498898.27567437       -16781450.521015167        1515859434.1309047     
  -261054458.29256588       -18899340.440315403        1520487578.5192254     
  -258914416.44908789       -18698557.491713904        1530593409.5087099     
  -507877410.51548022       -64743513.919397533        1444147031.4598410     
  -491004798.30064279       -65284250.907506362        1443893974.5677619     
  -473131912.43067706       -62490742.378520787        1449667097.4994190     
  -454258752.90557504       -56362988.332413301        1461466400.2548106     
  -434385319.72534323       -46900988.769208640        1479291882.8339317     
  -738709092.38936114       -119773948.96578641        1365529627.1179931     
  -703449980.72902322       -113630050.23904021        1371706192.5750864     
  -666885923.61878288       -103136333.34595045        1384457431.0784709     
  -629016921.05864394       -88292798.286535740        1403783342.6281643     
  -589842973.04861188       -69099445.060805738        1429683927.2241504     
  -955796018.28243673       -170680957.21793038        1287183992.1322360     
  -900583283.68354535       -157382285.72838992        1300145630.3657169     
  -843760931.83999681       -138718223.42332840        1320230434.8680665     
  -785328962.75177336       -114688770.30268526        1347438405.6392803     
  -725287376.41889024       -85293926.366505742        1381769542.6793597     
  -63430263.219841160        15507848.771681599        1583588507.2484841     
  -52019721.265060380        15123607.485882286        1580168466.4965301     
  -40620972.048972622        14700057.071105525        1583502324.9477229     
  -29234015.571572941        14237197.527367793        1593590082.6020582     
  -17858851.832870502        13735028.854641361        1610431739.4595339     
  -258914416.44908789       -18698557.491713904        1530593409.5087099     
  -228985202.50874916       -10185349.764522798        1533098041.1227891     
  -199767630.11039409       -4044280.5106099769        1541040648.3657684     
  -171261699.25402558       -275349.72998668998        1554421231.2376497     
  -143467409.93964177        1121442.5773555115        1573239789.7384338     
  -434385319.72534323       -46900988.769208640        1479291882.8339317     
  -389697215.44013578       -30618266.521227270        1486904696.5435300     
  -346420601.50020683       -19040512.090842873        1498639562.3077917     
  -304555477.90555668       -12167725.478054732        1514496480.1267133     
  -264101844.65618509       -9999906.6828619391        1534475450.0002930     
  -589842973.04861188       -69099445.060805738        1429683927.2241504     
  -534155760.05922711       -46175142.784251437        1441588432.7587619     
  -480579886.21841103       -30288637.669593200        1456299066.7737916     
  -429115351.52616972       -21439929.716852322        1473815829.2692418     
  -379762155.98249793       -19629018.926006913        1494138720.2451086     
  -725287376.41889024       -85293926.366505742        1381769542.6793597     
  -662360836.36601830       -56855978.553582251        1397149249.7684753     
  -602245484.26500487       -37788657.246855408        1414019161.7637682     
  -544941320.11586928       -28091962.446388006        1432379278.6652377     
  -490448343.91858679       -27765894.152098000        1452229600.4728873     
  -17858851.832870502        13735028.854641361        1610431739.4595339     
  -15530565.363288345        10846114.335353861        1602553562.2452149     
  -12974672.528103109        8715887.7014085613        1600735488.6895330     
  -10191173.327304089        7344348.9528432321        1604977518.7924883     
  -7180067.7608977854        6731498.0896355230        1615279652.5540895     
  -143467409.93964177        1121442.5773555115        1573239789.7384338     
  -125443244.55740887       -213580.98639962822        1567524551.6396332     
  -106576082.92427190        1261382.9528562948        1567464372.6714163     
  -86865925.040222988        5546334.3951535262        1573059252.8337755     
  -66312770.905265957        12641273.340477206        1584309192.1267269     
  -264101844.65618509       -9999906.6828619391        1534475450.0002930     
  -231539070.44147155       -10128220.315154083        1531641105.8831935     
  -197517910.09054607       -5395246.8267400861        1534056776.3686254     
  -162038363.60340971        4199013.7823770344        1541722461.4565794     
  -125100430.98006044        18654561.512200989        1554638161.1470618     
  -379762155.98249793       -19629018.926006913        1494138720.2451086     
  -333818043.01546335       -18897803.650868118        1494903224.9759042     
  -285800154.02691621       -11254001.637355655        1500512699.7811637     
  -235708489.01685879        3302387.1145250648        1510967144.6608913     
  -183543047.98528820        24771362.604783155        1526266559.6150911     
  -490448343.91858679       -27765894.152098000        1452229600.4728873     
  -432280162.27939641       -26522330.993577838        1457310908.9177535     
  -371422814.73338866       -16314881.479005292        1466832142.9090312     
  -307876301.28057367        2856454.3915941864        1480793302.4467194     
  -241640621.92094159        30991676.618250921        1499194387.5308206     
  -7180067.7608977854        6731498.0896355230        1615279652.5540895     
  -5928077.7723448612        6087501.0579849035        1584675002.9154451     
  -4576273.1571467193        5776219.4484836170        1557328983.5836885     
  -3124653.9153099032        5797653.2611126322        1533241594.5588205     
  -1573220.0468330872        6151802.4958735965        1512412835.8408365     
  -66312770.905265957        12641273.340477206        1584309192.1267269     
  -54348855.215713799        20240592.643655404        1554487032.5998511     
  -41196407.057445988        31801686.842549667        1527743881.8434346     
  -26855426.430426288        47324555.937284946        1504079739.8574717     
  -11325913.334690202        66809199.927741498        1483494606.6419740     
  -125100430.98006044        18654561.512200989        1554638161.1470618     
  -102937793.97931729        34343235.833237216        1526868662.5477209     
  -78497906.667753085        57622744.523674153        1501998551.1824129     
  -51780769.045374274        88493087.583494663        1480027827.0511348     
  -22786381.112172522        126954265.01272184        1460956490.1538811     
  -183543047.98528820        24771362.604783155        1526266559.6150911     
  -151694894.06314552        48395430.626760788        1501819892.7590594     
  -116480771.98810053        83239392.491746157        1480092991.6006298     
  -77900681.760144114        129303248.19977105        1461085856.1398005     
  -35954623.379290126        186586997.75078496        1444798486.3765657     
  -241640621.92094159        30991676.618250921        1499194387.5308206     
  -200620155.46720099        62397177.024222821        1479340723.2338650     
  -155145003.01846874        108651630.74683356        1462027203.0980852     
  -105215164.57474248        169755037.78608927        1447253827.1234691     
  -50830640.136017203        245707398.14201188        1435020595.3100326     
  -1573220.0468330872        6151802.4958735965        1512412835.8408365     
  -1234089.0128482403        6535426.6851477036        1402924668.0323169     
  -735542.40449933568        7450436.1222992251        1290777854.4032722     
  -77580.221784909721        8896830.8073385954        1175972394.9537153     
   739797.53528698487        10874610.740233419        1058508289.6836590     
  -11325913.334690202        66809199.927741498        1483494606.6419740     
  -11282061.819571793        86623472.209017932        1375025065.7090311     
  -9146307.5435019732        113410753.69346710        1264503036.7916241     
  -4918650.5065085888        147171044.38099658        1151928519.8897543     
   1400909.2914519906        187904344.27174518        1037301515.0034150     
  -22786381.112172522        126954265.01272184        1460956490.1538811     
  -21305929.584350228        166718749.24547833        1355760144.4808640     
  -15801088.109005705        219897866.63664466        1249117468.6594341     
  -6271856.6861335635        286491617.18622744        1141028462.6895878     
   7281764.6842584759        366500000.89422268        1031493126.5713392     
  -35954623.379290126        186586997.75078496        1444798486.3765657     
  -31305692.307186812        246821257.79451138        1345129904.3478284     
  -20699884.100985855        326911774.95189935        1244621150.0067153     
  -4137198.7606804669        426858549.22297347        1143272223.3532350     
   18382363.713729352        546661580.60771954        1041083124.3874062     
  -50830640.136017203        245707398.14201188        1435020595.3100326     
  -41281349.988073975        326930997.85614914        1343134345.3099000     
  -23842695.519458711        434452478.63919449        1251014080.8334513     
   1485323.2698524594        568271840.49122381        1158659801.8806987     
   34702706.379845649        728389083.41219664        1066071508.4516262     
  -2166692223.3077664       -1728753802.3010426        215149195.62514466     
  -1927115659.0585728       -1278163199.7107620        436572411.98471260     
  -1715259589.9680033       -919974247.64922214        635658689.95381653     
  -1531124016.0360522       -654186946.11641252        812408029.53245103     
  -1374708937.2627220       -480801295.11234206        966820430.72061968     
  -1875790823.6660049       -824143925.71815693        785212221.15746844     
  -1742288385.8906991       -612712390.39320326        876696885.17881858     
  -1621120826.8740973       -442397117.59724557        964113559.67195046     
  -1512288146.6161892       -313198107.33027649        1047462244.6368622     
  -1415790345.1169801       -225115359.59230232        1126742940.0735593     
  -1915481972.5506372       -18711813.693184853        1266555369.4347725     
  -1835856664.4999464       -30780246.608777523        1246051366.9178145     
  -1753180618.8080268       -32679554.053617597        1239748323.7348874     
  -1667453835.4748838       -24409736.027702689        1247646239.8859882     
  -1578676314.5005169       -5970792.5310463309        1269745115.3711185     
  -2285765669.9616747        687542533.77386332        1659178640.4570634     
  -2207820494.8863082        467633231.64251626        1544635857.2017086     
  -2111438965.7697992        309178442.98165488        1462562982.1426320     
  -1996621082.6121380        212178167.79129243        1412960015.2798278     
  -1863366845.4133263        176632406.07142639        1395826956.6133080     
  -2986641915.8991122        1294619116.6829915        1963082034.2243338     
  -2858179877.0497937        882528044.36066294        1772450356.0304899     
  -2695895867.7594061        583176873.50857949        1632557534.8951726     
  -2499789888.0279436        396565604.12673676        1543403570.8183818     
  -2269861937.8554139        322694236.21511889        1504988463.8001182     
  -1374708937.2627220       -480801295.11234206        966820430.72061968     
  -1323146495.9104173       -390622029.84597057        1039293643.2211790     
  -1277984830.5059075       -321778684.40558296        1098325193.2125628     
  -1239223941.0491900       -274271258.79116899        1143915080.6947744     
  -1206863827.5402670       -248099753.00273576        1176063305.6678119     
  -1415790345.1169801       -225115359.59230232        1126742940.0735593     
  -1404982636.7983835       -187076593.55543858        1154468725.8242326     
  -1397886392.8509331       -161409375.42240399        1176318802.3418846     
  -1394501613.2746220       -148113705.19316530        1192293169.6265171     
  -1394828298.0694611       -147189582.86776149        1202391827.6781278     
  -1578676314.5005169       -5970792.5310463309        1269745115.3711185     
  -1587006329.8551869       -13587422.915557861        1255861004.5446670     
  -1596358498.0043557       -24611229.281731486        1243667137.7613440     
  -1606732818.9480197       -39042211.629561365        1233163515.0211535     
  -1618129292.6861849       -56880369.959056139        1224350136.3240955     
  -1863366845.4133263        176632406.07142639        1395826956.6133080     
  -1869217575.0808313        129845482.07367063        1343470479.3824818     
  -1873401145.9661832        88615754.016409874        1300370199.4709375     
  -1875917558.0693870        52943221.899651647        1266526116.8786771     
  -1876766811.3904386        22827885.723395348        1241938231.6057053     
  -2269861937.8554139        322694236.21511889        1504988463.8001182     
  -2251616372.4753103        243222121.41224885        1417297150.3376744     
  -2229014336.7364116        178271574.47203612        1346427987.4706669     
  -2202055830.6387129        127842595.39449012        1292380975.1990986     
  -2170740854.1822176        91935184.179592490        1255156113.5229654     
  -1206863827.5402670       -248099753.00273576        1176063305.6678119     
  -1142556239.6580193       -223609602.16390279        1202891778.6785755     
  -1079275742.1542931       -202543085.92013788        1230354717.4262354     
  -1017022335.0291036       -184900204.27149633        1258452121.9107871     
  -955796018.28243673       -170680957.21793038        1287183992.1322360     
  -1394828298.0694611       -147189582.86776149        1202391827.6781278     
  -1330044834.7083228       -133328829.21035832        1216656352.3190575     
  -1265899190.3484335       -121594138.89045161        1233105407.0948756     
  -1202391364.9897854       -111985511.90801424        1251738992.0055852     
  -1139521358.6323822       -104502948.26306668        1272557107.0511887     
  -1618129292.6861849       -56880369.959056139        1224350136.3240955     
  -1548441198.4233112       -52320386.856242657        1226504862.5353470     
  -1479001651.7843935       -48588895.833291650        1232394183.2794876     
  -1409810652.7694464       -45685896.890239358        1242018098.5565197     
  -1340868201.3784559       -43611390.027039826        1255376608.3664372     
  -1876766811.3904386        22827885.723395348        1241938231.6057053     
  -1797745330.8029714        19415724.898486495        1232437309.3274498     
  -1718583126.4621840        16472643.251314402        1228221045.9800758     
  -1639280198.3680792        13998640.781867385        1229289441.5635898     
  -1559836546.5206549        11993717.490148604        1235642496.0779893     
  -2170740854.1822176        91935184.179592490        1255156113.5229654     
  -2077957231.8473127        81879506.053804517        1234453692.6953607     
  -1984643614.3818047        73590478.363363028        1220585995.1966338     
  -1890800001.7856984        67068101.108248711        1213553021.0267959     
  -1796426394.0589819        62312374.288502097        1213354770.1858392     
  -955796018.28243673       -170680957.21793038        1287183992.1322360     
  -900583283.68354535       -157382285.72838992        1300145630.3657169     
  -843760931.83999681       -138718223.42332840        1320230434.8680665     
  -785328962.75177336       -114688770.30268526        1347438405.6392803     
  -725287376.41889024       -85293926.366505742        1381769542.6793597     
  -1139521358.6323822       -104502948.26306668        1272557107.0511887     
  -1067945111.8268319       -94480260.650608748        1280183118.8858023     
  -995778352.50374663       -82489197.979701310        1294029277.8129196     
  -923021080.66309917       -68529760.250256300        1314095583.8325462     
  -849673296.30491662       -52601947.462355167        1340382036.9446766     
  -1340868201.3784559       -43611390.027039826        1255376608.3664372     
  -1255508497.1558516       -37638702.728560805        1256478038.2872148     
  -1170577385.1428244       -33094656.128666401        1262896596.1241338     
  -1086074865.3393643       -29979250.227325976        1274632281.8771970     
  -1002000937.7454771       -28292485.024568141        1291685095.5464108     
  -1559836546.5206549        11993717.490148604        1235642496.0779893     
  -1463273439.6706014        13142388.037768066        1229030388.5699542     
  -1368158029.7572339        9465402.1297692657        1226832389.8017018     
  -1274490316.7805595        962759.76612383127        1229048499.7732346     
  -1182270300.7405698       -12365539.053135872        1235678718.4845510     
  -1796426394.0589819        62312374.288502097        1213354770.1858392     
  -1691239939.3710732        57863011.648400426        1197840169.7340209     
  -1588520286.3469734        45190976.795601547        1185836658.8456256     
  -1488267434.9866798        24296269.730116606        1177344237.5206578     
  -1390481385.2901967       -4821109.5480704308        1172362905.7591100     
  -725287376.41889024       -85293926.366505742        1381769542.6793597     
  -662360836.36601830       -56855978.553582251        1397149249.7684753     
  -602245484.26500487       -37788657.246855408        1414019161.7637682     
  -544941320.11586928       -28091962.446388006        1432379278.6652377     
  -490448343.91858679       -27765894.152098000        1452229600.4728873     
  -849673296.30491662       -52601947.462355167        1340382036.9446766     
  -786298929.34657776       -40894950.740715325        1344137734.9199171     
  -724325266.67256737       -33856968.300169468        1350608698.9373190     
  -663752308.28289783       -31488000.140758783        1359794928.9968987     
  -604580054.17757475       -33788046.262505740        1371696425.0986426     
  -1002000937.7454771       -28292485.024568141        1291685095.5464108     
  -934678569.20740283       -32266386.991899729        1285462348.6865497     
  -867346421.28614223       -36207691.015273035        1283179929.0048537     
  -800004493.98169518       -40116397.094696641        1284837836.5013120     
  -732652787.29406214       -43992505.230159968        1290436071.1759324     
  -1182270300.7405698       -12365539.053135872        1235678718.4845510     
  -1107499755.9485044       -30970287.307181239        1221123091.0683784     
  -1031308948.1057315       -44840825.392191350        1211732851.9663548     
  -953697877.21224296       -53977153.308154762        1207508001.1784832     
  -874666543.26803601       -58379271.055058509        1208448538.7047577     
  -1390481385.2901967       -4821109.5480704308        1172362905.7591100     
  -1304762489.5698824       -37006651.686545730        1151119962.0654020     
  -1216212847.1313324       -59756371.430904984        1136267467.8218336     
  -1124832457.9745429       -73070268.781128049        1127805423.0284069     
  -1030621322.0995109       -76948343.737213939        1125733827.6851194     
  -490448343.91858679       -27765894.152098000        1452229600.4728873     
  -432280162.27939641       -26522330.993577838        1457310908.9177535     
  -371422814.73338866       -16314881.479005292        1466832142.9090312     
  -307876301.28057367        2856454.3915941864        1480793302.4467194     
  -241640621.92094159        30991676.618250921        1499194387.5308206     
  -604580054.17757475       -33788046.262505740        1371696425.0986426     
  -533813342.30897814       -31083426.749199688        1375108262.0811894     
  -460639555.84433621       -20355225.249081075        1383434183.7657621     
  -385058694.78367579       -1603441.7622336596        1396674190.1523712     
  -307070759.12697148        25171923.711430907        1414828281.2410035     
  -732652787.29406214       -43992505.230159968        1290436071.1759324     
  -647932804.75142336       -39420407.228657305        1291849330.1669185     
  -561087838.92353344       -27765031.609640121        1298650833.0155430     
  -472117889.81039190       -9026378.3731194735        1310840579.7218206     
  -381022957.41199934        16795552.480904862        1328418570.2857444     
  -874666543.26803601       -58379271.055058509        1208448538.7047577     
  -774638549.60674155       -51533272.431981772        1207534113.1749337     
  -672767663.97097433       -38544300.560668051        1212482090.6583738     
  -569053886.36074138       -19412355.441128343        1223292471.1550796     
  -463497216.77602541        5862562.9266792834        1239965254.6650560     
  -1030621322.0995109       -76948343.737213939        1125733827.6851194     
  -913930576.87493503       -67422022.359182149        1122162611.1052425     
  -795679030.98666394       -52693032.102172256        1124927956.6942484     
  -675866684.43470180       -32761372.966190994        1134029864.4521391     
  -554493537.21904922       -7627044.9512389302        1149468334.3789113     
  -241640621.92094159        30991676.618250921        1499194387.5308206     
  -200620155.46720099        62397177.024222821        1479340723.2338650     
  -155145003.01846874        108651630.74683356        1462027203.0980852     
  -105215164.57474248        169755037.78608927        1447253827.1234691     
  -50830640.136017203        245707398.14201188        1435020595.3100326     
  -307070759.12697148        25171923.711430907        1414828281.2410035     
  -257793384.65960321        56637818.698752522        1398931763.5070741     
  -202151415.86268750        109319028.11790177        1386832632.1036837     
  -140144852.73621795        183215551.96888846        1378530887.0308318     
  -71773695.280200168        278327390.25171721        1374026528.2885206     
  -381022957.41199934        16795552.480904862        1328418570.2857444     
  -319896554.44708830        49399478.194754034        1318707425.5051520     
  -250495648.81807160        109585079.45561953        1314050909.2244682     
  -172820240.52494782        197352356.26351112        1314449021.4436929     
  -86870329.567718223        312701308.61842531        1319901762.1628325     
  -463497216.77602541        5862562.9266792834        1239965254.6650560     
  -386929664.82965732        40682155.512225375        1238667709.2281079     
  -300177701.88462204        109449784.76000114        1243682034.4604504     
  -203241327.94093615        212165450.66994303        1255008230.3620663     
  -96120542.998578995        348829153.24212223        1272646296.9329634     
  -554493537.21904922       -7627044.9512389302        1149468334.3789113     
  -458892715.80730796        30485850.651185542        1158812614.6759338     
  -351197575.06234694        108913144.03100878        1175726007.8116150     
  -231408114.98416835        227654835.18821967        1200208513.7859418     
  -99524335.572769374        386710924.12284034        1232260132.5989211     
  -50830640.136017203        245707398.14201188        1435020595.3100326     
  -41281349.988073975        326930997.85614914        1343134345.3099000     
  -23842695.519458711        434452478.63919449        1251014080.8334513     
   1485323.2698524594        568271840.49122381        1158659801.8806987     
   34702706.379845649        728389083.41219664        1066071508.4516262     
  -71773695.280200168        278327390.25171721        1374026528.2885206     
  -57555203.550666958        380532290.62288582        1293661401.9917140     
  -34313045.619065762        512816078.33428305        1212280145.0823526     
  -2047221.4853985608        675178753.38591349        1129882757.5604630     
   39242268.850348681        867620315.77778864        1046469239.4260041     
  -86870329.567718223        312701308.61842531        1319901762.1628325     
  -70217253.788685471        435217124.38701153        1252381111.7642949     
  -43406209.926200151        591592833.76710582        1183062214.6169839     
  -6437197.9802558720        781828436.75873113        1111945070.7208743     
   40689782.049142182        1005923933.3618677        1039029680.0760142     
  -96120542.998578995        348829153.24212223        1272646296.9329634     
  -79267500.702135712        490985499.14849937        1219293474.6276486     
  -51122188.440855026        670782744.93767631        1163360289.4373164     
  -11684606.214728594        888220890.60967243        1104846741.3619802     
   39045245.976228178        1143299936.1644278        1043752830.4016154     
  -99524335.572769374        386710924.12284034        1232260132.5989211     
  -84705944.291021228        547837414.90734327        1194398490.5817709     
  -57460981.163033128        750385811.84598804        1153174369.5433753     
  -17789446.188827455        994356114.93868554        1108587769.4837403     
   34308660.631609380        1279748324.1854899        1060638690.4028589     
  -2986641915.8991122        1294619116.6829915        1963082034.2243338     
  -2858179877.0497937        882528044.36066294        1772450356.0304899     
  -2695895867.7594061        583176873.50857949        1632557534.8951726     
  -2499789888.0279436        396565604.12673676        1543403570.8183818     
  -2269861937.8554139        322694236.21511889        1504988463.8001182     
  -4092920566.9992909        575103421.70435071        1357786680.8052759     
  -3787353696.3784637        407775094.37416077        1295432156.4401572     
  -3465646700.9458880        294247183.08314109        1262089550.6118021     
  -3127799580.7015533        234519687.83131230        1257758863.3201971     
  -2773812335.6454654        228592608.61866009        1282440094.5653529     
  -4884924739.4552813       -50129929.681030512        836510081.74460411     
  -4464330004.2680073        8681397.8193912506        881803891.30734551     
  -4045276989.8983006        62353655.927926779        934382680.88507509     
  -3627765696.3461542        110886844.64459085        994246450.47779059     
  -3211796123.6115661        154280963.96938300        1061395200.0854903     
  -5362654433.2670965       -581080937.47315931        399252237.04232395     
  -4889108800.7184286       -314753045.30364728        531565560.63205081     
  -4434786734.6166439       -112503707.95706844        649436925.71500003     
  -3999688234.9617424        25667074.566574335        752866332.29115999     
  -3583813301.7537122        99759302.267297506        841853780.36054063     
  -5526109648.4347219       -1017749601.6720332        46013146.698427640     
  -5061690085.7297182       -562528234.99493957        244717164.41427478     
  -4634175935.1009197       -230324908.57184339        407252285.10157037     
  -4243567196.5483179       -21139622.402734756        533618508.76030993     
  -3889863870.0719066        65027623.512390852        623815835.39049804     
  -2269861937.8554139        322694236.21511889        1504988463.8001182     
  -2251616372.4753103        243222121.41224885        1417297150.3376744     
  -2229014336.7364116        178271574.47203612        1346427987.4706669     
  -2202055830.6387129        127842595.39449012        1292380975.1990986     
  -2170740854.1822176        91935184.179592490        1255156113.5229654     
  -2773812335.6454654        228592608.61866009        1282440094.5653529     
  -2713043512.7878184        165556094.97817349        1220467556.8074710     
  -2648070138.5452013        116534752.62091970        1170590235.4763312     
  -2578892212.9176159        81528581.546892643        1132808130.5719302     
  -2505509735.9050598        60537581.756092072        1107121242.0942683     
  -3211796123.6115661        154280963.96938300        1061395200.0854903     
  -3122009569.4726558        103628393.63239288        1024964199.2293767     
  -3028170382.9226003        66484597.999214053        995901480.63130295     
  -2930278563.9614091        42849577.069824696        974207044.29127240     
  -2828334112.5890751        32723330.844244480        959880890.20928359     
  -3583813301.7537122        99759302.267297506        841853780.36054063     
  -3478514542.5298138        57439017.374922514        830787077.60339069     
  -3369315069.8686037        28121110.606933594        822361722.93558335     
  -3256214883.7700858        11805581.963299751        816577716.35711956     
  -3139213984.2342505        8492431.4440466166        813435057.86799610     
  -3889863870.0719066        65027623.512390852        623815835.39049804     
  -3782558431.9593081        26987966.205746412        637936191.92951202     
  -3671504199.3832164        1444290.4440639019        649970962.38916957     
  -3556701172.3436527       -11603403.772696972        659920146.76947594     
  -3438149350.8405991       -12155116.444499969        667783745.07042503     
  -2170740854.1822176        91935184.179592490        1255156113.5229654     
  -2077957231.8473127        81879506.053804517        1234453692.6953607     
  -1984643614.3818047        73590478.363363028        1220585995.1966338     
  -1890800001.7856984        67068101.108248711        1213553021.0267959     
  -1796426394.0589819        62312374.288502097        1213354770.1858392     
  -2505509735.9050598        60537581.756092072        1107121242.0942683     
  -2393517433.4149442        57341312.424929857        1090606814.4503722     
  -2281634001.3319626        53782141.736644149        1080450630.7982268     
  -2169859439.6561298        49860069.691200495        1076652691.1378329     
  -2058193748.3874342        45575096.288637042        1079212995.4691942     
  -2828334112.5890751        32723330.844244480        959880890.20928359     
  -2698494499.4784017        35978059.447317123        946809112.62172794     
  -2569402622.3126187        36740334.900765181        939619099.68879473     
  -2441058481.0917168        35010157.204605699        938310851.41047990     
  -2313462075.8156986        30787526.358833313        942884367.78678238     
  -3139213984.2342505        8492431.4440466166        813435057.86799610     
  -2992888430.0376949        17789747.120945454        803060587.20942211     
  -2847949477.3237720        22465057.855744004        798091401.86833072     
  -2704397126.0924678        22518363.648465037        798527501.84472847     
  -2562231376.3437967        17949664.499086976        804368887.13861024     
  -3438149350.8405991       -12155116.444499969        667783745.07042503     
  -3276699225.0928187        2776375.4458279610        659361238.21345770     
  -3117274566.3654165        10956310.601573825        655867537.33684158     
  -2959875374.6583815        12384689.022755980        657302642.44058383     
  -2804501649.9717150        7061510.7093781233        663666553.52467990     
  -1796426394.0589819        62312374.288502097        1213354770.1858392     
  -1691239939.3710732        57863011.648400426        1197840169.7340209     
  -1588520286.3469734        45190976.795601547        1185836658.8456256     
  -1488267434.9866798        24296269.730116606        1177344237.5206578     
  -1390481385.2901967       -4821109.5480704308        1172362905.7591100     
  -2058193748.3874342        45575096.288637042        1079212995.4691942     
  -1944701930.0956285        39275288.276058316        1063508745.1610924     
  -1832790915.7155578        27706133.891043901        1051109172.3785192     
  -1722460705.2472048        10867633.133635879        1042014277.1214745     
  -1613711298.6905868       -11240213.996225476        1036224059.3899559     
  -2313462075.8156986        30787526.358833313        942884367.78678238     
  -2192254642.5997181        22460348.369842887        928024131.66649556     
  -2071742015.5433705        11817149.848724842        916262161.03384221     
  -1951924194.6466725       -1142069.2045475245        907598455.88881993     
  -1832801179.9096110       -16417308.789957523        902033016.23142362     
  -2562231376.3437967        17949664.499086976        804368887.13861024     
  -2433898076.8833256        7418191.9297919273        791386329.25023758     
  -2305373585.8304210       -2475975.3313691616        781295624.81159830     
  -2176657903.1850753       -11732837.284401417        774096773.82269251     
  -2047751028.9472885       -20352393.929302096        769789776.28352189     
  -2804501649.9717150        7061510.7093781233        663666553.52467990     
  -2669632232.9464717       -5851181.0441372395        653595337.91231346     
  -2533685626.5767026       -15173241.649236560        646209563.71178663     
  -2396661830.8624139       -20904671.105930567        641509230.92309558     
  -2258560845.8035994       -23045469.414216757        639494339.54624355     
  -1390481385.2901967       -4821109.5480704308        1172362905.7591100     
  -1304762489.5698824       -37006651.686545730        1151119962.0654020     
  -1216212847.1313324       -59756371.430904984        1136267467.8218336     
  -1124832457.9745429       -73070268.781128049        1127805423.0284069     
  -1030621322.0995109       -76948343.737213939        1125733827.6851194     
  -1613711298.6905868       -11240213.996225476        1036224059.3899559     
  -1509784757.3207259       -34022293.840018630        1018828171.9680396     
  -1403767987.7476592       -49836946.339801729        1006877686.6045512     
  -1295660989.9713948       -58684171.495587170        1000372603.2994945     
  -1185463763.9919281       -60563969.307366073        999312922.05286574     
  -1832801179.9096110       -16417308.789957523        902033016.23142362     
  -1713367128.2950993       -30605966.960550666        887620246.81375897     
  -1592583366.9924188       -40295592.837242424        877707832.06281257     
  -1470449896.0015731       -45486186.420051217        872295771.97858274     
  -1346966715.3225582       -46177747.708975375        871384066.56107080     
  -2047751028.9472885       -20352393.929302096        769789776.28352189     
  -1915509602.4930091       -26757671.048130393        757496186.60256565     
  -1782658984.8656003       -31132310.923206091        748757904.19660985     
  -1649199176.0650535       -33476313.554495633        743574929.06566226     
  -1515130176.0913930       -33789678.942046046        741947261.20972025     
  -2258560845.8035994       -23045469.414216757        639494339.54624355     
  -2116212179.9144545       -22477406.102787256        628455991.33444488     
  -1973994841.3672063       -22347100.597685337        620027903.00594902     
  -1831908830.1618738       -22654552.898967624        614210074.56074250     
  -1689954146.2984412       -23399763.006587505        611002505.99883235     
  -1030621322.0995109       -76948343.737213939        1125733827.6851194     
  -913930576.87493503       -67422022.359182149        1122162611.1052425     
  -795679030.98666394       -52693032.102172256        1124927956.6942484     
  -675866684.43470180       -32761372.966190994        1134029864.4521391     
  -554493537.21904922       -7627044.9512389302        1149468334.3789113     
  -1185463763.9919281       -60563969.307366073        999312922.05286574     
  -1054898167.5476881       -51741364.670889974        993948923.63510132     
  -923395178.66347122       -39794118.567826122        993083721.69624269     
  -790954797.33928216       -24722230.998198658        996717316.23629546     
  -657577023.57511747       -6525701.9619745910        1004849707.2552577     
  -1346966715.3225582       -46177747.708975375        871384066.56107080     
  -1207777026.7728653       -39634087.548318446        863499976.71107209     
  -1068273354.0069199       -32043813.333484888        858276917.65001202     
  -928455697.02470660       -23406925.064439356        855714889.37788761     
  -788324055.82625031       -13723422.741222978        855813891.89469135     
  -1515130176.0913930       -33789678.942046046        741947261.20972025     
  -1372567154.5504646       -31100190.991470098        730815770.33316457     
  -1230313557.0169990       -29442116.399109840        720507544.55556595     
  -1088369383.4909923       -28815455.164945245        711022583.87692440     
  -946734633.97245276       -29220207.288998961        702360888.29724693     
  -1689954146.2984412       -23399763.006587505        611002505.99883235     
  -1549268550.8804908       -26139675.000363290        595896304.50137115     
  -1409515787.6937299       -31989027.764768660        579775602.41289473     
  -1270695856.7381268       -40947821.299703538        562640399.73340929     
  -1132808758.0137198       -53016055.605287671        544490696.46290362     
  -554493537.21904922       -7627044.9512389302        1149468334.3789113     
  -458892715.80730796        30485850.651185542        1158812614.6759338     
  -351197575.06234694        108913144.03100878        1175726007.8116150     
  -231408114.98416835        227654835.18821967        1200208513.7859418     
  -99524335.572769374        386710924.12284034        1232260132.5989211     
  -657577023.57511747       -6525701.9619745910        1004849707.2552577     
  -543494238.86977756        23904867.194115013        1018377455.6451398     
  -418465855.28296787        90820765.955094129        1040325830.6021422     
  -282491872.81468320        194221994.32098436        1070694832.1262690     
  -135572291.46493506        334108552.29176223        1109484460.2175162     
  -788324055.82625031       -13723422.741222978        855813891.89469135     
  -653326411.46025252        9754688.8786495030        872184934.51706541     
  -508531888.66454011        65889061.930914909        897828117.43502557     
  -353940487.43911338        154679696.41556132        932743440.64857221     
  -189552207.78396690        276126592.33260763        976930904.15770984     
  -946734633.97245276       -29220207.288998961        702360888.29724693     
  -788389233.57874751       -11964684.295205355        720235051.29172730     
  -621395675.20707977        34118031.958441734        748232868.31026495     
  -445753958.85745180        109027941.47197241        786354339.35285389     
  -261464084.52984738        212765044.24541342        834599464.41950583     
  -1132808758.0137198       -53016055.605287671        544490696.46290362     
  -948682705.22526145       -41253252.327512562        562527805.96911776     
  -757057214.91058409       -4492323.9623291492        591540083.22785342     
  -557932287.06969571        57266729.490209699        631527528.23911774     
  -351307921.70259106        144023908.03015363        682490141.00289965     
  -99524335.572769374        386710924.12284034        1232260132.5989211     
  -84705944.291021228        547837414.90734327        1194398490.5817709     
  -57460981.163033128        750385811.84598804        1153174369.5433753     
  -17789446.188827455        994356114.93868554        1108587769.4837403     
   34308660.631609380        1279748324.1854899        1060638690.4028589     
  -135572291.46493506        334108552.29176223        1109484460.2175162     
  -126584698.62847942        484107837.15926713        1088419045.3454490     
  -94591722.178498060        710791734.07184219        1068798696.6714038     
  -39593362.114991009        1014160243.0295339        1050623414.1953886     
   38410381.562045157        1394213364.0322874        1033893197.9173862     
  -189552207.78396690        276126592.33260763        976930904.15770984     
  -172659569.90919188        419119424.32818127        985003663.49257696     
  -122182736.65358505        674059574.25985062        999329034.24473524     
  -38121708.017160356        1040947042.1275837        1019907016.4141834     
   79523516.000078738        1519781827.9313779        1046737610.0009029     
  -261464084.52984738        212765044.24541342        834599464.41950583     
  -222930558.13314348        352872176.41411376        884152345.02315652     
  -140234024.58830100        640189332.40993655        944765382.26335979     
  -13374483.895345688        1074716512.2328072        1016438576.1401219     
   157648063.94573539        1656453715.8827481        1099171926.6534240     
  -351307921.70259106        144023908.03015363        682490141.00289965     
  -277397663.30033064        285366093.41710877        785865089.93718600     
  -148745585.98264286        609181008.52214968        905107740.72729516     
   34648310.250461996        1115468653.3452587        1040218093.3732085     
   272784025.39897996        1804229027.8863950        1191196147.8749511     
  -5526109648.4347219       -1017749601.6720332        46013146.698427640     
  -5061690085.7297182       -562528234.99493957        244717164.41427478     
  -4634175935.1009197       -230324908.57184339        407252285.10157037     
  -4243567196.5483179       -21139622.402734756        533618508.76030993     
  -3889863870.0719066        65027623.512390852        623815835.39049804     
  -5385821969.9024305       -566791138.89306593        203670651.60944954     
  -5048937433.2021761       -303612015.01656675        296526006.55259645     
  -4733329707.2602158       -111355593.66770291        371763833.01308388     
  -4438998792.0765438        9978125.1535203457        429384130.99091923     
  -4165944687.6511612        60389141.447121143        469386900.48610348     
  -5477490625.8240366       -185419576.45026422        293064651.26483262     
  -5215137204.9974003       -98381522.335025549        298304711.63949871     
  -4958431993.6111355       -30170833.021056414        304478612.07740766     
  -4707374991.6652594        19212491.491630077        311586352.57856178     
  -4461966199.1597700        49768451.203035831        319627933.14296579     
  -5801115616.1995764        126365085.65634727        314195145.66458029     
  -5560289401.1153965        53163243.049688339        250053279.67498523     
  -5309482794.1536942        13229373.368093729        205396622.29454184     
  -5048695795.3144655        6563476.6115834713        180225173.52323833     
  -4777928404.5977201        33165552.780145884        174538933.36108670     
  -6356696941.0290174        368562847.42680168        267062134.80868211     
  -6084394021.5561695        151022281.13755584        151771710.65906292     
  -5786482108.8878765        18845025.499771357        74517863.664484173     
  -5462961203.0241575       -27968919.486602545        35300593.824954718     
  -5113831303.9650116        10580446.178467274        34119901.140466072     
  -3889863870.0719066        65027623.512390852        623815835.39049804     
  -3782558431.9593081        26987966.205746412        637936191.92951202     
  -3671504199.3832164        1444290.4440639019        649970962.38916957     
  -3556701172.3436527       -11603403.772696972        659920146.76947594     
  -3438149350.8405991       -12155116.444499969        667783745.07042503     
  -4165944687.6511612        60389141.447121143        469386900.48610348     
  -4058989173.0582452        31730508.153743267        480748676.34155697     
  -3950036016.4788356        9730681.4820120335        491762014.64278042     
  -3839085217.9129295       -5610338.5680737495        502426915.38976854     
  -3726136777.3605375       -14292551.996527672        512743378.58252764     
  -4461966199.1597700        49768451.203035831        319627933.14296579     
  -4350397326.5861874        31979826.373024464        326188117.09170997     
  -4238581964.5031056        15012833.241368532        334137012.01133847     
  -4126520112.9105215       -1132528.1919550896        343474617.90185851     
  -4014211771.8084364       -16456257.926944971        354200934.76326609     
  -4777928404.5977201        33165552.780145884        174538933.36108670     
  -4656782892.5431318        27735920.863617420        174254514.17995787     
  -4537142043.4560232        17290745.722129107        177095954.49484041     
  -4419005857.3364086        1830027.3556699753        183063254.30573303     
  -4302374334.1842833       -18646234.235739231        192156413.61264274     
  -5113831303.9650116        10580446.178467274        34119901.140466072     
  -4978145870.9290571        18998791.625512362        24947867.606310677     
  -4845716253.3375902        16564418.924301147        20638842.093297511     
  -4716542451.1905956        3277328.0748200417        21192824.601408876     
  -4590624464.4880877       -20862480.922927618        26609815.130654942     
  -3438149350.8405991       -12155116.444499969        667783745.07042503     
  -3276699225.0928187        2776375.4458279610        659361238.21345770     
  -3117274566.3654165        10956310.601573825        655867537.33684158     
  -2959875374.6583815        12384689.022755980        657302642.44058383     
  -2804501649.9717150        7061510.7093781233        663666553.52467990     
  -3726136777.3605375       -14292551.996527672        512743378.58252764     
  -3552944955.4593124       -3572013.0550732613        502527957.23053163     
  -3380874025.2378216        3412220.2872698307        497387562.23518938     
  -3209923986.6960554        6660148.0305299759        497322193.59650081     
  -3040094839.8340206        6171770.1746858358        502331851.31446409     
  -4014211771.8084364       -16456257.926944971        354200934.76326609     
  -3828860481.2500534       -9821340.1832470894        343247936.81365824     
  -3643725507.0307579       -3907476.9031774998        337516185.59700400     
  -3458806849.1505566        1285331.9132523537        337005681.11329430     
  -3274104507.6094346        5757086.2660725117        341716423.36254305     
  -4302374334.1842833       -18646234.235739231        192156413.61264274     
  -4104445802.4650335       -15971605.938684940        181521176.96283358     
  -3905829011.7442341       -11002780.969804764        176253407.42227706     
  -3706523962.0218749       -3739759.3290588856        176353104.99097311     
  -3506530653.2979684        5817458.9835209846        181820269.66891640     
  -4590624464.4880877       -20862480.922927618        26609815.130654942     
  -4379700919.1042614       -22022810.321410656        17347677.678061567     
  -4167184539.3782444       -17873691.912578821        13599227.711034466     
  -3953075325.3100390       -8415125.6964533329        15364465.229529610     
  -3737373276.8996258        6352888.3270189762        22643390.233583022     
  -2804501649.9717150        7061510.7093781233        663666553.52467990     
  -2669632232.9464717       -5851181.0441372395        653595337.91231346     
  -2533685626.5767026       -15173241.649236560        646209563.71178663     
  -2396661830.8624139       -20904671.105930567        641509230.92309558     
  -2258560845.8035994       -23045469.414216757        639494339.54624355     
  -3040094839.8340206        6171770.1746858358        502331851.31446409     
  -2896950046.6110930       -2928758.7829730511        493921211.08565444     
  -2753084479.2975035       -9626707.4384359121        488311073.56725657     
  -2608498137.8932538       -13922075.791694403        485501438.75927305     
  -2463191022.3983531       -15814863.842778444        485492306.66170776     
  -3274104507.6094346        5757086.2660725117        341716423.36254305     
  -3122355591.6214652        567344.07445752621        334550540.72110969     
  -2970242316.7966890       -3407868.6611503363        330300222.08867341     
  -2817764683.1351204       -6168551.9407790899        328965467.46522975     
  -2664922690.6367550       -7714705.7644212246        330546276.85077983     
  -3506530653.2979684        5817458.9835209846        181820269.66891640     
  -3345848867.9775801        4637127.5281927586        175483326.81869671     
  -3185159139.0742650        3483274.6825982332        172177009.27604184     
  -3024461466.5880027        2355900.4468411207        171901317.04096514     
  -2863755850.5188141        1255004.8208318949        174656250.11345485     
  -3737373276.8996258        6352888.3270189762        22643390.233583022     
  -3567429875.6794682        9280591.5781359673        16719569.378401347     
  -3397834946.1302166        11046722.592869043        13941435.129359901     
  -3228588488.2519035        11651281.371161222        14308987.486476138     
  -3059690502.0445218        11094267.913004160        17822226.449732285     
  -2258560845.8035994       -23045469.414216757        639494339.54624355     
  -2116212179.9144545       -22477406.102787256        628455991.33444488     
  -1973994841.3672063       -22347100.597685337        620027903.00594902     
  -1831908830.1618738       -22654552.898967624        614210074.56074250     
  -1689954146.2984412       -23399763.006587505        611002505.99883235     
  -2463191022.3983531       -15814863.842778444        485492306.66170776     
  -2314315209.4551077       -15760951.438335776        475267841.76357609     
  -2165582528.0392361       -16184144.125140429        467572649.54075992     
  -2016992978.1507270       -17084441.903153539        462406729.99326277     
  -1868546559.7895792       -18461844.772382021        459770083.12108558     
  -2664922690.6367550       -7714705.7644212246        330546276.85077983     
  -2509751122.6622043       -8244361.8738422394        321121923.71659923     
  -2354734490.4004803       -9290470.3593591452        314145856.04976791     
  -2199872793.8515735       -10853031.220927477        309618073.85028094     
  -2045166033.0155036       -12932044.458619118        307538577.11814106     
  -2863755850.5188141        1255004.8208318949        174656250.11345485     
  -2702519919.5357437        72362.590710759163        166018237.19353250     
  -2541450728.4509511       -1666079.3003427982        159747522.53297427     
  -2380548277.2644458       -3960320.8523538113        155844106.13180125     
  -2219812565.9762125       -6810362.0652648211        154307987.98998699     
  -3059690502.0445218        11094267.913004160        17822226.449732285     
  -2892621600.0756974        9189221.9553927183        9956782.1943582837     
  -2725731242.1906466        6689029.0518829823        4377648.9903922630     
  -2559019428.3892975        3593689.2026848793        1084826.8377988369     
  -2392486158.6717148       -96797.592381954193        78315.736626524478     
  -1689954146.2984412       -23399763.006587505        611002505.99883235     
  -1549268550.8804908       -26139675.000363290        595896304.50137115     
  -1409515787.6937299       -31989027.764768660        579775602.41289473     
  -1270695856.7381268       -40947821.299703538        562640399.73340929     
  -1132808758.0137198       -53016055.605287671        544490696.46290362     
  -1868546559.7895792       -18461844.772382021        459770083.12108558     
  -1730164722.1892171       -22968161.081704736        445183877.28097802     
  -1591711976.7176368       -27238117.820285499        430247682.39886248     
  -1453188323.3748486       -31271714.988180757        414961498.47474015     
  -1314593762.1608534       -35068952.585397422        399325325.50861615     
  -2045166033.0155036       -12932044.458619118        307538577.11814106     
  -1907189348.8069782       -18635183.755716443        294643397.05482852     
  -1768138016.6248519       -20756163.140815616        282062739.49852484     
  -1628012036.4691255       -19294982.613918006        269796604.44922769     
  -1486811408.3398111       -14251642.175047696        257844991.90693226     
  -2219812565.9762125       -6810362.0652648211        154307987.98998699     
  -2080342430.7337804       -13140743.022454023        144274863.82292742     
  -1938793907.4153645       -12543163.726354599        135220773.71188599     
  -1795166996.0209451       -5017624.1769145727        127145717.65686221     
  -1649461696.5505619        9435875.6257374287        120049695.65786086     
  -2392486158.6717148       -96797.592381954193        78315.736626524478     
  -2249623967.9696298       -6484838.8819190264       -5921722.4147243798     
  -2103679649.0891616       -2599119.5768257380       -10278214.961047569     
  -1954653202.0303273        11560360.322818518       -12991161.902345607     
  -1802544626.7931244        35993600.817012310       -14060563.238618493     
  -1132808758.0137198       -53016055.605287671        544490696.46290362     
  -948682705.22526145       -41253252.327512562        562527805.96911776     
  -757057214.91058409       -4492323.9623291492        591540083.22785342     
  -557932287.06969571        57266729.490209699        631527528.23911774     
  -351307921.70259106        144023908.03015363        682490141.00289965     
  -1314593762.1608534       -35068952.585397422        399325325.50861615     
  -1115610704.1217027       -15135306.216705084        420999954.30189699     
  -912996794.66692424        16901178.204077303        441242301.74527860     
  -706752033.79652321        61040500.676932961        460052367.83877492     
  -496876421.51050276        117282661.20185944        477430152.58238095     
  -1486811408.3398111       -14251642.175047696        257844991.90693226     
  -1308421199.6282868        3217890.9110562205        278643789.52491659     
  -1130268725.6117289        19894975.013951898        285602856.69059205     
  -952353986.29014325        35779610.133605361        278722193.40397191     
  -774676981.66351461        50871796.270058513        258001799.66503739     
  -1649461696.5505619        9435875.6257374287        120049695.65786086     
  -1527114191.7449977        13806339.055791199        135459311.63819286     
  -1408873007.7449913        4489066.4673053622        124621748.06381078     
  -1294738144.5505593       -18515942.139741182        87537004.934692070     
  -1184709602.1616855       -55208686.765341640        24205082.250863656     
  -1802544626.7931244        35993600.817012310       -14060563.238618493     
  -1771689680.4718537        16630038.217469215       -8553479.3582885657     
  -1748809641.0667374       -29316547.435919523       -41701024.135099232     
  -1733904508.5777671       -101846156.14313036       -113503197.56904648     
  -1726974283.0049610       -200958787.90421999       -223959999.66013592     
  -351307921.70259106        144023908.03015363        682490141.00289965     
  -277397663.30033064        285366093.41710877        785865089.93718600     
  -148745585.98264286        609181008.52214968        905107740.72729516     
   34648310.250461996        1115468653.3452587        1040218093.3732085     
   272784025.39897996        1804229027.8863950        1191196147.8749511     
  -496876421.51050276        117282661.20185944        477430152.58238095     
  -388036413.10840046        223162709.59609023        596746663.47857141     
  -230113913.90139315        492651060.67336541        735248081.05560565     
  -23108923.889491200        925747714.43363667        892934405.31348145     
   232978556.92733833        1522452670.8769665        1069805636.2521908     
  -774676981.66351461        50871796.270058513        258001799.66503739     
  -621429495.19011784        124133026.09295407        386657323.06088006     
  -424758846.02230459        342138131.56390536        537814957.96257269     
  -184665034.16010270        704887112.68283021        711474704.37013078     
   98851940.396510422        1212379969.4497688        907636562.28355443     
  -1184709602.1616855       -55208686.765341640        24205082.250863656     
  -977576909.54546535       -11722957.092219532        155597068.68408775     
  -732680382.34537697        157642221.19380403        312808371.44819450     
  -450020020.56137776        452886848.09283811        495838990.54317647     
  -129595824.19351172        874010923.60480618        704688925.96902788     
  -1726974283.0049610       -200958787.90421999       -223959999.66013592     
  -1456478656.1744666       -184405239.95954257       -96434099.651776090     
  -1153878522.8705807       -60836670.436903358        60228321.512463652     
  -819173883.09332037        169746920.66364408        246027263.83260748     
  -452364736.84268683        507345533.34212434        460962727.30865330     
 </DataArray>
 <DataArray  type="Float64" Name="VM" NumberOfComponents="1" format="ascii">
   6177397939.3424931     
   5917278485.6806412     
   5654985262.4465647     
   5390309488.1582079     
   5123076438.2707109     
   5834280350.4238605     
   5575082087.3749132     
   5314979759.8525229     
   5053933457.3448391     
   4791937073.7397223     
   5491876910.4330359     
   5241393720.9697418     
   4991927622.9334698     
   4743691938.3704691     
   4497018622.0965099     
   5155010502.8089724     
   4920484715.8393631     
   4689668889.9853220     
   4463056992.8405800     
   4241418533.9090714     
   4830036085.3986092     
   4617785854.1044121     
   4412839717.1035461     
   4215899485.6195660     
   4028141261.9109273     
   5123076438.2707109     
   4981931044.1503277     
   4841885508.3542652     
   4702817474.4169359     
   4564742193.0833912     
   4791937073.7397223     
   4668365213.0400610     
   4546227426.9117022     
   4425492527.9231691     
   4306198100.6892776     
   4497018622.0965099     
   4385544292.5959654     
   4275282414.7941952     
   4166247973.4979362     
   4058477372.4983091     
   4241418533.9090714     
   4137017421.1735768     
   4032971736.8457308     
   3929284157.2513261     
   3825958163.0122700     
   4028141261.9109273     
   3926467365.0287895     
   3823631327.4442492     
   3719540432.8652587     
   3614109301.9211221     
   4564742193.0833912     
   4363288730.1854420     
   4161137415.9771991     
   3958280706.2391100     
   3754729623.8773112     
   4306198100.6892776     
   4112340807.3687024     
   3918467719.5396571     
   3724637525.4235497     
   3530959978.7314024     
   4058477372.4983091     
   3875668639.4285364     
   3693965656.6628270     
   3513545897.9580498     
   3334693098.8965912     
   3825958163.0122700     
   3657448414.7547102     
   3491650960.0635881     
   3328898189.9562383     
   3169697824.6684337     
   3614109301.9211221     
   3462722056.7880745     
   3316158017.8850627     
   3174903282.9015789     
   3039685159.7627101     
   3754729623.8773112     
   3579290436.3202977     
   3404855769.1425700     
   3231386867.5705948     
   3058926725.4557672     
   3530959978.7314024     
   3367144712.0422797     
   3204576991.4509840     
   3043295414.3943977     
   2883407517.6247849     
   3334693098.8965912     
   3181398452.9126129     
   3029483806.1922464     
   2879062032.1643791     
   2730306776.8841157     
   3169697824.6684337     
   3026275677.4552846     
   2884257960.2338443     
   2743824273.9969277     
   2605212033.6296315     
   3039685159.7627101     
   2906024397.8748641     
   2773699786.1551046     
   2642945498.4856238     
   2514055985.4916368     
   3058926725.4557672     
   2894788861.5899563     
   2730045053.9912062     
   2564689017.5737491     
   2398723416.6071620     
   2883407517.6247849     
   2721497226.5400653     
   2559496785.5596309     
   2397435982.5421762     
   2235364422.0262160     
   2730306776.8841157     
   2573398402.6367869     
   2417357180.8212848     
   2262333631.8538156     
   2108540495.1125946     
   2605212033.6296315     
   2456078549.4437838     
   2309242741.1715322     
   2165047988.6945853     
   2023962472.4354784     
   2514055985.4916368     
   2375194786.4668632     
   2240475598.4743724     
   2110452410.3831255     
   1985856028.2777824     
   2398723416.6071620     
   2251197605.7449551     
   2105949336.9780347     
   1962970919.4008863     
   1822435218.6793780     
   2235364422.0262160     
   2091560288.8985326     
   1949486580.9030521     
   1809140906.0975301     
   1670602635.8813806     
   2108540495.1125946     
   1967572353.9895716     
   1827587377.4116824     
   1688615737.1515672     
   1550716736.1085789     
   2023962472.4354784     
   1886642470.5488925     
   1749582791.4789870     
   1612907666.6957250     
   1476788759.7105966     
   1985856028.2777824     
   1854794132.6316493     
   1723602483.8007386     
   1592616351.6374543     
   1462332176.6804705     
   1822435218.6793780     
   1781577260.7364831     
   1737135145.1202106     
   1697746889.6162512     
   1681961710.3762810     
   1670602635.8813806     
   1554815972.3661025     
   1429861588.4354665     
   1296082477.5373316     
   1159597357.6862314     
   1550716736.1085789     
   1400376036.2845407     
   1246462153.0414033     
   1086703691.0574126     
   919067258.65345049     
   1476788759.7105966     
   1332045434.0524416     
   1201799715.6270752     
   1090550678.1427615     
   1004229244.3905246     
   1462332176.6804705     
   1352762746.1299143     
   1278239207.9077578     
   1246893466.1402638     
   1265788311.1344626     
   1681961710.3762810     
   1384133463.6955986     
   1129515711.3555722     
   1009904992.3692899     
   1152903823.0598843     
   1159597357.6862314     
   1008963873.4241432     
   985458082.52802026     
   1161453697.0743454     
   1544057028.8744643     
   919067258.65345049     
   964164178.04268610     
   1145491163.6837800     
   1476605815.6251478     
   1957352419.6302383     
   1004229244.3905246     
   1166309668.9953580     
   1426328649.6532106     
   1809026598.6329861     
   2334613740.7791944     
   1265788311.1344626     
   1448797093.5764942     
   1716936978.4656239     
   2110924363.6243842     
   2663338673.2430792     
   4830036085.3986092     
   4617785854.1044121     
   4412839717.1035461     
   4215899485.6195660     
   4028141261.9109273     
   4500935031.5729790     
   4320590941.7693434     
   4146141211.3354225     
   3978187105.1171770     
   3817602035.5618677     
   4201890347.3762336     
   4047899739.4317145     
   3897939954.6923923     
   3752468604.2229180     
   3612096511.8309402     
   3933682213.2924194     
   3801668592.0946755     
   3671475505.1132770     
   3543314352.0958719     
   3417514917.9196911     
   3696901103.8888216     
   3583980565.9259391     
   3470537240.0632682     
   3356366150.9171009     
   3241432461.4764009     
   4028141261.9109273     
   3926467365.0287895     
   3823631327.4442492     
   3719540432.8652587     
   3614109301.9211221     
   3817602035.5618677     
   3712910666.5077658     
   3609036144.6680994     
   3506040894.4841533     
   3403995270.1411099     
   3612096511.8309402     
   3511234181.6479540     
   3413971740.4478254     
   3320551529.6741180     
   3231275583.0719204     
   3417514917.9196911     
   3326298029.8899350     
   3242340393.0271850     
   3166018911.5971899     
   3097852307.4300289     
   3241432461.4764009     
   3163990414.1294160     
   3098438403.1823077     
   3045142739.2162876     
   3004698075.3436704     
   3614109301.9211221     
   3462722056.7880745     
   3316158017.8850627     
   3174903282.9015789     
   3039685159.7627101     
   3403995270.1411099     
   3274402994.1128793     
   3149575024.2402287     
   3030027511.5725765     
   2916443475.0187931     
   3231275583.0719204     
   3121342115.6130290     
   3015770260.7549620     
   2915048013.0708671     
   2819765950.0328035     
   3097852307.4300289     
   3005896103.7810311     
   2917527577.9811988     
   2833150026.3738713     
   2753221515.5025487     
   3004698075.3436704     
   2929515502.6623459     
   2856789360.1100936     
   2786789372.9494209     
   2719812844.0706840     
   3039685159.7627101     
   2906024397.8748641     
   2773699786.1551046     
   2642945498.4856238     
   2514055985.4916368     
   2916443475.0187931     
   2791835805.7673860     
   2670183535.0877175     
   2551897423.7405372     
   2437481700.4568954     
   2819765950.0328035     
   2706929030.6611862     
   2598949357.6157494     
   2496400573.5802178     
   2399967321.6229682     
   2753221515.5025487     
   2654170608.3435526     
   2562021196.6257257     
   2477441041.0080237     
   2401200299.6248059     
   2719812844.0706840     
   2635548372.1369791     
   2560218123.0690370     
   2494480851.8364339     
   2439069003.1323357     
   2514055985.4916368     
   2375194786.4668632     
   2240475598.4743724     
   2110452410.3831255     
   1985856028.2777824     
   2437481700.4568954     
   2314397521.1011004     
   2196582371.9429307     
   2084752787.6455913     
   1979794110.0108809     
   2399967321.6229682     
   2294218642.9612393     
   2194809341.1375732     
   2102527482.4580538     
   2018286800.7546997     
   2401200299.6248059     
   2313732683.7534032     
   2233441980.3418307     
   2161081406.5076385     
   2097470581.8079584     
   2439069003.1323357     
   2370072006.5878015     
   2308747063.7113857     
   2255732717.8636308     
   2211682697.0467048     
   1985856028.2777824     
   1854794132.6316493     
   1723602483.8007386     
   1592616351.6374543     
   1462332176.6804705     
   1979794110.0108809     
   1863012235.8970926     
   1750520763.6255515     
   1643242187.6833568     
   1542311908.4432545     
   2018286800.7546997     
   1921011760.2122271     
   1832532309.2033765     
   1754065926.1056416     
   1686924285.7821701     
   2097470581.8079584     
   2021354356.7443073     
   1957719987.7524285     
   1907671379.5192177     
   1872261378.7076721     
   2211682697.0467048     
   2155326768.4370842     
   2114131154.9908035     
   2088884955.4804304     
   2080284691.0275586     
   1462332176.6804705     
   1352762746.1299143     
   1278239207.9077578     
   1246893466.1402638     
   1265788311.1344626     
   1542311908.4432545     
   1480908074.0804589     
   1452229221.8010836     
   1460236829.8917689     
   1508232319.9251165     
   1686924285.7821701     
   1657878468.7519820     
   1656560460.5106893     
   1685325691.6996498     
   1746777306.7664423     
   1872261378.7076721     
   1861187644.2025759     
   1873068092.2564483     
   1910090071.2201178     
   1975268518.0019269     
   2080284691.0275586     
   2076210950.7206333     
   2091329824.6729081     
   2128243580.7178061     
   2190737876.9906740     
   1265788311.1344626     
   1448797093.5764942     
   1716936978.4656239     
   2110924363.6243842     
   2663338673.2430792     
   1508232319.9251165     
   1615629414.5184159     
   1790131116.0388036     
   2066617389.7429829     
   2475461601.6748347     
   1746777306.7664423     
   1790363314.1500971     
   1886003874.8436921     
   2060723172.7918344     
   2339925206.6251674     
   1975268518.0019269     
   1971964476.5225763     
   2005132412.0732312     
   2093538890.8405840     
   2255997434.1637125     
   2190737876.9906740     
   2159721205.5735435     
   2148267489.8577843     
   2166969247.8130603     
   2227008748.8577671     
   3696901103.8888216     
   3583980565.9259391     
   3470537240.0632682     
   3356366150.9171009     
   3241432461.4764009     
   3468078342.9028840     
   3367280418.7243023     
   3268669584.8952475     
   3172375563.7852149     
   3078546969.7909813     
   3303842035.6596518     
   3211785195.6517806     
   3124892449.3427701     
   3042768080.2360678     
   2965215964.4216990     
   3209436155.1299205     
   3121837237.1633682     
   3042192819.9475632     
   2968709985.0178857     
   2900385792.9499292     
   3188300048.0273013     
   3099548233.9239345     
   3021036249.5138917     
   2948826998.6807523     
   2880786156.9235892     
   3241432461.4764009     
   3163990414.1294160     
   3098438403.1823077     
   3045142739.2162876     
   3004698075.3436704     
   3078546969.7909813     
   3025733744.3604193     
   2981750221.2013354     
   2946756655.0077848     
   2920996326.7156463     
   2965215964.4216990     
   2930236388.2517252     
   2899987977.2335677     
   2874530089.4296870     
   2853939647.4417367     
   2900385792.9499292     
   2878064322.1540451     
   2855485553.7558613     
   2832654717.2062893     
   2809579929.7211852     
   2880786156.9235892     
   2867988789.0691295     
   2849354010.5647192     
   2824813233.5642757     
   2794310577.2772093     
   3004698075.3436704     
   2929515502.6623459     
   2856789360.1100936     
   2786789372.9494209     
   2719812844.0706840     
   2920996326.7156463     
   2850882918.2160559     
   2786223820.0481091     
   2727491303.5549464     
   2675196716.8059158     
   2853939647.4417367     
   2791453839.4577665     
   2737729427.4913292     
   2693332162.4122877     
   2658870086.1216974     
   2809579929.7211852     
   2755624701.0869951     
   2713973014.4707727     
   2685146025.8032079     
   2669705187.9197450     
   2794310577.2772093     
   2747701804.6111364     
   2717169024.9160213     
   2703065665.0689273     
   2705785982.8845587     
   2719812844.0706840     
   2635548372.1369791     
   2560218123.0690370     
   2494480851.8364339     
   2439069003.1323357     
   2675196716.8059158     
   2607538598.1308699     
   2548571692.8753562     
   2498792899.8997450     
   2458730925.8058491     
   2658870086.1216974     
   2605990446.9084172     
   2561308915.3480883     
   2525172574.2025166     
   2497935891.4826365     
   2669705187.9197450     
   2629654729.4577451     
   2597110956.0172873     
   2572297631.6244903     
   2555434751.4727473     
   2705785982.8845587     
   2676614131.7632108     
   2654122261.8073134     
   2638442572.2861748     
   2629700420.7079473     
   2439069003.1323357     
   2370072006.5878015     
   2308747063.7113857     
   2255732717.8636308     
   2211682697.0467048     
   2458730925.8058491     
   2403545227.0327296     
   2357345694.2500215     
   2320692836.0547247     
   2294132863.3561425     
   2497935891.4826365     
   2456061929.1938839     
   2424288119.7009044     
   2403056128.4672742     
   2392776664.5063066     
   2555434751.4727473     
   2525656807.4797897     
   2506943553.5510697     
   2499607149.8450046     
   2503926590.6217322     
   2629700420.7079473     
   2610224756.1203752     
   2602719497.3803248     
   2607378978.2529993     
   2624372522.6952705     
   2211682697.0467048     
   2155326768.4370842     
   2114131154.9908035     
   2088884955.4804304     
   2080284691.0275586     
   2294132863.3561425     
   2252612275.4002266     
   2225133617.2876005     
   2212148667.1129260     
   2214048026.0970941     
   2392776664.5063066     
   2362953657.7917199     
   2346025296.2129354     
   2342232582.7042670     
   2351792291.0429873     
   2503926590.6217322     
   2482978025.3086939     
   2473865828.1676397     
   2476711808.3940220     
   2491644127.3431506     
   2624372522.6952705     
   2609863919.0941515     
   2606281511.8872604     
   2613688361.7601585     
   2632175405.5971589     
   2080284691.0275586     
   2076210950.7206333     
   2091329824.6729081     
   2128243580.7178061     
   2190737876.9906740     
   2214048026.0970941     
   2198857528.7889304     
   2198717051.1372495     
   2215576111.5241261     
   2252333877.2145362     
   2351792291.0429873     
   2326321838.8479466     
   2312543237.2120686     
   2311847675.4314928     
   2326306769.1909103     
   2491644127.3431506     
   2457662949.0250196     
   2432505079.0191431     
   2417104834.2912841     
   2412825067.7359395     
   2632175405.5971589     
   2592122919.5658073     
   2558330727.2414436     
   2531371579.6604733     
   2512042758.0361409     
   2190737876.9906740     
   2159721205.5735435     
   2148267489.8577843     
   2166969247.8130603     
   2227008748.8577671     
   2252333877.2145362     
   2185925271.6751251     
   2135864096.7757363     
   2111846783.1975100     
   2124882178.6817884     
   2326306769.1909103     
   2227920116.7174063     
   2142723060.6230664     
   2079068965.8232582     
   2047153784.9497530     
   2412825067.7359395     
   2285998109.8574896     
   2169495207.6101551     
   2070006963.0841157     
   1996269044.8663733     
   2512042758.0361409     
   2360365157.4307818     
   2216650725.4090905     
   2085803694.8336322     
   1974616094.9868650     
   3188300048.0273013     
   3099548233.9239345     
   3021036249.5138917     
   2948826998.6807523     
   2880786156.9235892     
   3343712748.6676831     
   3195888560.0703306     
   3062824179.7763996     
   2945750465.0626473     
   2846077073.7573423     
   3463154435.5216284     
   3254354655.3876681     
   3080812617.9356923     
   2942353590.0647025     
   2839154814.0515971     
   3579851788.3010068     
   3308236432.6951022     
   3103681959.9683833     
   2960231960.6706491     
   2873165149.3035603     
   3749643960.3604808     
   3407100692.8092680     
   3170251265.4244103     
   3025267992.4253473     
   2960682218.4344010     
   2880786156.9235892     
   2867988789.0691295     
   2849354010.5647192     
   2824813233.5642757     
   2794310577.2772093     
   2846077073.7573423     
   2815683320.1737523     
   2786406294.8837557     
   2758240208.5009274     
   2731186016.4878383     
   2839154814.0515971     
   2793237175.4988956     
   2755821190.8088670     
   2726919617.2223682     
   2706553620.5137644     
   2873165149.3035603     
   2810492217.3208814     
   2763937662.0604830     
   2733486873.8400326     
   2719130068.4284229     
   2960682218.4344010     
   2876380616.4030747     
   2815842553.9872704     
   2779096704.5301213     
   2766169788.9484034     
   2794310577.2772093     
   2747701804.6111364     
   2717169024.9160213     
   2703065665.0689273     
   2705785982.8845587     
   2731186016.4878383     
   2700762040.0918875     
   2684955310.1112037     
   2683899077.7251120     
   2697744493.8208065     
   2706553620.5137644     
   2686924335.3908577     
   2680329531.7689772     
   2686789990.8392773     
   2706333280.8569074     
   2719130068.4284229     
   2705331078.1911426     
   2702917565.9450560     
   2711880976.1619453     
   2732212773.3690057     
   2766169788.9484034     
   2754017002.7612739     
   2751553348.7359877     
   2758792047.7724004     
   2775742610.2744961     
   2705785982.8845587     
   2676614131.7632108     
   2654122261.8073134     
   2638442572.2861748     
   2629700420.7079473     
   2697744493.8208065     
   2672842284.6964059     
   2655066138.3674421     
   2644504681.7129030     
   2641240365.0932450     
   2706333280.8569074     
   2684402714.7366920     
   2670062796.5083356     
   2663360666.5376749     
   2664339067.7414589     
   2732212773.3690057     
   2711686169.3833632     
   2699245922.1325054     
   2694905064.4323869     
   2698674493.4428029     
   2775742610.2744961     
   2754832749.8093977     
   2742546788.8011236     
   2738876151.7702131     
   2743812172.7741628     
   2629700420.7079473     
   2610224756.1203752     
   2602719497.3803248     
   2607378978.2529993     
   2624372522.6952705     
   2641240365.0932450     
   2628850210.4600682     
   2628164256.3518791     
   2639278219.2814755     
   2662274753.4024038     
   2664339067.7414589     
   2656541454.1841130     
   2660304300.6759844     
   2675661092.6335478     
   2702641068.5380774     
   2698674493.4428029     
   2692934359.3413744     
   2698763545.4634366     
   2716165483.9413443     
   2745143479.0939593     
   2743812172.7741628     
   2737611851.2820268     
   2743155505.0707631     
   2760445904.2004404     
   2789484548.0532136     
   2624372522.6952705     
   2609863919.0941515     
   2606281511.8872604     
   2613688361.7601585     
   2632175405.5971589     
   2662274753.4024038     
   2648004205.6396222     
   2644277399.2027445     
   2651132576.8352375     
   2668622419.8312302     
   2702641068.5380774     
   2688554759.3743639     
   2684817712.7328181     
   2691448874.8731394     
   2708472449.0202527     
   2745143479.0939593     
   2731239074.2038469     
   2727671994.3258405     
   2734447836.7399688     
   2751572784.0498910     
   2789484548.0532136     
   2775799171.8672276     
   2772619647.3488221     
   2779944451.6925802     
   2797772375.8229117     
   2632175405.5971589     
   2592122919.5658073     
   2558330727.2414436     
   2531371579.6604733     
   2512042758.0361409     
   2668622419.8312302     
   2622168007.3310790     
   2581599666.6340051     
   2547241364.6971445     
   2519545714.0767989     
   2708472449.0202527     
   2657708301.8726263     
   2612605203.5091696     
   2573306107.9605384     
   2540010444.1594472     
   2751572784.0498910     
   2698615978.5307980     
   2651241080.0928030     
   2609482747.4683094     
   2573388626.1726203     
   2797772375.8229117     
   2744757344.7483687     
   2697387890.1401172     
   2655663919.5804148     
   2619585416.7945428     
   2512042758.0361409     
   2360365157.4307818     
   2216650725.4090905     
   2085803694.8336322     
   1974616094.9868650     
   2519545714.0767989     
   2350544050.7594404     
   2184972605.2351909     
   2025852336.2183998     
   1877640024.0819702     
   2540010444.1594472     
   2358820791.4017515     
   2177335702.5177412     
   1996961041.1137533     
   1819873145.0083373     
   2573388626.1726203     
   2385299241.3485308     
   2194202010.3047900     
   2000437942.6113122     
   1804549496.5396149     
   2619585416.7945428     
   2429947565.8122082     
   2235706585.9335132     
   2036863537.6270900     
   1833420343.9026186     
   3749643960.3604808     
   3407100692.8092680     
   3170251265.4244103     
   3025267992.4253473     
   2960682218.4344010     
   2801513433.7677698     
   2692830125.3720818     
   2638074990.4601898     
   2632918638.6738267     
   2675216278.3818874     
   2243014932.4614735     
   2251484492.1912346     
   2287518939.1204915     
   2352805525.7493229     
   2448226895.1102943     
   2026472591.9063179     
   2008085407.7783527     
   2050290087.2564070     
   2137045817.2472038     
   2253431500.5470085     
   2018993563.4339461     
   1859057294.4928408     
   1850043063.5129645     
   1936667340.5935686     
   2065007977.2024353     
   2960682218.4344010     
   2876380616.4030747     
   2815842553.9872704     
   2779096704.5301213     
   2766169788.9484034     
   2675216278.3818874     
   2640293509.1981239     
   2617720342.4464741     
   2607603795.9825792     
   2610049209.4058280     
   2448226895.1102943     
   2454529873.0666928     
   2463031166.5290337     
   2473451834.9581504     
   2485598293.7791615     
   2253431500.5470085     
   2298280556.3713088     
   2336741429.6290317     
   2367423670.7469020     
   2389343602.8121319     
   2065007977.2024353     
   2151010432.4118805     
   2223626128.9674482     
   2279614512.3146281     
   2316900055.0216637     
   2766169788.9484034     
   2754017002.7612739     
   2751553348.7359877     
   2758792047.7724004     
   2775742610.2744961     
   2610049209.4058280     
   2608451900.3405609     
   2614686308.8077631     
   2628794618.8822012     
   2650812089.2001038     
   2485598293.7791615     
   2491690130.0245423     
   2503874499.8819604     
   2522210669.5304675     
   2546749175.7007203     
   2389343602.8121319     
   2400919641.4671092     
   2417001039.6378298     
   2437629018.7936115     
   2462838261.9466066     
   2316900055.0216637     
   2332551256.1140170     
   2351292874.5609403     
   2373095048.1212130     
   2397930300.7427669     
   2775742610.2744961     
   2754832749.8093977     
   2742546788.8011236     
   2738876151.7702131     
   2743812172.7741628     
   2650812089.2001038     
   2639587157.1109695     
   2637853606.3503027     
   2645603955.1445608     
   2662835620.2909946     
   2546749175.7007203     
   2543183495.9949365     
   2550058159.2798500     
   2567406578.1399794     
   2595270820.4720268     
   2462838261.9466066     
   2464255312.1177640     
   2477248656.2434649     
   2501947893.1821141     
   2538487746.5414467     
   2397930300.7427669     
   2401087161.9984221     
   2417261972.0680132     
   2446752429.5940552     
   2489842451.1237178     
   2743812172.7741628     
   2737611851.2820268     
   2743155505.0707631     
   2760445904.2004404     
   2789484548.0532136     
   2662835620.2909946     
   2664840423.1816483     
   2676477981.5381317     
   2697769371.3424273     
   2728735119.7686644     
   2595270820.4720268     
   2602599906.7415748     
   2617543765.0085878     
   2640131646.3703494     
   2670403248.3211102     
   2538487746.5414467     
   2548984391.8151836     
   2565100238.6306982     
   2586851126.0484815     
   2614288006.5058603     
   2489842451.1237178     
   2502073816.8022656     
   2517880085.9564548     
   2537237261.9587975     
   2560196325.2053852     
   2789484548.0532136     
   2775799171.8672276     
   2772619647.3488221     
   2779944451.6925802     
   2797772375.8229117     
   2728735119.7686644     
   2717923641.4787517     
   2717044012.2631812     
   2726096930.9626541     
   2745086940.7017889     
   2670403248.3211102     
   2662544135.7776461     
   2664201072.5515285     
   2675383880.6416664     
   2696114100.0457830     
   2614288006.5058603     
   2609538300.3749061     
   2614040373.0254354     
   2627815239.8839307     
   2650908733.8612995     
   2560196325.2053852     
   2558782865.1426773     
   2566505595.1379642     
   2583393470.7179127     
   2609519296.1551547     
   2797772375.8229117     
   2744757344.7483687     
   2697387890.1401172     
   2655663919.5804148     
   2619585416.7945428     
   2745086940.7017889     
   2693279290.4294510     
   2646889251.9345975     
   2605954592.8896971     
   2570528576.8735714     
   2696114100.0457830     
   2647507243.0915856     
   2604228198.5497012     
   2566425845.6578040     
   2534306814.7333202     
   2650908733.8612995     
   2607505276.9213991     
   2569478185.6942286     
   2537159099.1574793     
   2511004601.0733724     
   2609519296.1551547     
   2573326040.7670603     
   2542695918.5482945     
   2518209429.0028553     
   2500659447.1666765     
   2619585416.7945428     
   2429947565.8122082     
   2235706585.9335132     
   2036863537.6270900     
   1833420343.9026186     
   2570528576.8735714     
   2383419811.1556659     
   2193373368.5336699     
   2000806171.8130484     
   1806385913.1665037     
   2534306814.7333202     
   2355006983.0056906     
   2175537341.2637486     
   1997436225.5832686     
   1823085494.0130594     
   2511004601.0733724     
   2344728357.1309233     
   2182043136.7846193     
   2026130663.6523483     
   1881672149.6206272     
   2500659447.1666765     
   2352469721.1257930     
   2212416018.7048764     
   2085561946.5685682     
   1978889397.0025671     
   2018993563.4339461     
   1859057294.4928408     
   1850043063.5129645     
   1936667340.5935686     
   2065007977.2024353     
   2121687419.9491930     
   2156213323.5661755     
   2212490368.7309699     
   2281007270.7889328     
   2354797662.8193207     
   2906211741.9189034     
   2823604260.9210930     
   2761945834.5937085     
   2722160803.5521073     
   2705473448.6975231     
   3940510352.3413229     
   3644626483.4611626     
   3409376579.0632381     
   3231798684.9182544     
   3110862365.1946383     
   5101343502.3902597     
   4571128159.4106522     
   4144377665.3788590     
   3813637134.9465938     
   3575450598.1589975     
   2065007977.2024353     
   2151010432.4118805     
   2223626128.9674482     
   2279614512.3146281     
   2316900055.0216637     
   2354797662.8193207     
   2396774626.9900198     
   2430161549.8644600     
   2454529817.5548325     
   2469644687.1638412     
   2705473448.6975231     
   2688637381.8528090     
   2673911305.6325812     
   2661289350.5521016     
   2650780594.5563827     
   3110862365.1946383     
   3027917177.9062157     
   2959119028.9862561     
   2904040633.8699512     
   2862315340.4848380     
   3575450598.1589975     
   3420931135.9524651     
   3291847587.4962487     
   3187107763.8211880     
   3105863165.4152946     
   2316900055.0216637     
   2332551256.1140170     
   2351292874.5609403     
   2373095048.1212130     
   2397930300.7427669     
   2469644687.1638412     
   2459719609.4959469     
   2454588928.4734926     
   2454421897.1640997     
   2459380251.9148426     
   2650780594.5563827     
   2613873573.6064792     
   2583472465.2155266     
   2559896811.4253259     
   2543474719.1988506     
   2862315340.4848380     
   2797119042.4871945     
   2740016374.1556978     
   2691438429.3092012     
   2651863358.9104900     
   3105863165.4152946     
   3011043071.9055457     
   2925707986.5539970     
   2850362774.6594100     
   2785616558.3417554     
   2397930300.7427669     
   2401087161.9984221     
   2417261972.0680132     
   2446752429.5940552     
   2489842451.1237178     
   2459380251.9148426     
   2442363609.8341355     
   2437165023.7408848     
   2444166819.2595325     
   2463714516.7673101     
   2543474719.1988506     
   2503332524.7298379     
   2473323725.7473116     
   2453968219.1142783     
   2445773580.1983252     
   2651863358.9104900     
   2586913194.7252340     
   2529871398.3432169     
   2481377473.6741695     
   2442130677.6953950     
   2785616558.3417554     
   2695545234.9456587     
   2610718570.1078024     
   2531819103.8589058     
   2459687462.1082683     
   2489842451.1237178     
   2502073816.8022656     
   2517880085.9564548     
   2537237261.9587975     
   2560196325.2053852     
   2463714516.7673101     
   2451102098.7734256     
   2444115689.0755997     
   2442905060.5588708     
   2447628309.8184752     
   2445773580.1983252     
   2408681547.3844295     
   2379463887.2620254     
   2358378259.7507067     
   2345668343.3608398     
   2442130677.6953950     
   2380470561.2774758     
   2329002708.2854452     
   2288056379.6114402     
   2257970530.8267713     
   2459687462.1082683     
   2372914085.3955970     
   2298560271.5857587     
   2237013797.2957859     
   2188750032.7351222     
   2560196325.2053852     
   2558782865.1426773     
   2566505595.1379642     
   2583393470.7179127     
   2609519296.1551547     
   2447628309.8184752     
   2437641957.5593944     
   2438215974.0516181     
   2449439064.4748054     
   2471411101.9365072     
   2345668343.3608398     
   2324317789.9153895     
   2315058054.7063088     
   2318107922.2097750     
   2333655452.1556587     
   2257970530.8267713     
   2221984879.5018172     
   2199661131.6848288     
   2191457482.7664232     
   2197754039.8171525     
   2188750032.7351222     
   2134465403.3140848     
   2095314692.0016770     
   2072148151.6945670     
   2065701929.7852063     
   2609519296.1551547     
   2573326040.7670603     
   2542695918.5482945     
   2518209429.0028553     
   2500659447.1666765     
   2471411101.9365072     
   2440347590.7153740     
   2417608133.9955807     
   2404147968.4652152     
   2401341476.3661542     
   2333655452.1556587     
   2310312675.6147742     
   2298346562.5088077     
   2299184629.3106456     
   2314933047.3230691     
   2197754039.8171525     
   2184033840.7983589     
   2185217449.4710636     
   2203310912.8327980     
   2241280075.2812839     
   2065701929.7852063     
   2062532829.8735452     
   2078568444.4064889     
   2116496880.6109347     
   2180213907.6630373     
   2500659447.1666765     
   2352469721.1257930     
   2212416018.7048764     
   2085561946.5685682     
   1978889397.0025671     
   2401341476.3661542     
   2278310450.3373466     
   2165784718.5882888     
   2070545319.0131557     
   2001387315.2185249     
   2314933047.3230691     
   2220423271.9635921     
   2139264732.0332773     
   2079806588.9350863     
   2052158819.5613663     
   2241280075.2812839     
   2178600243.7916069     
   2132387474.1860857     
   2112228765.4444206     
   2128914925.7189524     
   2180213907.6630373     
   2152549483.4336123     
   2144512046.0586724     
   2166483353.3303919     
   2229324942.9457402     
   5101343502.3902597     
   4571128159.4106522     
   4144377665.3788590     
   3813637134.9465938     
   3575450598.1589975     
   4996733868.0365877     
   4592292507.6534605     
   4230325677.9040890     
   3913761918.8018947     
   3648879312.9074883     
   5071426735.8295879     
   4722479082.7079496     
   4386297378.8815842     
   4067041841.9217057     
   3770230134.8600826     
   5143713484.1917849     
   4828175462.5006666     
   4521765747.5414515     
   4219152546.9779625     
   3916291840.1438003     
   5094689179.3066006     
   4823842910.0459948     
   4578081834.5220203     
   4332764494.6102648     
   4068864302.5074921     
   3575450598.1589975     
   3420931135.9524651     
   3291847587.4962487     
   3187107763.8211880     
   3105863165.4152946     
   3648879312.9074883     
   3507962084.1745567     
   3383089195.3832707     
   3273736116.6727047     
   3179634203.8176374     
   3770230134.8600826     
   3637700683.3356738     
   3514402088.2268620     
   3400171737.0258718     
   3295028247.5098433     
   3916291840.1438003     
   3791277703.5577378     
   3671057086.0044613     
   3555546899.3257303     
   3444767902.1755791     
   4068864302.5074921     
   3953662600.1164975     
   3840915860.3569150     
   3730344733.2471886     
   3621744467.8454623     
   3105863165.4152946     
   3011043071.9055457     
   2925707986.5539970     
   2850362774.6594100     
   2785616558.3417554     
   3179634203.8176374     
   3072089001.3625264     
   2972133593.0323730     
   2880366020.0222473     
   2797524448.9253416     
   3295028247.5098433     
   3173262684.8762312     
   3057160865.5898685     
   2947326894.3247418     
   2844533918.8883219     
   3444767902.1755791     
   3308422475.7843618     
   3175869945.5739675     
   3047639743.1226950     
   2924443695.7719808     
   3621744467.8454623     
   3471330378.2025070     
   3322974762.2916217     
   3177076178.0874352     
   3034212133.4648461     
   2785616558.3417554     
   2695545234.9456587     
   2610718570.1078024     
   2531819103.8589058     
   2459687462.1082683     
   2797524448.9253416     
   2693128186.1813979     
   2593291575.9444661     
   2498617481.4839754     
   2409840853.9533744     
   2844533918.8883219     
   2727528195.1069117     
   2614449416.8124671     
   2505790295.4661074     
   2402151268.6130891     
   2924443695.7719808     
   2796577724.2322850     
   2672136600.6661386     
   2551492966.8127670     
   2435107956.5175271     
   3034212133.4648461     
   2897052051.8644938     
   2762989188.9050183     
   2632285278.9048400     
   2505281944.9915285     
   2459687462.1082683     
   2372914085.3955970     
   2298560271.5857587     
   2237013797.2957859     
   2188750032.7351222     
   2409840853.9533744     
   2311552231.9979286     
   2223622450.4427624     
   2146714344.6389830     
   2081603921.8939521     
   2402151268.6130891     
   2290793201.3774285     
   2187437893.9984856     
   2092870390.9106123     
   2008029482.3003194     
   2435107956.5175271     
   2310852624.5786614     
   2192090139.7089691     
   2079538531.1592798     
   1974087800.9729006     
   2505281944.9915285     
   2369844522.9103694     
   2237486484.1754875     
   2108711493.3932633     
   1984167388.6028955     
   2188750032.7351222     
   2134465403.3140848     
   2095314692.0016770     
   2072148151.6945670     
   2065701929.7852063     
   2081603921.8939521     
   2006167697.4574850     
   1943229879.7417207     
   1893938419.9034688     
   1859389087.1896729     
   2008029482.3003194     
   1910320312.4654758     
   1821516130.8705528     
   1742868178.6818326     
   1675731749.9321659     
   1974087800.9729006     
   1855935285.9079697     
   1742328504.3668587     
   1634220220.9473164     
   1532784706.8827734     
   1984167388.6028955     
   1850863627.0950198     
   1717873179.6752348     
   1585561451.2749608     
   1454448241.7341261     
   2065701929.7852063     
   2062532829.8735452     
   2078568444.4064889     
   2116496880.6109347     
   2180213907.6630373     
   1859389087.1896729     
   1849385712.7327337     
   1862310654.6769633     
   1900408442.1059604     
   1966766771.9768496     
   1675731749.9321659     
   1647854128.7815080     
   1647646419.8206148     
   1677491598.3386965     
   1740028250.9685595     
   1532784706.8827734     
   1472577161.4211769     
   1445010276.2388062     
   1454043589.9425802     
   1502974266.9431641     
   1454448241.7341261     
   1346059826.4820924     
   1272601222.5167015     
   1242175482.5266151     
   1261798422.6647708     
   2180213907.6630373     
   2152549483.4336123     
   2144512046.0586724     
   2166483353.3303919     
   2229324942.9457402     
   1966766771.9768496     
   1966121253.4857743     
   2002098763.6440721     
   2093244209.8276334     
   2257998987.7469177     
   1740028250.9685595     
   1785646675.5091553     
   1883512391.8604026     
   2060421717.6904027     
   2341405832.4366865     
   1502974266.9431641     
   1611849529.4239733     
   1788023817.5527060     
   2066158361.3962197     
   2476306095.1005163     
   1261798422.6647708     
   1445785245.8514092     
   1715080115.7814505     
   2110209175.2635105     
   2663518995.7551618     
   5094689179.3066006     
   4823842910.0459948     
   4578081834.5220203     
   4332764494.6102648     
   4068864302.5074921     
   5138106608.6055632     
   4931005415.7292919     
   4722748404.1504869     
   4505797922.7194309     
   4274493186.2176309     
   5411036005.5107327     
   5192419374.0904970     
   4971466560.9198189     
   4747783377.4615002     
   4521080673.3752985     
   5890511418.1884518     
   5603822579.2270155     
   5328000282.0344496     
   5061615616.4941235     
   4804118436.0725174     
   6565077566.1032085     
   6166898844.6295042     
   5797364527.9882898     
   5449373600.6931810     
   5119470838.9727831     
   4068864302.5074921     
   3953662600.1164975     
   3840915860.3569150     
   3730344733.2471886     
   3621744467.8454623     
   4274493186.2176309     
   4159152749.1324372     
   4045590858.8360124     
   3933747149.2657566     
   3823579589.0559697     
   4521080673.3752985     
   4402874132.0660639     
   4285367919.7442889     
   4168623341.5770621     
   4052713036.9200382     
   4804118436.0725174     
   4680454065.4205160     
   4556149294.4215307     
   4431279666.5306988     
   4305963513.0561914     
   5119470838.9727831     
   4987859582.0961866     
   4854151290.1074514     
   4718324755.5883036     
   4580460746.3153706     
   3621744467.8454623     
   3471330378.2025070     
   3322974762.2916217     
   3177076178.0874352     
   3034212133.4648461     
   3823579589.0559697     
   3656274400.7296629     
   3490564462.3629990     
   3326713546.3678770     
   3165120749.5336227     
   4052713036.9200382     
   3869899474.2346134     
   3688395937.5752916     
   3508348710.4251518     
   3330007975.1964869     
   4305963513.0561914     
   4108530839.5670280     
   3912268157.9787149     
   3717226602.2125549     
   3523544521.4988775     
   4580460746.3153706     
   4368834472.5033569     
   4158343215.5702300     
   3948964157.4140544     
   3740759368.6980023     
   3034212133.4648461     
   2897052051.8644938     
   2762989188.9050183     
   2632285278.9048400     
   2505281944.9915285     
   3165120749.5336227     
   3019224763.1761594     
   2875483750.3478670     
   2734095022.4746490     
   2595325303.6155877     
   3330007975.1964869     
   3175948426.0993195     
   3023164492.4625955     
   2871778050.1120992     
   2721965446.6455331     
   3523544521.4988775     
   3361937606.8219218     
   3200824960.2547369     
   3040254632.7017431     
   2880313800.7736249     
   3740759368.6980023     
   3572196598.5834103     
   3403457415.9419756     
   3234524820.2954450     
   3065408124.9499907     
   2505281944.9915285     
   2369844522.9103694     
   2237486484.1754875     
   2108711493.3932633     
   1984167388.6028955     
   2595325303.6155877     
   2448972447.9707971     
   2304524692.9284353     
   2162302778.1833386     
   2022739690.9332099     
   2721965446.6455331     
   2566629159.1137085     
   2412270113.1410646     
   2259042466.2377520     
   2107169450.1291513     
   2880313800.7736249     
   2717810818.8961930     
   2555640455.0286136     
   2393837965.6512985     
   2232471578.1569514     
   3065408124.9499907     
   2897278467.3682456     
   2729092437.9109097     
   2560818853.5140553     
   2392437765.1896420     
   1984167388.6028955     
   1850863627.0950198     
   1717873179.6752348     
   1585561451.2749608     
   1454448241.7341261     
   2022739690.9332099     
   1883832490.9787536     
   1745357527.3163209     
   1607441964.0931926     
   1470260967.1113057     
   2107169450.1291513     
   1965355401.0886834     
   1824478355.6003311     
   1684563340.0440893     
   1545662928.5374992     
   2232471578.1569514     
   2088804866.8918092     
   1946693224.3947830     
   1806139625.6629348     
   1667217090.7944131     
   2392437765.1896420     
   2246411983.9892750     
   2102456665.7992053     
   1960588072.0647430     
   1820971125.7864420     
   1454448241.7341261     
   1346059826.4820924     
   1272601222.5167015     
   1242175482.5266151     
   1261798422.6647708     
   1470260967.1113057     
   1326519542.1049314     
   1197231734.0313008     
   1086880592.0881941     
   1001366587.0496120     
   1545662928.5374992     
   1396106669.0862758     
   1243019245.8008626     
   1084154663.0119011     
   917505510.09381962     
   1667217090.7944131     
   1551902026.9539318     
   1427536188.1638467     
   1294490088.1025479     
   1158851257.5974231     
   1820971125.7864420     
   1780124612.2630613     
   1735840570.4685428     
   1696718863.7616851     
   1681144905.7964337     
   1261798422.6647708     
   1445785245.8514092     
   1715080115.7814505     
   2110209175.2635105     
   2663518995.7551618     
   1001366587.0496120     
   1164168738.3459249     
   1425058794.1557646     
   1808571658.2966161     
   2334715103.5764794     
   917505510.09381962     
   962930530.11648881     
   1144787999.2873805     
   1476388764.5488145     
   1957345950.9108071     
   1158851257.5974231     
   1008446970.8337395     
   985251342.15536594     
   1161465272.1458673     
   1543929333.0258887     
   1681144905.7964337     
   1383709391.1134152     
   1129522452.5118434     
   1010198176.4025452     
   1152821964.5387905     
 </DataArray>
 <DataArray  type="Float64" Name="strain" NumberOfComponents="3" format="ascii">
  0.10331510885216222       -2.9300112420362678E-002   7.7501557236958618E-004
   9.8778656977962065E-002  -2.8900659681325491E-002   7.5116039019906822E-004
   9.4242205103761911E-002  -2.8301520301569627E-002   7.1472970083119591E-004
   8.9705753229561758E-002  -2.7502694281094670E-002   6.6572350426624682E-004
   8.5169301355361604E-002  -2.6504181619901201E-002   6.0414180050383237E-004
   9.7413241899164116E-002  -2.7795150610062547E-002   7.5240270230165773E-003
   9.2931668032958825E-002  -2.7201257934301726E-002   7.4653665652116286E-003
   8.8450094166753757E-002  -2.6493094591420213E-002   7.5290376305943152E-003
   8.3968520300548549E-002  -2.5670660581418446E-002   7.7150402191645540E-003
   7.9486946434343397E-002  -2.4733955904295779E-002   8.0233743309218730E-003
   9.1252137501419361E-002  -2.6290188799762415E-002   1.4510186397186042E-002
   8.6960348673594035E-002  -2.5501856187277905E-002   1.4331304690148899E-002
   8.2668559845768597E-002  -2.4684668881271132E-002   1.4409661536683716E-002
   7.8376771017943270E-002  -2.3838626881741834E-002   1.4745256936790754E-002
   7.4084982190117832E-002  -2.2963730188690246E-002   1.5338090890469891E-002
   8.4831795658928344E-002  -2.4785226989462311E-002   2.1733493694878842E-002
   8.0864698899867415E-002  -2.3802454440254112E-002   2.1348974765010693E-002
   7.6897602140806542E-002  -2.2876243171121774E-002   2.1356601419099661E-002
   7.2930505381745614E-002  -2.2006593182065250E-002   2.1756373657145146E-002
   6.8963408622684741E-002  -2.1193504473084879E-002   2.2548291479147761E-002
   7.8152216371690897E-002  -2.3280265179162207E-002   2.9193948916094392E-002
   7.4644718711779190E-002  -2.2103052693230263E-002   2.8518376789797240E-002
   7.1137221051867483E-002  -2.1067817460972499E-002   2.8369857277841748E-002
   6.7629723391955832E-002  -2.0174559482388825E-002   2.8748390380227584E-002
   6.4122225732044097E-002  -1.9423278757479401E-002   2.9653976096955303E-002
   8.5169301355361604E-002  -2.6504181619901201E-002   6.0414180050383237E-004
   8.2905214248676806E-002  -2.5441223562226278E-002  -6.8337014934027884E-006
   8.0641127141991953E-002  -2.4449061352308121E-002  -2.5020547584042596E-004
   7.8377040035307100E-002  -2.3527694990146467E-002  -1.2597352253754246E-004
   7.6112952928622302E-002  -2.2677124475740995E-002   3.6586215841571956E-004
   7.9486946434343397E-002  -2.4733955904295779E-002   8.0233743309218730E-003
   7.7529461058078591E-002  -2.3766225088907883E-002   7.5702803893136494E-003
   7.5571975681813675E-002  -2.2850712664109860E-002   7.3627861808954753E-003
   7.3614490305548785E-002  -2.1987418629901608E-002   7.4008917056667817E-003
   7.1657004929283952E-002  -2.1176342986283792E-002   7.6845969636278322E-003
   7.4084982190117832E-002  -2.2963730188690246E-002   1.5338090890469891E-002
   7.2312094549812522E-002  -2.2091226615589238E-002   1.5061455966417517E-002
   7.0539206909507213E-002  -2.1252363975911487E-002   1.4908416781094364E-002
   6.8766319269201875E-002  -2.0447142269657305E-002   1.4878973334500584E-002
   6.6993431628896566E-002  -1.9675561496826421E-002   1.4973125626636052E-002
   6.8963408622684741E-002  -2.1193504473084879E-002   2.2548291479147761E-002
   6.7253114723878626E-002  -2.0416228142270607E-002   2.2466693029817384E-002
   6.5542820825072456E-002  -1.9654015287713336E-002   2.2386686324755982E-002
   6.3832526926266342E-002  -1.8906865909412835E-002   2.2308271363963929E-002
   6.2122233027460227E-002  -1.8174780007369246E-002   2.2231448147440533E-002
   6.4122225732044097E-002  -1.9423278757479401E-002   2.9653976096955303E-002
   6.2352521580276793E-002  -1.8741229668952059E-002   2.9785991579513671E-002
   6.0582817428509420E-002  -1.8055666599514991E-002   2.9797594811880712E-002
   5.8813113276742081E-002  -1.7366589549168400E-002   2.9688785794056247E-002
   5.7043409124974742E-002  -1.6673998517911959E-002   2.9459564526040760E-002
   7.6112952928622302E-002  -2.2677124475740995E-002   3.6586215841571956E-004
   7.2716938298418410E-002  -2.1834425233989985E-002   3.0660209108912539E-004
   6.9320923668214629E-002  -2.0936672689791658E-002   3.4540563424556581E-004
   6.5924909038010793E-002  -1.9983866843145279E-002   4.8227278788434691E-004
   6.2528894407806956E-002  -1.8976007694051611E-002   7.1720355200621810E-004
   7.1657004929283952E-002  -2.1176342986283792E-002   7.6845969636278322E-003
   6.8388665523048509E-002  -2.0371526687060715E-002   7.4946997108620295E-003
   6.5120326116813065E-002  -1.9527010686037460E-002   7.4620892955495899E-003
   6.1851986710577622E-002  -1.8642794983214528E-002   7.5867657176911379E-003
   5.8583647304342124E-002  -1.7718879578591307E-002   7.8687289772868541E-003
   6.6993431628896566E-002  -1.9675561496826421E-002   1.4973125626636052E-002
   6.3911990673600566E-002  -1.8908628140131084E-002   1.4637237587782570E-002
   6.0830549718304677E-002  -1.8117348682283513E-002   1.4517859613354139E-002
   5.7749108763008691E-002  -1.7301723123283340E-002   1.4614991703351052E-002
   5.4667667807712789E-002  -1.6461751463130947E-002   1.4928633857772794E-002
   6.2122233027460227E-002  -1.8174780007369246E-002   2.2231448147440533E-002
   5.9286913750074909E-002  -1.7445729593201634E-002   2.1734215721852107E-002
   5.6451594472689576E-002  -1.6707686678529329E-002   2.1512716587659859E-002
   5.3616275195304243E-002  -1.5960651263352370E-002   2.1566950744864016E-002
   5.0780955917918986E-002  -1.5204623347670393E-002   2.1896918193463864E-002
   5.7043409124974742E-002  -1.6673998517911959E-002   2.9459564526040760E-002
   5.4513434752471224E-002  -1.5982831046272294E-002   2.8785634113069780E-002
   5.1983460379967733E-002  -1.5298024674775257E-002   2.8446660218466202E-002
   4.9453486007464229E-002  -1.4619579403421290E-002   2.8442642842229970E-002
   4.6923511634960668E-002  -1.3947495232210061E-002   2.8773581984361307E-002
   6.2528894407806956E-002  -1.8976007694051611E-002   7.1720355200621810E-004
   5.9635513565398535E-002  -1.7975868438861897E-002   3.8224606457915034E-004
   5.6742132722990002E-002  -1.7046222273928963E-002   2.6569421780725522E-004
   5.3848751880581497E-002  -1.6187069199251454E-002   3.6754801169147644E-004
   5.0955371038173047E-002  -1.5398409214830044E-002   6.8780744623087031E-004
   5.8583647304342124E-002  -1.7718879578591307E-002   7.8687289772868541E-003
   5.5890317737431472E-002  -1.6797423057048066E-002   7.4871294524291865E-003
   5.3196988170520820E-002  -1.5920584003464827E-002   7.2872268379112204E-003
   5.0503658603610169E-002  -1.5088362417841165E-002   7.2690211337333166E-003
   4.7810329036699517E-002  -1.4300758300177296E-002   7.4325123398958359E-003
   5.4667667807712789E-002  -1.6461751463130947E-002   1.4928633857772794E-002
   5.2137680785984353E-002  -1.5618977675233958E-002   1.4526267917781027E-002
   4.9607693764255847E-002  -1.4794945733000900E-002   1.4268890157813560E-002
   4.7077706742527377E-002  -1.3989655636431095E-002   1.4156500577870552E-002
   4.4547719720798878E-002  -1.3203107385525104E-002   1.4189099177951636E-002
   5.0780955917918986E-002  -1.5204623347670393E-002   2.1896918193463864E-002
   4.8377602711057024E-002  -1.4440532293419989E-002   2.1499661460634457E-002
   4.5974249504195000E-002  -1.3669307462536869E-002   2.1210684177513654E-002
   4.3570896297333010E-002  -1.2890948855021138E-002   2.1029986344101352E-002
   4.1167543090471076E-002  -1.2105456470872633E-002   2.0957567960397994E-002
   4.6923511634960668E-002  -1.3947495232210061E-002   2.8773581984361307E-002
   4.4610083512649557E-002  -1.3262086911606019E-002   2.8407310080990122E-002
   4.2296655390338445E-002  -1.2543669192072893E-002   2.8112608897011948E-002
   3.9983227268027305E-002  -1.1792242073611084E-002   2.7889478432427034E-002
   3.7669799145716165E-002  -1.1007805556220052E-002   2.7737918687234853E-002
   5.0955371038173047E-002  -1.5398409214830044E-002   6.8780744623087031E-004
   4.8210404940308593E-002  -1.4621402797445615E-002   4.7867791899092182E-004
   4.5465438842444028E-002  -1.3797210423877937E-002   2.9770914243509861E-004
   4.2720472744579518E-002  -1.2925832094126954E-002   1.4490111656362270E-004
   3.9975506646715009E-002  -1.2007267808192390E-002   2.0253841375383885E-005
   4.7810329036699517E-002  -1.4300758300177296E-002   7.4325123398958359E-003
   4.5109319033986461E-002  -1.3521625449992136E-002   7.1590412872899467E-003
   4.2408309031273350E-002  -1.2714817666802880E-002   6.9453216743027291E-003
   3.9707299028560378E-002  -1.1880334950609875E-002   6.7913535009347659E-003
   3.7006289025847294E-002  -1.1018177301413301E-002   6.6971367671856408E-003
   4.4547719720798878E-002  -1.3203107385525104E-002   1.4189099177951636E-002
   4.1922256502172267E-002  -1.2421848102538879E-002   1.3831775576800098E-002
   3.9296793283545545E-002  -1.1632424909728267E-002   1.3565794104202500E-002
   3.6671330064918836E-002  -1.0834837807093239E-002   1.3391154760158494E-002
   3.4045866846292155E-002  -1.0029086794633879E-002   1.3307857544668455E-002
   4.1167543090471076E-002  -1.2105456470872633E-002   2.0957567960397994E-002
   3.8649217344865740E-002  -1.1322070755085512E-002   2.0496880787521474E-002
   3.6130891599260376E-002  -1.0550032152653432E-002   2.0159126432133245E-002
   3.3612565853655081E-002  -9.7893406635763819E-003   1.9944304894234571E-002
   3.1094240108049682E-002  -9.0399962878546236E-003   1.9852416173824092E-002
   3.7669799145716165E-002  -1.1007805556220052E-002   2.7737918687234853E-002
   3.5290201562067081E-002  -1.0222293407632199E-002   2.7154356919453670E-002
   3.2910603978418024E-002  -9.4676393955783755E-003   2.6725318658096353E-002
   3.0531006394768925E-002  -8.7438435200595799E-003   2.6450803903162429E-002
   2.8151408811119827E-002  -8.0509057810753681E-003   2.6330812654652536E-002
   3.9975506646715009E-002  -1.2007267808192390E-002   2.0253841375383885E-005
   3.7544050894832148E-002  -1.1150743916296335E-002  -2.8355248147327039E-004
   3.5112595142949177E-002  -1.0465486768658605E-002  -4.8863566373247291E-004
   3.2681139391066233E-002  -9.9514963652801297E-003  -5.9499570540216817E-004
   3.0249683639183345E-002  -9.6087727061600070E-003  -6.0263260648163453E-004
   3.7006289025847294E-002  -1.1018177301413301E-002   6.6971367671856408E-003
   3.4653503059007773E-002  -1.0198439425003536E-002   6.2401819186844731E-003
   3.2300717092168391E-002  -9.4912160271719004E-003   5.8418434996808655E-003
   2.9947931125328939E-002  -8.8965071079185193E-003   5.5021215101735688E-003
   2.7595145158489487E-002  -8.4143126672429069E-003   5.2210159501636655E-003
   3.4045866846292155E-002  -1.0029086794633879E-002   1.3307857544668455E-002
   3.1731643953403499E-002  -9.2461349337114029E-003   1.2756506436195802E-002
   2.9417421060514773E-002  -8.5169452856856676E-003   1.2223665046128068E-002
   2.7103198167626054E-002  -7.8415178505573599E-003   1.1709333374464073E-002
   2.4788975274737363E-002  -7.2198526283262510E-003   1.1213511421205302E-002
   3.1094240108049682E-002  -9.0399962878546236E-003   1.9852416173824092E-002
   2.8778473578019111E-002  -8.2938304424187148E-003   1.9265421071061023E-002
   2.6462707047988494E-002  -7.5426745441990878E-003   1.8656828975609670E-002
   2.4146940517957918E-002  -6.7865285931964191E-003   1.8026639887470112E-002
   2.1831173987927249E-002  -6.0253925894098170E-003   1.7374853806642498E-002
   2.8151408811119827E-002  -8.0509057810753681E-003   2.6330812654652536E-002
   2.5793991932854698E-002  -7.3415259511261932E-003   2.5766925823279552E-002
   2.3436575054589542E-002  -6.5684038027130354E-003   2.5141335288125455E-002
   2.1079158176324372E-002  -5.7315393358350550E-003   2.4454041049190883E-002
   1.8721741298059202E-002  -4.8309325504930500E-003   2.3705043106475476E-002
   3.0249683639183345E-002  -9.6087727061600070E-003  -6.0263260648163453E-004
   2.9634792658138065E-002  -9.1462388568058772E-003  -3.5535889340732041E-004
   2.9019901677092785E-002  -8.2728178827244925E-003  -1.7916326706381991E-003
   2.8405010696047450E-002  -6.9885097839154087E-003  -4.9114539381732158E-003
   2.7790119715002226E-002  -5.2933145603790699E-003  -9.7148226960137585E-003
   2.7595145158489487E-002  -8.4143126672429069E-003   5.2210159501636655E-003
   2.5566569240374593E-002  -7.8819941391077286E-003   5.8983457025283403E-003
   2.3537993322259754E-002  -7.1369129574730961E-003   5.4318530710582014E-003
   2.1509417404144915E-002  -6.1790691223404248E-003   3.8215380557543310E-003
   1.9480841486030132E-002  -5.0084626337092431E-003   1.0674006566153693E-003
   2.4788975274737363E-002  -7.2198526283262510E-003   1.1213511421205302E-002
   2.1886439526023566E-002  -6.6177494214093024E-003   1.2122772741631094E-002
   1.8983903777309769E-002  -6.0010080322221437E-003   1.2427936784693006E-002
   1.6081368028596013E-002  -5.3696284607656630E-003   1.2129003550391398E-002
   1.3178832279882174E-002  -4.7236107070391942E-003   1.1225973038725967E-002
   2.1831173987927249E-002  -6.0253925894098170E-003   1.7374853806642498E-002
   1.8594403515085081E-002  -5.3535047037107930E-003   1.8317922223900579E-002
   1.5357633042242878E-002  -4.8651031069711914E-003   1.9196618470265991E-002
   1.2120862569400665E-002  -4.5601877991907902E-003   2.0010942545737903E-002
   8.8840920965585143E-003  -4.4387587803692563E-003   2.0760894450316925E-002
   1.8721741298059202E-002  -4.8309325504930500E-003   2.3705043106475476E-002
   1.5690461207559070E-002  -4.0892599860127832E-003   2.4483794149337434E-002
   1.2659181117059048E-002  -3.7291981817201003E-003   2.5737898127777215E-002
   9.6279010265590131E-003  -3.7507471376160492E-003   2.7467355041794012E-002
   6.5966209360588945E-003  -4.1539068536993184E-003   2.9672164891388020E-002
   2.7790119715002226E-002  -5.2933145603790699E-003  -9.7148226960137585E-003
   2.3359225799049588E-002  -4.2076378719111407E-003  -4.1900812883590710E-003
   1.8928331883097005E-002  -4.7518853783085069E-003   2.5996495553745058E-003
   1.4497437967144228E-002  -6.9260570795708076E-003   1.0654369835189192E-002
   1.0066544051191784E-002  -1.0730152975696683E-002   1.9974079551083435E-002
   1.9480841486030132E-002  -5.0084626337092431E-003   1.0674006566153693E-003
   1.6242331194152471E-002  -4.6891365379748695E-003   6.7541814580098780E-003
   1.3003820902274921E-002  -6.2851338815351765E-003   1.3560740071474231E-002
   9.7653106103974263E-003  -9.7964546643886929E-003   2.1487076497007873E-002
   6.5268003185199319E-003  -1.5223098886536945E-002   3.0533190734612692E-002
   1.3178832279882174E-002  -4.7236107070391942E-003   1.1225973038725967E-002
   1.0987493988069641E-002  -5.1706352040393755E-003   1.6789393989430912E-002
   8.7961556962571769E-003  -7.8183823847621237E-003   2.3327381128196212E-002
   6.6048174044445532E-003  -1.2666852249207702E-002   3.0839934455021006E-002
   4.4134791126322348E-003  -1.9716044797375876E-002   3.9327053969905990E-002
   8.8840920965585143E-003  -4.4387587803692563E-003   2.0760894450316925E-002
   7.5947141808009183E-003  -5.6521338701034929E-003   2.5915556305903698E-002
   6.3053362650435478E-003  -9.3516308879889321E-003   3.1899572725540601E-002
   5.0159583492859986E-003  -1.5537249834027038E-002   3.8712943709227267E-002
   3.7265804335286923E-003  -2.4208990708215916E-002   4.6355669256964382E-002
   6.5966209360588945E-003  -4.1539068536993184E-003   2.9672164891388020E-002
   6.0639917723463999E-003  -6.1336325361671662E-003   3.4132668407428124E-002
   5.5313626086339052E-003  -1.0884879391215685E-002   3.9277314863507717E-002
   4.9987334449214105E-003  -1.8407647418845360E-002   4.5106104259627688E-002
   4.4661042812088603E-003  -2.8701936619055513E-002   5.1619036595787371E-002
   7.8152216371690897E-002  -2.3280265179162207E-002   2.9193948916094392E-002
   7.4644718711779190E-002  -2.2103052693230263E-002   2.8518376789797240E-002
   7.1137221051867483E-002  -2.1067817460972499E-002   2.8369857277841748E-002
   6.7629723391955832E-002  -2.0174559482388825E-002   2.8748390380227584E-002
   6.4122225732044097E-002  -1.9423278757479401E-002   2.9653976096955303E-002
   7.1448154946948172E-002  -2.0987458664572411E-002   3.4764452542755120E-002
   6.8399881921183098E-002  -2.0172637012759898E-002   3.4138377355496741E-002
   6.5351608895418134E-002  -1.9401734608277404E-002   3.3903698822190187E-002
   6.2303335869653156E-002  -1.8674751451125092E-002   3.4060416942835472E-002
   5.9255062843888151E-002  -1.7991687541302842E-002   3.4608531717432611E-002
   6.4954366691941073E-002  -1.8694652149982671E-002   3.9923536332124226E-002
   6.2229662339933045E-002  -1.8242221332289588E-002   3.9445016090248808E-002
   5.9504957987925031E-002  -1.7735651755582435E-002   3.9222236541935407E-002
   5.6780253635916995E-002  -1.7174943419861390E-002   3.9255197687184031E-002
   5.4055549283909009E-002  -1.6560096325126283E-002   3.9543899525994755E-002
   5.8670851606669870E-002  -1.6401845635392931E-002   4.4671200284202052E-002
   5.6134059968029025E-002  -1.6311805651819264E-002   4.4438292994053434E-002
   5.3597268329388173E-002  -1.6069568902887486E-002   4.4325470437077394E-002
   5.1060476690747390E-002  -1.5675135388597675E-002   4.4332732613273522E-002
   4.8523685052106538E-002  -1.5128505108949752E-002   4.4460079522641929E-002
   5.2597609691134306E-002  -1.4109039120803135E-002   4.9007444398988464E-002
   5.0113074805470975E-002  -1.4381389971348857E-002   4.9118208066911084E-002
   4.7628539919807616E-002  -1.4403486050192441E-002   4.9213400507615995E-002
   4.5144005034144286E-002  -1.4175327357333931E-002   4.9293021721103461E-002
   4.2659470148480927E-002  -1.3696913892773221E-002   4.9357071707373745E-002
   6.4122225732044097E-002  -1.9423278757479401E-002   2.9653976096955303E-002
   6.2352521580276793E-002  -1.8741229668952059E-002   2.9785991579513671E-002
   6.0582817428509420E-002  -1.8055666599514991E-002   2.9797594811880712E-002
   5.8813113276742081E-002  -1.7366589549168400E-002   2.9688785794056247E-002
   5.7043409124974742E-002  -1.6673998517911959E-002   2.9459564526040760E-002
   5.9255062843888151E-002  -1.7991687541302842E-002   3.4608531717432611E-002
   5.7438282661035373E-002  -1.7332692789416501E-002   3.4481180203457681E-002
   5.5621502478182594E-002  -1.6677917106072408E-002   3.4380088877503281E-002
   5.3804722295329836E-002  -1.6027360491270293E-002   3.4305257739569266E-002
   5.1987942112477092E-002  -1.5381022945010148E-002   3.4256686789655821E-002
   5.4055549283909009E-002  -1.6560096325126283E-002   3.9543899525994755E-002
   5.2338365508182709E-002  -1.5924155909881041E-002   3.9149447966034527E-002
   5.0621181732456444E-002  -1.5300167612629714E-002   3.8927929032306921E-002
   4.8903997956730158E-002  -1.4688131433372182E-002   3.8879342724811694E-002
   4.7186814181003831E-002  -1.4088047372108503E-002   3.9003689043548923E-002
   4.8523685052106538E-002  -1.5128505108949752E-002   4.4460079522641929E-002
   4.7052770121718691E-002  -1.4515619030345532E-002   4.3790794867244680E-002
   4.5581855191330865E-002  -1.3922418119186965E-002   4.3441115276291825E-002
   4.4110940260943046E-002  -1.3348902375474017E-002   4.3411040749783511E-002
   4.2640025330555192E-002  -1.2795071799206803E-002   4.3700571287719522E-002
   4.2659470148480927E-002  -1.3696913892773221E-002   4.9357071707373745E-002
   4.1581496501643472E-002  -1.3107082150810051E-002   4.8405220907087931E-002
   4.0503522854805976E-002  -1.2544668625744423E-002   4.7919647609458188E-002
   3.9425549207968515E-002  -1.2009673317576016E-002   4.7900351814484959E-002
   3.8347575561131025E-002  -1.1502096226305047E-002   4.8347333522167968E-002
   5.7043409124974742E-002  -1.6673998517911959E-002   2.9459564526040760E-002
   5.4513434752471224E-002  -1.5982831046272294E-002   2.8785634113069780E-002
   5.1983460379967733E-002  -1.5298024674775257E-002   2.8446660218466202E-002
   4.9453486007464229E-002  -1.4619579403421290E-002   2.8442642842229970E-002
   4.6923511634960668E-002  -1.3947495232210061E-002   2.8773581984361307E-002
   5.1987942112477092E-002  -1.5381022945010148E-002   3.4256686789655821E-002
   4.9754233739253265E-002  -1.4734061140871668E-002   3.3797958180699805E-002
   4.7520525366029562E-002  -1.4081631752434154E-002   3.3596805051936074E-002
   4.5286816992805783E-002  -1.3423734779697882E-002   3.3653227403364225E-002
   4.3053108619582031E-002  -1.2760370222662465E-002   3.3967225234984966E-002
   4.7186814181003831E-002  -1.4088047372108503E-002   3.9003689043548923E-002
   4.5171990768884632E-002  -1.3485291235471319E-002   3.8771990923049629E-002
   4.3157167356765412E-002  -1.2865238830093273E-002   3.8720487244567503E-002
   4.1142343944646206E-002  -1.2227890155974419E-002   3.8849178008102142E-002
   3.9127520532526952E-002  -1.1573245213114647E-002   3.9158063213653949E-002
   4.2640025330555192E-002  -1.2795071799206803E-002   4.3700571287719522E-002
   4.0766705841365283E-002  -1.2236521330070887E-002   4.3707732340118995E-002
   3.8893386352175444E-002  -1.1648845907752309E-002   4.3817706796360378E-002
   3.7020066862985576E-002  -1.1032045532250928E-002   4.4030494656443257E-002
   3.5146747373795695E-002  -1.0386120203566829E-002   4.4346095920368020E-002
   3.8347575561131025E-002  -1.1502096226305047E-002   4.8347333522167968E-002
   3.6538378956695261E-002  -1.0987751424670483E-002   4.8605182431908200E-002
   3.4729182352259524E-002  -1.0432452985411261E-002   4.8888463707314700E-002
   3.2919985747823774E-002  -9.8362009085275134E-003   4.9197177348388021E-002
   3.1110789143388023E-002  -9.1989951940191217E-003   4.9531323355127554E-002
   4.6923511634960668E-002  -1.3947495232210061E-002   2.8773581984361307E-002
   4.4610083512649557E-002  -1.3262086911606019E-002   2.8407310080990122E-002
   4.2296655390338445E-002  -1.2543669192072893E-002   2.8112608897011948E-002
   3.9983227268027305E-002  -1.1792242073611084E-002   2.7889478432427034E-002
   3.7669799145716165E-002  -1.1007805556220052E-002   2.7737918687234853E-002
   4.3053108619582031E-002  -1.2760370222662465E-002   3.3967225234984966E-002
   4.0831778591918944E-002  -1.2084329537242228E-002   3.3592742670892267E-002
   3.8610448564255842E-002  -1.1388404179350761E-002   3.3330885576702968E-002
   3.6389118536592747E-002  -1.0672594148988922E-002   3.3181653952416790E-002
   3.4167788508929570E-002  -9.9368994461561666E-003   3.3145047798033511E-002
   3.9127520532526952E-002  -1.1573245213114647E-002   3.9158063213653949E-002
   3.7039343350021958E-002  -1.0906572162878159E-002   3.8762245262381825E-002
   3.4951166167516978E-002  -1.0233139166628852E-002   3.8520107531522990E-002
   3.2862988985011977E-002  -9.5529462243668165E-003   3.8431650021077124E-002
   3.0774811802506991E-002  -8.8659933360921150E-003   3.8496872731044379E-002
   3.5146747373795695E-002  -1.0386120203566829E-002   4.4346095920368020E-002
   3.3232777786958830E-002  -9.7288147885140064E-003   4.3915817855458325E-002
   3.1318808200121943E-002  -9.0778741539068591E-003   4.3680274761471953E-002
   2.9404838613285064E-002  -8.4332982997447382E-003   4.3639466638408703E-002
   2.7490869026448133E-002  -7.7950872260283133E-003   4.3793393486268553E-002
   3.1110789143388023E-002  -9.1989951940191217E-003   4.9531323355127554E-002
   2.9412081902729342E-002  -8.5510574141502982E-003   4.9053460450122266E-002
   2.7713374662070633E-002  -7.9226091411847555E-003   4.8811387266549988E-002
   2.6014667421411966E-002  -7.3136503751225351E-003   4.8805103804411110E-002
   2.4315960180753243E-002  -6.7241811159641784E-003   4.9034610063705575E-002
   3.7669799145716165E-002  -1.1007805556220052E-002   2.7737918687234853E-002
   3.5290201562067081E-002  -1.0222293407632199E-002   2.7154356919453670E-002
   3.2910603978418024E-002  -9.4676393955783755E-003   2.6725318658096353E-002
   3.0531006394768925E-002  -8.7438435200595799E-003   2.6450803903162429E-002
   2.8151408811119827E-002  -8.0509057810753681E-003   2.6330812654652536E-002
   3.4167788508929570E-002  -9.9368994461561666E-003   3.3145047798033511E-002
   3.1940853949084136E-002  -9.2012237208442538E-003   3.2643269095972149E-002
   2.9713919389238563E-002  -8.4854706230453325E-003   3.2292292935094141E-002
   2.7486984829393060E-002  -7.7896401527587783E-003   3.2092119315400042E-002
   2.5260050269547585E-002  -7.1137323099852434E-003   3.2042748236888852E-002
   3.0774811802506991E-002  -8.8659933360921150E-003   3.8496872731044379E-002
   2.8696819301224738E-002  -8.1801540340566137E-003   3.8087812603725291E-002
   2.6618826799942423E-002  -7.5033018505118454E-003   3.7825834052348961E-002
   2.4540834298660125E-002  -6.8354367854580877E-003   3.7710937076915668E-002
   2.2462841797377869E-002  -6.1765588388952297E-003   3.7743121677425662E-002
   2.7490869026448133E-002  -7.7950872260283133E-003   4.3793393486268553E-002
   2.5558097618488786E-002  -7.1590843472688209E-003   4.3487987442713205E-002
   2.3625326210529443E-002  -6.5211330779784693E-003   4.3325942009860230E-002
   2.1692554802570083E-002  -5.8812334181573972E-003   4.3307257187709870E-002
   1.9759783394610753E-002  -5.2393853678051050E-003   4.3431932976262431E-002
   2.4315960180753243E-002  -6.7241811159641784E-003   4.9034610063705575E-002
   2.2524688900876499E-002  -6.1380146604811947E-003   4.8843793612935449E-002
   2.0733417620999714E-002  -5.5389643054453430E-003   4.8792616807627920E-002
   1.8942146341122922E-002  -4.9270300508567136E-003   4.8881079647782627E-002
   1.7150875061246157E-002  -4.3022118967150913E-003   4.9109182133399765E-002
   2.8151408811119827E-002  -8.0509057810753681E-003   2.6330812654652536E-002
   2.5793991932854698E-002  -7.3415259511261932E-003   2.5766925823279552E-002
   2.3436575054589542E-002  -6.5684038027130354E-003   2.5141335288125455E-002
   2.1079158176324372E-002  -5.7315393358350550E-003   2.4454041049190883E-002
   1.8721741298059202E-002  -4.8309325504930500E-003   2.3705043106475476E-002
   2.5260050269547585E-002  -7.1137323099852434E-003   3.2042748236888852E-002
   2.2881201863397066E-002  -6.4385127382141638E-003   3.1654427852800204E-002
   2.0502353457246589E-002  -5.7447470809341428E-003   3.1284948116722167E-002
   1.8123505051096105E-002  -5.0324353381464154E-003   3.0934309028654641E-002
   1.5744656644945593E-002  -4.3015775098500519E-003   3.0602510588596477E-002
   2.2462841797377869E-002  -6.1765588388952297E-003   3.7743121677425662E-002
   2.0143106215133127E-002  -5.5354995253014960E-003   3.7485171507665782E-002
   1.7823370632888393E-002  -4.9210903591558192E-003   3.7326606337706889E-002
   1.5503635050643682E-002  -4.3333313404575573E-003   3.7267426167549626E-002
   1.3183899468398916E-002  -3.7722224692072204E-003   3.7307630997193614E-002
   1.9759783394610753E-002  -5.2393853678051050E-003   4.3431932976262431E-002
   1.7579704988062862E-002  -4.6324863123892029E-003   4.3259156787875105E-002
   1.5399626581515025E-002  -4.0974336373774331E-003   4.3266309951079829E-002
   1.3219548174967118E-002  -3.6342273427688639E-003   4.3453392465877073E-002
   1.1039469768419349E-002  -3.2428674285642500E-003   4.3820404332266936E-002
   1.7150875061246157E-002  -4.3022118967150913E-003   4.9109182133399765E-002
   1.5190998182186277E-002  -3.7294730994766878E-003   4.8976383693428605E-002
   1.3231121303126411E-002  -3.2737769155986862E-003   4.9104058956840946E-002
   1.1271244424066566E-002  -2.9351233450800249E-003   4.9492207923637010E-002
   9.3113675450067213E-003  -2.7135123879213907E-003   5.0140830593816355E-002
   1.8721741298059202E-002  -4.8309325504930500E-003   2.3705043106475476E-002
   1.5690461207559070E-002  -4.0892599860127832E-003   2.4483794149337434E-002
   1.2659181117059048E-002  -3.7291981817201003E-003   2.5737898127777215E-002
   9.6279010265590131E-003  -3.7507471376160492E-003   2.7467355041794012E-002
   6.5966209360588945E-003  -4.1539068536993184E-003   2.9672164891388020E-002
   1.5744656644945593E-002  -4.3015775098500519E-003   3.0602510588596477E-002
   1.3170089446277095E-002  -3.7803072613552535E-003   3.1369283061630004E-002
   1.0595522247608527E-002  -3.6967582579724989E-003   3.2574128382749173E-002
   8.0209550489399803E-003  -4.0509304997009415E-003   3.4217046551953886E-002
   5.4463878502714613E-003  -4.8428239865414557E-003   3.6298037569244213E-002
   1.3183899468398916E-002  -3.7722224692072204E-003   3.7307630997193614E-002
   1.1028765074070232E-002  -3.4713545366981402E-003   3.8006314415474696E-002
   8.8736306797415690E-003  -3.6643183342244673E-003   3.9105790594349668E-002
   6.7184962854129303E-003  -4.3511138617862814E-003   4.0606059533818746E-002
   4.5633618910842222E-003  -5.5317411193831489E-003   4.2507121233881728E-002
   1.1039469768419349E-002  -3.2428674285642500E-003   4.3820404332266936E-002
   9.2664880909387702E-003  -3.1624018120406522E-003   4.4394888210871938E-002
   7.4935064134581692E-003  -3.6318784104764842E-003   4.5332884762579198E-002
   5.7205247359775951E-003  -4.6512972238713975E-003   4.6634393987388827E-002
   3.9475430584969898E-003  -6.2206582522248421E-003   4.8299415885300914E-002
   9.3113675450067213E-003  -2.7135123879213907E-003   5.0140830593816355E-002
   7.8832584968825115E-003  -2.8534490873834417E-003   5.0535004447821996E-002
   6.4551494487583017E-003  -3.5994384867288065E-003   5.1255410887437736E-002
   5.0270404006341474E-003  -4.9514805859565067E-003   5.2302049912664100E-002
   3.5989313525099376E-003  -6.9095753850668684E-003   5.3674921523500951E-002
   6.5966209360588945E-003  -4.1539068536993184E-003   2.9672164891388020E-002
   6.0639917723463999E-003  -6.1336325361671662E-003   3.4132668407428124E-002
   5.5313626086339052E-003  -1.0884879391215685E-002   3.9277314863507717E-002
   4.9987334449214105E-003  -1.8407647418845360E-002   4.5106104259627688E-002
   4.4661042812088603E-003  -2.8701936619055513E-002   5.1619036595787371E-002
   5.4463878502714613E-003  -4.8428239865414557E-003   3.6298037569244213E-002
   5.4943730022798953E-003  -6.9727786530503488E-003   3.8417258444161828E-002
   5.5423581542883571E-003  -1.1341134433784872E-002   4.1013565010481534E-002
   5.5903433062967495E-003  -1.7947891328745483E-002   4.4086957268202387E-002
   5.6383284583051418E-003  -2.6793049337932029E-002   4.7637435217326107E-002
   4.5633618910842222E-003  -5.5317411193831489E-003   4.2507121233881728E-002
   4.9849041101754921E-003  -7.8119247699330874E-003   4.2818179526032257E-002
   5.4064463292666926E-003  -1.1797389476353864E-002   4.3399266260946312E-002
   5.8279885483580041E-003  -1.7488135238645501E-002   4.4250381438624017E-002
   6.2495307674492184E-003  -2.4884162056808101E-002   4.5371525059066276E-002
   3.9475430584969898E-003  -6.2206582522248421E-003   4.8299415885300914E-002
   4.5355850960330929E-003  -8.6510708868161590E-003   4.7335431653038718E-002
   5.1236271335690607E-003  -1.2253644518922954E-002   4.6434418614902502E-002
   5.7116691711051118E-003  -1.7028379148545682E-002   4.5596376770892080E-002
   6.2997112086411317E-003  -2.2975274775684285E-002   4.4821306121007431E-002
   3.5989313525099376E-003  -6.9095753850668684E-003   5.3674921523500951E-002
   4.1464159598526285E-003  -9.4902170036991196E-003   5.1969014825181903E-002
   4.6939005671953471E-003  -1.2709899561492072E-002   5.0119022072350583E-002
   5.2413851745380657E-003  -1.6568623058445593E-002   4.8124943265006520E-002
   5.7888697818807566E-003  -2.1066387494560690E-002   4.5986778403150019E-002
   5.2597609691134306E-002  -1.4109039120803135E-002   4.9007444398988464E-002
   5.0113074805470975E-002  -1.4381389971348857E-002   4.9118208066911084E-002
   4.7628539919807616E-002  -1.4403486050192441E-002   4.9213400507615995E-002
   4.5144005034144286E-002  -1.4175327357333931E-002   4.9293021721103461E-002
   4.2659470148480927E-002  -1.3696913892773221E-002   4.9357071707373745E-002
   4.6885086733240211E-002  -1.3250821477311381E-002   5.1102546070521448E-002
   4.4357986922249640E-002  -1.2797763691827724E-002   5.1819047548299746E-002
   4.1830887111259055E-002  -1.2351827153209358E-002   5.2465990402640883E-002
   3.9303787300268504E-002  -1.1913011861456140E-002   5.3043374633545026E-002
   3.6776687489277898E-002  -1.1481317816568082E-002   5.3551200241012065E-002
   4.1683728520893262E-002  -1.2392603833819571E-002   5.4051744387367526E-002
   3.9060076388355812E-002  -1.1214137412306646E-002   5.5116607656434294E-002
   3.6436424255818348E-002  -1.0300168256226296E-002   5.6057924905844193E-002
   3.3812772123280883E-002  -9.6506963655784029E-003   5.6875696135597412E-002
   3.1189119990743440E-002  -9.2657217403630254E-003   5.7569921345693900E-002
   3.6993535054093453E-002  -1.1534386190327775E-002   5.7855039349526571E-002
   3.4219343203789429E-002  -9.6305111327854992E-003   5.9010888391314256E-002
   3.1445151353485398E-002  -8.2485093592431953E-003   5.9989204017225781E-002
   2.8670959503181409E-002  -7.3883808697006110E-003   6.0789986227260721E-002
   2.5896767652877392E-002  -7.0501256641579552E-003   6.1413235021419432E-002
   3.2814506332840720E-002  -1.0676168546836007E-002   6.2512430956998544E-002
   2.9835787368550498E-002  -8.0468848532644077E-003   6.3501889752940133E-002
   2.6857068404260290E-002  -6.1968504622601228E-003   6.4259827736785735E-002
   2.3878349439970081E-002  -5.1260653738228953E-003   6.4786244908535046E-002
   2.0899630475679873E-002  -4.8345295879528849E-003   6.5081141268188591E-002
   4.2659470148480927E-002  -1.3696913892773221E-002   4.9357071707373745E-002
   4.1581496501643472E-002  -1.3107082150810051E-002   4.8405220907087931E-002
   4.0503522854805976E-002  -1.2544668625744423E-002   4.7919647609458188E-002
   3.9425549207968515E-002  -1.2009673317576016E-002   4.7900351814484959E-002
   3.8347575561131025E-002  -1.1502096226305047E-002   4.8347333522167968E-002
   3.6776687489277898E-002  -1.1481317816568082E-002   5.3551200241012065E-002
   3.6086554093195444E-002  -1.1057756123226806E-002   5.2797846512930444E-002
   3.5396420697112976E-002  -1.0643337886113644E-002   5.2353895783702517E-002
   3.4706287301030501E-002  -1.0238063105228550E-002   5.2219348053328236E-002
   3.4016153904948054E-002  -9.8419317805718554E-003   5.2394203321807692E-002
   3.1189119990743440E-002  -9.2657217403630254E-003   5.7569921345693900E-002
   3.0729952341613291E-002  -9.0084300956434077E-003   5.7033339450485832E-002
   3.0270784692483125E-002  -8.7420071464828705E-003   5.6649286050328797E-002
   2.9811617043352952E-002  -8.4664528928812526E-003   5.6417761145222844E-002
   2.9352449394222810E-002  -8.1817673348388298E-003   5.6338764735167746E-002
   2.5896767652877392E-002  -7.0501256641579552E-003   6.1413235021419432E-002
   2.5511691246896923E-002  -6.9591040680601415E-003   6.1111699719754067E-002
   2.5126614840916443E-002  -6.8406764068520941E-003   6.0805818409337145E-002
   2.4741538434935966E-002  -6.6948426805339542E-003   6.0495591090168541E-002
   2.4356462028955517E-002  -6.5216028891057209E-003   6.0181017762248178E-002
   2.0899630475679873E-002  -4.8345295879528849E-003   6.5081141268188591E-002
   2.0431770809046401E-002  -4.9097780404767366E-003   6.5032927320735290E-002
   1.9963911142412916E-002  -4.9393456672214703E-003   6.4823492860727389E-002
   1.9496051475779444E-002  -4.9232324681864996E-003   6.4452837888165374E-002
   1.9028191809145972E-002  -4.8614384433726121E-003   6.3920962403049009E-002
   3.8347575561131025E-002  -1.1502096226305047E-002   4.8347333522167968E-002
   3.6538378956695261E-002  -1.0987751424670483E-002   4.8605182431908200E-002
   3.4729182352259524E-002  -1.0432452985411261E-002   4.8888463707314700E-002
   3.2919985747823774E-002  -9.8362009085275134E-003   4.9197177348388021E-002
   3.1110789143388023E-002  -9.1989951940191217E-003   4.9531323355127554E-002
   3.4016153904948054E-002  -9.8419317805718554E-003   5.2394203321807692E-002
   3.2282405309440015E-002  -9.4293927886545392E-003   5.2411241234453843E-002
   3.0548656713932018E-002  -8.9748950059878041E-003   5.2553742799288969E-002
   2.8814908118423993E-002  -8.4784384325714557E-003   5.2821708016313119E-002
   2.7081159522915982E-002  -7.9400230684056328E-003   5.3215136885526149E-002
   2.9352449394222810E-002  -8.1817673348388298E-003   5.6338764735167746E-002
   2.7794180094164997E-002  -7.8710341526386368E-003   5.6115996803844825E-002
   2.6235910794107177E-002  -7.5173370265641387E-003   5.6118723811233437E-002
   2.4677641494049354E-002  -7.1206759566153459E-003   5.6346945757333337E-002
   2.3119372193991544E-002  -6.6810509427921994E-003   5.6800662642144562E-002
   2.4356462028955517E-002  -6.5216028891057209E-003   6.0181017762248178E-002
   2.3073703310870285E-002  -6.3126755166226581E-003   5.9719449140081121E-002
   2.1790944592785057E-002  -6.0597790471405497E-003   5.9583406743147854E-002
   2.0508185874699821E-002  -5.7629134806593176E-003   5.9772890571448474E-002
   1.9225427156614600E-002  -5.4220788171787937E-003   6.0287900624982863E-002
   1.9028191809145972E-002  -4.8614384433726121E-003   6.3920962403049009E-002
   1.8120974959555780E-002  -4.7543168806068181E-003   6.3221598243162536E-002
   1.7213758109965616E-002  -4.6022210677169884E-003   6.2947791595032332E-002
   1.6306541260375444E-002  -4.4051510047032547E-003   6.3099542458658342E-002
   1.5399324410785259E-002  -4.1631066915652770E-003   6.3676850834040732E-002
   3.1110789143388023E-002  -9.1989951940191217E-003   4.9531323355127554E-002
   2.9412081902729342E-002  -8.5510574141502982E-003   4.9053460450122266E-002
   2.7713374662070633E-002  -7.9226091411847555E-003   4.8811387266549988E-002
   2.6014667421411966E-002  -7.3136503751225351E-003   4.8805103804411110E-002
   2.4315960180753243E-002  -6.7241811159641784E-003   4.9034610063705575E-002
   2.7081159522915982E-002  -7.9400230684056328E-003   5.3215136885526149E-002
   2.5607803041263436E-002  -7.3880598075893589E-003   5.2777501057465565E-002
   2.4134446559610903E-002  -6.8509595442207277E-003   5.2554777025984017E-002
   2.2661090077958371E-002  -6.3287222783003257E-003   5.2546964791081702E-002
   2.1187733596305824E-002  -5.8213480098278092E-003   5.2754064352758034E-002
   2.3119372193991544E-002  -6.6810509427921994E-003   5.6800662642144562E-002
   2.1850488546491013E-002  -6.2250622010282530E-003   5.6407880400484237E-002
   2.0581604898990469E-002  -5.7793099472567000E-003   5.6209132030548822E-002
   1.9312721251489938E-002  -5.3437941814776721E-003   5.6204417532338319E-002
   1.8043837603989428E-002  -4.9185149036912179E-003   5.6393736905852837E-002
   1.9225427156614600E-002  -5.4220788171787937E-003   6.0287900624982863E-002
   1.8140138418411979E-002  -5.0620645944672304E-003   5.9944598479178032E-002
   1.7054849680209330E-002  -4.7076603502925612E-003   5.9774452280244368E-002
   1.5969560942006709E-002  -4.3588660846550185E-003   5.9777462028181280E-002
   1.4884272203804063E-002  -4.0156817975546266E-003   5.9953627722989088E-002
   1.5399324410785259E-002  -4.1631066915652770E-003   6.3676850834040732E-002
   1.4476752657026387E-002  -3.8990669879063189E-003   6.3387655293547285E-002
   1.3554180903267501E-002  -3.6360107533286445E-003   6.3250737775070620E-002
   1.2631609149508630E-002  -3.3739379878326980E-003   6.3266098278610461E-002
   1.1709037395749744E-002  -3.1128486914181464E-003   6.3433736804167307E-002
   2.4315960180753243E-002  -6.7241811159641784E-003   4.9034610063705575E-002
   2.2524688900876499E-002  -6.1380146604811947E-003   4.8843793612935449E-002
   2.0733417620999714E-002  -5.5389643054453430E-003   4.8792616807627920E-002
   1.8942146341122922E-002  -4.9270300508567136E-003   4.8881079647782627E-002
   1.7150875061246157E-002  -4.3022118967150913E-003   4.9109182133399765E-002
   2.1187733596305824E-002  -5.8213480098278092E-003   5.2754064352758034E-002
   1.9553607973823925E-002  -5.3147007447224004E-003   5.2578230951184968E-002
   1.7919482351342012E-002  -4.7946444889029050E-003   5.2577049218939131E-002
   1.6285356728860105E-002  -4.2611792423695241E-003   5.2750519156020789E-002
   1.4651231106378199E-002  -3.7143050051221538E-003   5.3098640762429483E-002
   1.8043837603989428E-002  -4.9185149036912179E-003   5.6393736905852837E-002
   1.6601869662767291E-002  -4.4913868289634118E-003   5.6233411644637604E-002
   1.5159901721545164E-002  -4.0503246723604530E-003   5.6282750076614721E-002
   1.3717933780323035E-002  -3.5953284338824977E-003   5.6541752201784042E-002
   1.2275965839100893E-002  -3.1263981135294383E-003   5.7010418020145587E-002
   1.4884272203804063E-002  -4.0156817975546266E-003   5.9953627722989088E-002
   1.3669473967706614E-002  -3.6680729132044093E-003   5.9809335693293157E-002
   1.2454675731609150E-002  -3.3060048558180080E-003   5.9909719380654355E-002
   1.1239877495511709E-002  -2.9294776253955563E-003   6.0254778785072530E-002
   1.0025079259414238E-002  -2.5384912219363898E-003   6.0844513906548055E-002
   1.1709037395749744E-002  -3.1128486914181464E-003   6.3433736804167307E-002
   1.0756420888641871E-002  -2.8447589974457399E-003   6.3306003097151620E-002
   9.8038043815339981E-003  -2.5616850392755630E-003   6.3457957131057896E-002
   8.8511878744261391E-003  -2.2636268169083928E-003   6.3889598905886302E-002
   7.8985713673182523E-003  -1.9505843303437853E-003   6.4600928421636783E-002
   1.7150875061246157E-002  -4.3022118967150913E-003   4.9109182133399765E-002
   1.5190998182186277E-002  -3.7294730994766878E-003   4.8976383693428605E-002
   1.3231121303126411E-002  -3.2737769155986862E-003   4.9104058956840946E-002
   1.1271244424066566E-002  -2.9351233450800249E-003   4.9492207923637010E-002
   9.3113675450067213E-003  -2.7135123879213907E-003   5.0140830593816355E-002
   1.4651231106378199E-002  -3.7143050051221538E-003   5.3098640762429483E-002
   1.2949486525142453E-002  -3.2200012451920612E-003   5.2970083325135697E-002
   1.1247741943906750E-002  -2.8442474306107357E-003   5.3097316780106207E-002
   9.5459973626710395E-003  -2.5870435613775944E-003   5.3480341127341624E-002
   7.8442527814353014E-003  -2.4483896374931646E-003   5.4119156366841670E-002
   1.2275965839100893E-002  -3.1263981135294383E-003   5.7010418020145587E-002
   1.0827670744570521E-002  -2.7105293909073791E-003   5.6884594253539922E-002
   9.3793756500401525E-003  -2.4147179456226880E-003   5.7009878568080222E-002
   7.9310805555097685E-003  -2.2389637776752784E-003   5.7386270963766396E-002
   6.4827854609794122E-003  -2.1832668870651606E-003   5.8013771440598633E-002
   1.0025079259414238E-002  -2.5384912219363898E-003   6.0844513906548055E-002
   8.8255508404703926E-003  -2.2010575366227803E-003   6.0719916478642000E-002
   7.6260224215265798E-003  -1.9851884606346890E-003   6.0841744320763044E-002
   6.4264940025827600E-003  -1.8908839939727941E-003   6.1209997432911424E-002
   5.2269655836389220E-003  -1.9181441366369900E-003   6.1824675815086806E-002
   7.8985713673182523E-003  -1.9505843303437853E-003   6.4600928421636783E-002
   6.9431268128421764E-003  -1.6915856823377928E-003   6.4476050000441543E-002
   5.9876822583661005E-003  -1.5556589756467731E-003   6.4592914038154592E-002
   5.0322377038900107E-003  -1.5428042102703307E-003   6.4951520534776069E-002
   4.0767931494139209E-003  -1.6530213862090415E-003   6.5551869490306003E-002
   9.3113675450067213E-003  -2.7135123879213907E-003   5.0140830593816355E-002
   7.8832584968825115E-003  -2.8534490873834417E-003   5.0535004447821996E-002
   6.4551494487583017E-003  -3.5994384867288065E-003   5.1255410887437736E-002
   5.0270404006341474E-003  -4.9514805859565067E-003   5.2302049912664100E-002
   3.5989313525099376E-003  -6.9095753850668684E-003   5.3674921523500951E-002
   7.8442527814353014E-003  -2.4483896374931646E-003   5.4119156366841670E-002
   6.7177633624476291E-003  -2.6252828753045576E-003   5.4035066168526102E-002
   5.5912739434599568E-003  -3.3147204911576356E-003   5.4227982642872680E-002
   4.4647845244722706E-003  -4.5167024850538626E-003   5.4697905789882054E-002
   3.3382951054846122E-003  -6.2312288569922325E-003   5.5444835609553600E-002
   6.4827854609794122E-003  -2.1832668870651606E-003   5.8013771440598633E-002
   5.6086897581801853E-003  -2.3971166632247021E-003   5.7544925511801792E-002
   4.7345940553809931E-003  -3.0300024955867005E-003   5.7303860342719545E-002
   3.8604983525817940E-003  -4.0819243841509999E-003   5.7290575933351871E-002
   2.9864026497826018E-003  -5.5528823289176521E-003   5.7505072283698416E-002
   5.2269655836389220E-003  -1.9181441366369900E-003   6.1824675815086806E-002
   4.5560376840801456E-003  -2.1689504511452767E-003   6.1064582477648947E-002
   3.8851097845214264E-003  -2.7452845000157586E-003   6.0483043986977861E-002
   3.2141818849627073E-003  -3.6471462832486905E-003   6.0080060343073019E-002
   2.5432539854039309E-003  -4.8745358008430439E-003   5.9855631545934866E-002
   4.0767931494139209E-003  -1.6530213862090415E-003   6.5551869490306003E-002
   3.5598071401476000E-003  -1.9407842390659069E-003   6.4594037066067700E-002
   3.0428211308812791E-003  -2.4605665044446223E-003   6.3765533575647959E-002
   2.5258351216149444E-003  -3.2123681823456110E-003   6.3066359019046475E-002
   2.0088491123486374E-003  -4.1961892727684358E-003   6.2496513396263609E-002
   3.5989313525099376E-003  -6.9095753850668684E-003   5.3674921523500951E-002
   4.1464159598526285E-003  -9.4902170036991196E-003   5.1969014825181903E-002
   4.6939005671953471E-003  -1.2709899561492072E-002   5.0119022072350583E-002
   5.2413851745380657E-003  -1.6568623058445593E-002   4.8124943265006520E-002
   5.7888697818807566E-003  -2.1066387494560690E-002   4.5986778403150019E-002
   3.3382951054846122E-003  -6.2312288569922325E-003   5.5444835609553600E-002
   3.7589180881210660E-003  -8.4902047484498588E-003   5.3057199332285476E-002
   4.1795410707575614E-003  -1.1325535300903605E-002   5.0559925860117594E-002
   4.6001640533940361E-003  -1.4737220514352715E-002   4.7953015193048898E-002
   5.0207870360304829E-003  -1.8725260388797738E-002   4.5236467331080998E-002
   2.9864026497826018E-003  -5.5528823289176521E-003   5.7505072283698416E-002
   3.3146128673250605E-003  -7.4901924932009867E-003   5.4498392705646409E-002
   3.6428230848675400E-003  -9.9411710403145698E-003   5.1416524792307058E-002
   3.9710333024100333E-003  -1.2905817970259446E-002   4.8259468543679608E-002
   4.2992435199524781E-003  -1.6384133283034563E-002   4.5027223959764329E-002
   2.5432539854039309E-003  -4.8745358008430439E-003   5.9855631545934866E-002
   2.8135002974646588E-003  -6.4901802379519202E-003   5.6292594945264625E-002
   3.0837466095253990E-003  -8.5568067797261518E-003   5.2688818868918297E-002
   3.3539929215861183E-003  -1.1074415426166150E-002   4.9044303316896826E-002
   3.6242392336468393E-003  -1.4043006177271611E-002   4.5359048289199566E-002
   2.0088491123486374E-003  -4.1961892727684358E-003   6.2496513396263609E-002
   2.2555803785398176E-003  -5.4901679827027428E-003   5.8439806051139409E-002
   2.5023116447310534E-003  -7.1724425191368457E-003   5.4376808089951933E-002
   2.7490429109222822E-003  -9.2430128820729651E-003   5.0307519512701182E-002
   2.9957741771134971E-003  -1.1701879071508436E-002   4.6231940319386933E-002
   3.2814506332840720E-002  -1.0676168546836007E-002   6.2512430956998544E-002
   2.9835787368550498E-002  -8.0468848532644077E-003   6.3501889752940133E-002
   2.6857068404260290E-002  -6.1968504622601228E-003   6.4259827736785735E-002
   2.3878349439970081E-002  -5.1260653738228953E-003   6.4786244908535046E-002
   2.0899630475679873E-002  -4.8345295879528849E-003   6.5081141268188591E-002
   2.7565866302263528E-002  -3.9521579796953366E-003   7.3237060842782975E-002
   2.4606992199478581E-002  -3.4786965303438278E-003   7.1351259664340833E-002
   2.1648118096693668E-002  -3.1784623460027195E-003   6.9736669021005587E-002
   1.8689243993908745E-002  -3.0514554266720811E-003   6.8393288912776642E-002
   1.5730369891123808E-002  -3.0976757723519266E-003   6.7321119339654373E-002
   1.9666838907490242E-002   2.7718525874452504E-003   8.1502857465568984E-002
   1.7230541013413245E-002   1.0894917925768632E-003   7.7347818350300079E-002
   1.4794243119336220E-002  -1.6007422974533003E-004   7.3966721117340387E-002
   1.2357945225259220E-002  -9.7684547952127040E-004   7.1359565766689836E-002
   9.9216473311822054E-003  -1.3608219567509960E-003   6.9526352298348540E-002
   9.1174241485209445E-003   9.4958631545858929E-003   8.7309820825356710E-002
   7.7064338103544662E-003   5.6576801154975126E-003   8.1491565810817623E-002
   6.2954434721879948E-003   2.8583138865120386E-003   7.6949984025790327E-002
   4.8844531340215182E-003   1.0977644676294866E-003   7.3685075470274961E-002
   3.4734627958550399E-003   3.7603185884992063E-004   7.1696840144271481E-002
  -4.0823779746444397E-003   1.6219873721726508E-002   9.0657950922145847E-002
  -3.9653294096977515E-003   1.0225868438418106E-002   8.3782502045893381E-002
  -3.8482808447510564E-003   5.8767020027694489E-003   7.8686457746355382E-002
  -3.7312322798043612E-003   3.1723744147803233E-003   7.5369818023531807E-002
  -3.6141837148576696E-003   2.1128856744508928E-003   7.3832582877422781E-002
   2.0899630475679873E-002  -4.8345295879528849E-003   6.5081141268188591E-002
   2.0431770809046401E-002  -4.9097780404767366E-003   6.5032927320735290E-002
   1.9963911142412916E-002  -4.9393456672214703E-003   6.4823492860727389E-002
   1.9496051475779444E-002  -4.9232324681864996E-003   6.4452837888165374E-002
   1.9028191809145972E-002  -4.8614384433726121E-003   6.3920962403049009E-002
   1.5730369891123808E-002  -3.0976757723519266E-003   6.7321119339654373E-002
   1.5195308603257705E-002  -3.2088457182519042E-003   6.6771966753311943E-002
   1.4660247315391603E-002  -3.2766875995815237E-003   6.6249631437058573E-002
   1.4125186027525501E-002  -3.3012014163409167E-003   6.5754113390894320E-002
   1.3590124739659384E-002  -3.2823871685299100E-003   6.5285412614818988E-002
   9.9216473311822054E-003  -1.3608219567509960E-003   6.9526352298348540E-002
   9.5074222047268793E-003  -1.5079133960269470E-003   6.8473908311908138E-002
   9.0931970782715428E-003  -1.6140295319416395E-003   6.7636319378200083E-002
   8.6789719518162063E-003  -1.6791703644950581E-003   6.7013585497224581E-002
   8.2647468253608802E-003  -1.7033358936872078E-003   6.6605706668981551E-002
   3.4734627958550399E-003   3.7603185884992063E-004   7.1696840144271481E-002
   3.3681116134538875E-003   1.9301892619794786E-004   7.0138751996523835E-002
   3.2627604310527282E-003   4.8628535698359149E-005   6.8983556684152056E-002
   3.1574092486515758E-003  -5.7139312649254030E-005   6.8231254207156242E-002
   3.0520580662504165E-003  -1.2428461884464448E-004   6.7881844565536253E-002
  -3.6141837148576696E-003   2.1128856744508928E-003   7.3832582877422781E-002
  -3.2226231705612465E-003   1.8939512484228149E-003   7.1766497807159019E-002
  -2.8310626262648252E-003   1.7112866033381635E-003   7.0291343354914576E-002
  -2.4395020819684005E-003   1.5648917391964043E-003   6.9407119520689314E-002
  -2.0479415376719809E-003   1.4547666559981409E-003   6.9113826304483428E-002
   1.9028191809145972E-002  -4.8614384433726121E-003   6.3920962403049009E-002
   1.8120974959555780E-002  -4.7543168806068181E-003   6.3221598243162536E-002
   1.7213758109965616E-002  -4.6022210677169884E-003   6.2947791595032332E-002
   1.6306541260375444E-002  -4.4051510047032547E-003   6.3099542458658342E-002
   1.5399324410785259E-002  -4.1631066915652770E-003   6.3676850834040732E-002
   1.3590124739659384E-002  -3.2823871685299100E-003   6.5285412614818988E-002
   1.3084972499503543E-002  -3.2266130193511211E-003   6.4713027701943177E-002
   1.2579820259347708E-002  -3.1402471320076675E-003   6.4519214496179825E-002
   1.2074668019191871E-002  -3.0232895064988552E-003   6.4703972997528891E-002
   1.1569515779036033E-002  -2.8757401428253226E-003   6.5267303205990390E-002
   8.2647468253608802E-003  -1.7033358936872078E-003   6.6605706668981551E-002
   8.1146733899955178E-003  -1.6989091580956878E-003   6.6145918491157307E-002
   7.9645999546301693E-003  -1.6782731962982494E-003   6.6017716215801783E-002
   7.8145265192648122E-003  -1.6414280082946257E-003   6.6221099842914910E-002
   7.6644530838994585E-003  -1.5883735940852572E-003   6.6756069372496285E-002
   3.0520580662504165E-003  -1.2428461884464448E-004   6.7881844565536253E-002
   3.2100776310317030E-003  -1.7120529684026137E-004   6.7520270610804775E-002
   3.3680971958129939E-003  -2.1629926058893550E-004   6.7443296753897986E-002
   3.5261167605942791E-003  -2.5956651009053332E-004   6.7650922994815926E-002
   3.6841363253755643E-003  -3.0100704534519185E-004   6.8143149333558500E-002
  -2.0479415376719809E-003   1.4547666559981409E-003   6.9113826304483428E-002
  -1.6288147773878964E-003   1.3564985644153871E-003   6.8836084060885649E-002
  -1.2096880171038119E-003   1.2456746751205172E-003   6.8795956110468570E-002
  -7.9056125681972386E-004   1.1222949881138991E-003   6.8993442453232495E-002
  -3.7143449653564281E-004   9.8635950339481804E-004   6.9428543089177175E-002
   1.5399324410785259E-002  -4.1631066915652770E-003   6.3676850834040732E-002
   1.4476752657026387E-002  -3.8990669879063189E-003   6.3387655293547285E-002
   1.3554180903267501E-002  -3.6360107533286445E-003   6.3250737775070620E-002
   1.2631609149508630E-002  -3.3739379878326980E-003   6.3266098278610461E-002
   1.1709037395749744E-002  -3.1128486914181464E-003   6.3433736804167307E-002
   1.1569515779036033E-002  -2.8757401428253226E-003   6.5267303205990390E-002
   1.0806887092009172E-002  -2.7107932501435339E-003   6.4912128572209821E-002
   1.0044258404982340E-002  -2.5416430376102861E-003   6.4724562049876699E-002
   9.2816297179554794E-003  -2.3682895052259123E-003   6.4704603638990998E-002
   8.5190010309286468E-003  -2.1907326529899684E-003   6.4852253339552635E-002
   7.6644530838994585E-003  -1.5883735940852572E-003   6.6756069372496285E-002
   7.0770975530353233E-003  -1.5225195123806379E-003   6.6340102434361559E-002
   6.4897420221711882E-003  -1.4472753218918166E-003   6.6107073697104890E-002
   5.9023864913070392E-003  -1.3626410226191266E-003   6.6056983160726196E-002
   5.3150309604429041E-003  -1.2686166145620681E-003   6.6189830825225671E-002
   3.6841363253755643E-003  -3.0100704534519185E-004   6.8143149333558500E-002
   3.2873840401048109E-003  -3.3424577461785288E-004   6.7671576880002415E-002
   2.8906317548340610E-003  -3.5290760617356920E-004   6.7398272716754970E-002
   2.4938794695633093E-003  -3.5699254001239633E-004   6.7323236843816150E-002
   2.0971271842925576E-003  -3.4650057613413998E-004   6.7446469261186165E-002
  -3.7143449653564281E-004   9.8635950339481804E-004   6.9428543089177175E-002
  -5.6225344678234243E-004   8.5402796314498763E-004   6.8906551909132419E-002
  -7.5307239702903511E-004   7.4146010954496966E-004   6.8598159108826967E-002
  -9.4389134727572606E-004   6.4865594259449003E-004   6.8503364688260918E-002
  -1.1347102975224274E-003   5.7561546229389915E-004   6.8622168647434312E-002
   1.1709037395749744E-002  -3.1128486914181464E-003   6.3433736804167307E-002
   1.0756420888641871E-002  -2.8447589974457399E-003   6.3306003097151620E-002
   9.8038043815339981E-003  -2.5616850392755630E-003   6.3457957131057896E-002
   8.8511878744261391E-003  -2.2636268169083928E-003   6.3889598905886302E-002
   7.8985713673182523E-003  -1.9505843303437853E-003   6.4600928421636783E-002
   8.5190010309286468E-003  -2.1907326529899684E-003   6.4852253339552635E-002
   7.8476949178112460E-003  -2.0055295653116367E-003   6.4725245287556354E-002
   7.1763888046938520E-003  -1.8092373265991002E-003   6.4881170282619138E-002
   6.5050826915764616E-003  -1.6018559368527197E-003   6.5320028324740792E-002
   5.8337765784590712E-003  -1.3833853960724118E-003   6.6041819413921177E-002
   5.3150309604429041E-003  -1.2686166145620681E-003   6.6189830825225671E-002
   4.9282805474528783E-003  -1.1663001331778111E-003   6.6059653315085481E-002
   4.5415301344628387E-003  -1.0567896139227484E-003   6.6215654158141207E-002
   4.1547797214728129E-003  -9.4008505679726850E-004   6.6657833354392876E-002
   3.7680293084827732E-003  -8.1618646180103838E-004   6.7386190903840210E-002
   2.0971271842925576E-003  -3.4650057613413998E-004   6.7446469261186165E-002
   1.9981777775667647E-003  -3.2707070104379121E-004   6.7309227179738834E-002
   1.8992283708409771E-003  -3.0434190124645211E-004   6.7461408757624283E-002
   1.8002789641151928E-003  -2.7831417674148429E-004   6.7903013994842110E-002
   1.7013295573894104E-003  -2.4898752752949838E-004   6.8634042891393077E-002
  -1.1347102975224274E-003   5.7561546229389915E-004   6.8622168647434312E-002
  -9.4261339184708443E-004   5.1215873109000665E-004   6.8473966881516302E-002
  -7.5051648617173797E-004   4.4810581142995520E-004   6.8618434081067992E-002
  -5.5841958049638804E-004   3.8345670331399462E-004   6.9055570246089187E-002
  -3.6632267482104852E-004   3.1821140674170856E-004   6.9785375376579806E-002
   7.8985713673182523E-003  -1.9505843303437853E-003   6.4600928421636783E-002
   6.9431268128421764E-003  -1.6915856823377928E-003   6.4476050000441543E-002
   5.9876822583661005E-003  -1.5556589756467731E-003   6.4592914038154592E-002
   5.0322377038900107E-003  -1.5428042102703307E-003   6.4951520534776069E-002
   4.0767931494139209E-003  -1.6530213862090415E-003   6.5551869490306003E-002
   5.8337765784590712E-003  -1.3833853960724118E-003   6.6041819413921177E-002
   5.1226822370120939E-003  -1.2040839119853430E-003   6.5812346662862065E-002
   4.4115878955651097E-003  -1.1142096923190681E-003   6.5829831878952666E-002
   3.7004935541181221E-003  -1.1137627370734898E-003   6.6094275062193106E-002
   2.9893992126711483E-003  -1.2027430462487887E-003   6.6605676212583120E-002
   3.7680293084827732E-003  -8.1618646180103838E-004   6.7386190903840210E-002
   3.3065006883064296E-003  -7.1658214163280998E-004   6.7085768499810822E-002
   2.8449720681300757E-003  -6.7276040899137690E-004   6.7037519571172807E-002
   2.3834434479537286E-003  -6.8472126387665241E-004   6.7241444117926402E-002
   1.9219148277773782E-003  -7.5246470628859141E-004   6.7697542140071038E-002
   1.7013295573894104E-003  -2.4898752752949838E-004   6.8634042891393077E-002
   1.4945821667252130E-003  -2.2908037128020753E-004   6.8296315511287634E-002
   1.2878347760610165E-003  -2.3131112566351225E-004   6.8215977114815168E-002
   1.0810873853968200E-003  -2.5567979067992429E-004   6.8393027701975445E-002
   8.7433999473262268E-004  -3.0218636632847740E-004   6.8827467272769061E-002
  -3.6632267482104852E-004   3.1821140674170856E-004   6.9785375376579806E-002
  -3.1307332773157504E-004   2.5842139907233941E-004   6.9443987697292653E-002
  -2.5982398064209461E-004   2.1013815766399158E-004   6.9365204509879763E-002
  -2.0657463355261765E-004   1.7336168251724099E-004   6.9549025814341164E-002
  -1.5332528646314070E-004   1.4809197363174764E-004   6.9995451610677217E-002
   4.0767931494139209E-003  -1.6530213862090415E-003   6.5551869490306003E-002
   3.5598071401476000E-003  -1.9407842390659069E-003   6.4594037066067700E-002
   3.0428211308812791E-003  -2.4605665044446223E-003   6.3765533575647959E-002
   2.5258351216149444E-003  -3.2123681823456110E-003   6.3066359019046475E-002
   2.0088491123486374E-003  -4.1961892727684358E-003   6.2496513396263609E-002
   2.9893992126711483E-003  -1.2027430462487887E-003   6.6605676212583120E-002
   2.6032269346582398E-003  -1.4228134943424786E-003   6.5466851924660230E-002
   2.2170546566453384E-003  -1.8156369558516572E-003   6.4460326165425547E-002
   1.8308823786324264E-003  -2.3812134307771085E-003   6.3586098934879501E-002
   1.4447101006195284E-003  -3.1195429191182011E-003   6.2844170233021468E-002
   1.9219148277773782E-003  -7.5246470628859141E-004   6.7697542140071038E-002
   1.6695258758879124E-003  -9.0484274961885602E-004   6.6436992387569033E-002
   1.4171369239984501E-003  -1.1707074072587892E-003   6.5311710758625505E-002
   1.1647479721089878E-003  -1.5500586792086025E-003   6.4321697253240523E-002
   9.1235902021950810E-004  -2.0428965654681885E-003   6.3466951871413824E-002
   8.7433999473262268E-004  -3.0218636632847740E-004   6.8827467272769061E-002
   7.5870396383661155E-004  -3.8687200489544160E-004   6.7504458454794358E-002
   6.4306793294060648E-004  -5.2577785866603916E-004   6.6319687355248097E-002
   5.2743190204459188E-004  -7.1890392764032036E-004   6.5273153974130374E-002
   4.1179587114859029E-004  -9.6625021181817594E-004   6.4364858311441342E-002
  -1.5332528646314070E-004   1.4809197363174764E-004   6.9995451610677217E-002
  -1.2923880149567218E-004   1.3109873982813935E-004   6.8669250126335957E-002
  -1.0515231652819673E-004   1.1915168992712721E-004   6.7484255955293171E-002
  -8.1065831560728219E-005   1.1225082392842672E-004   6.6440469097548888E-002
  -5.6979346593252767E-005   1.1039614183205870E-004   6.5537889553102913E-002
   2.0088491123486374E-003  -4.1961892727684358E-003   6.2496513396263609E-002
   2.2555803785398176E-003  -5.4901679827027428E-003   5.8439806051139409E-002
   2.5023116447310534E-003  -7.1724425191368457E-003   5.4376808089951933E-002
   2.7490429109222822E-003  -9.2430128820729651E-003   5.0307519512701182E-002
   2.9957741771134971E-003  -1.1701879071508436E-002   4.6231940319386933E-002
   1.4447101006195284E-003  -3.1195429191182011E-003   6.2844170233021468E-002
   1.6715360795608453E-003  -4.0888524312392427E-003   5.8466884717717493E-002
   1.8983620585021552E-003  -5.3473689775044297E-003   5.4056079243977484E-002
   2.1251880374434963E-003  -6.8950925579135680E-003   4.9611753811800774E-002
   2.3520140163847958E-003  -8.7320231724663522E-003   4.5133908421187474E-002
   9.1235902021950810E-004  -2.0428965654681885E-003   6.3466951871413824E-002
   1.0920503695378975E-003  -2.6875368797762422E-003   5.8868176978286779E-002
   1.2717417188562868E-003  -3.5222954358714587E-003   5.4208652784350664E-002
   1.4514330681746398E-003  -4.5471722337540599E-003   4.9488379289605214E-002
   1.6311244174930656E-003  -5.7621672734238238E-003   4.4707356494049555E-002
   4.1179587114859029E-004  -9.6625021181817594E-004   6.4364858311441342E-002
   5.1712324847098291E-004  -1.2862213283131030E-003   5.9643682832848183E-002
   6.2245062579339115E-004  -1.6972218942385431E-003   5.4834528711072361E-002
   7.2777800311579202E-004  -2.1992519095947183E-003   4.9937395946114391E-002
   8.3310538043817814E-004  -2.7923113743816286E-003   4.4952284537973536E-002
  -5.6979346593252767E-005   1.1039614183205870E-004   6.5537889553102913E-002
  -5.3245283639875851E-005   1.1509422315003626E-004   6.0793402281400399E-002
  -4.9511220686485058E-005   1.2785164739415045E-004   5.5933707024141799E-002
  -4.5777157733108143E-005   1.4866841456456781E-004   5.0958803781327666E-002
  -4.2043094779717349E-005   1.7754452466078874E-004   4.5868692552958557E-002
  -4.0823779746444397E-003   1.6219873721726508E-002   9.0657950922145847E-002
  -3.9653294096977515E-003   1.0225868438418106E-002   8.3782502045893381E-002
  -3.8482808447510564E-003   5.8767020027694489E-003   7.8686457746355382E-002
  -3.7312322798043612E-003   3.1723744147803233E-003   7.5369818023531807E-002
  -3.6141837148576696E-003   2.1128856744508928E-003   7.3832582877422781E-002
  -1.6437711707903237E-002   7.6701297275085789E-003   6.5138334477125248E-002
  -1.4884675887946404E-002   4.7526159038419336E-003   6.3522848285752387E-002
  -1.3331640067989571E-002   2.7183749576652899E-003   6.2999932027685418E-002
  -1.1778604248032743E-002   1.5674068889785404E-003   6.3569585702924203E-002
  -1.0225568428075905E-002   1.2997116977818968E-003   6.5231809311468769E-002
  -2.4453721297152783E-002  -8.7961426670934983E-004   4.3075992476831068E-002
  -2.2151532865594507E-002  -7.2063663073421158E-004   4.5958903000168402E-002
  -1.9849344434036229E-002  -4.3995208743880659E-004   4.9247548813402577E-002
  -1.7547156002477950E-002  -3.7560636823157426E-005   5.2941929916534000E-002
  -1.5244967570919660E-002   4.8653772111273419E-004   5.7042046309562541E-002
  -2.8130406742393126E-002  -9.4293582609272647E-003   2.4470924921263831E-002
  -2.5765900342642065E-002  -6.1938891653103428E-003   3.1090666189141167E-002
  -2.3401393942891022E-002  -3.5982791325428511E-003   3.7429308103507114E-002
  -2.1036887543139961E-002  -1.6425281626249255E-003   4.3486850664361379E-002
  -1.8672381143388907E-002  -3.2663625555637288E-004   4.9263293871704160E-002
  -2.7467768043624226E-002  -1.7979102255145207E-002   9.3231318104229355E-003
  -2.5727778319089071E-002  -1.1667141699886502E-002   1.8918137852670880E-002
  -2.3987788594553944E-002  -6.7566061776470204E-003   2.7545209897998718E-002
  -2.2247798870018810E-002  -3.2474956884266139E-003   3.5204347946406214E-002
  -2.0507809145483658E-002  -1.1398102322254244E-003   4.1895551997893521E-002
  -3.6141837148576696E-003   2.1128856744508928E-003   7.3832582877422781E-002
  -3.2226231705612465E-003   1.8939512484228149E-003   7.1766497807159019E-002
  -2.8310626262648252E-003   1.7112866033381635E-003   7.0291343354914576E-002
  -2.4395020819684005E-003   1.5648917391964043E-003   6.9407119520689314E-002
  -2.0479415376719809E-003   1.4547666559981409E-003   6.9113826304483428E-002
  -1.0225568428075905E-002   1.2997116977818968E-003   6.5231809311468769E-002
  -9.3897525982706443E-003   1.4468047651803317E-003   6.4602321189390993E-002
  -8.5539367684653762E-003   1.5402014722792415E-003   6.4270413020311515E-002
  -7.7181209386601151E-003   1.5799018190791204E-003   6.4236084804230487E-002
  -6.8823051088548470E-003   1.5659058055792485E-003   6.4499336541147978E-002
  -1.5244967570919660E-002   4.8653772111273419E-004   5.7042046309562541E-002
  -1.4258247120626425E-002   9.9965828193769590E-004   5.7759188994428022E-002
  -1.3271526670333187E-002   1.3691163412206525E-003   5.8480560967271111E-002
  -1.2284806220039949E-002   1.5949118989614479E-003   5.9206162228091684E-002
  -1.1298085769746712E-002   1.6770449551602729E-003   5.9935992776889768E-002
  -1.8672381143388907E-002  -3.2663625555637288E-004   4.9263293871704160E-002
  -1.7828106737628569E-002   5.5251179869502537E-004   5.1237101222270320E-002
  -1.6983832331868239E-002   1.1980312101620080E-003   5.2921787195793171E-002
  -1.6139557926107911E-002   1.6099219788439697E-003   5.4317351792272615E-002
  -1.5295283520347567E-002   1.7881841047412556E-003   5.5423795011708778E-002
  -2.0507809145483658E-002  -1.1398102322254244E-003   4.1895551997893521E-002
  -2.0099331449277103E-002   1.0536531545257688E-004   4.5036057872917756E-002
  -1.9690853753070545E-002   1.0269460791031554E-003   4.7594091705877722E-002
  -1.9282376056863990E-002   1.6249320587264672E-003   4.9569653496773558E-002
  -1.8873898360657435E-002   1.8993232543224048E-003   5.0962743245605180E-002
  -2.0479415376719809E-003   1.4547666559981409E-003   6.9113826304483428E-002
  -1.6288147773878964E-003   1.3564985644153871E-003   6.8836084060885649E-002
  -1.2096880171038119E-003   1.2456746751205172E-003   6.8795956110468570E-002
  -7.9056125681972386E-004   1.1222949881138991E-003   6.8993442453232495E-002
  -3.7143449653564281E-004   9.8635950339481804E-004   6.9428543089177175E-002
  -6.8823051088548470E-003   1.5659058055792485E-003   6.4499336541147978E-002
  -6.2518291526293211E-003   1.5138625472011502E-003   6.4596435147017184E-002
  -5.6213531964038055E-003   1.4394211593659334E-003   6.4878617851588355E-002
  -4.9908772401782812E-003   1.3425816420737993E-003   6.5345884654861339E-002
  -4.3604012839527639E-003   1.2233439953245329E-003   6.5998235556836538E-002
  -1.1298085769746712E-002   1.6770449551602729E-003   5.9935992776889768E-002
  -1.0508790812058619E-002   1.6712265299868856E-003   6.0398089900480900E-002
  -9.7194958543705343E-003   1.6331676436115022E-003   6.0992740928295139E-002
  -8.9302008966824342E-003   1.5628682960338626E-003   6.1719945860332574E-002
  -8.1409059389943497E-003   1.4603284872541089E-003   6.2579704696593116E-002
  -1.5295283520347567E-002   1.7881841047412556E-003   5.5423795011708778E-002
  -1.4399699755675786E-002   1.8285905127726626E-003   5.6241048321276875E-002
  -1.3504115991003995E-002   1.8269141278567727E-003   5.7138325340589075E-002
  -1.2608532226332210E-002   1.7831549499938999E-003   5.8115626069645585E-002
  -1.1712948461660421E-002   1.6973129791836988E-003   5.9172950508446370E-002
  -1.8873898360657435E-002   1.8993232543224048E-003   5.0962743245605180E-002
  -1.7924555983480809E-002   1.9859544955583841E-003   5.2125310409404935E-002
  -1.6975213606304197E-002   2.0206606121025011E-003   5.3315371088470204E-002
  -1.6025871229127579E-002   2.0034416039539128E-003   5.4532925282800779E-002
  -1.5076528851950960E-002   1.9342974711133443E-003   5.5777972992396896E-002
  -3.7143449653564281E-004   9.8635950339481804E-004   6.9428543089177175E-002
  -5.6225344678234243E-004   8.5402796314498763E-004   6.8906551909132419E-002
  -7.5307239702903511E-004   7.4146010954496966E-004   6.8598159108826967E-002
  -9.4389134727572606E-004   6.4865594259449003E-004   6.8503364688260918E-002
  -1.1347102975224274E-003   5.7561546229389915E-004   6.8622168647434312E-002
  -4.3604012839527639E-003   1.2233439953245329E-003   6.5998235556836538E-002
  -4.3257378346377960E-003   1.1104905530948395E-003   6.5724055641562612E-002
  -4.2910743853228298E-003   1.0328036493614523E-003   6.5687242145672536E-002
  -4.2564109360078550E-003   9.9028328412423955E-004   6.5887795069166435E-002
  -4.2217474866928957E-003   9.8292945738354121E-004   6.6325714412044101E-002
  -8.1409059389943497E-003   1.4603284872541089E-003   6.2579704696593116E-002
  -7.8569920504731813E-003   1.3669531430447746E-003   6.2568738897936349E-002
  -7.5730781619520139E-003   1.3241471891780390E-003   6.2818907558308157E-002
  -7.2891642734308516E-003   1.3319106256543204E-003   6.3330210677708457E-002
  -7.0052503849096781E-003   1.3902434524732388E-003   6.4102648256137040E-002
  -1.1712948461660421E-002   1.6973129791836988E-003   5.9172950508446370E-002
  -1.1156016094288519E-002   1.6234157329944460E-003   5.9440601678253747E-002
  -1.0599083726916630E-002   1.6154907289947402E-003   5.9993155346733738E-002
  -1.0042151359544721E-002   1.6735379671842911E-003   6.0830611513887120E-002
  -9.4852189921728371E-003   1.7975574475629641E-003   6.1952970179713185E-002
  -1.5076528851950960E-002   1.9342974711133443E-003   5.5777972992396896E-002
  -1.4222809966083806E-002   1.8798783229445615E-003   5.6339643982514398E-002
  -1.3369091080216639E-002   1.9068342688111778E-003   5.7209985510949551E-002
  -1.2515372194349464E-002   2.0151653087141126E-003   5.8388997577702148E-002
  -1.1661653308482310E-002   2.2048714426526894E-003   5.9876680182772257E-002
  -1.1347102975224274E-003   5.7561546229389915E-004   6.8622168647434312E-002
  -9.4261339184708443E-004   5.1215873109000665E-004   6.8473966881516302E-002
  -7.5051648617173797E-004   4.4810581142995520E-004   6.8618434081067992E-002
  -5.5841958049638804E-004   3.8345670331399462E-004   6.9055570246089187E-002
  -3.6632267482104852E-004   3.1821140674170856E-004   6.9785375376579806E-002
  -4.2217474866928957E-003   9.8292945738354121E-004   6.6325714412044101E-002
  -3.7654932929898719E-003   9.7517018313503234E-004   6.6434248448654198E-002
  -3.3092390992868516E-003   9.3143347537513743E-004   6.6778428095849968E-002
  -2.8529849055838261E-003   8.5171933410368300E-004   6.7358253353631492E-002
  -2.3967307118808075E-003   7.3602775932080089E-004   6.8173724221998799E-002
  -7.0052503849096781E-003   1.3902434524732388E-003   6.4102648256137040E-002
  -6.3418622580627936E-003   1.4381816351802246E-003   6.4432536850219629E-002
  -5.6784741312159003E-003   1.4147611393203197E-003   6.4941047700004306E-002
  -5.0150860043690045E-003   1.3199819648935379E-003   6.5628180805490904E-002
  -4.3516978775221087E-003   1.1538441118998932E-003   6.6493936166679368E-002
  -9.4852189921728371E-003   1.7975574475629641E-003   6.1952970179713185E-002
  -8.6717202870658615E-003   1.9011930872252780E-003   6.2468832086213018E-002
  -7.8582215819588842E-003   1.8980888032655019E-003   6.3106292893530966E-002
  -7.0447228768518999E-003   1.7882445956833096E-003   6.3865352601667147E-002
  -6.2312241717449304E-003   1.5716604644790411E-003   6.4746011210621374E-002
  -1.1661653308482310E-002   2.2048714426526894E-003   5.9876680182772257E-002
  -1.0755067379999060E-002   2.3642045392703870E-003   6.0543134156633927E-002
  -9.8484814515158031E-003   2.3814164672107674E-003   6.1274163676429960E-002
  -8.9418955230325496E-003   2.2565072264728800E-003   6.2069768742160303E-002
  -8.0353095945492892E-003   1.9894768170579669E-003   6.2929949353825121E-002
  -3.6632267482104852E-004   3.1821140674170856E-004   6.9785375376579806E-002
  -3.1307332773157504E-004   2.5842139907233941E-004   6.9443987697292653E-002
  -2.5982398064209461E-004   2.1013815766399158E-004   6.9365204509879763E-002
  -2.0657463355261765E-004   1.7336168251724099E-004   6.9549025814341164E-002
  -1.5332528646314070E-004   1.4809197363174764E-004   6.9995451610677217E-002
  -2.3967307118808075E-003   7.3602775932080089E-004   6.8173724221998799E-002
  -2.0896528376914830E-003   6.2365653968038393E-004   6.7926063904384104E-002
  -1.7825749635021464E-003   5.5390346383563105E-004   6.7923456149094702E-002
  -1.4754970893128177E-003   5.2676853178700717E-004   6.8165900956130274E-002
  -1.1684192151234854E-003   5.4225174353428329E-004   6.8653398325491499E-002
  -4.3516978775221087E-003   1.1538441118998932E-003   6.6493936166679368E-002
  -3.8083434057820890E-003   9.8889168028812313E-004   6.6371114588271718E-002
  -3.2649889340420676E-003   8.9766877000706236E-004   6.6475793642640432E-002
  -2.7216344623020470E-003   8.8017538105666579E-004   6.6807973329785109E-002
  -2.1782799905620126E-003   9.3641151343698548E-004   6.7367653649706011E-002
  -6.2312241717449304E-003   1.5716604644790411E-003   6.4746011210621374E-002
  -5.4691450320033816E-003   1.3541268208961815E-003   6.4779139748955855E-002
  -4.7070658922618250E-003   1.2414340761786533E-003   6.5022216990517093E-002
  -3.9449867525202719E-003   1.2335822303263782E-003   6.5475242935305294E-002
  -3.1829076127787188E-003   1.3305712833394934E-003   6.6138217583320613E-002
  -8.0353095945492892E-003   1.9894768170579669E-003   6.2929949353825121E-002
  -7.0720577163553844E-003   1.7193619615040179E-003   6.3150139386435988E-002
  -6.1088058381614518E-003   1.5851993823501886E-003   6.3562726192724683E-002
  -5.1455539599675314E-003   1.5869890795961045E-003   6.4167709772691178E-002
  -4.1823020817736145E-003   1.7247310532422233E-003   6.4965090126335556E-002
  -1.5332528646314070E-004   1.4809197363174764E-004   6.9995451610677217E-002
  -1.2923880149567218E-004   1.3109873982813935E-004   6.8669250126335957E-002
  -1.0515231652819673E-004   1.1915168992712721E-004   6.7484255955293171E-002
  -8.1065831560728219E-005   1.1225082392842672E-004   6.6440469097548888E-002
  -5.6979346593252767E-005   1.1039614183205870E-004   6.5537889553102913E-002
  -1.1684192151234854E-003   5.4225174353428329E-004   6.8653398325491499E-002
  -1.0070172168135071E-003   6.0908748680615910E-004   6.7361104745993550E-002
  -8.4561521850351484E-004   7.3601014932972442E-004   6.6202234879882166E-002
  -6.8421322019352956E-004   9.2301973110688051E-004   6.5176788727157112E-002
  -5.2281122188354429E-004   1.1701162321358094E-003   6.4284766287818873E-002
  -2.1782799905620126E-003   9.3641151343698548E-004   6.7367653649706011E-002
  -1.8873460788214743E-003   1.0870762337838735E-003   6.6164308710401243E-002
  -1.5964121670809222E-003   1.3528686087333347E-003   6.5086603884571229E-002
  -1.3054782553403779E-003   1.7337886382851157E-003   6.4134539172215843E-002
  -1.0145443435998179E-003   2.2298363224395601E-003   6.3308114573334850E-002
  -3.1829076127787188E-003   1.3305712833394934E-003   6.6138217583320613E-002
  -2.7702253875195623E-003   1.5650649807617406E-003   6.5078862019559244E-002
  -2.3575431622604062E-003   1.9697270681362719E-003   6.4137362969360623E-002
  -1.9448609370012570E-003   2.5445575454635713E-003   6.3313720432724693E-002
  -1.5321787117420936E-003   3.2895564127428667E-003   6.2607934409651178E-002
  -4.1823020817736145E-003   1.7247310532422233E-003   6.4965090126335556E-002
  -3.6556551429077974E-003   2.0430537277397187E-003   6.4104764673467485E-002
  -3.1290082040419803E-003   2.5865855275395699E-003   6.3354512134250363E-002
  -2.6023612651761546E-003   3.3553264526418672E-003   6.2714332508683662E-002
  -2.0757143263103461E-003   4.3492765030469505E-003   6.2184225796768078E-002
  -5.6979346593252767E-005   1.1039614183205870E-004   6.5537889553102913E-002
  -5.3245283639875851E-005   1.1509422315003626E-004   6.0793402281400399E-002
  -4.9511220686485058E-005   1.2785164739415045E-004   5.5933707024141799E-002
  -4.5777157733108143E-005   1.4866841456456781E-004   5.0958803781327666E-002
  -4.2043094779717349E-005   1.7754452466078874E-004   4.5868692552958557E-002
  -5.2281122188354429E-004   1.1701162321358094E-003   6.4284766287818873E-002
  -6.2115172470461957E-004   1.5001348459148245E-003   5.9584419514058018E-002
  -7.1949222752570180E-004   1.9359107659419617E-003   5.4795131594303714E-002
  -8.1783273034679270E-004   2.4774439922158192E-003   4.9916902528556018E-002
  -9.1617323316785931E-004   3.1247345247384928E-003   4.4949732316814650E-002
  -1.0145443435998179E-003   2.2298363224395601E-003   6.3308114573334850E-002
  -1.1886925726332289E-003   2.8851754686797237E-003   5.8749606260837445E-002
  -1.3628408016666520E-003   3.7439698844891067E-003   5.4128423641908813E-002
  -1.5369890307000301E-003   4.8062195698677923E-003   4.9444566716548802E-002
  -1.7111372597334723E-003   6.0719245248157527E-003   4.4698035484758036E-002
  -1.5321787117420936E-003   3.2895564127428667E-003   6.2607934409651178E-002
  -1.7558678274256702E-003   4.2702160914444565E-003   5.8288962521739235E-002
  -1.9795569431092608E-003   5.5520290030365849E-003   5.3933583166957663E-002
  -2.2032460587928754E-003   7.1349951475196266E-003   4.9541796345306852E-002
  -2.4269351744764418E-003   9.0191145248933458E-003   4.5113602056787605E-002
  -2.0757143263103461E-003   4.3492765030469505E-003   6.2184225796768078E-002
  -2.3226774890819785E-003   5.6552567142095223E-003   5.8202488296762334E-002
  -2.5696406518536177E-003   7.3600881215838687E-003   5.4210610169449558E-002
  -2.8166038146252449E-003   9.4637707251711348E-003   5.0208591414830278E-002
  -3.0635669773968893E-003   1.1966304524970717E-002   4.6196432032903800E-002
  -2.7467768043624226E-002  -1.7979102255145207E-002   9.3231318104229355E-003
  -2.5727778319089071E-002  -1.1667141699886502E-002   1.8918137852670880E-002
  -2.3987788594553944E-002  -6.7566061776470204E-003   2.7545209897998718E-002
  -2.2247798870018810E-002  -3.2474956884266139E-003   3.5204347946406214E-002
  -2.0507809145483658E-002  -1.1398102322254244E-003   4.1895551997893521E-002
  -2.7142460765842629E-002  -4.3567779769725923E-003   3.4025862916823635E-002
  -2.5974577812878968E-002  -1.5004312437665590E-003   3.7990198357748806E-002
  -2.4806694859915393E-002   7.3231884108306000E-004   4.1778254252451186E-002
  -2.3638811906951773E-002   2.3414722775763376E-003   4.5390030600930692E-002
  -2.2470928953988153E-002   3.3270290657131940E-003   4.8825527403187574E-002
  -3.1831140474044700E-002   9.2655463012001060E-003   5.4884066008840146E-002
  -3.0443709841955220E-002   8.6662792123534393E-003   5.3995559233105297E-002
  -2.9056279209865692E-002   8.2212438598131751E-003   5.3722427361845120E-002
  -2.7668848577776219E-002   7.9304402435793741E-003   5.4064670395059494E-002
  -2.6281417945686718E-002   7.7938683636518125E-003   5.5022288332748470E-002
  -4.1533807168230560E-002   2.2887870579372763E-002   7.1897741086472747E-002
  -3.9135174406317717E-002   1.8832989668473479E-002   6.6934220478740702E-002
  -3.6736541644404930E-002   1.5710168878543245E-002   6.3377729226180721E-002
  -3.4337908882492094E-002   1.3519408209582230E-002   6.1228267328792545E-002
  -3.1939276120579237E-002   1.2260707661590403E-002   6.0485834786576681E-002
  -5.6250460848400158E-002   3.6510194857545419E-002   8.5066888149721132E-002
  -5.2048971505966546E-002   2.8999700124593353E-002   7.6806182094654563E-002
  -4.7847482163533003E-002   2.3199093897273357E-002   7.0744159845457483E-002
  -4.3645992821099412E-002   1.9108376175585331E-002   6.6880821402129878E-002
  -3.9444503478665821E-002   1.6727546959529049E-002   6.5216166764671790E-002
  -2.0507809145483658E-002  -1.1398102322254244E-003   4.1895551997893521E-002
  -2.0099331449277103E-002   1.0536531545257688E-004   4.5036057872917756E-002
  -1.9690853753070545E-002   1.0269460791031554E-003   4.7594091705877722E-002
  -1.9282376056863990E-002   1.6249320587264672E-003   4.9569653496773558E-002
  -1.8873898360657435E-002   1.8993232543224048E-003   5.0962743245605180E-002
  -2.2470928953988153E-002   3.3270290657131940E-003   4.8825527403187574E-002
  -2.2480994312195864E-002   3.9069699580679407E-003   5.0026978119050075E-002
  -2.2491059670403529E-002   4.2992757072145976E-003   5.0973814768148329E-002
  -2.2501125028611207E-002   4.5039463131536887E-003   5.1666037350482405E-002
  -2.2511190386818876E-002   4.5209817758846138E-003   5.2103645866052206E-002
  -2.6281417945686718E-002   7.7938683636518125E-003   5.5022288332748470E-002
  -2.6382168383008660E-002   7.7085746006833045E-003   5.4420643530268903E-002
  -2.6482918820330607E-002   7.5716053353262550E-003   5.3892242636324909E-002
  -2.6583669257652522E-002   7.3829605675807420E-003   5.3437085650916649E-002
  -2.6684419694974471E-002   7.1426402974466563E-003   5.3055172574044143E-002
  -3.1939276120579237E-002   1.2260707661590403E-002   6.0485834786576681E-002
  -3.1802853661715542E-002   1.1510179243298668E-002   5.8217054106574212E-002
  -3.1666431202851772E-002   1.0843934963437749E-002   5.6349375310407290E-002
  -3.1530008743988043E-002   1.0261974822007795E-002   5.4882798398076006E-002
  -3.1393586285124286E-002   9.7642988190087820E-003   5.3817323369580561E-002
  -3.9444503478665821E-002   1.6727546959529049E-002   6.5216166764671790E-002
  -3.8743050148316416E-002   1.5311783885914032E-002   6.1416209847965891E-002
  -3.8041596817967038E-002   1.4116264591549327E-002   5.8345212790395562E-002
  -3.7340143487617661E-002   1.3140989076435065E-002   5.6003175591960941E-002
  -3.6638690157268256E-002   1.2385957340570963E-002   5.4390098252661834E-002
  -1.8873898360657435E-002   1.8993232543224048E-003   5.0962743245605180E-002
  -1.7924555983480809E-002   1.9859544955583841E-003   5.2125310409404935E-002
  -1.6975213606304197E-002   2.0206606121025011E-003   5.3315371088470204E-002
  -1.6025871229127579E-002   2.0034416039539128E-003   5.4532925282800779E-002
  -1.5076528851950960E-002   1.9342974711133443E-003   5.5777972992396896E-002
  -2.2511190386818876E-002   4.5209817758846138E-003   5.2103645866052206E-002
  -2.1500769765753588E-002   4.4280770200356423E-003   5.2721775267159154E-002
  -2.0490349144688301E-002   4.3029269702346412E-003   5.3434567640777947E-002
  -1.9479928523623020E-002   4.1455316264820234E-003   5.4242022986908695E-002
  -1.8469507902557702E-002   3.9558909887774663E-003   5.5144141305551508E-002
  -2.6684419694974471E-002   7.1426402974466563E-003   5.3055172574044143E-002
  -2.5545751372773973E-002   6.8701995445125119E-003   5.3148544043198367E-002
  -2.4407083050573437E-002   6.5851933283671074E-003   5.3403747942111134E-002
  -2.3268414728372912E-002   6.2876216490099102E-003   5.3820784270782518E-002
  -2.2129746406172400E-002   5.9774845064416160E-003   5.4399653029212278E-002
  -3.1393586285124286E-002   9.7642988190087820E-003   5.3817323369580561E-002
  -3.0059500804541953E-002   9.3123220689896313E-003   5.3405616737522824E-002
  -2.8725415323959638E-002   8.8674596864994938E-003   5.3222911992469951E-002
  -2.7391329843377322E-002   8.4297116715381856E-003   5.3269209134422221E-002
  -2.6057244362794992E-002   7.9990780241057519E-003   5.3544508163379537E-002
  -3.6638690157268256E-002   1.2385957340570963E-002   5.4390098252661834E-002
  -3.5042018061057570E-002   1.1754444593466640E-002   5.3492993350132301E-002
  -3.3445345964846898E-002   1.1149726044631741E-002   5.2892059791854129E-002
  -3.1848673868636219E-002   1.0571801694065970E-002   5.2587297577827818E-002
  -3.0252001772425541E-002   1.0020671541769943E-002   5.2578706708053036E-002
  -1.5076528851950960E-002   1.9342974711133443E-003   5.5777972992396896E-002
  -1.4222809966083806E-002   1.8798783229445615E-003   5.6339643982514398E-002
  -1.3369091080216639E-002   1.9068342688111778E-003   5.7209985510949551E-002
  -1.2515372194349464E-002   2.0151653087141126E-003   5.8388997577702148E-002
  -1.1661653308482310E-002   2.2048714426526894E-003   5.9876680182772257E-002
  -1.8469507902557702E-002   3.9558909887774663E-003   5.5144141305551508E-002
  -1.7326683893860821E-002   3.7650545482906805E-003   5.5474601818384761E-002
  -1.6183859885163937E-002   3.6040717961903779E-003   5.6074602038559851E-002
  -1.5041035876467039E-002   3.4729427324778905E-003   5.6944141966077000E-002
  -1.3898211867770169E-002   3.3716673571519973E-003   5.8083221600935986E-002
  -2.2129746406172400E-002   5.9774845064416160E-003   5.4399653029212278E-002
  -2.0736948105621388E-002   5.6502307736365776E-003   5.4447381659112642E-002
  -1.9344149805070408E-002   5.3013093235696820E-003   5.4725519165379134E-002
  -1.7951351504519444E-002   4.9307201562413892E-003   5.5234065548011871E-002
  -1.6558553203968443E-002   4.5384632716512496E-003   5.5973020807011137E-002
  -2.6057244362794992E-002   7.9990780241057519E-003   5.3544508163379537E-002
  -2.4453602601365528E-002   7.5354069989824746E-003   5.3257983504698014E-002
  -2.2849960839936075E-002   6.9985468509489897E-003   5.3162736891407082E-002
  -2.1246319078506611E-002   6.3884975800048609E-003   5.3258768323506830E-002
  -1.9642677317077153E-002   5.7052591861505852E-003   5.3546077800997204E-002
  -3.0252001772425541E-002   1.0020671541769943E-002   5.2578706708053036E-002
  -2.8476647381093220E-002   9.4205832243287047E-003   5.1906407355140904E-002
  -2.6701292989760900E-002   8.6957843783282279E-003   5.1386255216643778E-002
  -2.4925938598428579E-002   7.8462750037686761E-003   5.1018250292561837E-002
  -2.3150584207096259E-002   6.8720551006498098E-003   5.0802392582894762E-002
  -1.1661653308482310E-002   2.2048714426526894E-003   5.9876680182772257E-002
  -1.0755067379999060E-002   2.3642045392703870E-003   6.0543134156633927E-002
  -9.8484814515158031E-003   2.3814164672107674E-003   6.1274163676429960E-002
  -8.9418955230325496E-003   2.2565072264728800E-003   6.2069768742160303E-002
  -8.0353095945492892E-003   1.9894768170579669E-003   6.2929949353825121E-002
  -1.3898211867770169E-002   3.3716673571519973E-003   5.8083221600935986E-002
  -1.2900507402072721E-002   3.2499121343876336E-003   5.8245968513196411E-002
  -1.1902802936375276E-002   3.0573435283600126E-003   5.8526376953950493E-002
  -1.0905098470677837E-002   2.7939615390685096E-003   5.8924446923198939E-002
  -9.9073940049803841E-003   2.4597661665127779E-003   5.9440178420941181E-002
  -1.6558553203968443E-002   4.5384632716512496E-003   5.5973020807011137E-002
  -1.5416644218497215E-002   4.1356197295053521E-003   5.5703368443083823E-002
  -1.4274735233026005E-002   3.7332705895094936E-003   5.5604463590210332E-002
  -1.3132826247554770E-002   3.3314158516635321E-003   5.5676306248390185E-002
  -1.1990917262083569E-002   2.9300555159676445E-003   5.5918896417623737E-002
  -1.9642677317077153E-002   5.7052591861505852E-003   5.3546077800997204E-002
  -1.8303477829272500E-002   5.0213273246228346E-003   5.2915333946296397E-002
  -1.6964278341467902E-002   4.4091976506588013E-003   5.2508423585208713E-002
  -1.5625078853663276E-002   3.8688701642586362E-003   5.2325346717734277E-002
  -1.4285879365858642E-002   3.4003448654225388E-003   5.2366103343872830E-002
  -2.3150584207096259E-002   6.8720551006498098E-003   5.0802392582894762E-002
  -2.1561008234398646E-002   5.9070349197403171E-003   4.9881865022834093E-002
  -1.9971432261701019E-002   5.0851247118082477E-003   4.9238256938946123E-002
  -1.8381856289003407E-002   4.4063244768539137E-003   4.8871568331230963E-002
  -1.6792280316305780E-002   3.8706342148773221E-003   4.8781799199688503E-002
  -8.0353095945492892E-003   1.9894768170579669E-003   6.2929949353825121E-002
  -7.0720577163553844E-003   1.7193619615040179E-003   6.3150139386435988E-002
  -6.1088058381614518E-003   1.5851993823501886E-003   6.3562726192724683E-002
  -5.1455539599675314E-003   1.5869890795961045E-003   6.4167709772691178E-002
  -4.1823020817736145E-003   1.7247310532422233E-003   6.4965090126335556E-002
  -9.9073940049803841E-003   2.4597661665127779E-003   5.9440178420941181E-002
  -8.7414719047369700E-003   2.1510095990582290E-003   5.9588024690184871E-002
  -7.5755498044935317E-003   1.9639440250703299E-003   5.9948814629849689E-002
  -6.4096277042500951E-003   1.8985694445478180E-003   6.0522548239936080E-002
  -5.2437056040066793E-003   1.9548858574920391E-003   6.1309225520443489E-002
  -1.1990917262083569E-002   2.9300555159676445E-003   5.5918896417623737E-002
  -1.0601778043047103E-002   2.5826572366128286E-003   5.5980137640566474E-002
  -9.2126388240106917E-003   2.3426886677903325E-003   5.6274869430673530E-002
  -7.8234996049742680E-003   2.2101498094999686E-003   5.6803091787945556E-002
  -6.4343603859378460E-003   2.1850406617417439E-003   5.7564804712382261E-002
  -1.4285879365858642E-002   3.4003448654225388E-003   5.2366103343872830E-002
  -1.2652976131285784E-002   3.0143048741673450E-003   5.2326478237580465E-002
  -1.1020072896712899E-002   2.7214333105104044E-003   5.2540890595196198E-002
  -9.3871696621400467E-003   2.5217301744515676E-003   5.3009340416720119E-002
  -7.7542664275671528E-003   2.4151954659914487E-003   5.3731827702152422E-002
  -1.6792280316305780E-002   3.8706342148773221E-003   4.8781799199688503E-002
  -1.4895066169453006E-002   3.4459525117216394E-003   4.8627046481227176E-002
  -1.2997852022600204E-002   3.1001779532304485E-003   4.8746878123417436E-002
  -1.1100637875747409E-002   2.8333105394036592E-003   4.9141294126259366E-002
  -9.2034237288946275E-003   2.6453502702412646E-003   4.9810294489752827E-002
  -4.1823020817736145E-003   1.7247310532422233E-003   6.4965090126335556E-002
  -3.6556551429077974E-003   2.0430537277397187E-003   6.4104764673467485E-002
  -3.1290082040419803E-003   2.5865855275395699E-003   6.3354512134250363E-002
  -2.6023612651761546E-003   3.3553264526418672E-003   6.2714332508683662E-002
  -2.0757143263103461E-003   4.3492765030469505E-003   6.2184225796768078E-002
  -5.2437056040066793E-003   1.9548858574920391E-003   6.1309225520443489E-002
  -4.5797455044871496E-003   2.2329305682772249E-003   6.0620376418639876E-002
  -3.9157854049676338E-003   2.8327408812784671E-003   6.0096080724492962E-002
  -3.2518253054480747E-003   3.7543167964958976E-003   5.9736338438002717E-002
  -2.5878652059285884E-003   4.9976583139296205E-003   5.9541149559169226E-002
  -6.4343603859378460E-003   2.1850406617417439E-003   5.7564804712382261E-002
  -5.5786066317585759E-003   2.4228074088146756E-003   5.7143988438556587E-002
  -4.7228528775792910E-003   3.0788962350173504E-003   5.6942206066393622E-002
  -3.8670991234000195E-003   4.1533071403499246E-003   5.6959457595893360E-002
  -3.0113453692207637E-003   5.6460401248123460E-003   5.7195743027056073E-002
  -7.7542664275671528E-003   2.4151954659914487E-003   5.3731827702152422E-002
  -6.6522385247220830E-003   2.6126842493520430E-003   5.3675600733218011E-002
  -5.5502106218770402E-003   3.3250515887564627E-003   5.3892888159952856E-002
  -4.4481827190319843E-003   4.5522974842037312E-003   5.4383689982356209E-002
  -3.3461548161869280E-003   6.2944219356949327E-003   5.5148006200428416E-002
  -9.2034237288946275E-003   2.6453502702412646E-003   4.9810294489752827E-002
  -7.8006411833777267E-003   2.8025610898896325E-003   5.0215213302623796E-002
  -6.3978586378608260E-003   3.5712069424952142E-003   5.0948127005169985E-002
  -4.9950760923439044E-003   4.9512878280578362E-003   5.2009035597390812E-002
  -3.5922935468270245E-003   6.9428037465778525E-003   5.3397939079286583E-002
  -2.0757143263103461E-003   4.3492765030469505E-003   6.2184225796768078E-002
  -2.3226774890819785E-003   5.6552567142095223E-003   5.8202488296762334E-002
  -2.5696406518536177E-003   7.3600881215838687E-003   5.4210610169449558E-002
  -2.8166038146252449E-003   9.4637707251711348E-003   5.0208591414830278E-002
  -3.0635669773968893E-003   1.1966304524970717E-002   4.6196432032903800E-002
  -2.5878652059285884E-003   4.9976583139296205E-003   5.9541149559169226E-002
  -2.8619148456255454E-003   6.6299808614680988E-003   5.6058660752974276E-002
  -3.1359644853225111E-003   8.7184998670000458E-003   5.2532139620235285E-002
  -3.4100141250195436E-003   1.1263215330525551E-002   4.8961586160953391E-002
  -3.6840637647164651E-003   1.4264127252044734E-002   4.5347000375126845E-002
  -3.0113453692207637E-003   5.6460401248123460E-003   5.7195743027056073E-002
  -3.3463731850798158E-003   7.6047050087269530E-003   5.4269848176452778E-002
  -3.6814010009388652E-003   1.0076911612416098E-002   5.1266029300069307E-002
  -4.0164288167979199E-003   1.3062659935880131E-002   4.8184286397904556E-002
  -4.3514566326569686E-003   1.6561949979118751E-002   4.5024619469960614E-002
  -3.3461548161869280E-003   6.2944219356949327E-003   5.5148006200428416E-002
  -3.7760525074447587E-003   8.5794291559856684E-003   5.2836050567198110E-002
  -4.2059501987026316E-003   1.1435323357832212E-002   5.0412279208950375E-002
  -4.6358478899605057E-003   1.4862104541234851E-002   4.7876692125685807E-002
  -5.0657455812183365E-003   1.8859772706192657E-002   4.5229289317403332E-002
  -3.5922935468270245E-003   6.9428037465778525E-003   5.3397939079286583E-002
  -4.1509528127204043E-003   9.5541533032441617E-003   5.1757267925210071E-002
  -4.7096120786138257E-003   1.2793735103248299E-002   4.9970889346879599E-002
  -5.2682713445072193E-003   1.6661549146588898E-002   4.8038803344295417E-002
  -5.8269306104006269E-003   2.1157595433266785E-002   4.5961009917457218E-002
  -5.6250460848400158E-002   3.6510194857545419E-002   8.5066888149721132E-002
  -5.2048971505966546E-002   2.8999700124593353E-002   7.6806182094654563E-002
  -4.7847482163533003E-002   2.3199093897273357E-002   7.0744159845457483E-002
  -4.3645992821099412E-002   1.9108376175585331E-002   6.6880821402129878E-002
  -3.9444503478665821E-002   1.6727546959529049E-002   6.5216166764671790E-002
  -7.1090859891843272E-002   3.0049659863402300E-002   5.8837422834895292E-002
  -6.5161437078178536E-002   2.5733020054794997E-002   5.6135393445740145E-002
  -5.9232014264513841E-002   2.2232353222781789E-002   5.4690547193178091E-002
  -5.3302591450849118E-002   1.9547659367362972E-002   5.4502884077208547E-002
  -4.7373168637184389E-002   1.7678938488538326E-002   5.5572404097831957E-002
  -8.1164762675849544E-002   2.3589124869259237E-002   3.6248770208932843E-002
  -7.4448907060230413E-002   2.2466339984996558E-002   3.8211501956651642E-002
  -6.7733051444611309E-002   2.1265612548290284E-002   4.0489916171686589E-002
  -6.1017195828992191E-002   1.9986942559140616E-002   4.3084012854037596E-002
  -5.4301340213373017E-002   1.8630330017547547E-002   4.5993792003704584E-002
  -8.6472169200419141E-002   1.7128589875116160E-002   1.7300930271834037E-002
  -7.9911381452122246E-002   1.9199659915198022E-002   2.3034507627388869E-002
  -7.3350593703825392E-002   2.0298871873798748E-002   2.8142266780983333E-002
  -6.6789805955528581E-002   2.0426225750918285E-002   3.2624207732616935E-002
  -6.0229018207231692E-002   1.9581721546556852E-002   3.6480330482290095E-002
  -8.7013079465551868E-002   1.0668054880973055E-002   1.9939030235985311E-003
  -8.1548860253853939E-002   1.5932979845399597E-002   1.0604410457951907E-002
  -7.6084641042156120E-002   1.9332131199307212E-002   1.7647599021068050E-002
  -7.0620421830458288E-002   2.0865508942696009E-002   2.3123468712946765E-002
  -6.5156202618760400E-002   2.0533113075566045E-002   2.7032019533588247E-002
  -3.9444503478665821E-002   1.6727546959529049E-002   6.5216166764671790E-002
  -3.8743050148316416E-002   1.5311783885914032E-002   6.1416209847965891E-002
  -3.8041596817967038E-002   1.4116264591549327E-002   5.8345212790395562E-002
  -3.7340143487617661E-002   1.3140989076435065E-002   5.6003175591960941E-002
  -3.6638690157268256E-002   1.2385957340570963E-002   5.4390098252661834E-002
  -4.7373168637184389E-002   1.7678938488538326E-002   5.5572404097831957E-002
  -4.6045172354687844E-002   1.6324485813575318E-002   5.2886927461657074E-002
  -4.4717176072191292E-002   1.5182596569741337E-002   5.0725576870641026E-002
  -4.3389179789694726E-002   1.4253270757036288E-002   4.9088352324783646E-002
  -4.2061183507198119E-002   1.3536508375460166E-002   4.7975253824084962E-002
  -5.4301340213373017E-002   1.8630330017547547E-002   4.5993792003704584E-002
  -5.2551634792706227E-002   1.7337187741236493E-002   4.4415115299939655E-002
  -5.0801929372039409E-002   1.6248928547933236E-002   4.3155730827356464E-002
  -4.9052223951372605E-002   1.5365552437637455E-002   4.2215638585955138E-002
  -4.7302518530705807E-002   1.4687059410349451E-002   4.1594838575735621E-002
  -6.0229018207231692E-002   1.9581721546556852E-002   3.6480330482290095E-002
  -5.8262437462371516E-002   1.8349889668897779E-002   3.6000773362813598E-002
  -5.6295856717511403E-002   1.7315260526125247E-002   3.5635674660541947E-002
  -5.4329275972651268E-002   1.6477834118238763E-002   3.5385034375475181E-002
  -5.2362695227791071E-002   1.5837610445238695E-002   3.5248852507613164E-002
  -6.5156202618760400E-002   2.0533113075566045E-002   2.7032019533588247E-002
  -6.3177580363683872E-002   1.9362591596558981E-002   2.7643901650278857E-002
  -6.1198958108607260E-002   1.8381592504317146E-002   2.8165408370197348E-002
  -5.9220335853530731E-002   1.7590115798839984E-002   2.8596539693343956E-002
  -5.7241713598454147E-002   1.6988161480127995E-002   2.8937295619718417E-002
  -3.6638690157268256E-002   1.2385957340570963E-002   5.4390098252661834E-002
  -3.5042018061057570E-002   1.1754444593466640E-002   5.3492993350132301E-002
  -3.3445345964846898E-002   1.1149726044631741E-002   5.2892059791854129E-002
  -3.1848673868636219E-002   1.0571801694065970E-002   5.2587297577827818E-002
  -3.0252001772425541E-002   1.0020671541769943E-002   5.2578706708053036E-002
  -4.2061183507198119E-002   1.3536508375460166E-002   4.7975253824084962E-002
  -4.0178663785707051E-002   1.2923275707490217E-002   4.7259628626182798E-002
  -3.8296144064215935E-002   1.2304539035603884E-002   4.6819527334589828E-002
  -3.6413624342724840E-002   1.1680298359800660E-002   4.6654949949306093E-002
  -3.4531104621233752E-002   1.1050553680081121E-002   4.6765896470331747E-002
  -4.7302518530705807E-002   1.4687059410349451E-002   4.1594838575735621E-002
  -4.5154798621876616E-002   1.4092106821513961E-002   4.1028394880274877E-002
  -4.3007078713047472E-002   1.3459352026575847E-002   4.0716827653181104E-002
  -4.0859358804218315E-002   1.2788795025535347E-002   4.0660136894454128E-002
  -3.8711638895389144E-002   1.2080435818392382E-002   4.0858322604093902E-002
  -5.2362695227791071E-002   1.5837610445238695E-002   3.5248852507613164E-002
  -4.9970422569566311E-002   1.5260937935537566E-002   3.4799292112408294E-002
  -4.7578149911341586E-002   1.4614165017547927E-002   3.4583960747627665E-002
  -4.5185877253116791E-002   1.3897291691270091E-002   3.4602858413271570E-002
  -4.2793604594892051E-002   1.3110317956703768E-002   3.4855985109339779E-002
  -5.7241713598454147E-002   1.6988161480127995E-002   2.8937295619718417E-002
  -5.4625535628776117E-002   1.6429769049561227E-002   2.8572320322583167E-002
  -5.2009357659098143E-002   1.5768978008519979E-002   2.8420926617929804E-002
  -4.9393179689420141E-002   1.5005788357004508E-002   2.8483114505758633E-002
  -4.6777001719742139E-002   1.4140200095014877E-002   2.8758883986069461E-002
  -3.0252001772425541E-002   1.0020671541769943E-002   5.2578706708053036E-002
  -2.8476647381093220E-002   9.4205832243287047E-003   5.1906407355140904E-002
  -2.6701292989760900E-002   8.6957843783282279E-003   5.1386255216643778E-002
  -2.4925938598428579E-002   7.8462750037686761E-003   5.1018250292561837E-002
  -2.3150584207096259E-002   6.8720551006498098E-003   5.0802392582894762E-002
  -3.4531104621233752E-002   1.1050553680081121E-002   4.6765896470331747E-002
  -3.2608075276307436E-002   1.0378097788412449E-002   4.6085378956980672E-002
  -3.0685045931381182E-002   9.6257234767618549E-003   4.5548064136402500E-002
  -2.8762016586454924E-002   8.7934307451299557E-003   4.5153952008597231E-002
  -2.6838987241528653E-002   7.8812195935158424E-003   4.4903042573564755E-002
  -3.8711638895389144E-002   1.2080435818392382E-002   4.0858322604093902E-002
  -3.6649879118511183E-002   1.1335612352495972E-002   4.0214379038881476E-002
  -3.4588119341633132E-002   1.0555662575195600E-002   3.9704693644799831E-002
  -3.2526359564755136E-002   9.7405864864909038E-003   3.9329266421848863E-002
  -3.0464599787877064E-002   8.8903840863820971E-003   3.9088097370028357E-002
  -4.2793604594892051E-002   1.3110317956703768E-002   3.4855985109339779E-002
  -4.0602058907704387E-002   1.2293126916579827E-002   3.4293407600843630E-002
  -3.8410513220516841E-002   1.1485601673629286E-002   3.3856143741835924E-002
  -3.6218967533329247E-002   1.0687742227852019E-002   3.3544193532316677E-002
  -3.4027421846141631E-002   9.8995485792480742E-003   3.3357556972285950E-002
  -4.6777001719742139E-002   1.4140200095014877E-002   2.8758883986069461E-002
  -4.4464614643887179E-002   1.3250641480663405E-002   2.8322464642866918E-002
  -4.2152227568032191E-002   1.2415540772062902E-002   2.8002414427510752E-002
  -3.9839840492177245E-002   1.1634897969213225E-002   2.7798733340000811E-002
  -3.7527453416322243E-002   1.0908713072114384E-002   2.7711421380337220E-002
  -2.3150584207096259E-002   6.8720551006498098E-003   5.0802392582894762E-002
  -2.1561008234398646E-002   5.9070349197403171E-003   4.9881865022834093E-002
  -1.9971432261701019E-002   5.0851247118082477E-003   4.9238256938946123E-002
  -1.8381856289003407E-002   4.4063244768539137E-003   4.8871568331230963E-002
  -1.6792280316305780E-002   3.8706342148773221E-003   4.8781799199688503E-002
  -2.6838987241528653E-002   7.8812195935158424E-003   4.4903042573564755E-002
  -2.4992967819478670E-002   6.9818855559366511E-003   4.4149220785281718E-002
  -2.3146948397428646E-002   6.1882241664082682E-003   4.3631366419530554E-002
  -2.1300928975378643E-002   5.5002354249305205E-003   4.3349479476311431E-002
  -1.9454909553328639E-002   4.9179193315035397E-003   4.3303559955624182E-002
  -3.0464599787877064E-002   8.8903840863820971E-003   3.9088097370028357E-002
  -2.8403088970115568E-002   8.0567361921329850E-003   3.8463544028596225E-002
  -2.6341578152354099E-002   7.2913236210080529E-003   3.8034006056055211E-002
  -2.4280067334592630E-002   6.5941463730070128E-003   3.7799483452405254E-002
  -2.2218556516831092E-002   5.9652044481298683E-003   3.7759976217646402E-002
  -3.4027421846141631E-002   9.8995485792480742E-003   3.3357556972285950E-002
  -3.1791371686309501E-002   9.1315868283295409E-003   3.2824834752777844E-002
  -2.9555321526477309E-002   8.3944230756079000E-003   3.2446175848519762E-002
  -2.7319271366645081E-002   7.6880573210836734E-003   3.2221580259512030E-002
  -2.5083221206812986E-002   7.0124895647561969E-003   3.2151047985754543E-002
  -3.7527453416322243E-002   1.0908713072114384E-002   2.7711421380337220E-002
  -3.5157815968060308E-002   1.0206437464525819E-002   2.7233092957825944E-002
  -3.2788178519798344E-002   9.4975225302079413E-003   2.6867875796924456E-002
  -3.0418541071536395E-002   8.7819682691599107E-003   2.6615769897632174E-002
  -2.8048903623274418E-002   8.0597746813824145E-003   2.6476775259949403E-002
  -1.6792280316305780E-002   3.8706342148773221E-003   4.8781799199688503E-002
  -1.4895066169453006E-002   3.4459525117216394E-003   4.8627046481227176E-002
  -1.2997852022600204E-002   3.1001779532304485E-003   4.8746878123417436E-002
  -1.1100637875747409E-002   2.8333105394036592E-003   4.9141294126259366E-002
  -9.2034237288946275E-003   2.6453502702412646E-003   4.9810294489752827E-002
  -1.9454909553328639E-002   4.9179193315035397E-003   4.3303559955624182E-002
  -1.7322929302440351E-002   4.4121347598902738E-003   4.3071120024187726E-002
  -1.5190949051552056E-002   3.9537405838535877E-003   4.3033627940170516E-002
  -1.3058968800663710E-002   3.5427368033930998E-003   4.3191083703572802E-002
  -1.0926988549775418E-002   3.1791234185093442E-003   4.3543487314394502E-002
  -2.2218556516831092E-002   5.9652044481298683E-003   3.7759976217646402E-002
  -1.9931446675139498E-002   5.3783170080590192E-003   3.7418332324146458E-002
  -1.7644336833447908E-002   4.8073032144765188E-003   3.7191999764833852E-002
  -1.5357226991756246E-002   4.2521630673828768E-003   3.7080978539708466E-002
  -1.3070117150064724E-002   3.7128965667775349E-003   3.7085268648769959E-002
  -2.5083221206812986E-002   7.0124895647561969E-003   3.2151047985754543E-002
  -2.2720618287550391E-002   6.3444992562278202E-003   3.1668683381103797E-002
  -2.0358015368287768E-002   5.6608658450998314E-003   3.1221993597407859E-002
  -1.7995412449025146E-002   4.9615893313725411E-003   3.0810978634666725E-002
  -1.5632809529762551E-002   4.2466697150456145E-003   3.0435638492880702E-002
  -2.8048903623274418E-002   8.0597746813824145E-003   2.6476775259949403E-002
  -2.5690444139673030E-002   7.3106815043963991E-003   2.5822173195059417E-002
  -2.3331984656071655E-002   6.5144284757225057E-003   2.5123609437892103E-002
  -2.0973525172470260E-002   5.6710155953622401E-003   2.4381083988447738E-002
  -1.8615065688868893E-002   4.7804428633138052E-003   2.3594596846725824E-002
  -9.2034237288946275E-003   2.6453502702412646E-003   4.9810294489752827E-002
  -7.8006411833777267E-003   2.8025610898896325E-003   5.0215213302623796E-002
  -6.3978586378608260E-003   3.5712069424952142E-003   5.0948127005169985E-002
  -4.9950760923439044E-003   4.9512878280578362E-003   5.2009035597390812E-002
  -3.5922935468270245E-003   6.9428037465778525E-003   5.3397939079286583E-002
  -1.0926988549775418E-002   3.1791234185093442E-003   4.3543487314394502E-002
  -9.1777616504668674E-003   3.1158856475841379E-003   4.4129689744622724E-002
  -7.4285347511582681E-003   3.6060087089997417E-003   4.5080785992759498E-002
  -5.6793078518496409E-003   4.6494926027564887E-003   4.6396776058804989E-002
  -3.9300809525410624E-003   6.2463373288540458E-003   4.8077659942759032E-002
  -1.3070117150064724E-002   3.7128965667775349E-003   3.7085268648769959E-002
  -1.0937546968730789E-002   3.4292102052787543E-003   3.7794680495739502E-002
  -8.8049767873969106E-003   3.6408104755046161E-003   3.8905885088851108E-002
  -6.6724066060630301E-003   4.3476973774549225E-003   4.0418882428104798E-002
  -4.5398364247291531E-003   5.5498709111299616E-003   4.2333672513500759E-002
  -1.5632809529762551E-002   4.2466697150456145E-003   3.0435638492880702E-002
  -1.3079997138169765E-002   3.7425347629736483E-003   3.1210185555974851E-002
  -1.0527184746576872E-002   3.6756122420094281E-003   3.2423424293444816E-002
  -7.9743723549840582E-003   4.0459021521534657E-003   3.4075354705290335E-002
  -5.4215599633911909E-003   4.8534044934061271E-003   3.6165976791511921E-002
  -1.8615065688868893E-002   4.7804428633138052E-003   2.3594596846725824E-002
  -1.5605112158783463E-002   4.0558593206677651E-003   2.4376204925328437E-002
  -1.2595158628698089E-002   3.7104140085141013E-003   2.5633403606540317E-002
  -9.5852050986126452E-003   3.7441069268519742E-003   2.7366192890361768E-002
  -6.5752515685272850E-003   4.1569380756821817E-003   2.9574572776792318E-002
  -3.5922935468270245E-003   6.9428037465778525E-003   5.3397939079286583E-002
  -4.1509528127204043E-003   9.5541533032441617E-003   5.1757267925210071E-002
  -4.7096120786138257E-003   1.2793735103248299E-002   4.9970889346879599E-002
  -5.2682713445072193E-003   1.6661549146588898E-002   4.8038803344295417E-002
  -5.8269306104006269E-003   2.1157595433266785E-002   4.5961009917457218E-002
  -3.9300809525410624E-003   6.2463373288540458E-003   4.8077659942759032E-002
  -4.5302841629376589E-003   8.7013874457968488E-003   4.7164825298302793E-002
  -5.1304873733341791E-003   1.2319487512089861E-002   4.6314610189094163E-002
  -5.7306905837308519E-003   1.7100637527733852E-002   4.5527014615133504E-002
  -6.3308937941273513E-003   2.3044837492727899E-002   4.4802038576420067E-002
  -4.5398364247291531E-003   5.5498709111299616E-003   4.2333672513500759E-002
  -4.9732566201274378E-003   7.8486215883489807E-003   4.2683492084678337E-002
  -5.4066768155256704E-003   1.1845239920932102E-002   4.3304258150605193E-002
  -5.8400970109239239E-003   1.7539725908878864E-002   4.4195970711281278E-002
  -6.2735172063222433E-003   2.4932079552189235E-002   4.5358629766705794E-002
  -5.4215599633911909E-003   4.8534044934061271E-003   3.6165976791511921E-002
  -5.4798701842896265E-003   6.9958557309009461E-003   3.8313268284336781E-002
  -5.5381804051880326E-003   1.1370992329773781E-002   4.0939833231412259E-002
  -5.5964906260864648E-003   1.7978814290023515E-002   4.4045671632738620E-002
  -5.6548008469848171E-003   2.6819321611650460E-002   4.7630783488315037E-002
  -6.5752515685272850E-003   4.1569380756821817E-003   2.9574572776792318E-002
  -6.0501248554243880E-003   6.1430898734534667E-003   3.4054153897278061E-002
  -5.5249981423214634E-003   1.0896744738615710E-002   3.9221335431516124E-002
  -4.9998714292185942E-003   1.8417902671168669E-002   4.5076117379505704E-002
  -4.4747447161156417E-003   2.8706563671111684E-002   5.1618499741247881E-002
  -8.7013079465551868E-002   1.0668054880973055E-002   1.9939030235985311E-003
  -8.1548860253853939E-002   1.5932979845399597E-002   1.0604410457951907E-002
  -7.6084641042156120E-002   1.9332131199307212E-002   1.7647599021068050E-002
  -7.0620421830458288E-002   2.0865508942696009E-002   2.3123468712946765E-002
  -6.5156202618760400E-002   2.0533113075566045E-002   2.7032019533588247E-002
  -8.6929743803908527E-002   1.7482590867961056E-002   8.8257282364094802E-003
  -8.2630897144953433E-002   2.0184486915734767E-002   1.2849460283945846E-002
  -7.8332050485998422E-002   2.1810721975172698E-002   1.6109766097233635E-002
  -7.4033203827043328E-002   2.2361296046274723E-002   1.8606645676273167E-002
  -6.9734357168088304E-002   2.1836209129041162E-002   2.0340099021064484E-002
  -9.0364412548149295E-002   2.4297126854949114E-002   1.2699468221476079E-002
  -8.6427045804948213E-002   2.4435993986069909E-002   1.2926537504378277E-002
  -8.2489679061746979E-002   2.4289312751038072E-002   1.3194073190021000E-002
  -7.8552312318545800E-002   2.3857083149853464E-002   1.3502075278404344E-002
  -7.4614945575344677E-002   2.3139305182516112E-002   1.3850543769528517E-002
  -9.7317085698274686E-002   3.1111662841937004E-002   1.3615122978798480E-002
  -9.2937306233838390E-002   2.8687501056405121E-002   1.0835642119249360E-002
  -8.8557526769402026E-002   2.6767903526903364E-002   8.9005202994301459E-003
  -8.4177747304965675E-002   2.5352870253432053E-002   7.8097575193403282E-003
  -7.9797967840529407E-002   2.4442401235991035E-002   7.5633537789804237E-003
 -0.10778776325428430        3.7926198828925117E-002   1.1572692508376226E-002
 -0.10216167843162394        3.2939008126740110E-002   6.5767741285593928E-003
  -9.6535593608963466E-002   2.9246494302768905E-002   3.2291074254609808E-003
  -9.0909508786302939E-002   2.6848657357010745E-002   1.5296923990813713E-003
  -8.5283423963642524E-002   2.5745497289466179E-002   1.4785290494201964E-003
  -6.5156202618760400E-002   2.0533113075566045E-002   2.7032019533588247E-002
  -6.3177580363683872E-002   1.9362591596558981E-002   2.7643901650278857E-002
  -6.1198958108607260E-002   1.8381592504317146E-002   2.8165408370197348E-002
  -5.9220335853530731E-002   1.7590115798839984E-002   2.8596539693343956E-002
  -5.7241713598454147E-002   1.6988161480127995E-002   2.8937295619718417E-002
  -6.9734357168088304E-002   2.1836209129041162E-002   2.0340099021064484E-002
  -6.7808472091739472E-002   2.0823787667853616E-002   2.0832442641467469E-002
  -6.5882587015390653E-002   1.9912358107094380E-002   2.1309687301187152E-002
  -6.3956701939041793E-002   1.9101920446763419E-002   2.1771833000223305E-002
  -6.2030816862692989E-002   1.8392474686860560E-002   2.2218879738576197E-002
  -7.4614945575344677E-002   2.3139305182516112E-002   1.3850543769528517E-002
  -7.2666521241634918E-002   2.2284983739148015E-002   1.4134818407307431E-002
  -7.0718096907925271E-002   2.1443123709871670E-002   1.4479270520491333E-002
  -6.8769672574215582E-002   2.0613725094686688E-002   1.4883900109080535E-002
  -6.6821248240505879E-002   1.9796787893593099E-002   1.5348707173074863E-002
  -7.9797967840529407E-002   2.4442401235991035E-002   7.5633537789804237E-003
  -7.7751727813370280E-002   2.3746179810442615E-002   7.5510289477981746E-003
  -7.5705487786211029E-002   2.2973889312648932E-002   7.6741580281097510E-003
  -7.3659247759051819E-002   2.2125529742609874E-002   7.9327410199150974E-003
  -7.1613007731892692E-002   2.1201101100325762E-002   8.3267779232145192E-003
  -8.5283423963642524E-002   2.5745497289466179E-002   1.4785290494201964E-003
  -8.3064091806945184E-002   2.5207375881737160E-002   1.0810742629401293E-003
  -8.0844759650248010E-002   2.4504654915426305E-002   8.9434982404289209E-004
  -7.8625427493550698E-002   2.3637334390533310E-002   9.1835573272771795E-004
  -7.6406095336853497E-002   2.2605414307058314E-002   1.1530919889950475E-003
  -5.7241713598454147E-002   1.6988161480127995E-002   2.8937295619718417E-002
  -5.4625535628776117E-002   1.6429769049561227E-002   2.8572320322583167E-002
  -5.2009357659098143E-002   1.5768978008519979E-002   2.8420926617929804E-002
  -4.9393179689420141E-002   1.5005788357004508E-002   2.8483114505758633E-002
  -4.6777001719742139E-002   1.4140200095014877E-002   2.8758883986069461E-002
  -6.2030816862692989E-002   1.8392474686860560E-002   2.2218879738576197E-002
  -5.9197889192379838E-002   1.7705191226378675E-002   2.1776211479989704E-002
  -5.6364961522066714E-002   1.6961240464310273E-002   2.1553461030191540E-002
  -5.3532033851753577E-002   1.6160622400655779E-002   2.1550628389181703E-002
  -5.0699106181440440E-002   1.5303337035414866E-002   2.1767713556960111E-002
  -6.6821248240505879E-002   1.9796787893593099E-002   1.5348707173074863E-002
  -6.3765234653251318E-002   1.8980613403196150E-002   1.4874077261925189E-002
  -6.0709221065996744E-002   1.8153502920100831E-002   1.4625701375870173E-002
  -5.7653207478742204E-002   1.7315456444306990E-002   1.4603579514909419E-002
  -5.4597193891487608E-002   1.6466473975815049E-002   1.4807711679043531E-002
  -7.1613007731892692E-002   2.1201101100325762E-002   8.3267779232145192E-003
  -6.8327572011390461E-002   2.0256035580013751E-002   7.8659176683894549E-003
  -6.5042136290888217E-002   1.9345765375891090E-002   7.6376476549653398E-003
  -6.1756700570385958E-002   1.8470290487958396E-002   7.6419678829421685E-003
  -5.8471264849883742E-002   1.7629610916215191E-002   7.8788783523197105E-003
  -7.6406095336853497E-002   2.2605414307058314E-002   1.1530919889950475E-003
  -7.2884901266797308E-002   2.1531457756831129E-002   7.5173269938266785E-004
  -6.9363707196741176E-002   2.0538027831681571E-002   5.8929986747816021E-004
  -6.5842513126685043E-002   1.9625124531609306E-002   6.6579349327961640E-004
  -6.2321319056628854E-002   1.8792747856615111E-002   9.8121357678859766E-004
  -4.6777001719742139E-002   1.4140200095014877E-002   2.8758883986069461E-002
  -4.4464614643887179E-002   1.3250641480663405E-002   2.8322464642866918E-002
  -4.2152227568032191E-002   1.2415540772062902E-002   2.8002414427510752E-002
  -3.9839840492177245E-002   1.1634897969213225E-002   2.7798733340000811E-002
  -3.7527453416322243E-002   1.0908713072114384E-002   2.7711421380337220E-002
  -5.0699106181440440E-002   1.5303337035414866E-002   2.1767713556960111E-002
  -4.8267856982936688E-002   1.4435937586672581E-002   2.1403252480378360E-002
  -4.5836607784432881E-002   1.3604977272513585E-002   2.1160146521247786E-002
  -4.3405358585929095E-002   1.2810456092938030E-002   2.1038395679568500E-002
  -4.0974109387425323E-002   1.2052374047945458E-002   2.1037999955340669E-002
  -5.4597193891487608E-002   1.6466473975815049E-002   1.4807711679043531E-002
  -5.2042096580730043E-002   1.5621233692681619E-002   1.4497190097914753E-002
  -4.9486999269972402E-002   1.4794413772964275E-002   1.4313009623842514E-002
  -4.6931901959214775E-002   1.3986014216662615E-002   1.4255170256826624E-002
  -4.4376804648457141E-002   1.3196035023776753E-002   1.4323671996867127E-002
  -5.8471264849883742E-002   1.7629610916215191E-002   7.8788783523197105E-003
  -5.5787333437267300E-002   1.6806529798691114E-002   7.6042774954768570E-003
  -5.3103402024650741E-002   1.5983850273414629E-002   7.4610037352951467E-003
  -5.0419470612034251E-002   1.5161572340387366E-002   7.4490570717751564E-003
  -4.7735539199417733E-002   1.4339695999607938E-002   7.5684375049163768E-003
  -6.2321319056628854E-002   1.8792747856615111E-002   9.8121357678859766E-004
  -5.9503567552548486E-002   1.7991825904699610E-002   7.2451467306405837E-004
  -5.6685816048467952E-002   1.7173286773865565E-002   6.0412885560559570E-004
  -5.3868064544387528E-002   1.6337130464112205E-002   6.2005612441396601E-004
  -5.1050313040307049E-002   1.5483356975439344E-002   7.7229647948839908E-004
  -3.7527453416322243E-002   1.0908713072114384E-002   2.7711421380337220E-002
  -3.5157815968060308E-002   1.0206437464525819E-002   2.7233092957825944E-002
  -3.2788178519798344E-002   9.4975225302079413E-003   2.6867875796924456E-002
  -3.0418541071536395E-002   8.7819682691599107E-003   2.6615769897632174E-002
  -2.8048903623274418E-002   8.0597746813824145E-003   2.6476775259949403E-002
  -4.0974109387425323E-002   1.2052374047945458E-002   2.1037999955340669E-002
  -3.8493115400393449E-002   1.1308893523303276E-002   2.0594939809754964E-002
  -3.6012121413361561E-002   1.0558176904777172E-002   2.0261481480099597E-002
  -3.3531127426329688E-002   9.8002241923677430E-003   2.0037624966374720E-002
  -3.1050133439297745E-002   9.0350353860748633E-003   1.9923370268580376E-002
  -4.4376804648457141E-002   1.3196035023776753E-002   1.4323671996867127E-002
  -4.1787963568334190E-002   1.2411349582080317E-002   1.3915283361052633E-002
  -3.9199122488211210E-002   1.1618831279346417E-002   1.3612987095489942E-002
  -3.6610281408088259E-002   1.0818480115575745E-002   1.3416783200178840E-002
  -3.4021440327965301E-002   1.0010296090767201E-002   1.3326671675119445E-002
  -4.7735539199417733E-002   1.4339695999607938E-002   7.5684375049163768E-003
  -4.5042360471882620E-002   1.3513805640857232E-002   7.1941236117197410E-003
  -4.2349181744347472E-002   1.2679485653915711E-002   6.9223926430955519E-003
  -3.9656003016812325E-002   1.1836736038782996E-002   6.7532445990447203E-003
  -3.6962824289277219E-002   1.0985556795459983E-002   6.6866794795661030E-003
  -5.1050313040307049E-002   1.5483356975439344E-002   7.7229647948839908E-004
  -4.8256306111038594E-002   1.4616261699635036E-002   4.3146056175552561E-004
  -4.5462299181770194E-002   1.3740140028484615E-002   1.8969812291699806E-004
  -4.2668292252501711E-002   1.2854991961991233E-002   4.7009162971282936E-005
  -3.9874285323233338E-002   1.1960817500152210E-002   3.3936819204827273E-006
  -2.8048903623274418E-002   8.0597746813824145E-003   2.6476775259949403E-002
  -2.5690444139673030E-002   7.3106815043963991E-003   2.5822173195059417E-002
  -2.3331984656071655E-002   6.5144284757225057E-003   2.5123609437892103E-002
  -2.0973525172470260E-002   5.6710155953622401E-003   2.4381083988447738E-002
  -1.8615065688868893E-002   4.7804428633138052E-003   2.3594596846725824E-002
  -3.1050133439297745E-002   9.0350353860748633E-003   1.9923370268580376E-002
  -2.8721237897745097E-002   8.2680209262510074E-003   1.9291301348842382E-002
  -2.6392342356192519E-002   7.5045912532500925E-003   1.8644066237284040E-002
  -2.4063446814639906E-002   6.7447463670712304E-003   1.7981664933905406E-002
  -2.1734551273087238E-002   5.9884862677143103E-003   1.7304097438706700E-002
  -3.4021440327965301E-002   1.0010296090767201E-002   1.3326671675119445E-002
  -3.1693313228004387E-002   9.2253603481062818E-003   1.2767880539042570E-002
  -2.9365186128043456E-002   8.4947540307773323E-003   1.2222718711602742E-002
  -2.7037059028082504E-002   7.8184771387803283E-003   1.1691186192799866E-002
  -2.4708931928121611E-002   7.1965296721149263E-003   1.1173282982633731E-002
  -3.6962824289277219E-002   1.0985556795459983E-002   6.6866794795661030E-003
  -3.4606670130450733E-002   1.0182699769961334E-002   6.2519107656601874E-003
  -3.2250515971624302E-002   9.4849168083042459E-003   5.8595668608483926E-003
  -2.9894361812797848E-002   8.8922079104894833E-003   5.5096477651306961E-003
  -2.7538207653971383E-002   8.4045730765150983E-003   5.2021534785073043E-003
  -3.9874285323233338E-002   1.1960817500152210E-002   3.3936819204827273E-006
  -3.7461308605084231E-002   1.1140039191816165E-002  -2.5660797130472313E-004
  -3.5048331886935236E-002   1.0475079585832048E-002  -4.4538931497872802E-004
  -3.2635355168786212E-002   9.9659386821986107E-003  -5.6295034910164299E-004
  -3.0222378450637133E-002   9.6126164809158254E-003  -6.0929107367346802E-004
  -1.8615065688868893E-002   4.7804428633138052E-003   2.3594596846725824E-002
  -1.5605112158783463E-002   4.0558593206677651E-003   2.4376204925328437E-002
  -1.2595158628698089E-002   3.7104140085141013E-003   2.5633403606540317E-002
  -9.5852050986126452E-003   3.7441069268519742E-003   2.7366192890361768E-002
  -6.5752515685272850E-003   4.1569380756821817E-003   2.9574572776792318E-002
  -2.1734551273087238E-002   5.9884862677143103E-003   1.7304097438706700E-002
  -1.8517835204278188E-002   5.3257984169967632E-003   1.8243331353082204E-002
  -1.5301119135469124E-002   4.8466702767359093E-003   1.9120499742295405E-002
  -1.2084403066660053E-002   4.5511018469314990E-003   1.9935602606346914E-002
  -8.8676869978510098E-003   4.4390931275835044E-003   2.0688639945236509E-002
  -2.4708931928121611E-002   7.1965296721149263E-003   1.1173282982633731E-002
  -2.1823109448360065E-002   6.5957375133257057E-003   1.2074564212746386E-002
  -1.8937286968598574E-002   5.9829265449578423E-003   1.2376123789925655E-002
  -1.6051464488837080E-002   5.3580967670108053E-003   1.2077961714172115E-002
  -1.3165642009075537E-002   4.7212481794852157E-003   1.1180077985484954E-002
  -2.7538207653971383E-002   8.4045730765150983E-003   5.2021534785073043E-003
  -2.5520934891028919E-002   7.8656766096548425E-003   5.8699035043216913E-003
  -2.3503662128086383E-002   7.1191828131800458E-003   5.4002757494318009E-003
  -2.1486389365143948E-002   6.1650916870904428E-003   3.7932702138366563E-003
  -1.9469116602201381E-002   5.0034032313860666E-003   1.0488868975374252E-003
  -3.0222378450637133E-002   9.6126164809158254E-003  -6.0929107367346802E-004
  -2.9611311532284912E-002   9.1356157059837573E-003  -3.7065077219250453E-004
  -2.9000244613932691E-002   8.2554390814016942E-003  -1.8070443791876334E-003
  -2.8389177695580470E-002   6.9720866071699972E-003  -4.9184718946586811E-003
  -2.7778110777228249E-002   5.2855582832878056E-003  -9.7049333186058906E-003
  -6.5752515685272850E-003   4.1569380756821817E-003   2.9574572776792318E-002
  -6.0501248554243880E-003   6.1430898734534667E-003   3.4054153897278061E-002
  -5.5249981423214634E-003   1.0896744738615710E-002   3.9221335431516124E-002
  -4.9998714292185942E-003   1.8417902671168669E-002   4.5076117379505704E-002
  -4.4747447161156417E-003   2.8706563671111684E-002   5.1618499741247881E-002
  -8.8676869978510098E-003   4.4390931275835044E-003   2.0688639945236509E-002
  -7.5830870997871253E-003   5.6595605588101727E-003   2.5859022084071426E-002
  -6.2984872017233795E-003   9.3614205807297235E-003   3.1860750179076247E-002
  -5.0138873036597031E-003   1.5544673193341400E-002   3.8693824230250862E-002
  -3.7292874055958602E-003   2.4209318396646085E-002   4.6358244237594937E-002
  -1.3165642009075537E-002   4.7212481794852157E-003   1.1180077985484954E-002
  -1.0977823383633400E-002   5.1760312441664902E-003   1.6755150665971469E-002
  -8.7900047581912708E-003   7.8260964228432789E-003   2.3305314845044819E-002
  -6.6021861327491965E-003   1.2671443715514350E-002   3.0830570522705665E-002
  -4.4143675073070043E-003   1.9712073122180263E-002   3.9330917698954027E-002
  -1.9469116602201381E-002   5.0034032313860666E-003   1.0488868975374252E-003
  -1.6234333706963325E-002   4.6925019295236681E-003   6.7425396429771356E-003
  -1.2999550811725304E-002   6.2907722649569522E-003   1.3555029429421762E-002
  -9.7647679164871541E-003   9.7982142376875237E-003   2.1486356256870981E-002
  -6.5299850212492266E-003   1.5214827847714330E-002   3.0536520125324540E-002
  -2.7778110777228249E-002   5.2855582832878056E-003  -9.7049333186058906E-003
  -2.3352618069776732E-002   4.2089726148799578E-003  -4.1788109849102972E-003
  -1.8927125362325159E-002   4.7554481070711807E-003   2.6098939322067582E-003
  -1.4501632654873559E-002   6.9249847598606695E-003   1.0661181432746324E-002
  -1.0076139947422069E-002   1.0717582573248841E-002   1.9975051516708309E-002
 </DataArray>
 </PointData>
 </Piece>
 </UnstructuredGrid>
 </VTKFile>
