 <VTKFile type="UnstructuredGrid"  version="0.1"   >
 <UnstructuredGrid>
 <Piece  NumberOfPoints="          1600 "  NumberOfCells="         1024 ">
 <Points>
 <DataArray  type="Float64" NumberOfComponents="3"  format="ascii" >
   0.0000000000000000        0.0000000000000000        0.0000000000000000     
   3.1250000000000000E-002   0.0000000000000000        0.0000000000000000     
   6.2500000000000000E-002   0.0000000000000000        0.0000000000000000     
   9.3750000000000000E-002   0.0000000000000000        0.0000000000000000     
  0.12500000000000000        0.0000000000000000        0.0000000000000000     
   0.0000000000000000        3.1250000000000000E-002   0.0000000000000000     
   3.1250000000000000E-002   3.1250000000000000E-002   0.0000000000000000     
   6.2500000000000000E-002   3.1250000000000000E-002   0.0000000000000000     
   9.3750000000000000E-002   3.1250000000000000E-002   0.0000000000000000     
  0.12500000000000000        3.1250000000000000E-002   0.0000000000000000     
   0.0000000000000000        6.2500000000000000E-002   0.0000000000000000     
   3.1250000000000000E-002   6.2500000000000000E-002   0.0000000000000000     
   6.2500000000000000E-002   6.2500000000000000E-002   0.0000000000000000     
   9.3750000000000000E-002   6.2500000000000000E-002   0.0000000000000000     
  0.12500000000000000        6.2500000000000000E-002   0.0000000000000000     
   0.0000000000000000        9.3750000000000000E-002   0.0000000000000000     
   3.1250000000000000E-002   9.3750000000000000E-002   0.0000000000000000     
   6.2500000000000000E-002   9.3750000000000000E-002   0.0000000000000000     
   9.3750000000000000E-002   9.3750000000000000E-002   0.0000000000000000     
  0.12500000000000000        9.3750000000000000E-002   0.0000000000000000     
   0.0000000000000000       0.12500000000000000        0.0000000000000000     
   3.1250000000000000E-002  0.12500000000000000        0.0000000000000000     
   6.2500000000000000E-002  0.12500000000000000        0.0000000000000000     
   9.3750000000000000E-002  0.12500000000000000        0.0000000000000000     
  0.12500000000000000       0.12500000000000000        0.0000000000000000     
  0.12500000000000000        0.0000000000000000        0.0000000000000000     
  0.15625000000000000        0.0000000000000000        0.0000000000000000     
  0.18750000000000000        0.0000000000000000        0.0000000000000000     
  0.21875000000000000        0.0000000000000000        0.0000000000000000     
  0.25000000000000000        0.0000000000000000        0.0000000000000000     
  0.12500000000000000        3.1250000000000000E-002   0.0000000000000000     
  0.15625000000000000        3.1250000000000000E-002   0.0000000000000000     
  0.18750000000000000        3.1250000000000000E-002   0.0000000000000000     
  0.21875000000000000        3.1250000000000000E-002   0.0000000000000000     
  0.25000000000000000        3.1250000000000000E-002   0.0000000000000000     
  0.12500000000000000        6.2500000000000000E-002   0.0000000000000000     
  0.15625000000000000        6.2500000000000000E-002   0.0000000000000000     
  0.18750000000000000        6.2500000000000000E-002   0.0000000000000000     
  0.21875000000000000        6.2500000000000000E-002   0.0000000000000000     
  0.25000000000000000        6.2500000000000000E-002   0.0000000000000000     
  0.12500000000000000        9.3750000000000000E-002   0.0000000000000000     
  0.15625000000000000        9.3750000000000000E-002   0.0000000000000000     
  0.18750000000000000        9.3750000000000000E-002   0.0000000000000000     
  0.21875000000000000        9.3750000000000000E-002   0.0000000000000000     
  0.25000000000000000        9.3750000000000000E-002   0.0000000000000000     
  0.12500000000000000       0.12500000000000000        0.0000000000000000     
  0.15625000000000000       0.12500000000000000        0.0000000000000000     
  0.18750000000000000       0.12500000000000000        0.0000000000000000     
  0.21875000000000000       0.12500000000000000        0.0000000000000000     
  0.25000000000000000       0.12500000000000000        0.0000000000000000     
  0.25000000000000000        0.0000000000000000        0.0000000000000000     
  0.28125000000000000        0.0000000000000000        0.0000000000000000     
  0.31250000000000000        0.0000000000000000        0.0000000000000000     
  0.34375000000000000        0.0000000000000000        0.0000000000000000     
  0.37500000000000000        0.0000000000000000        0.0000000000000000     
  0.25000000000000000        3.1250000000000000E-002   0.0000000000000000     
  0.28125000000000000        3.1250000000000000E-002   0.0000000000000000     
  0.31250000000000000        3.1250000000000000E-002   0.0000000000000000     
  0.34375000000000000        3.1250000000000000E-002   0.0000000000000000     
  0.37500000000000000        3.1250000000000000E-002   0.0000000000000000     
  0.25000000000000000        6.2500000000000000E-002   0.0000000000000000     
  0.28125000000000000        6.2500000000000000E-002   0.0000000000000000     
  0.31250000000000000        6.2500000000000000E-002   0.0000000000000000     
  0.34375000000000000        6.2500000000000000E-002   0.0000000000000000     
  0.37500000000000000        6.2500000000000000E-002   0.0000000000000000     
  0.25000000000000000        9.3750000000000000E-002   0.0000000000000000     
  0.28125000000000000        9.3750000000000000E-002   0.0000000000000000     
  0.31250000000000000        9.3750000000000000E-002   0.0000000000000000     
  0.34375000000000000        9.3750000000000000E-002   0.0000000000000000     
  0.37500000000000000        9.3750000000000000E-002   0.0000000000000000     
  0.25000000000000000       0.12500000000000000        0.0000000000000000     
  0.28125000000000000       0.12500000000000000        0.0000000000000000     
  0.31250000000000000       0.12500000000000000        0.0000000000000000     
  0.34375000000000000       0.12500000000000000        0.0000000000000000     
  0.37500000000000000       0.12500000000000000        0.0000000000000000     
  0.37500000000000000        0.0000000000000000        0.0000000000000000     
  0.40625000000000000        0.0000000000000000        0.0000000000000000     
  0.43750000000000000        0.0000000000000000        0.0000000000000000     
  0.46875000000000000        0.0000000000000000        0.0000000000000000     
  0.50000000000000000        0.0000000000000000        0.0000000000000000     
  0.37500000000000000        3.1250000000000000E-002   0.0000000000000000     
  0.40625000000000000        3.1250000000000000E-002   0.0000000000000000     
  0.43750000000000000        3.1250000000000000E-002   0.0000000000000000     
  0.46875000000000000        3.1250000000000000E-002   0.0000000000000000     
  0.50000000000000000        3.1250000000000000E-002   0.0000000000000000     
  0.37500000000000000        6.2500000000000000E-002   0.0000000000000000     
  0.40625000000000000        6.2500000000000000E-002   0.0000000000000000     
  0.43750000000000000        6.2500000000000000E-002   0.0000000000000000     
  0.46875000000000000        6.2500000000000000E-002   0.0000000000000000     
  0.50000000000000000        6.2500000000000000E-002   0.0000000000000000     
  0.37500000000000000        9.3750000000000000E-002   0.0000000000000000     
  0.40625000000000000        9.3750000000000000E-002   0.0000000000000000     
  0.43750000000000000        9.3750000000000000E-002   0.0000000000000000     
  0.46875000000000000        9.3750000000000000E-002   0.0000000000000000     
  0.50000000000000000        9.3750000000000000E-002   0.0000000000000000     
  0.37500000000000000       0.12500000000000000        0.0000000000000000     
  0.40625000000000000       0.12500000000000000        0.0000000000000000     
  0.43750000000000000       0.12500000000000000        0.0000000000000000     
  0.46875000000000000       0.12500000000000000        0.0000000000000000     
  0.50000000000000000       0.12500000000000000        0.0000000000000000     
  0.50000000000000000        0.0000000000000000        0.0000000000000000     
  0.53125000000000000        0.0000000000000000        0.0000000000000000     
  0.56250000000000000        0.0000000000000000        0.0000000000000000     
  0.59375000000000000        0.0000000000000000        0.0000000000000000     
  0.62500000000000000        0.0000000000000000        0.0000000000000000     
  0.50000000000000000        3.1250000000000000E-002   0.0000000000000000     
  0.53125000000000000        3.1250000000000000E-002   0.0000000000000000     
  0.56250000000000000        3.1250000000000000E-002   0.0000000000000000     
  0.59375000000000000        3.1250000000000000E-002   0.0000000000000000     
  0.62500000000000000        3.1250000000000000E-002   0.0000000000000000     
  0.50000000000000000        6.2500000000000000E-002   0.0000000000000000     
  0.53125000000000000        6.2500000000000000E-002   0.0000000000000000     
  0.56250000000000000        6.2500000000000000E-002   0.0000000000000000     
  0.59375000000000000        6.2500000000000000E-002   0.0000000000000000     
  0.62500000000000000        6.2500000000000000E-002   0.0000000000000000     
  0.50000000000000000        9.3750000000000000E-002   0.0000000000000000     
  0.53125000000000000        9.3750000000000000E-002   0.0000000000000000     
  0.56250000000000000        9.3750000000000000E-002   0.0000000000000000     
  0.59375000000000000        9.3750000000000000E-002   0.0000000000000000     
  0.62500000000000000        9.3750000000000000E-002   0.0000000000000000     
  0.50000000000000000       0.12500000000000000        0.0000000000000000     
  0.53125000000000000       0.12500000000000000        0.0000000000000000     
  0.56250000000000000       0.12500000000000000        0.0000000000000000     
  0.59375000000000000       0.12500000000000000        0.0000000000000000     
  0.62500000000000000       0.12500000000000000        0.0000000000000000     
  0.62500000000000000        0.0000000000000000        0.0000000000000000     
  0.65625000000000000        0.0000000000000000        0.0000000000000000     
  0.68750000000000000        0.0000000000000000        0.0000000000000000     
  0.71875000000000000        0.0000000000000000        0.0000000000000000     
  0.75000000000000000        0.0000000000000000        0.0000000000000000     
  0.62500000000000000        3.1250000000000000E-002   0.0000000000000000     
  0.65625000000000000        3.1250000000000000E-002   0.0000000000000000     
  0.68750000000000000        3.1250000000000000E-002   0.0000000000000000     
  0.71875000000000000        3.1250000000000000E-002   0.0000000000000000     
  0.75000000000000000        3.1250000000000000E-002   0.0000000000000000     
  0.62500000000000000        6.2500000000000000E-002   0.0000000000000000     
  0.65625000000000000        6.2500000000000000E-002   0.0000000000000000     
  0.68750000000000000        6.2500000000000000E-002   0.0000000000000000     
  0.71875000000000000        6.2500000000000000E-002   0.0000000000000000     
  0.75000000000000000        6.2500000000000000E-002   0.0000000000000000     
  0.62500000000000000        9.3750000000000000E-002   0.0000000000000000     
  0.65625000000000000        9.3750000000000000E-002   0.0000000000000000     
  0.68750000000000000        9.3750000000000000E-002   0.0000000000000000     
  0.71875000000000000        9.3750000000000000E-002   0.0000000000000000     
  0.75000000000000000        9.3750000000000000E-002   0.0000000000000000     
  0.62500000000000000       0.12500000000000000        0.0000000000000000     
  0.65625000000000000       0.12500000000000000        0.0000000000000000     
  0.68750000000000000       0.12500000000000000        0.0000000000000000     
  0.71875000000000000       0.12500000000000000        0.0000000000000000     
  0.75000000000000000       0.12500000000000000        0.0000000000000000     
  0.75000000000000000        0.0000000000000000        0.0000000000000000     
  0.78125000000000000        0.0000000000000000        0.0000000000000000     
  0.81250000000000000        0.0000000000000000        0.0000000000000000     
  0.84375000000000000        0.0000000000000000        0.0000000000000000     
  0.87500000000000000        0.0000000000000000        0.0000000000000000     
  0.75000000000000000        3.1250000000000000E-002   0.0000000000000000     
  0.78125000000000000        3.1250000000000000E-002   0.0000000000000000     
  0.81250000000000000        3.1250000000000000E-002   0.0000000000000000     
  0.84375000000000000        3.1250000000000000E-002   0.0000000000000000     
  0.87500000000000000        3.1250000000000000E-002   0.0000000000000000     
  0.75000000000000000        6.2500000000000000E-002   0.0000000000000000     
  0.78125000000000000        6.2500000000000000E-002   0.0000000000000000     
  0.81250000000000000        6.2500000000000000E-002   0.0000000000000000     
  0.84375000000000000        6.2500000000000000E-002   0.0000000000000000     
  0.87500000000000000        6.2500000000000000E-002   0.0000000000000000     
  0.75000000000000000        9.3750000000000000E-002   0.0000000000000000     
  0.78125000000000000        9.3750000000000000E-002   0.0000000000000000     
  0.81250000000000000        9.3750000000000000E-002   0.0000000000000000     
  0.84375000000000000        9.3750000000000000E-002   0.0000000000000000     
  0.87500000000000000        9.3750000000000000E-002   0.0000000000000000     
  0.75000000000000000       0.12500000000000000        0.0000000000000000     
  0.78125000000000000       0.12500000000000000        0.0000000000000000     
  0.81250000000000000       0.12500000000000000        0.0000000000000000     
  0.84375000000000000       0.12500000000000000        0.0000000000000000     
  0.87500000000000000       0.12500000000000000        0.0000000000000000     
  0.87500000000000000        0.0000000000000000        0.0000000000000000     
  0.90625000000000000        0.0000000000000000        0.0000000000000000     
  0.93750000000000000        0.0000000000000000        0.0000000000000000     
  0.96875000000000000        0.0000000000000000        0.0000000000000000     
   1.0000000000000000        0.0000000000000000        0.0000000000000000     
  0.87500000000000000        3.1250000000000000E-002   0.0000000000000000     
  0.90625000000000000        3.1250000000000000E-002   0.0000000000000000     
  0.93750000000000000        3.1250000000000000E-002   0.0000000000000000     
  0.96875000000000000        3.1250000000000000E-002   0.0000000000000000     
   1.0000000000000000        3.1250000000000000E-002   0.0000000000000000     
  0.87500000000000000        6.2500000000000000E-002   0.0000000000000000     
  0.90625000000000000        6.2500000000000000E-002   0.0000000000000000     
  0.93750000000000000        6.2500000000000000E-002   0.0000000000000000     
  0.96875000000000000        6.2500000000000000E-002   0.0000000000000000     
   1.0000000000000000        6.2500000000000000E-002   0.0000000000000000     
  0.87500000000000000        9.3750000000000000E-002   0.0000000000000000     
  0.90625000000000000        9.3750000000000000E-002   0.0000000000000000     
  0.93750000000000000        9.3750000000000000E-002   0.0000000000000000     
  0.96875000000000000        9.3750000000000000E-002   0.0000000000000000     
   1.0000000000000000        9.3750000000000000E-002   0.0000000000000000     
  0.87500000000000000       0.12500000000000000        0.0000000000000000     
  0.90625000000000000       0.12500000000000000        0.0000000000000000     
  0.93750000000000000       0.12500000000000000        0.0000000000000000     
  0.96875000000000000       0.12500000000000000        0.0000000000000000     
   1.0000000000000000       0.12500000000000000        0.0000000000000000     
   0.0000000000000000       0.12500000000000000        0.0000000000000000     
   3.1250000000000000E-002  0.12500000000000000        0.0000000000000000     
   6.2500000000000000E-002  0.12500000000000000        0.0000000000000000     
   9.3750000000000000E-002  0.12500000000000000        0.0000000000000000     
  0.12500000000000000       0.12500000000000000        0.0000000000000000     
   0.0000000000000000       0.15625000000000000        0.0000000000000000     
   3.1250000000000000E-002  0.15625000000000000        0.0000000000000000     
   6.2500000000000000E-002  0.15625000000000000        0.0000000000000000     
   9.3750000000000000E-002  0.15625000000000000        0.0000000000000000     
  0.12500000000000000       0.15625000000000000        0.0000000000000000     
   0.0000000000000000       0.18750000000000000        0.0000000000000000     
   3.1250000000000000E-002  0.18750000000000000        0.0000000000000000     
   6.2500000000000000E-002  0.18750000000000000        0.0000000000000000     
   9.3750000000000000E-002  0.18750000000000000        0.0000000000000000     
  0.12500000000000000       0.18750000000000000        0.0000000000000000     
   0.0000000000000000       0.21875000000000000        0.0000000000000000     
   3.1250000000000000E-002  0.21875000000000000        0.0000000000000000     
   6.2500000000000000E-002  0.21875000000000000        0.0000000000000000     
   9.3750000000000000E-002  0.21875000000000000        0.0000000000000000     
  0.12500000000000000       0.21875000000000000        0.0000000000000000     
   0.0000000000000000       0.25000000000000000        0.0000000000000000     
   3.1250000000000000E-002  0.25000000000000000        0.0000000000000000     
   6.2500000000000000E-002  0.25000000000000000        0.0000000000000000     
   9.3750000000000000E-002  0.25000000000000000        0.0000000000000000     
  0.12500000000000000       0.25000000000000000        0.0000000000000000     
  0.12500000000000000       0.12500000000000000        0.0000000000000000     
  0.15625000000000000       0.12500000000000000        0.0000000000000000     
  0.18750000000000000       0.12500000000000000        0.0000000000000000     
  0.21875000000000000       0.12500000000000000        0.0000000000000000     
  0.25000000000000000       0.12500000000000000        0.0000000000000000     
  0.12500000000000000       0.15625000000000000        0.0000000000000000     
  0.15625000000000000       0.15625000000000000        0.0000000000000000     
  0.18750000000000000       0.15625000000000000        0.0000000000000000     
  0.21875000000000000       0.15625000000000000        0.0000000000000000     
  0.25000000000000000       0.15625000000000000        0.0000000000000000     
  0.12500000000000000       0.18750000000000000        0.0000000000000000     
  0.15625000000000000       0.18750000000000000        0.0000000000000000     
  0.18750000000000000       0.18750000000000000        0.0000000000000000     
  0.21875000000000000       0.18750000000000000        0.0000000000000000     
  0.25000000000000000       0.18750000000000000        0.0000000000000000     
  0.12500000000000000       0.21875000000000000        0.0000000000000000     
  0.15625000000000000       0.21875000000000000        0.0000000000000000     
  0.18750000000000000       0.21875000000000000        0.0000000000000000     
  0.21875000000000000       0.21875000000000000        0.0000000000000000     
  0.25000000000000000       0.21875000000000000        0.0000000000000000     
  0.12500000000000000       0.25000000000000000        0.0000000000000000     
  0.15625000000000000       0.25000000000000000        0.0000000000000000     
  0.18750000000000000       0.25000000000000000        0.0000000000000000     
  0.21875000000000000       0.25000000000000000        0.0000000000000000     
  0.25000000000000000       0.25000000000000000        0.0000000000000000     
  0.25000000000000000       0.12500000000000000        0.0000000000000000     
  0.28125000000000000       0.12500000000000000        0.0000000000000000     
  0.31250000000000000       0.12500000000000000        0.0000000000000000     
  0.34375000000000000       0.12500000000000000        0.0000000000000000     
  0.37500000000000000       0.12500000000000000        0.0000000000000000     
  0.25000000000000000       0.15625000000000000        0.0000000000000000     
  0.28125000000000000       0.15625000000000000        0.0000000000000000     
  0.31250000000000000       0.15625000000000000        0.0000000000000000     
  0.34375000000000000       0.15625000000000000        0.0000000000000000     
  0.37500000000000000       0.15625000000000000        0.0000000000000000     
  0.25000000000000000       0.18750000000000000        0.0000000000000000     
  0.28125000000000000       0.18750000000000000        0.0000000000000000     
  0.31250000000000000       0.18750000000000000        0.0000000000000000     
  0.34375000000000000       0.18750000000000000        0.0000000000000000     
  0.37500000000000000       0.18750000000000000        0.0000000000000000     
  0.25000000000000000       0.21875000000000000        0.0000000000000000     
  0.28125000000000000       0.21875000000000000        0.0000000000000000     
  0.31250000000000000       0.21875000000000000        0.0000000000000000     
  0.34375000000000000       0.21875000000000000        0.0000000000000000     
  0.37500000000000000       0.21875000000000000        0.0000000000000000     
  0.25000000000000000       0.25000000000000000        0.0000000000000000     
  0.28125000000000000       0.25000000000000000        0.0000000000000000     
  0.31250000000000000       0.25000000000000000        0.0000000000000000     
  0.34375000000000000       0.25000000000000000        0.0000000000000000     
  0.37500000000000000       0.25000000000000000        0.0000000000000000     
  0.37500000000000000       0.12500000000000000        0.0000000000000000     
  0.40625000000000000       0.12500000000000000        0.0000000000000000     
  0.43750000000000000       0.12500000000000000        0.0000000000000000     
  0.46875000000000000       0.12500000000000000        0.0000000000000000     
  0.50000000000000000       0.12500000000000000        0.0000000000000000     
  0.37500000000000000       0.15625000000000000        0.0000000000000000     
  0.40625000000000000       0.15625000000000000        0.0000000000000000     
  0.43750000000000000       0.15625000000000000        0.0000000000000000     
  0.46875000000000000       0.15625000000000000        0.0000000000000000     
  0.50000000000000000       0.15625000000000000        0.0000000000000000     
  0.37500000000000000       0.18750000000000000        0.0000000000000000     
  0.40625000000000000       0.18750000000000000        0.0000000000000000     
  0.43750000000000000       0.18750000000000000        0.0000000000000000     
  0.46875000000000000       0.18750000000000000        0.0000000000000000     
  0.50000000000000000       0.18750000000000000        0.0000000000000000     
  0.37500000000000000       0.21875000000000000        0.0000000000000000     
  0.40625000000000000       0.21875000000000000        0.0000000000000000     
  0.43750000000000000       0.21875000000000000        0.0000000000000000     
  0.46875000000000000       0.21875000000000000        0.0000000000000000     
  0.50000000000000000       0.21875000000000000        0.0000000000000000     
  0.37500000000000000       0.25000000000000000        0.0000000000000000     
  0.40625000000000000       0.25000000000000000        0.0000000000000000     
  0.43750000000000000       0.25000000000000000        0.0000000000000000     
  0.46875000000000000       0.25000000000000000        0.0000000000000000     
  0.50000000000000000       0.25000000000000000        0.0000000000000000     
  0.50000000000000000       0.12500000000000000        0.0000000000000000     
  0.53125000000000000       0.12500000000000000        0.0000000000000000     
  0.56250000000000000       0.12500000000000000        0.0000000000000000     
  0.59375000000000000       0.12500000000000000        0.0000000000000000     
  0.62500000000000000       0.12500000000000000        0.0000000000000000     
  0.50000000000000000       0.15625000000000000        0.0000000000000000     
  0.53125000000000000       0.15625000000000000        0.0000000000000000     
  0.56250000000000000       0.15625000000000000        0.0000000000000000     
  0.59375000000000000       0.15625000000000000        0.0000000000000000     
  0.62500000000000000       0.15625000000000000        0.0000000000000000     
  0.50000000000000000       0.18750000000000000        0.0000000000000000     
  0.53125000000000000       0.18750000000000000        0.0000000000000000     
  0.56250000000000000       0.18750000000000000        0.0000000000000000     
  0.59375000000000000       0.18750000000000000        0.0000000000000000     
  0.62500000000000000       0.18750000000000000        0.0000000000000000     
  0.50000000000000000       0.21875000000000000        0.0000000000000000     
  0.53125000000000000       0.21875000000000000        0.0000000000000000     
  0.56250000000000000       0.21875000000000000        0.0000000000000000     
  0.59375000000000000       0.21875000000000000        0.0000000000000000     
  0.62500000000000000       0.21875000000000000        0.0000000000000000     
  0.50000000000000000       0.25000000000000000        0.0000000000000000     
  0.53125000000000000       0.25000000000000000        0.0000000000000000     
  0.56250000000000000       0.25000000000000000        0.0000000000000000     
  0.59375000000000000       0.25000000000000000        0.0000000000000000     
  0.62500000000000000       0.25000000000000000        0.0000000000000000     
  0.62500000000000000       0.12500000000000000        0.0000000000000000     
  0.65625000000000000       0.12500000000000000        0.0000000000000000     
  0.68750000000000000       0.12500000000000000        0.0000000000000000     
  0.71875000000000000       0.12500000000000000        0.0000000000000000     
  0.75000000000000000       0.12500000000000000        0.0000000000000000     
  0.62500000000000000       0.15625000000000000        0.0000000000000000     
  0.65625000000000000       0.15625000000000000        0.0000000000000000     
  0.68750000000000000       0.15625000000000000        0.0000000000000000     
  0.71875000000000000       0.15625000000000000        0.0000000000000000     
  0.75000000000000000       0.15625000000000000        0.0000000000000000     
  0.62500000000000000       0.18750000000000000        0.0000000000000000     
  0.65625000000000000       0.18750000000000000        0.0000000000000000     
  0.68750000000000000       0.18750000000000000        0.0000000000000000     
  0.71875000000000000       0.18750000000000000        0.0000000000000000     
  0.75000000000000000       0.18750000000000000        0.0000000000000000     
  0.62500000000000000       0.21875000000000000        0.0000000000000000     
  0.65625000000000000       0.21875000000000000        0.0000000000000000     
  0.68750000000000000       0.21875000000000000        0.0000000000000000     
  0.71875000000000000       0.21875000000000000        0.0000000000000000     
  0.75000000000000000       0.21875000000000000        0.0000000000000000     
  0.62500000000000000       0.25000000000000000        0.0000000000000000     
  0.65625000000000000       0.25000000000000000        0.0000000000000000     
  0.68750000000000000       0.25000000000000000        0.0000000000000000     
  0.71875000000000000       0.25000000000000000        0.0000000000000000     
  0.75000000000000000       0.25000000000000000        0.0000000000000000     
  0.75000000000000000       0.12500000000000000        0.0000000000000000     
  0.78125000000000000       0.12500000000000000        0.0000000000000000     
  0.81250000000000000       0.12500000000000000        0.0000000000000000     
  0.84375000000000000       0.12500000000000000        0.0000000000000000     
  0.87500000000000000       0.12500000000000000        0.0000000000000000     
  0.75000000000000000       0.15625000000000000        0.0000000000000000     
  0.78125000000000000       0.15625000000000000        0.0000000000000000     
  0.81250000000000000       0.15625000000000000        0.0000000000000000     
  0.84375000000000000       0.15625000000000000        0.0000000000000000     
  0.87500000000000000       0.15625000000000000        0.0000000000000000     
  0.75000000000000000       0.18750000000000000        0.0000000000000000     
  0.78125000000000000       0.18750000000000000        0.0000000000000000     
  0.81250000000000000       0.18750000000000000        0.0000000000000000     
  0.84375000000000000       0.18750000000000000        0.0000000000000000     
  0.87500000000000000       0.18750000000000000        0.0000000000000000     
  0.75000000000000000       0.21875000000000000        0.0000000000000000     
  0.78125000000000000       0.21875000000000000        0.0000000000000000     
  0.81250000000000000       0.21875000000000000        0.0000000000000000     
  0.84375000000000000       0.21875000000000000        0.0000000000000000     
  0.87500000000000000       0.21875000000000000        0.0000000000000000     
  0.75000000000000000       0.25000000000000000        0.0000000000000000     
  0.78125000000000000       0.25000000000000000        0.0000000000000000     
  0.81250000000000000       0.25000000000000000        0.0000000000000000     
  0.84375000000000000       0.25000000000000000        0.0000000000000000     
  0.87500000000000000       0.25000000000000000        0.0000000000000000     
  0.87500000000000000       0.12500000000000000        0.0000000000000000     
  0.90625000000000000       0.12500000000000000        0.0000000000000000     
  0.93750000000000000       0.12500000000000000        0.0000000000000000     
  0.96875000000000000       0.12500000000000000        0.0000000000000000     
   1.0000000000000000       0.12500000000000000        0.0000000000000000     
  0.87500000000000000       0.15625000000000000        0.0000000000000000     
  0.90625000000000000       0.15625000000000000        0.0000000000000000     
  0.93750000000000000       0.15625000000000000        0.0000000000000000     
  0.96875000000000000       0.15625000000000000        0.0000000000000000     
   1.0000000000000000       0.15625000000000000        0.0000000000000000     
  0.87500000000000000       0.18750000000000000        0.0000000000000000     
  0.90625000000000000       0.18750000000000000        0.0000000000000000     
  0.93750000000000000       0.18750000000000000        0.0000000000000000     
  0.96875000000000000       0.18750000000000000        0.0000000000000000     
   1.0000000000000000       0.18750000000000000        0.0000000000000000     
  0.87500000000000000       0.21875000000000000        0.0000000000000000     
  0.90625000000000000       0.21875000000000000        0.0000000000000000     
  0.93750000000000000       0.21875000000000000        0.0000000000000000     
  0.96875000000000000       0.21875000000000000        0.0000000000000000     
   1.0000000000000000       0.21875000000000000        0.0000000000000000     
  0.87500000000000000       0.25000000000000000        0.0000000000000000     
  0.90625000000000000       0.25000000000000000        0.0000000000000000     
  0.93750000000000000       0.25000000000000000        0.0000000000000000     
  0.96875000000000000       0.25000000000000000        0.0000000000000000     
   1.0000000000000000       0.25000000000000000        0.0000000000000000     
   0.0000000000000000       0.25000000000000000        0.0000000000000000     
   3.1250000000000000E-002  0.25000000000000000        0.0000000000000000     
   6.2500000000000000E-002  0.25000000000000000        0.0000000000000000     
   9.3750000000000000E-002  0.25000000000000000        0.0000000000000000     
  0.12500000000000000       0.25000000000000000        0.0000000000000000     
   0.0000000000000000       0.28125000000000000        0.0000000000000000     
   3.1250000000000000E-002  0.28125000000000000        0.0000000000000000     
   6.2500000000000000E-002  0.28125000000000000        0.0000000000000000     
   9.3750000000000000E-002  0.28125000000000000        0.0000000000000000     
  0.12500000000000000       0.28125000000000000        0.0000000000000000     
   0.0000000000000000       0.31250000000000000        0.0000000000000000     
   3.1250000000000000E-002  0.31250000000000000        0.0000000000000000     
   6.2500000000000000E-002  0.31250000000000000        0.0000000000000000     
   9.3750000000000000E-002  0.31250000000000000        0.0000000000000000     
  0.12500000000000000       0.31250000000000000        0.0000000000000000     
   0.0000000000000000       0.34375000000000000        0.0000000000000000     
   3.1250000000000000E-002  0.34375000000000000        0.0000000000000000     
   6.2500000000000000E-002  0.34375000000000000        0.0000000000000000     
   9.3750000000000000E-002  0.34375000000000000        0.0000000000000000     
  0.12500000000000000       0.34375000000000000        0.0000000000000000     
   0.0000000000000000       0.37500000000000000        0.0000000000000000     
   3.1250000000000000E-002  0.37500000000000000        0.0000000000000000     
   6.2500000000000000E-002  0.37500000000000000        0.0000000000000000     
   9.3750000000000000E-002  0.37500000000000000        0.0000000000000000     
  0.12500000000000000       0.37500000000000000        0.0000000000000000     
  0.12500000000000000       0.25000000000000000        0.0000000000000000     
  0.15625000000000000       0.25000000000000000        0.0000000000000000     
  0.18750000000000000       0.25000000000000000        0.0000000000000000     
  0.21875000000000000       0.25000000000000000        0.0000000000000000     
  0.25000000000000000       0.25000000000000000        0.0000000000000000     
  0.12500000000000000       0.28125000000000000        0.0000000000000000     
  0.15625000000000000       0.28125000000000000        0.0000000000000000     
  0.18750000000000000       0.28125000000000000        0.0000000000000000     
  0.21875000000000000       0.28125000000000000        0.0000000000000000     
  0.25000000000000000       0.28125000000000000        0.0000000000000000     
  0.12500000000000000       0.31250000000000000        0.0000000000000000     
  0.15625000000000000       0.31250000000000000        0.0000000000000000     
  0.18750000000000000       0.31250000000000000        0.0000000000000000     
  0.21875000000000000       0.31250000000000000        0.0000000000000000     
  0.25000000000000000       0.31250000000000000        0.0000000000000000     
  0.12500000000000000       0.34375000000000000        0.0000000000000000     
  0.15625000000000000       0.34375000000000000        0.0000000000000000     
  0.18750000000000000       0.34375000000000000        0.0000000000000000     
  0.21875000000000000       0.34375000000000000        0.0000000000000000     
  0.25000000000000000       0.34375000000000000        0.0000000000000000     
  0.12500000000000000       0.37500000000000000        0.0000000000000000     
  0.15625000000000000       0.37500000000000000        0.0000000000000000     
  0.18750000000000000       0.37500000000000000        0.0000000000000000     
  0.21875000000000000       0.37500000000000000        0.0000000000000000     
  0.25000000000000000       0.37500000000000000        0.0000000000000000     
  0.25000000000000000       0.25000000000000000        0.0000000000000000     
  0.28125000000000000       0.25000000000000000        0.0000000000000000     
  0.31250000000000000       0.25000000000000000        0.0000000000000000     
  0.34375000000000000       0.25000000000000000        0.0000000000000000     
  0.37500000000000000       0.25000000000000000        0.0000000000000000     
  0.25000000000000000       0.28125000000000000        0.0000000000000000     
  0.28125000000000000       0.28125000000000000        0.0000000000000000     
  0.31250000000000000       0.28125000000000000        0.0000000000000000     
  0.34375000000000000       0.28125000000000000        0.0000000000000000     
  0.37500000000000000       0.28125000000000000        0.0000000000000000     
  0.25000000000000000       0.31250000000000000        0.0000000000000000     
  0.28125000000000000       0.31250000000000000        0.0000000000000000     
  0.31250000000000000       0.31250000000000000        0.0000000000000000     
  0.34375000000000000       0.31250000000000000        0.0000000000000000     
  0.37500000000000000       0.31250000000000000        0.0000000000000000     
  0.25000000000000000       0.34375000000000000        0.0000000000000000     
  0.28125000000000000       0.34375000000000000        0.0000000000000000     
  0.31250000000000000       0.34375000000000000        0.0000000000000000     
  0.34375000000000000       0.34375000000000000        0.0000000000000000     
  0.37500000000000000       0.34375000000000000        0.0000000000000000     
  0.25000000000000000       0.37500000000000000        0.0000000000000000     
  0.28125000000000000       0.37500000000000000        0.0000000000000000     
  0.31250000000000000       0.37500000000000000        0.0000000000000000     
  0.34375000000000000       0.37500000000000000        0.0000000000000000     
  0.37500000000000000       0.37500000000000000        0.0000000000000000     
  0.37500000000000000       0.25000000000000000        0.0000000000000000     
  0.40625000000000000       0.25000000000000000        0.0000000000000000     
  0.43750000000000000       0.25000000000000000        0.0000000000000000     
  0.46875000000000000       0.25000000000000000        0.0000000000000000     
  0.50000000000000000       0.25000000000000000        0.0000000000000000     
  0.37500000000000000       0.28125000000000000        0.0000000000000000     
  0.40625000000000000       0.28125000000000000        0.0000000000000000     
  0.43750000000000000       0.28125000000000000        0.0000000000000000     
  0.46875000000000000       0.28125000000000000        0.0000000000000000     
  0.50000000000000000       0.28125000000000000        0.0000000000000000     
  0.37500000000000000       0.31250000000000000        0.0000000000000000     
  0.40625000000000000       0.31250000000000000        0.0000000000000000     
  0.43750000000000000       0.31250000000000000        0.0000000000000000     
  0.46875000000000000       0.31250000000000000        0.0000000000000000     
  0.50000000000000000       0.31250000000000000        0.0000000000000000     
  0.37500000000000000       0.34375000000000000        0.0000000000000000     
  0.40625000000000000       0.34375000000000000        0.0000000000000000     
  0.43750000000000000       0.34375000000000000        0.0000000000000000     
  0.46875000000000000       0.34375000000000000        0.0000000000000000     
  0.50000000000000000       0.34375000000000000        0.0000000000000000     
  0.37500000000000000       0.37500000000000000        0.0000000000000000     
  0.40625000000000000       0.37500000000000000        0.0000000000000000     
  0.43750000000000000       0.37500000000000000        0.0000000000000000     
  0.46875000000000000       0.37500000000000000        0.0000000000000000     
  0.50000000000000000       0.37500000000000000        0.0000000000000000     
  0.50000000000000000       0.25000000000000000        0.0000000000000000     
  0.53125000000000000       0.25000000000000000        0.0000000000000000     
  0.56250000000000000       0.25000000000000000        0.0000000000000000     
  0.59375000000000000       0.25000000000000000        0.0000000000000000     
  0.62500000000000000       0.25000000000000000        0.0000000000000000     
  0.50000000000000000       0.28125000000000000        0.0000000000000000     
  0.53125000000000000       0.28125000000000000        0.0000000000000000     
  0.56250000000000000       0.28125000000000000        0.0000000000000000     
  0.59375000000000000       0.28125000000000000        0.0000000000000000     
  0.62500000000000000       0.28125000000000000        0.0000000000000000     
  0.50000000000000000       0.31250000000000000        0.0000000000000000     
  0.53125000000000000       0.31250000000000000        0.0000000000000000     
  0.56250000000000000       0.31250000000000000        0.0000000000000000     
  0.59375000000000000       0.31250000000000000        0.0000000000000000     
  0.62500000000000000       0.31250000000000000        0.0000000000000000     
  0.50000000000000000       0.34375000000000000        0.0000000000000000     
  0.53125000000000000       0.34375000000000000        0.0000000000000000     
  0.56250000000000000       0.34375000000000000        0.0000000000000000     
  0.59375000000000000       0.34375000000000000        0.0000000000000000     
  0.62500000000000000       0.34375000000000000        0.0000000000000000     
  0.50000000000000000       0.37500000000000000        0.0000000000000000     
  0.53125000000000000       0.37500000000000000        0.0000000000000000     
  0.56250000000000000       0.37500000000000000        0.0000000000000000     
  0.59375000000000000       0.37500000000000000        0.0000000000000000     
  0.62500000000000000       0.37500000000000000        0.0000000000000000     
  0.62500000000000000       0.25000000000000000        0.0000000000000000     
  0.65625000000000000       0.25000000000000000        0.0000000000000000     
  0.68750000000000000       0.25000000000000000        0.0000000000000000     
  0.71875000000000000       0.25000000000000000        0.0000000000000000     
  0.75000000000000000       0.25000000000000000        0.0000000000000000     
  0.62500000000000000       0.28125000000000000        0.0000000000000000     
  0.65625000000000000       0.28125000000000000        0.0000000000000000     
  0.68750000000000000       0.28125000000000000        0.0000000000000000     
  0.71875000000000000       0.28125000000000000        0.0000000000000000     
  0.75000000000000000       0.28125000000000000        0.0000000000000000     
  0.62500000000000000       0.31250000000000000        0.0000000000000000     
  0.65625000000000000       0.31250000000000000        0.0000000000000000     
  0.68750000000000000       0.31250000000000000        0.0000000000000000     
  0.71875000000000000       0.31250000000000000        0.0000000000000000     
  0.75000000000000000       0.31250000000000000        0.0000000000000000     
  0.62500000000000000       0.34375000000000000        0.0000000000000000     
  0.65625000000000000       0.34375000000000000        0.0000000000000000     
  0.68750000000000000       0.34375000000000000        0.0000000000000000     
  0.71875000000000000       0.34375000000000000        0.0000000000000000     
  0.75000000000000000       0.34375000000000000        0.0000000000000000     
  0.62500000000000000       0.37500000000000000        0.0000000000000000     
  0.65625000000000000       0.37500000000000000        0.0000000000000000     
  0.68750000000000000       0.37500000000000000        0.0000000000000000     
  0.71875000000000000       0.37500000000000000        0.0000000000000000     
  0.75000000000000000       0.37500000000000000        0.0000000000000000     
  0.75000000000000000       0.25000000000000000        0.0000000000000000     
  0.78125000000000000       0.25000000000000000        0.0000000000000000     
  0.81250000000000000       0.25000000000000000        0.0000000000000000     
  0.84375000000000000       0.25000000000000000        0.0000000000000000     
  0.87500000000000000       0.25000000000000000        0.0000000000000000     
  0.75000000000000000       0.28125000000000000        0.0000000000000000     
  0.78125000000000000       0.28125000000000000        0.0000000000000000     
  0.81250000000000000       0.28125000000000000        0.0000000000000000     
  0.84375000000000000       0.28125000000000000        0.0000000000000000     
  0.87500000000000000       0.28125000000000000        0.0000000000000000     
  0.75000000000000000       0.31250000000000000        0.0000000000000000     
  0.78125000000000000       0.31250000000000000        0.0000000000000000     
  0.81250000000000000       0.31250000000000000        0.0000000000000000     
  0.84375000000000000       0.31250000000000000        0.0000000000000000     
  0.87500000000000000       0.31250000000000000        0.0000000000000000     
  0.75000000000000000       0.34375000000000000        0.0000000000000000     
  0.78125000000000000       0.34375000000000000        0.0000000000000000     
  0.81250000000000000       0.34375000000000000        0.0000000000000000     
  0.84375000000000000       0.34375000000000000        0.0000000000000000     
  0.87500000000000000       0.34375000000000000        0.0000000000000000     
  0.75000000000000000       0.37500000000000000        0.0000000000000000     
  0.78125000000000000       0.37500000000000000        0.0000000000000000     
  0.81250000000000000       0.37500000000000000        0.0000000000000000     
  0.84375000000000000       0.37500000000000000        0.0000000000000000     
  0.87500000000000000       0.37500000000000000        0.0000000000000000     
  0.87500000000000000       0.25000000000000000        0.0000000000000000     
  0.90625000000000000       0.25000000000000000        0.0000000000000000     
  0.93750000000000000       0.25000000000000000        0.0000000000000000     
  0.96875000000000000       0.25000000000000000        0.0000000000000000     
   1.0000000000000000       0.25000000000000000        0.0000000000000000     
  0.87500000000000000       0.28125000000000000        0.0000000000000000     
  0.90625000000000000       0.28125000000000000        0.0000000000000000     
  0.93750000000000000       0.28125000000000000        0.0000000000000000     
  0.96875000000000000       0.28125000000000000        0.0000000000000000     
   1.0000000000000000       0.28125000000000000        0.0000000000000000     
  0.87500000000000000       0.31250000000000000        0.0000000000000000     
  0.90625000000000000       0.31250000000000000        0.0000000000000000     
  0.93750000000000000       0.31250000000000000        0.0000000000000000     
  0.96875000000000000       0.31250000000000000        0.0000000000000000     
   1.0000000000000000       0.31250000000000000        0.0000000000000000     
  0.87500000000000000       0.34375000000000000        0.0000000000000000     
  0.90625000000000000       0.34375000000000000        0.0000000000000000     
  0.93750000000000000       0.34375000000000000        0.0000000000000000     
  0.96875000000000000       0.34375000000000000        0.0000000000000000     
   1.0000000000000000       0.34375000000000000        0.0000000000000000     
  0.87500000000000000       0.37500000000000000        0.0000000000000000     
  0.90625000000000000       0.37500000000000000        0.0000000000000000     
  0.93750000000000000       0.37500000000000000        0.0000000000000000     
  0.96875000000000000       0.37500000000000000        0.0000000000000000     
   1.0000000000000000       0.37500000000000000        0.0000000000000000     
   0.0000000000000000       0.37500000000000000        0.0000000000000000     
   3.1250000000000000E-002  0.37500000000000000        0.0000000000000000     
   6.2500000000000000E-002  0.37500000000000000        0.0000000000000000     
   9.3750000000000000E-002  0.37500000000000000        0.0000000000000000     
  0.12500000000000000       0.37500000000000000        0.0000000000000000     
   0.0000000000000000       0.40625000000000000        0.0000000000000000     
   3.1250000000000000E-002  0.40625000000000000        0.0000000000000000     
   6.2500000000000000E-002  0.40625000000000000        0.0000000000000000     
   9.3750000000000000E-002  0.40625000000000000        0.0000000000000000     
  0.12500000000000000       0.40625000000000000        0.0000000000000000     
   0.0000000000000000       0.43750000000000000        0.0000000000000000     
   3.1250000000000000E-002  0.43750000000000000        0.0000000000000000     
   6.2500000000000000E-002  0.43750000000000000        0.0000000000000000     
   9.3750000000000000E-002  0.43750000000000000        0.0000000000000000     
  0.12500000000000000       0.43750000000000000        0.0000000000000000     
   0.0000000000000000       0.46875000000000000        0.0000000000000000     
   3.1250000000000000E-002  0.46875000000000000        0.0000000000000000     
   6.2500000000000000E-002  0.46875000000000000        0.0000000000000000     
   9.3750000000000000E-002  0.46875000000000000        0.0000000000000000     
  0.12500000000000000       0.46875000000000000        0.0000000000000000     
   0.0000000000000000       0.50000000000000000        0.0000000000000000     
   3.1250000000000000E-002  0.50000000000000000        0.0000000000000000     
   6.2500000000000000E-002  0.50000000000000000        0.0000000000000000     
   9.3750000000000000E-002  0.50000000000000000        0.0000000000000000     
  0.12500000000000000       0.50000000000000000        0.0000000000000000     
  0.12500000000000000       0.37500000000000000        0.0000000000000000     
  0.15625000000000000       0.37500000000000000        0.0000000000000000     
  0.18750000000000000       0.37500000000000000        0.0000000000000000     
  0.21875000000000000       0.37500000000000000        0.0000000000000000     
  0.25000000000000000       0.37500000000000000        0.0000000000000000     
  0.12500000000000000       0.40625000000000000        0.0000000000000000     
  0.15625000000000000       0.40625000000000000        0.0000000000000000     
  0.18750000000000000       0.40625000000000000        0.0000000000000000     
  0.21875000000000000       0.40625000000000000        0.0000000000000000     
  0.25000000000000000       0.40625000000000000        0.0000000000000000     
  0.12500000000000000       0.43750000000000000        0.0000000000000000     
  0.15625000000000000       0.43750000000000000        0.0000000000000000     
  0.18750000000000000       0.43750000000000000        0.0000000000000000     
  0.21875000000000000       0.43750000000000000        0.0000000000000000     
  0.25000000000000000       0.43750000000000000        0.0000000000000000     
  0.12500000000000000       0.46875000000000000        0.0000000000000000     
  0.15625000000000000       0.46875000000000000        0.0000000000000000     
  0.18750000000000000       0.46875000000000000        0.0000000000000000     
  0.21875000000000000       0.46875000000000000        0.0000000000000000     
  0.25000000000000000       0.46875000000000000        0.0000000000000000     
  0.12500000000000000       0.50000000000000000        0.0000000000000000     
  0.15625000000000000       0.50000000000000000        0.0000000000000000     
  0.18750000000000000       0.50000000000000000        0.0000000000000000     
  0.21875000000000000       0.50000000000000000        0.0000000000000000     
  0.25000000000000000       0.50000000000000000        0.0000000000000000     
  0.25000000000000000       0.37500000000000000        0.0000000000000000     
  0.28125000000000000       0.37500000000000000        0.0000000000000000     
  0.31250000000000000       0.37500000000000000        0.0000000000000000     
  0.34375000000000000       0.37500000000000000        0.0000000000000000     
  0.37500000000000000       0.37500000000000000        0.0000000000000000     
  0.25000000000000000       0.40625000000000000        0.0000000000000000     
  0.28125000000000000       0.40625000000000000        0.0000000000000000     
  0.31250000000000000       0.40625000000000000        0.0000000000000000     
  0.34375000000000000       0.40625000000000000        0.0000000000000000     
  0.37500000000000000       0.40625000000000000        0.0000000000000000     
  0.25000000000000000       0.43750000000000000        0.0000000000000000     
  0.28125000000000000       0.43750000000000000        0.0000000000000000     
  0.31250000000000000       0.43750000000000000        0.0000000000000000     
  0.34375000000000000       0.43750000000000000        0.0000000000000000     
  0.37500000000000000       0.43750000000000000        0.0000000000000000     
  0.25000000000000000       0.46875000000000000        0.0000000000000000     
  0.28125000000000000       0.46875000000000000        0.0000000000000000     
  0.31250000000000000       0.46875000000000000        0.0000000000000000     
  0.34375000000000000       0.46875000000000000        0.0000000000000000     
  0.37500000000000000       0.46875000000000000        0.0000000000000000     
  0.25000000000000000       0.50000000000000000        0.0000000000000000     
  0.28125000000000000       0.50000000000000000        0.0000000000000000     
  0.31250000000000000       0.50000000000000000        0.0000000000000000     
  0.34375000000000000       0.50000000000000000        0.0000000000000000     
  0.37500000000000000       0.50000000000000000        0.0000000000000000     
  0.37500000000000000       0.37500000000000000        0.0000000000000000     
  0.40625000000000000       0.37500000000000000        0.0000000000000000     
  0.43750000000000000       0.37500000000000000        0.0000000000000000     
  0.46875000000000000       0.37500000000000000        0.0000000000000000     
  0.50000000000000000       0.37500000000000000        0.0000000000000000     
  0.37500000000000000       0.40625000000000000        0.0000000000000000     
  0.40625000000000000       0.40625000000000000        0.0000000000000000     
  0.43750000000000000       0.40625000000000000        0.0000000000000000     
  0.46875000000000000       0.40625000000000000        0.0000000000000000     
  0.50000000000000000       0.40625000000000000        0.0000000000000000     
  0.37500000000000000       0.43750000000000000        0.0000000000000000     
  0.40625000000000000       0.43750000000000000        0.0000000000000000     
  0.43750000000000000       0.43750000000000000        0.0000000000000000     
  0.46875000000000000       0.43750000000000000        0.0000000000000000     
  0.50000000000000000       0.43750000000000000        0.0000000000000000     
  0.37500000000000000       0.46875000000000000        0.0000000000000000     
  0.40625000000000000       0.46875000000000000        0.0000000000000000     
  0.43750000000000000       0.46875000000000000        0.0000000000000000     
  0.46875000000000000       0.46875000000000000        0.0000000000000000     
  0.50000000000000000       0.46875000000000000        0.0000000000000000     
  0.37500000000000000       0.50000000000000000        0.0000000000000000     
  0.40625000000000000       0.50000000000000000        0.0000000000000000     
  0.43750000000000000       0.50000000000000000        0.0000000000000000     
  0.46875000000000000       0.50000000000000000        0.0000000000000000     
  0.50000000000000000       0.50000000000000000        0.0000000000000000     
  0.50000000000000000       0.37500000000000000        0.0000000000000000     
  0.53125000000000000       0.37500000000000000        0.0000000000000000     
  0.56250000000000000       0.37500000000000000        0.0000000000000000     
  0.59375000000000000       0.37500000000000000        0.0000000000000000     
  0.62500000000000000       0.37500000000000000        0.0000000000000000     
  0.50000000000000000       0.40625000000000000        0.0000000000000000     
  0.53125000000000000       0.40625000000000000        0.0000000000000000     
  0.56250000000000000       0.40625000000000000        0.0000000000000000     
  0.59375000000000000       0.40625000000000000        0.0000000000000000     
  0.62500000000000000       0.40625000000000000        0.0000000000000000     
  0.50000000000000000       0.43750000000000000        0.0000000000000000     
  0.53125000000000000       0.43750000000000000        0.0000000000000000     
  0.56250000000000000       0.43750000000000000        0.0000000000000000     
  0.59375000000000000       0.43750000000000000        0.0000000000000000     
  0.62500000000000000       0.43750000000000000        0.0000000000000000     
  0.50000000000000000       0.46875000000000000        0.0000000000000000     
  0.53125000000000000       0.46875000000000000        0.0000000000000000     
  0.56250000000000000       0.46875000000000000        0.0000000000000000     
  0.59375000000000000       0.46875000000000000        0.0000000000000000     
  0.62500000000000000       0.46875000000000000        0.0000000000000000     
  0.50000000000000000       0.50000000000000000        0.0000000000000000     
  0.53125000000000000       0.50000000000000000        0.0000000000000000     
  0.56250000000000000       0.50000000000000000        0.0000000000000000     
  0.59375000000000000       0.50000000000000000        0.0000000000000000     
  0.62500000000000000       0.50000000000000000        0.0000000000000000     
  0.62500000000000000       0.37500000000000000        0.0000000000000000     
  0.65625000000000000       0.37500000000000000        0.0000000000000000     
  0.68750000000000000       0.37500000000000000        0.0000000000000000     
  0.71875000000000000       0.37500000000000000        0.0000000000000000     
  0.75000000000000000       0.37500000000000000        0.0000000000000000     
  0.62500000000000000       0.40625000000000000        0.0000000000000000     
  0.65625000000000000       0.40625000000000000        0.0000000000000000     
  0.68750000000000000       0.40625000000000000        0.0000000000000000     
  0.71875000000000000       0.40625000000000000        0.0000000000000000     
  0.75000000000000000       0.40625000000000000        0.0000000000000000     
  0.62500000000000000       0.43750000000000000        0.0000000000000000     
  0.65625000000000000       0.43750000000000000        0.0000000000000000     
  0.68750000000000000       0.43750000000000000        0.0000000000000000     
  0.71875000000000000       0.43750000000000000        0.0000000000000000     
  0.75000000000000000       0.43750000000000000        0.0000000000000000     
  0.62500000000000000       0.46875000000000000        0.0000000000000000     
  0.65625000000000000       0.46875000000000000        0.0000000000000000     
  0.68750000000000000       0.46875000000000000        0.0000000000000000     
  0.71875000000000000       0.46875000000000000        0.0000000000000000     
  0.75000000000000000       0.46875000000000000        0.0000000000000000     
  0.62500000000000000       0.50000000000000000        0.0000000000000000     
  0.65625000000000000       0.50000000000000000        0.0000000000000000     
  0.68750000000000000       0.50000000000000000        0.0000000000000000     
  0.71875000000000000       0.50000000000000000        0.0000000000000000     
  0.75000000000000000       0.50000000000000000        0.0000000000000000     
  0.75000000000000000       0.37500000000000000        0.0000000000000000     
  0.78125000000000000       0.37500000000000000        0.0000000000000000     
  0.81250000000000000       0.37500000000000000        0.0000000000000000     
  0.84375000000000000       0.37500000000000000        0.0000000000000000     
  0.87500000000000000       0.37500000000000000        0.0000000000000000     
  0.75000000000000000       0.40625000000000000        0.0000000000000000     
  0.78125000000000000       0.40625000000000000        0.0000000000000000     
  0.81250000000000000       0.40625000000000000        0.0000000000000000     
  0.84375000000000000       0.40625000000000000        0.0000000000000000     
  0.87500000000000000       0.40625000000000000        0.0000000000000000     
  0.75000000000000000       0.43750000000000000        0.0000000000000000     
  0.78125000000000000       0.43750000000000000        0.0000000000000000     
  0.81250000000000000       0.43750000000000000        0.0000000000000000     
  0.84375000000000000       0.43750000000000000        0.0000000000000000     
  0.87500000000000000       0.43750000000000000        0.0000000000000000     
  0.75000000000000000       0.46875000000000000        0.0000000000000000     
  0.78125000000000000       0.46875000000000000        0.0000000000000000     
  0.81250000000000000       0.46875000000000000        0.0000000000000000     
  0.84375000000000000       0.46875000000000000        0.0000000000000000     
  0.87500000000000000       0.46875000000000000        0.0000000000000000     
  0.75000000000000000       0.50000000000000000        0.0000000000000000     
  0.78125000000000000       0.50000000000000000        0.0000000000000000     
  0.81250000000000000       0.50000000000000000        0.0000000000000000     
  0.84375000000000000       0.50000000000000000        0.0000000000000000     
  0.87500000000000000       0.50000000000000000        0.0000000000000000     
  0.87500000000000000       0.37500000000000000        0.0000000000000000     
  0.90625000000000000       0.37500000000000000        0.0000000000000000     
  0.93750000000000000       0.37500000000000000        0.0000000000000000     
  0.96875000000000000       0.37500000000000000        0.0000000000000000     
   1.0000000000000000       0.37500000000000000        0.0000000000000000     
  0.87500000000000000       0.40625000000000000        0.0000000000000000     
  0.90625000000000000       0.40625000000000000        0.0000000000000000     
  0.93750000000000000       0.40625000000000000        0.0000000000000000     
  0.96875000000000000       0.40625000000000000        0.0000000000000000     
   1.0000000000000000       0.40625000000000000        0.0000000000000000     
  0.87500000000000000       0.43750000000000000        0.0000000000000000     
  0.90625000000000000       0.43750000000000000        0.0000000000000000     
  0.93750000000000000       0.43750000000000000        0.0000000000000000     
  0.96875000000000000       0.43750000000000000        0.0000000000000000     
   1.0000000000000000       0.43750000000000000        0.0000000000000000     
  0.87500000000000000       0.46875000000000000        0.0000000000000000     
  0.90625000000000000       0.46875000000000000        0.0000000000000000     
  0.93750000000000000       0.46875000000000000        0.0000000000000000     
  0.96875000000000000       0.46875000000000000        0.0000000000000000     
   1.0000000000000000       0.46875000000000000        0.0000000000000000     
  0.87500000000000000       0.50000000000000000        0.0000000000000000     
  0.90625000000000000       0.50000000000000000        0.0000000000000000     
  0.93750000000000000       0.50000000000000000        0.0000000000000000     
  0.96875000000000000       0.50000000000000000        0.0000000000000000     
   1.0000000000000000       0.50000000000000000        0.0000000000000000     
   0.0000000000000000       0.50000000000000000        0.0000000000000000     
   3.1250000000000000E-002  0.50000000000000000        0.0000000000000000     
   6.2500000000000000E-002  0.50000000000000000        0.0000000000000000     
   9.3750000000000000E-002  0.50000000000000000        0.0000000000000000     
  0.12500000000000000       0.50000000000000000        0.0000000000000000     
   0.0000000000000000       0.53125000000000000        0.0000000000000000     
   3.1250000000000000E-002  0.53125000000000000        0.0000000000000000     
   6.2500000000000000E-002  0.53125000000000000        0.0000000000000000     
   9.3750000000000000E-002  0.53125000000000000        0.0000000000000000     
  0.12500000000000000       0.53125000000000000        0.0000000000000000     
   0.0000000000000000       0.56250000000000000        0.0000000000000000     
   3.1250000000000000E-002  0.56250000000000000        0.0000000000000000     
   6.2500000000000000E-002  0.56250000000000000        0.0000000000000000     
   9.3750000000000000E-002  0.56250000000000000        0.0000000000000000     
  0.12500000000000000       0.56250000000000000        0.0000000000000000     
   0.0000000000000000       0.59375000000000000        0.0000000000000000     
   3.1250000000000000E-002  0.59375000000000000        0.0000000000000000     
   6.2500000000000000E-002  0.59375000000000000        0.0000000000000000     
   9.3750000000000000E-002  0.59375000000000000        0.0000000000000000     
  0.12500000000000000       0.59375000000000000        0.0000000000000000     
   0.0000000000000000       0.62500000000000000        0.0000000000000000     
   3.1250000000000000E-002  0.62500000000000000        0.0000000000000000     
   6.2500000000000000E-002  0.62500000000000000        0.0000000000000000     
   9.3750000000000000E-002  0.62500000000000000        0.0000000000000000     
  0.12500000000000000       0.62500000000000000        0.0000000000000000     
  0.12500000000000000       0.50000000000000000        0.0000000000000000     
  0.15625000000000000       0.50000000000000000        0.0000000000000000     
  0.18750000000000000       0.50000000000000000        0.0000000000000000     
  0.21875000000000000       0.50000000000000000        0.0000000000000000     
  0.25000000000000000       0.50000000000000000        0.0000000000000000     
  0.12500000000000000       0.53125000000000000        0.0000000000000000     
  0.15625000000000000       0.53125000000000000        0.0000000000000000     
  0.18750000000000000       0.53125000000000000        0.0000000000000000     
  0.21875000000000000       0.53125000000000000        0.0000000000000000     
  0.25000000000000000       0.53125000000000000        0.0000000000000000     
  0.12500000000000000       0.56250000000000000        0.0000000000000000     
  0.15625000000000000       0.56250000000000000        0.0000000000000000     
  0.18750000000000000       0.56250000000000000        0.0000000000000000     
  0.21875000000000000       0.56250000000000000        0.0000000000000000     
  0.25000000000000000       0.56250000000000000        0.0000000000000000     
  0.12500000000000000       0.59375000000000000        0.0000000000000000     
  0.15625000000000000       0.59375000000000000        0.0000000000000000     
  0.18750000000000000       0.59375000000000000        0.0000000000000000     
  0.21875000000000000       0.59375000000000000        0.0000000000000000     
  0.25000000000000000       0.59375000000000000        0.0000000000000000     
  0.12500000000000000       0.62500000000000000        0.0000000000000000     
  0.15625000000000000       0.62500000000000000        0.0000000000000000     
  0.18750000000000000       0.62500000000000000        0.0000000000000000     
  0.21875000000000000       0.62500000000000000        0.0000000000000000     
  0.25000000000000000       0.62500000000000000        0.0000000000000000     
  0.25000000000000000       0.50000000000000000        0.0000000000000000     
  0.28125000000000000       0.50000000000000000        0.0000000000000000     
  0.31250000000000000       0.50000000000000000        0.0000000000000000     
  0.34375000000000000       0.50000000000000000        0.0000000000000000     
  0.37500000000000000       0.50000000000000000        0.0000000000000000     
  0.25000000000000000       0.53125000000000000        0.0000000000000000     
  0.28125000000000000       0.53125000000000000        0.0000000000000000     
  0.31250000000000000       0.53125000000000000        0.0000000000000000     
  0.34375000000000000       0.53125000000000000        0.0000000000000000     
  0.37500000000000000       0.53125000000000000        0.0000000000000000     
  0.25000000000000000       0.56250000000000000        0.0000000000000000     
  0.28125000000000000       0.56250000000000000        0.0000000000000000     
  0.31250000000000000       0.56250000000000000        0.0000000000000000     
  0.34375000000000000       0.56250000000000000        0.0000000000000000     
  0.37500000000000000       0.56250000000000000        0.0000000000000000     
  0.25000000000000000       0.59375000000000000        0.0000000000000000     
  0.28125000000000000       0.59375000000000000        0.0000000000000000     
  0.31250000000000000       0.59375000000000000        0.0000000000000000     
  0.34375000000000000       0.59375000000000000        0.0000000000000000     
  0.37500000000000000       0.59375000000000000        0.0000000000000000     
  0.25000000000000000       0.62500000000000000        0.0000000000000000     
  0.28125000000000000       0.62500000000000000        0.0000000000000000     
  0.31250000000000000       0.62500000000000000        0.0000000000000000     
  0.34375000000000000       0.62500000000000000        0.0000000000000000     
  0.37500000000000000       0.62500000000000000        0.0000000000000000     
  0.37500000000000000       0.50000000000000000        0.0000000000000000     
  0.40625000000000000       0.50000000000000000        0.0000000000000000     
  0.43750000000000000       0.50000000000000000        0.0000000000000000     
  0.46875000000000000       0.50000000000000000        0.0000000000000000     
  0.50000000000000000       0.50000000000000000        0.0000000000000000     
  0.37500000000000000       0.53125000000000000        0.0000000000000000     
  0.40625000000000000       0.53125000000000000        0.0000000000000000     
  0.43750000000000000       0.53125000000000000        0.0000000000000000     
  0.46875000000000000       0.53125000000000000        0.0000000000000000     
  0.50000000000000000       0.53125000000000000        0.0000000000000000     
  0.37500000000000000       0.56250000000000000        0.0000000000000000     
  0.40625000000000000       0.56250000000000000        0.0000000000000000     
  0.43750000000000000       0.56250000000000000        0.0000000000000000     
  0.46875000000000000       0.56250000000000000        0.0000000000000000     
  0.50000000000000000       0.56250000000000000        0.0000000000000000     
  0.37500000000000000       0.59375000000000000        0.0000000000000000     
  0.40625000000000000       0.59375000000000000        0.0000000000000000     
  0.43750000000000000       0.59375000000000000        0.0000000000000000     
  0.46875000000000000       0.59375000000000000        0.0000000000000000     
  0.50000000000000000       0.59375000000000000        0.0000000000000000     
  0.37500000000000000       0.62500000000000000        0.0000000000000000     
  0.40625000000000000       0.62500000000000000        0.0000000000000000     
  0.43750000000000000       0.62500000000000000        0.0000000000000000     
  0.46875000000000000       0.62500000000000000        0.0000000000000000     
  0.50000000000000000       0.62500000000000000        0.0000000000000000     
  0.50000000000000000       0.50000000000000000        0.0000000000000000     
  0.53125000000000000       0.50000000000000000        0.0000000000000000     
  0.56250000000000000       0.50000000000000000        0.0000000000000000     
  0.59375000000000000       0.50000000000000000        0.0000000000000000     
  0.62500000000000000       0.50000000000000000        0.0000000000000000     
  0.50000000000000000       0.53125000000000000        0.0000000000000000     
  0.53125000000000000       0.53125000000000000        0.0000000000000000     
  0.56250000000000000       0.53125000000000000        0.0000000000000000     
  0.59375000000000000       0.53125000000000000        0.0000000000000000     
  0.62500000000000000       0.53125000000000000        0.0000000000000000     
  0.50000000000000000       0.56250000000000000        0.0000000000000000     
  0.53125000000000000       0.56250000000000000        0.0000000000000000     
  0.56250000000000000       0.56250000000000000        0.0000000000000000     
  0.59375000000000000       0.56250000000000000        0.0000000000000000     
  0.62500000000000000       0.56250000000000000        0.0000000000000000     
  0.50000000000000000       0.59375000000000000        0.0000000000000000     
  0.53125000000000000       0.59375000000000000        0.0000000000000000     
  0.56250000000000000       0.59375000000000000        0.0000000000000000     
  0.59375000000000000       0.59375000000000000        0.0000000000000000     
  0.62500000000000000       0.59375000000000000        0.0000000000000000     
  0.50000000000000000       0.62500000000000000        0.0000000000000000     
  0.53125000000000000       0.62500000000000000        0.0000000000000000     
  0.56250000000000000       0.62500000000000000        0.0000000000000000     
  0.59375000000000000       0.62500000000000000        0.0000000000000000     
  0.62500000000000000       0.62500000000000000        0.0000000000000000     
  0.62500000000000000       0.50000000000000000        0.0000000000000000     
  0.65625000000000000       0.50000000000000000        0.0000000000000000     
  0.68750000000000000       0.50000000000000000        0.0000000000000000     
  0.71875000000000000       0.50000000000000000        0.0000000000000000     
  0.75000000000000000       0.50000000000000000        0.0000000000000000     
  0.62500000000000000       0.53125000000000000        0.0000000000000000     
  0.65625000000000000       0.53125000000000000        0.0000000000000000     
  0.68750000000000000       0.53125000000000000        0.0000000000000000     
  0.71875000000000000       0.53125000000000000        0.0000000000000000     
  0.75000000000000000       0.53125000000000000        0.0000000000000000     
  0.62500000000000000       0.56250000000000000        0.0000000000000000     
  0.65625000000000000       0.56250000000000000        0.0000000000000000     
  0.68750000000000000       0.56250000000000000        0.0000000000000000     
  0.71875000000000000       0.56250000000000000        0.0000000000000000     
  0.75000000000000000       0.56250000000000000        0.0000000000000000     
  0.62500000000000000       0.59375000000000000        0.0000000000000000     
  0.65625000000000000       0.59375000000000000        0.0000000000000000     
  0.68750000000000000       0.59375000000000000        0.0000000000000000     
  0.71875000000000000       0.59375000000000000        0.0000000000000000     
  0.75000000000000000       0.59375000000000000        0.0000000000000000     
  0.62500000000000000       0.62500000000000000        0.0000000000000000     
  0.65625000000000000       0.62500000000000000        0.0000000000000000     
  0.68750000000000000       0.62500000000000000        0.0000000000000000     
  0.71875000000000000       0.62500000000000000        0.0000000000000000     
  0.75000000000000000       0.62500000000000000        0.0000000000000000     
  0.75000000000000000       0.50000000000000000        0.0000000000000000     
  0.78125000000000000       0.50000000000000000        0.0000000000000000     
  0.81250000000000000       0.50000000000000000        0.0000000000000000     
  0.84375000000000000       0.50000000000000000        0.0000000000000000     
  0.87500000000000000       0.50000000000000000        0.0000000000000000     
  0.75000000000000000       0.53125000000000000        0.0000000000000000     
  0.78125000000000000       0.53125000000000000        0.0000000000000000     
  0.81250000000000000       0.53125000000000000        0.0000000000000000     
  0.84375000000000000       0.53125000000000000        0.0000000000000000     
  0.87500000000000000       0.53125000000000000        0.0000000000000000     
  0.75000000000000000       0.56250000000000000        0.0000000000000000     
  0.78125000000000000       0.56250000000000000        0.0000000000000000     
  0.81250000000000000       0.56250000000000000        0.0000000000000000     
  0.84375000000000000       0.56250000000000000        0.0000000000000000     
  0.87500000000000000       0.56250000000000000        0.0000000000000000     
  0.75000000000000000       0.59375000000000000        0.0000000000000000     
  0.78125000000000000       0.59375000000000000        0.0000000000000000     
  0.81250000000000000       0.59375000000000000        0.0000000000000000     
  0.84375000000000000       0.59375000000000000        0.0000000000000000     
  0.87500000000000000       0.59375000000000000        0.0000000000000000     
  0.75000000000000000       0.62500000000000000        0.0000000000000000     
  0.78125000000000000       0.62500000000000000        0.0000000000000000     
  0.81250000000000000       0.62500000000000000        0.0000000000000000     
  0.84375000000000000       0.62500000000000000        0.0000000000000000     
  0.87500000000000000       0.62500000000000000        0.0000000000000000     
  0.87500000000000000       0.50000000000000000        0.0000000000000000     
  0.90625000000000000       0.50000000000000000        0.0000000000000000     
  0.93750000000000000       0.50000000000000000        0.0000000000000000     
  0.96875000000000000       0.50000000000000000        0.0000000000000000     
   1.0000000000000000       0.50000000000000000        0.0000000000000000     
  0.87500000000000000       0.53125000000000000        0.0000000000000000     
  0.90625000000000000       0.53125000000000000        0.0000000000000000     
  0.93750000000000000       0.53125000000000000        0.0000000000000000     
  0.96875000000000000       0.53125000000000000        0.0000000000000000     
   1.0000000000000000       0.53125000000000000        0.0000000000000000     
  0.87500000000000000       0.56250000000000000        0.0000000000000000     
  0.90625000000000000       0.56250000000000000        0.0000000000000000     
  0.93750000000000000       0.56250000000000000        0.0000000000000000     
  0.96875000000000000       0.56250000000000000        0.0000000000000000     
   1.0000000000000000       0.56250000000000000        0.0000000000000000     
  0.87500000000000000       0.59375000000000000        0.0000000000000000     
  0.90625000000000000       0.59375000000000000        0.0000000000000000     
  0.93750000000000000       0.59375000000000000        0.0000000000000000     
  0.96875000000000000       0.59375000000000000        0.0000000000000000     
   1.0000000000000000       0.59375000000000000        0.0000000000000000     
  0.87500000000000000       0.62500000000000000        0.0000000000000000     
  0.90625000000000000       0.62500000000000000        0.0000000000000000     
  0.93750000000000000       0.62500000000000000        0.0000000000000000     
  0.96875000000000000       0.62500000000000000        0.0000000000000000     
   1.0000000000000000       0.62500000000000000        0.0000000000000000     
   0.0000000000000000       0.62500000000000000        0.0000000000000000     
   3.1250000000000000E-002  0.62500000000000000        0.0000000000000000     
   6.2500000000000000E-002  0.62500000000000000        0.0000000000000000     
   9.3750000000000000E-002  0.62500000000000000        0.0000000000000000     
  0.12500000000000000       0.62500000000000000        0.0000000000000000     
   0.0000000000000000       0.65625000000000000        0.0000000000000000     
   3.1250000000000000E-002  0.65625000000000000        0.0000000000000000     
   6.2500000000000000E-002  0.65625000000000000        0.0000000000000000     
   9.3750000000000000E-002  0.65625000000000000        0.0000000000000000     
  0.12500000000000000       0.65625000000000000        0.0000000000000000     
   0.0000000000000000       0.68750000000000000        0.0000000000000000     
   3.1250000000000000E-002  0.68750000000000000        0.0000000000000000     
   6.2500000000000000E-002  0.68750000000000000        0.0000000000000000     
   9.3750000000000000E-002  0.68750000000000000        0.0000000000000000     
  0.12500000000000000       0.68750000000000000        0.0000000000000000     
   0.0000000000000000       0.71875000000000000        0.0000000000000000     
   3.1250000000000000E-002  0.71875000000000000        0.0000000000000000     
   6.2500000000000000E-002  0.71875000000000000        0.0000000000000000     
   9.3750000000000000E-002  0.71875000000000000        0.0000000000000000     
  0.12500000000000000       0.71875000000000000        0.0000000000000000     
   0.0000000000000000       0.75000000000000000        0.0000000000000000     
   3.1250000000000000E-002  0.75000000000000000        0.0000000000000000     
   6.2500000000000000E-002  0.75000000000000000        0.0000000000000000     
   9.3750000000000000E-002  0.75000000000000000        0.0000000000000000     
  0.12500000000000000       0.75000000000000000        0.0000000000000000     
  0.12500000000000000       0.62500000000000000        0.0000000000000000     
  0.15625000000000000       0.62500000000000000        0.0000000000000000     
  0.18750000000000000       0.62500000000000000        0.0000000000000000     
  0.21875000000000000       0.62500000000000000        0.0000000000000000     
  0.25000000000000000       0.62500000000000000        0.0000000000000000     
  0.12500000000000000       0.65625000000000000        0.0000000000000000     
  0.15625000000000000       0.65625000000000000        0.0000000000000000     
  0.18750000000000000       0.65625000000000000        0.0000000000000000     
  0.21875000000000000       0.65625000000000000        0.0000000000000000     
  0.25000000000000000       0.65625000000000000        0.0000000000000000     
  0.12500000000000000       0.68750000000000000        0.0000000000000000     
  0.15625000000000000       0.68750000000000000        0.0000000000000000     
  0.18750000000000000       0.68750000000000000        0.0000000000000000     
  0.21875000000000000       0.68750000000000000        0.0000000000000000     
  0.25000000000000000       0.68750000000000000        0.0000000000000000     
  0.12500000000000000       0.71875000000000000        0.0000000000000000     
  0.15625000000000000       0.71875000000000000        0.0000000000000000     
  0.18750000000000000       0.71875000000000000        0.0000000000000000     
  0.21875000000000000       0.71875000000000000        0.0000000000000000     
  0.25000000000000000       0.71875000000000000        0.0000000000000000     
  0.12500000000000000       0.75000000000000000        0.0000000000000000     
  0.15625000000000000       0.75000000000000000        0.0000000000000000     
  0.18750000000000000       0.75000000000000000        0.0000000000000000     
  0.21875000000000000       0.75000000000000000        0.0000000000000000     
  0.25000000000000000       0.75000000000000000        0.0000000000000000     
  0.25000000000000000       0.62500000000000000        0.0000000000000000     
  0.28125000000000000       0.62500000000000000        0.0000000000000000     
  0.31250000000000000       0.62500000000000000        0.0000000000000000     
  0.34375000000000000       0.62500000000000000        0.0000000000000000     
  0.37500000000000000       0.62500000000000000        0.0000000000000000     
  0.25000000000000000       0.65625000000000000        0.0000000000000000     
  0.28125000000000000       0.65625000000000000        0.0000000000000000     
  0.31250000000000000       0.65625000000000000        0.0000000000000000     
  0.34375000000000000       0.65625000000000000        0.0000000000000000     
  0.37500000000000000       0.65625000000000000        0.0000000000000000     
  0.25000000000000000       0.68750000000000000        0.0000000000000000     
  0.28125000000000000       0.68750000000000000        0.0000000000000000     
  0.31250000000000000       0.68750000000000000        0.0000000000000000     
  0.34375000000000000       0.68750000000000000        0.0000000000000000     
  0.37500000000000000       0.68750000000000000        0.0000000000000000     
  0.25000000000000000       0.71875000000000000        0.0000000000000000     
  0.28125000000000000       0.71875000000000000        0.0000000000000000     
  0.31250000000000000       0.71875000000000000        0.0000000000000000     
  0.34375000000000000       0.71875000000000000        0.0000000000000000     
  0.37500000000000000       0.71875000000000000        0.0000000000000000     
  0.25000000000000000       0.75000000000000000        0.0000000000000000     
  0.28125000000000000       0.75000000000000000        0.0000000000000000     
  0.31250000000000000       0.75000000000000000        0.0000000000000000     
  0.34375000000000000       0.75000000000000000        0.0000000000000000     
  0.37500000000000000       0.75000000000000000        0.0000000000000000     
  0.37500000000000000       0.62500000000000000        0.0000000000000000     
  0.40625000000000000       0.62500000000000000        0.0000000000000000     
  0.43750000000000000       0.62500000000000000        0.0000000000000000     
  0.46875000000000000       0.62500000000000000        0.0000000000000000     
  0.50000000000000000       0.62500000000000000        0.0000000000000000     
  0.37500000000000000       0.65625000000000000        0.0000000000000000     
  0.40625000000000000       0.65625000000000000        0.0000000000000000     
  0.43750000000000000       0.65625000000000000        0.0000000000000000     
  0.46875000000000000       0.65625000000000000        0.0000000000000000     
  0.50000000000000000       0.65625000000000000        0.0000000000000000     
  0.37500000000000000       0.68750000000000000        0.0000000000000000     
  0.40625000000000000       0.68750000000000000        0.0000000000000000     
  0.43750000000000000       0.68750000000000000        0.0000000000000000     
  0.46875000000000000       0.68750000000000000        0.0000000000000000     
  0.50000000000000000       0.68750000000000000        0.0000000000000000     
  0.37500000000000000       0.71875000000000000        0.0000000000000000     
  0.40625000000000000       0.71875000000000000        0.0000000000000000     
  0.43750000000000000       0.71875000000000000        0.0000000000000000     
  0.46875000000000000       0.71875000000000000        0.0000000000000000     
  0.50000000000000000       0.71875000000000000        0.0000000000000000     
  0.37500000000000000       0.75000000000000000        0.0000000000000000     
  0.40625000000000000       0.75000000000000000        0.0000000000000000     
  0.43750000000000000       0.75000000000000000        0.0000000000000000     
  0.46875000000000000       0.75000000000000000        0.0000000000000000     
  0.50000000000000000       0.75000000000000000        0.0000000000000000     
  0.50000000000000000       0.62500000000000000        0.0000000000000000     
  0.53125000000000000       0.62500000000000000        0.0000000000000000     
  0.56250000000000000       0.62500000000000000        0.0000000000000000     
  0.59375000000000000       0.62500000000000000        0.0000000000000000     
  0.62500000000000000       0.62500000000000000        0.0000000000000000     
  0.50000000000000000       0.65625000000000000        0.0000000000000000     
  0.53125000000000000       0.65625000000000000        0.0000000000000000     
  0.56250000000000000       0.65625000000000000        0.0000000000000000     
  0.59375000000000000       0.65625000000000000        0.0000000000000000     
  0.62500000000000000       0.65625000000000000        0.0000000000000000     
  0.50000000000000000       0.68750000000000000        0.0000000000000000     
  0.53125000000000000       0.68750000000000000        0.0000000000000000     
  0.56250000000000000       0.68750000000000000        0.0000000000000000     
  0.59375000000000000       0.68750000000000000        0.0000000000000000     
  0.62500000000000000       0.68750000000000000        0.0000000000000000     
  0.50000000000000000       0.71875000000000000        0.0000000000000000     
  0.53125000000000000       0.71875000000000000        0.0000000000000000     
  0.56250000000000000       0.71875000000000000        0.0000000000000000     
  0.59375000000000000       0.71875000000000000        0.0000000000000000     
  0.62500000000000000       0.71875000000000000        0.0000000000000000     
  0.50000000000000000       0.75000000000000000        0.0000000000000000     
  0.53125000000000000       0.75000000000000000        0.0000000000000000     
  0.56250000000000000       0.75000000000000000        0.0000000000000000     
  0.59375000000000000       0.75000000000000000        0.0000000000000000     
  0.62500000000000000       0.75000000000000000        0.0000000000000000     
  0.62500000000000000       0.62500000000000000        0.0000000000000000     
  0.65625000000000000       0.62500000000000000        0.0000000000000000     
  0.68750000000000000       0.62500000000000000        0.0000000000000000     
  0.71875000000000000       0.62500000000000000        0.0000000000000000     
  0.75000000000000000       0.62500000000000000        0.0000000000000000     
  0.62500000000000000       0.65625000000000000        0.0000000000000000     
  0.65625000000000000       0.65625000000000000        0.0000000000000000     
  0.68750000000000000       0.65625000000000000        0.0000000000000000     
  0.71875000000000000       0.65625000000000000        0.0000000000000000     
  0.75000000000000000       0.65625000000000000        0.0000000000000000     
  0.62500000000000000       0.68750000000000000        0.0000000000000000     
  0.65625000000000000       0.68750000000000000        0.0000000000000000     
  0.68750000000000000       0.68750000000000000        0.0000000000000000     
  0.71875000000000000       0.68750000000000000        0.0000000000000000     
  0.75000000000000000       0.68750000000000000        0.0000000000000000     
  0.62500000000000000       0.71875000000000000        0.0000000000000000     
  0.65625000000000000       0.71875000000000000        0.0000000000000000     
  0.68750000000000000       0.71875000000000000        0.0000000000000000     
  0.71875000000000000       0.71875000000000000        0.0000000000000000     
  0.75000000000000000       0.71875000000000000        0.0000000000000000     
  0.62500000000000000       0.75000000000000000        0.0000000000000000     
  0.65625000000000000       0.75000000000000000        0.0000000000000000     
  0.68750000000000000       0.75000000000000000        0.0000000000000000     
  0.71875000000000000       0.75000000000000000        0.0000000000000000     
  0.75000000000000000       0.75000000000000000        0.0000000000000000     
  0.75000000000000000       0.62500000000000000        0.0000000000000000     
  0.78125000000000000       0.62500000000000000        0.0000000000000000     
  0.81250000000000000       0.62500000000000000        0.0000000000000000     
  0.84375000000000000       0.62500000000000000        0.0000000000000000     
  0.87500000000000000       0.62500000000000000        0.0000000000000000     
  0.75000000000000000       0.65625000000000000        0.0000000000000000     
  0.78125000000000000       0.65625000000000000        0.0000000000000000     
  0.81250000000000000       0.65625000000000000        0.0000000000000000     
  0.84375000000000000       0.65625000000000000        0.0000000000000000     
  0.87500000000000000       0.65625000000000000        0.0000000000000000     
  0.75000000000000000       0.68750000000000000        0.0000000000000000     
  0.78125000000000000       0.68750000000000000        0.0000000000000000     
  0.81250000000000000       0.68750000000000000        0.0000000000000000     
  0.84375000000000000       0.68750000000000000        0.0000000000000000     
  0.87500000000000000       0.68750000000000000        0.0000000000000000     
  0.75000000000000000       0.71875000000000000        0.0000000000000000     
  0.78125000000000000       0.71875000000000000        0.0000000000000000     
  0.81250000000000000       0.71875000000000000        0.0000000000000000     
  0.84375000000000000       0.71875000000000000        0.0000000000000000     
  0.87500000000000000       0.71875000000000000        0.0000000000000000     
  0.75000000000000000       0.75000000000000000        0.0000000000000000     
  0.78125000000000000       0.75000000000000000        0.0000000000000000     
  0.81250000000000000       0.75000000000000000        0.0000000000000000     
  0.84375000000000000       0.75000000000000000        0.0000000000000000     
  0.87500000000000000       0.75000000000000000        0.0000000000000000     
  0.87500000000000000       0.62500000000000000        0.0000000000000000     
  0.90625000000000000       0.62500000000000000        0.0000000000000000     
  0.93750000000000000       0.62500000000000000        0.0000000000000000     
  0.96875000000000000       0.62500000000000000        0.0000000000000000     
   1.0000000000000000       0.62500000000000000        0.0000000000000000     
  0.87500000000000000       0.65625000000000000        0.0000000000000000     
  0.90625000000000000       0.65625000000000000        0.0000000000000000     
  0.93750000000000000       0.65625000000000000        0.0000000000000000     
  0.96875000000000000       0.65625000000000000        0.0000000000000000     
   1.0000000000000000       0.65625000000000000        0.0000000000000000     
  0.87500000000000000       0.68750000000000000        0.0000000000000000     
  0.90625000000000000       0.68750000000000000        0.0000000000000000     
  0.93750000000000000       0.68750000000000000        0.0000000000000000     
  0.96875000000000000       0.68750000000000000        0.0000000000000000     
   1.0000000000000000       0.68750000000000000        0.0000000000000000     
  0.87500000000000000       0.71875000000000000        0.0000000000000000     
  0.90625000000000000       0.71875000000000000        0.0000000000000000     
  0.93750000000000000       0.71875000000000000        0.0000000000000000     
  0.96875000000000000       0.71875000000000000        0.0000000000000000     
   1.0000000000000000       0.71875000000000000        0.0000000000000000     
  0.87500000000000000       0.75000000000000000        0.0000000000000000     
  0.90625000000000000       0.75000000000000000        0.0000000000000000     
  0.93750000000000000       0.75000000000000000        0.0000000000000000     
  0.96875000000000000       0.75000000000000000        0.0000000000000000     
   1.0000000000000000       0.75000000000000000        0.0000000000000000     
   0.0000000000000000       0.75000000000000000        0.0000000000000000     
   3.1250000000000000E-002  0.75000000000000000        0.0000000000000000     
   6.2500000000000000E-002  0.75000000000000000        0.0000000000000000     
   9.3750000000000000E-002  0.75000000000000000        0.0000000000000000     
  0.12500000000000000       0.75000000000000000        0.0000000000000000     
   0.0000000000000000       0.78125000000000000        0.0000000000000000     
   3.1250000000000000E-002  0.78125000000000000        0.0000000000000000     
   6.2500000000000000E-002  0.78125000000000000        0.0000000000000000     
   9.3750000000000000E-002  0.78125000000000000        0.0000000000000000     
  0.12500000000000000       0.78125000000000000        0.0000000000000000     
   0.0000000000000000       0.81250000000000000        0.0000000000000000     
   3.1250000000000000E-002  0.81250000000000000        0.0000000000000000     
   6.2500000000000000E-002  0.81250000000000000        0.0000000000000000     
   9.3750000000000000E-002  0.81250000000000000        0.0000000000000000     
  0.12500000000000000       0.81250000000000000        0.0000000000000000     
   0.0000000000000000       0.84375000000000000        0.0000000000000000     
   3.1250000000000000E-002  0.84375000000000000        0.0000000000000000     
   6.2500000000000000E-002  0.84375000000000000        0.0000000000000000     
   9.3750000000000000E-002  0.84375000000000000        0.0000000000000000     
  0.12500000000000000       0.84375000000000000        0.0000000000000000     
   0.0000000000000000       0.87500000000000000        0.0000000000000000     
   3.1250000000000000E-002  0.87500000000000000        0.0000000000000000     
   6.2500000000000000E-002  0.87500000000000000        0.0000000000000000     
   9.3750000000000000E-002  0.87500000000000000        0.0000000000000000     
  0.12500000000000000       0.87500000000000000        0.0000000000000000     
  0.12500000000000000       0.75000000000000000        0.0000000000000000     
  0.15625000000000000       0.75000000000000000        0.0000000000000000     
  0.18750000000000000       0.75000000000000000        0.0000000000000000     
  0.21875000000000000       0.75000000000000000        0.0000000000000000     
  0.25000000000000000       0.75000000000000000        0.0000000000000000     
  0.12500000000000000       0.78125000000000000        0.0000000000000000     
  0.15625000000000000       0.78125000000000000        0.0000000000000000     
  0.18750000000000000       0.78125000000000000        0.0000000000000000     
  0.21875000000000000       0.78125000000000000        0.0000000000000000     
  0.25000000000000000       0.78125000000000000        0.0000000000000000     
  0.12500000000000000       0.81250000000000000        0.0000000000000000     
  0.15625000000000000       0.81250000000000000        0.0000000000000000     
  0.18750000000000000       0.81250000000000000        0.0000000000000000     
  0.21875000000000000       0.81250000000000000        0.0000000000000000     
  0.25000000000000000       0.81250000000000000        0.0000000000000000     
  0.12500000000000000       0.84375000000000000        0.0000000000000000     
  0.15625000000000000       0.84375000000000000        0.0000000000000000     
  0.18750000000000000       0.84375000000000000        0.0000000000000000     
  0.21875000000000000       0.84375000000000000        0.0000000000000000     
  0.25000000000000000       0.84375000000000000        0.0000000000000000     
  0.12500000000000000       0.87500000000000000        0.0000000000000000     
  0.15625000000000000       0.87500000000000000        0.0000000000000000     
  0.18750000000000000       0.87500000000000000        0.0000000000000000     
  0.21875000000000000       0.87500000000000000        0.0000000000000000     
  0.25000000000000000       0.87500000000000000        0.0000000000000000     
  0.25000000000000000       0.75000000000000000        0.0000000000000000     
  0.28125000000000000       0.75000000000000000        0.0000000000000000     
  0.31250000000000000       0.75000000000000000        0.0000000000000000     
  0.34375000000000000       0.75000000000000000        0.0000000000000000     
  0.37500000000000000       0.75000000000000000        0.0000000000000000     
  0.25000000000000000       0.78125000000000000        0.0000000000000000     
  0.28125000000000000       0.78125000000000000        0.0000000000000000     
  0.31250000000000000       0.78125000000000000        0.0000000000000000     
  0.34375000000000000       0.78125000000000000        0.0000000000000000     
  0.37500000000000000       0.78125000000000000        0.0000000000000000     
  0.25000000000000000       0.81250000000000000        0.0000000000000000     
  0.28125000000000000       0.81250000000000000        0.0000000000000000     
  0.31250000000000000       0.81250000000000000        0.0000000000000000     
  0.34375000000000000       0.81250000000000000        0.0000000000000000     
  0.37500000000000000       0.81250000000000000        0.0000000000000000     
  0.25000000000000000       0.84375000000000000        0.0000000000000000     
  0.28125000000000000       0.84375000000000000        0.0000000000000000     
  0.31250000000000000       0.84375000000000000        0.0000000000000000     
  0.34375000000000000       0.84375000000000000        0.0000000000000000     
  0.37500000000000000       0.84375000000000000        0.0000000000000000     
  0.25000000000000000       0.87500000000000000        0.0000000000000000     
  0.28125000000000000       0.87500000000000000        0.0000000000000000     
  0.31250000000000000       0.87500000000000000        0.0000000000000000     
  0.34375000000000000       0.87500000000000000        0.0000000000000000     
  0.37500000000000000       0.87500000000000000        0.0000000000000000     
  0.37500000000000000       0.75000000000000000        0.0000000000000000     
  0.40625000000000000       0.75000000000000000        0.0000000000000000     
  0.43750000000000000       0.75000000000000000        0.0000000000000000     
  0.46875000000000000       0.75000000000000000        0.0000000000000000     
  0.50000000000000000       0.75000000000000000        0.0000000000000000     
  0.37500000000000000       0.78125000000000000        0.0000000000000000     
  0.40625000000000000       0.78125000000000000        0.0000000000000000     
  0.43750000000000000       0.78125000000000000        0.0000000000000000     
  0.46875000000000000       0.78125000000000000        0.0000000000000000     
  0.50000000000000000       0.78125000000000000        0.0000000000000000     
  0.37500000000000000       0.81250000000000000        0.0000000000000000     
  0.40625000000000000       0.81250000000000000        0.0000000000000000     
  0.43750000000000000       0.81250000000000000        0.0000000000000000     
  0.46875000000000000       0.81250000000000000        0.0000000000000000     
  0.50000000000000000       0.81250000000000000        0.0000000000000000     
  0.37500000000000000       0.84375000000000000        0.0000000000000000     
  0.40625000000000000       0.84375000000000000        0.0000000000000000     
  0.43750000000000000       0.84375000000000000        0.0000000000000000     
  0.46875000000000000       0.84375000000000000        0.0000000000000000     
  0.50000000000000000       0.84375000000000000        0.0000000000000000     
  0.37500000000000000       0.87500000000000000        0.0000000000000000     
  0.40625000000000000       0.87500000000000000        0.0000000000000000     
  0.43750000000000000       0.87500000000000000        0.0000000000000000     
  0.46875000000000000       0.87500000000000000        0.0000000000000000     
  0.50000000000000000       0.87500000000000000        0.0000000000000000     
  0.50000000000000000       0.75000000000000000        0.0000000000000000     
  0.53125000000000000       0.75000000000000000        0.0000000000000000     
  0.56250000000000000       0.75000000000000000        0.0000000000000000     
  0.59375000000000000       0.75000000000000000        0.0000000000000000     
  0.62500000000000000       0.75000000000000000        0.0000000000000000     
  0.50000000000000000       0.78125000000000000        0.0000000000000000     
  0.53125000000000000       0.78125000000000000        0.0000000000000000     
  0.56250000000000000       0.78125000000000000        0.0000000000000000     
  0.59375000000000000       0.78125000000000000        0.0000000000000000     
  0.62500000000000000       0.78125000000000000        0.0000000000000000     
  0.50000000000000000       0.81250000000000000        0.0000000000000000     
  0.53125000000000000       0.81250000000000000        0.0000000000000000     
  0.56250000000000000       0.81250000000000000        0.0000000000000000     
  0.59375000000000000       0.81250000000000000        0.0000000000000000     
  0.62500000000000000       0.81250000000000000        0.0000000000000000     
  0.50000000000000000       0.84375000000000000        0.0000000000000000     
  0.53125000000000000       0.84375000000000000        0.0000000000000000     
  0.56250000000000000       0.84375000000000000        0.0000000000000000     
  0.59375000000000000       0.84375000000000000        0.0000000000000000     
  0.62500000000000000       0.84375000000000000        0.0000000000000000     
  0.50000000000000000       0.87500000000000000        0.0000000000000000     
  0.53125000000000000       0.87500000000000000        0.0000000000000000     
  0.56250000000000000       0.87500000000000000        0.0000000000000000     
  0.59375000000000000       0.87500000000000000        0.0000000000000000     
  0.62500000000000000       0.87500000000000000        0.0000000000000000     
  0.62500000000000000       0.75000000000000000        0.0000000000000000     
  0.65625000000000000       0.75000000000000000        0.0000000000000000     
  0.68750000000000000       0.75000000000000000        0.0000000000000000     
  0.71875000000000000       0.75000000000000000        0.0000000000000000     
  0.75000000000000000       0.75000000000000000        0.0000000000000000     
  0.62500000000000000       0.78125000000000000        0.0000000000000000     
  0.65625000000000000       0.78125000000000000        0.0000000000000000     
  0.68750000000000000       0.78125000000000000        0.0000000000000000     
  0.71875000000000000       0.78125000000000000        0.0000000000000000     
  0.75000000000000000       0.78125000000000000        0.0000000000000000     
  0.62500000000000000       0.81250000000000000        0.0000000000000000     
  0.65625000000000000       0.81250000000000000        0.0000000000000000     
  0.68750000000000000       0.81250000000000000        0.0000000000000000     
  0.71875000000000000       0.81250000000000000        0.0000000000000000     
  0.75000000000000000       0.81250000000000000        0.0000000000000000     
  0.62500000000000000       0.84375000000000000        0.0000000000000000     
  0.65625000000000000       0.84375000000000000        0.0000000000000000     
  0.68750000000000000       0.84375000000000000        0.0000000000000000     
  0.71875000000000000       0.84375000000000000        0.0000000000000000     
  0.75000000000000000       0.84375000000000000        0.0000000000000000     
  0.62500000000000000       0.87500000000000000        0.0000000000000000     
  0.65625000000000000       0.87500000000000000        0.0000000000000000     
  0.68750000000000000       0.87500000000000000        0.0000000000000000     
  0.71875000000000000       0.87500000000000000        0.0000000000000000     
  0.75000000000000000       0.87500000000000000        0.0000000000000000     
  0.75000000000000000       0.75000000000000000        0.0000000000000000     
  0.78125000000000000       0.75000000000000000        0.0000000000000000     
  0.81250000000000000       0.75000000000000000        0.0000000000000000     
  0.84375000000000000       0.75000000000000000        0.0000000000000000     
  0.87500000000000000       0.75000000000000000        0.0000000000000000     
  0.75000000000000000       0.78125000000000000        0.0000000000000000     
  0.78125000000000000       0.78125000000000000        0.0000000000000000     
  0.81250000000000000       0.78125000000000000        0.0000000000000000     
  0.84375000000000000       0.78125000000000000        0.0000000000000000     
  0.87500000000000000       0.78125000000000000        0.0000000000000000     
  0.75000000000000000       0.81250000000000000        0.0000000000000000     
  0.78125000000000000       0.81250000000000000        0.0000000000000000     
  0.81250000000000000       0.81250000000000000        0.0000000000000000     
  0.84375000000000000       0.81250000000000000        0.0000000000000000     
  0.87500000000000000       0.81250000000000000        0.0000000000000000     
  0.75000000000000000       0.84375000000000000        0.0000000000000000     
  0.78125000000000000       0.84375000000000000        0.0000000000000000     
  0.81250000000000000       0.84375000000000000        0.0000000000000000     
  0.84375000000000000       0.84375000000000000        0.0000000000000000     
  0.87500000000000000       0.84375000000000000        0.0000000000000000     
  0.75000000000000000       0.87500000000000000        0.0000000000000000     
  0.78125000000000000       0.87500000000000000        0.0000000000000000     
  0.81250000000000000       0.87500000000000000        0.0000000000000000     
  0.84375000000000000       0.87500000000000000        0.0000000000000000     
  0.87500000000000000       0.87500000000000000        0.0000000000000000     
  0.87500000000000000       0.75000000000000000        0.0000000000000000     
  0.90625000000000000       0.75000000000000000        0.0000000000000000     
  0.93750000000000000       0.75000000000000000        0.0000000000000000     
  0.96875000000000000       0.75000000000000000        0.0000000000000000     
   1.0000000000000000       0.75000000000000000        0.0000000000000000     
  0.87500000000000000       0.78125000000000000        0.0000000000000000     
  0.90625000000000000       0.78125000000000000        0.0000000000000000     
  0.93750000000000000       0.78125000000000000        0.0000000000000000     
  0.96875000000000000       0.78125000000000000        0.0000000000000000     
   1.0000000000000000       0.78125000000000000        0.0000000000000000     
  0.87500000000000000       0.81250000000000000        0.0000000000000000     
  0.90625000000000000       0.81250000000000000        0.0000000000000000     
  0.93750000000000000       0.81250000000000000        0.0000000000000000     
  0.96875000000000000       0.81250000000000000        0.0000000000000000     
   1.0000000000000000       0.81250000000000000        0.0000000000000000     
  0.87500000000000000       0.84375000000000000        0.0000000000000000     
  0.90625000000000000       0.84375000000000000        0.0000000000000000     
  0.93750000000000000       0.84375000000000000        0.0000000000000000     
  0.96875000000000000       0.84375000000000000        0.0000000000000000     
   1.0000000000000000       0.84375000000000000        0.0000000000000000     
  0.87500000000000000       0.87500000000000000        0.0000000000000000     
  0.90625000000000000       0.87500000000000000        0.0000000000000000     
  0.93750000000000000       0.87500000000000000        0.0000000000000000     
  0.96875000000000000       0.87500000000000000        0.0000000000000000     
   1.0000000000000000       0.87500000000000000        0.0000000000000000     
   0.0000000000000000       0.87500000000000000        0.0000000000000000     
   3.1250000000000000E-002  0.87500000000000000        0.0000000000000000     
   6.2500000000000000E-002  0.87500000000000000        0.0000000000000000     
   9.3750000000000000E-002  0.87500000000000000        0.0000000000000000     
  0.12500000000000000       0.87500000000000000        0.0000000000000000     
   0.0000000000000000       0.90625000000000000        0.0000000000000000     
   3.1250000000000000E-002  0.90625000000000000        0.0000000000000000     
   6.2500000000000000E-002  0.90625000000000000        0.0000000000000000     
   9.3750000000000000E-002  0.90625000000000000        0.0000000000000000     
  0.12500000000000000       0.90625000000000000        0.0000000000000000     
   0.0000000000000000       0.93750000000000000        0.0000000000000000     
   3.1250000000000000E-002  0.93750000000000000        0.0000000000000000     
   6.2500000000000000E-002  0.93750000000000000        0.0000000000000000     
   9.3750000000000000E-002  0.93750000000000000        0.0000000000000000     
  0.12500000000000000       0.93750000000000000        0.0000000000000000     
   0.0000000000000000       0.96875000000000000        0.0000000000000000     
   3.1250000000000000E-002  0.96875000000000000        0.0000000000000000     
   6.2500000000000000E-002  0.96875000000000000        0.0000000000000000     
   9.3750000000000000E-002  0.96875000000000000        0.0000000000000000     
  0.12500000000000000       0.96875000000000000        0.0000000000000000     
   0.0000000000000000        1.0000000000000000        0.0000000000000000     
   3.1250000000000000E-002   1.0000000000000000        0.0000000000000000     
   6.2500000000000000E-002   1.0000000000000000        0.0000000000000000     
   9.3750000000000000E-002   1.0000000000000000        0.0000000000000000     
  0.12500000000000000        1.0000000000000000        0.0000000000000000     
  0.12500000000000000       0.87500000000000000        0.0000000000000000     
  0.15625000000000000       0.87500000000000000        0.0000000000000000     
  0.18750000000000000       0.87500000000000000        0.0000000000000000     
  0.21875000000000000       0.87500000000000000        0.0000000000000000     
  0.25000000000000000       0.87500000000000000        0.0000000000000000     
  0.12500000000000000       0.90625000000000000        0.0000000000000000     
  0.15625000000000000       0.90625000000000000        0.0000000000000000     
  0.18750000000000000       0.90625000000000000        0.0000000000000000     
  0.21875000000000000       0.90625000000000000        0.0000000000000000     
  0.25000000000000000       0.90625000000000000        0.0000000000000000     
  0.12500000000000000       0.93750000000000000        0.0000000000000000     
  0.15625000000000000       0.93750000000000000        0.0000000000000000     
  0.18750000000000000       0.93750000000000000        0.0000000000000000     
  0.21875000000000000       0.93750000000000000        0.0000000000000000     
  0.25000000000000000       0.93750000000000000        0.0000000000000000     
  0.12500000000000000       0.96875000000000000        0.0000000000000000     
  0.15625000000000000       0.96875000000000000        0.0000000000000000     
  0.18750000000000000       0.96875000000000000        0.0000000000000000     
  0.21875000000000000       0.96875000000000000        0.0000000000000000     
  0.25000000000000000       0.96875000000000000        0.0000000000000000     
  0.12500000000000000        1.0000000000000000        0.0000000000000000     
  0.15625000000000000        1.0000000000000000        0.0000000000000000     
  0.18750000000000000        1.0000000000000000        0.0000000000000000     
  0.21875000000000000        1.0000000000000000        0.0000000000000000     
  0.25000000000000000        1.0000000000000000        0.0000000000000000     
  0.25000000000000000       0.87500000000000000        0.0000000000000000     
  0.28125000000000000       0.87500000000000000        0.0000000000000000     
  0.31250000000000000       0.87500000000000000        0.0000000000000000     
  0.34375000000000000       0.87500000000000000        0.0000000000000000     
  0.37500000000000000       0.87500000000000000        0.0000000000000000     
  0.25000000000000000       0.90625000000000000        0.0000000000000000     
  0.28125000000000000       0.90625000000000000        0.0000000000000000     
  0.31250000000000000       0.90625000000000000        0.0000000000000000     
  0.34375000000000000       0.90625000000000000        0.0000000000000000     
  0.37500000000000000       0.90625000000000000        0.0000000000000000     
  0.25000000000000000       0.93750000000000000        0.0000000000000000     
  0.28125000000000000       0.93750000000000000        0.0000000000000000     
  0.31250000000000000       0.93750000000000000        0.0000000000000000     
  0.34375000000000000       0.93750000000000000        0.0000000000000000     
  0.37500000000000000       0.93750000000000000        0.0000000000000000     
  0.25000000000000000       0.96875000000000000        0.0000000000000000     
  0.28125000000000000       0.96875000000000000        0.0000000000000000     
  0.31250000000000000       0.96875000000000000        0.0000000000000000     
  0.34375000000000000       0.96875000000000000        0.0000000000000000     
  0.37500000000000000       0.96875000000000000        0.0000000000000000     
  0.25000000000000000        1.0000000000000000        0.0000000000000000     
  0.28125000000000000        1.0000000000000000        0.0000000000000000     
  0.31250000000000000        1.0000000000000000        0.0000000000000000     
  0.34375000000000000        1.0000000000000000        0.0000000000000000     
  0.37500000000000000        1.0000000000000000        0.0000000000000000     
  0.37500000000000000       0.87500000000000000        0.0000000000000000     
  0.40625000000000000       0.87500000000000000        0.0000000000000000     
  0.43750000000000000       0.87500000000000000        0.0000000000000000     
  0.46875000000000000       0.87500000000000000        0.0000000000000000     
  0.50000000000000000       0.87500000000000000        0.0000000000000000     
  0.37500000000000000       0.90625000000000000        0.0000000000000000     
  0.40625000000000000       0.90625000000000000        0.0000000000000000     
  0.43750000000000000       0.90625000000000000        0.0000000000000000     
  0.46875000000000000       0.90625000000000000        0.0000000000000000     
  0.50000000000000000       0.90625000000000000        0.0000000000000000     
  0.37500000000000000       0.93750000000000000        0.0000000000000000     
  0.40625000000000000       0.93750000000000000        0.0000000000000000     
  0.43750000000000000       0.93750000000000000        0.0000000000000000     
  0.46875000000000000       0.93750000000000000        0.0000000000000000     
  0.50000000000000000       0.93750000000000000        0.0000000000000000     
  0.37500000000000000       0.96875000000000000        0.0000000000000000     
  0.40625000000000000       0.96875000000000000        0.0000000000000000     
  0.43750000000000000       0.96875000000000000        0.0000000000000000     
  0.46875000000000000       0.96875000000000000        0.0000000000000000     
  0.50000000000000000       0.96875000000000000        0.0000000000000000     
  0.37500000000000000        1.0000000000000000        0.0000000000000000     
  0.40625000000000000        1.0000000000000000        0.0000000000000000     
  0.43750000000000000        1.0000000000000000        0.0000000000000000     
  0.46875000000000000        1.0000000000000000        0.0000000000000000     
  0.50000000000000000        1.0000000000000000        0.0000000000000000     
  0.50000000000000000       0.87500000000000000        0.0000000000000000     
  0.53125000000000000       0.87500000000000000        0.0000000000000000     
  0.56250000000000000       0.87500000000000000        0.0000000000000000     
  0.59375000000000000       0.87500000000000000        0.0000000000000000     
  0.62500000000000000       0.87500000000000000        0.0000000000000000     
  0.50000000000000000       0.90625000000000000        0.0000000000000000     
  0.53125000000000000       0.90625000000000000        0.0000000000000000     
  0.56250000000000000       0.90625000000000000        0.0000000000000000     
  0.59375000000000000       0.90625000000000000        0.0000000000000000     
  0.62500000000000000       0.90625000000000000        0.0000000000000000     
  0.50000000000000000       0.93750000000000000        0.0000000000000000     
  0.53125000000000000       0.93750000000000000        0.0000000000000000     
  0.56250000000000000       0.93750000000000000        0.0000000000000000     
  0.59375000000000000       0.93750000000000000        0.0000000000000000     
  0.62500000000000000       0.93750000000000000        0.0000000000000000     
  0.50000000000000000       0.96875000000000000        0.0000000000000000     
  0.53125000000000000       0.96875000000000000        0.0000000000000000     
  0.56250000000000000       0.96875000000000000        0.0000000000000000     
  0.59375000000000000       0.96875000000000000        0.0000000000000000     
  0.62500000000000000       0.96875000000000000        0.0000000000000000     
  0.50000000000000000        1.0000000000000000        0.0000000000000000     
  0.53125000000000000        1.0000000000000000        0.0000000000000000     
  0.56250000000000000        1.0000000000000000        0.0000000000000000     
  0.59375000000000000        1.0000000000000000        0.0000000000000000     
  0.62500000000000000        1.0000000000000000        0.0000000000000000     
  0.62500000000000000       0.87500000000000000        0.0000000000000000     
  0.65625000000000000       0.87500000000000000        0.0000000000000000     
  0.68750000000000000       0.87500000000000000        0.0000000000000000     
  0.71875000000000000       0.87500000000000000        0.0000000000000000     
  0.75000000000000000       0.87500000000000000        0.0000000000000000     
  0.62500000000000000       0.90625000000000000        0.0000000000000000     
  0.65625000000000000       0.90625000000000000        0.0000000000000000     
  0.68750000000000000       0.90625000000000000        0.0000000000000000     
  0.71875000000000000       0.90625000000000000        0.0000000000000000     
  0.75000000000000000       0.90625000000000000        0.0000000000000000     
  0.62500000000000000       0.93750000000000000        0.0000000000000000     
  0.65625000000000000       0.93750000000000000        0.0000000000000000     
  0.68750000000000000       0.93750000000000000        0.0000000000000000     
  0.71875000000000000       0.93750000000000000        0.0000000000000000     
  0.75000000000000000       0.93750000000000000        0.0000000000000000     
  0.62500000000000000       0.96875000000000000        0.0000000000000000     
  0.65625000000000000       0.96875000000000000        0.0000000000000000     
  0.68750000000000000       0.96875000000000000        0.0000000000000000     
  0.71875000000000000       0.96875000000000000        0.0000000000000000     
  0.75000000000000000       0.96875000000000000        0.0000000000000000     
  0.62500000000000000        1.0000000000000000        0.0000000000000000     
  0.65625000000000000        1.0000000000000000        0.0000000000000000     
  0.68750000000000000        1.0000000000000000        0.0000000000000000     
  0.71875000000000000        1.0000000000000000        0.0000000000000000     
  0.75000000000000000        1.0000000000000000        0.0000000000000000     
  0.75000000000000000       0.87500000000000000        0.0000000000000000     
  0.78125000000000000       0.87500000000000000        0.0000000000000000     
  0.81250000000000000       0.87500000000000000        0.0000000000000000     
  0.84375000000000000       0.87500000000000000        0.0000000000000000     
  0.87500000000000000       0.87500000000000000        0.0000000000000000     
  0.75000000000000000       0.90625000000000000        0.0000000000000000     
  0.78125000000000000       0.90625000000000000        0.0000000000000000     
  0.81250000000000000       0.90625000000000000        0.0000000000000000     
  0.84375000000000000       0.90625000000000000        0.0000000000000000     
  0.87500000000000000       0.90625000000000000        0.0000000000000000     
  0.75000000000000000       0.93750000000000000        0.0000000000000000     
  0.78125000000000000       0.93750000000000000        0.0000000000000000     
  0.81250000000000000       0.93750000000000000        0.0000000000000000     
  0.84375000000000000       0.93750000000000000        0.0000000000000000     
  0.87500000000000000       0.93750000000000000        0.0000000000000000     
  0.75000000000000000       0.96875000000000000        0.0000000000000000     
  0.78125000000000000       0.96875000000000000        0.0000000000000000     
  0.81250000000000000       0.96875000000000000        0.0000000000000000     
  0.84375000000000000       0.96875000000000000        0.0000000000000000     
  0.87500000000000000       0.96875000000000000        0.0000000000000000     
  0.75000000000000000        1.0000000000000000        0.0000000000000000     
  0.78125000000000000        1.0000000000000000        0.0000000000000000     
  0.81250000000000000        1.0000000000000000        0.0000000000000000     
  0.84375000000000000        1.0000000000000000        0.0000000000000000     
  0.87500000000000000        1.0000000000000000        0.0000000000000000     
  0.87500000000000000       0.87500000000000000        0.0000000000000000     
  0.90625000000000000       0.87500000000000000        0.0000000000000000     
  0.93750000000000000       0.87500000000000000        0.0000000000000000     
  0.96875000000000000       0.87500000000000000        0.0000000000000000     
   1.0000000000000000       0.87500000000000000        0.0000000000000000     
  0.87500000000000000       0.90625000000000000        0.0000000000000000     
  0.90625000000000000       0.90625000000000000        0.0000000000000000     
  0.93750000000000000       0.90625000000000000        0.0000000000000000     
  0.96875000000000000       0.90625000000000000        0.0000000000000000     
   1.0000000000000000       0.90625000000000000        0.0000000000000000     
  0.87500000000000000       0.93750000000000000        0.0000000000000000     
  0.90625000000000000       0.93750000000000000        0.0000000000000000     
  0.93750000000000000       0.93750000000000000        0.0000000000000000     
  0.96875000000000000       0.93750000000000000        0.0000000000000000     
   1.0000000000000000       0.93750000000000000        0.0000000000000000     
  0.87500000000000000       0.96875000000000000        0.0000000000000000     
  0.90625000000000000       0.96875000000000000        0.0000000000000000     
  0.93750000000000000       0.96875000000000000        0.0000000000000000     
  0.96875000000000000       0.96875000000000000        0.0000000000000000     
   1.0000000000000000       0.96875000000000000        0.0000000000000000     
  0.87500000000000000        1.0000000000000000        0.0000000000000000     
  0.90625000000000000        1.0000000000000000        0.0000000000000000     
  0.93750000000000000        1.0000000000000000        0.0000000000000000     
  0.96875000000000000        1.0000000000000000        0.0000000000000000     
   1.0000000000000000        1.0000000000000000        0.0000000000000000     
 </DataArray>
 </Points>
 <Cells>
 <DataArray  type="Int32"  Name="connectivity"  format="ascii">
           0           1           6           5
           1           2           7           6
           2           3           8           7
           3           4           9           8
           5           6          11          10
           6           7          12          11
           7           8          13          12
           8           9          14          13
          10          11          16          15
          11          12          17          16
          12          13          18          17
          13          14          19          18
          15          16          21          20
          16          17          22          21
          17          18          23          22
          18          19          24          23
          25          26          31          30
          26          27          32          31
          27          28          33          32
          28          29          34          33
          30          31          36          35
          31          32          37          36
          32          33          38          37
          33          34          39          38
          35          36          41          40
          36          37          42          41
          37          38          43          42
          38          39          44          43
          40          41          46          45
          41          42          47          46
          42          43          48          47
          43          44          49          48
          50          51          56          55
          51          52          57          56
          52          53          58          57
          53          54          59          58
          55          56          61          60
          56          57          62          61
          57          58          63          62
          58          59          64          63
          60          61          66          65
          61          62          67          66
          62          63          68          67
          63          64          69          68
          65          66          71          70
          66          67          72          71
          67          68          73          72
          68          69          74          73
          75          76          81          80
          76          77          82          81
          77          78          83          82
          78          79          84          83
          80          81          86          85
          81          82          87          86
          82          83          88          87
          83          84          89          88
          85          86          91          90
          86          87          92          91
          87          88          93          92
          88          89          94          93
          90          91          96          95
          91          92          97          96
          92          93          98          97
          93          94          99          98
         100         101         106         105
         101         102         107         106
         102         103         108         107
         103         104         109         108
         105         106         111         110
         106         107         112         111
         107         108         113         112
         108         109         114         113
         110         111         116         115
         111         112         117         116
         112         113         118         117
         113         114         119         118
         115         116         121         120
         116         117         122         121
         117         118         123         122
         118         119         124         123
         125         126         131         130
         126         127         132         131
         127         128         133         132
         128         129         134         133
         130         131         136         135
         131         132         137         136
         132         133         138         137
         133         134         139         138
         135         136         141         140
         136         137         142         141
         137         138         143         142
         138         139         144         143
         140         141         146         145
         141         142         147         146
         142         143         148         147
         143         144         149         148
         150         151         156         155
         151         152         157         156
         152         153         158         157
         153         154         159         158
         155         156         161         160
         156         157         162         161
         157         158         163         162
         158         159         164         163
         160         161         166         165
         161         162         167         166
         162         163         168         167
         163         164         169         168
         165         166         171         170
         166         167         172         171
         167         168         173         172
         168         169         174         173
         175         176         181         180
         176         177         182         181
         177         178         183         182
         178         179         184         183
         180         181         186         185
         181         182         187         186
         182         183         188         187
         183         184         189         188
         185         186         191         190
         186         187         192         191
         187         188         193         192
         188         189         194         193
         190         191         196         195
         191         192         197         196
         192         193         198         197
         193         194         199         198
         200         201         206         205
         201         202         207         206
         202         203         208         207
         203         204         209         208
         205         206         211         210
         206         207         212         211
         207         208         213         212
         208         209         214         213
         210         211         216         215
         211         212         217         216
         212         213         218         217
         213         214         219         218
         215         216         221         220
         216         217         222         221
         217         218         223         222
         218         219         224         223
         225         226         231         230
         226         227         232         231
         227         228         233         232
         228         229         234         233
         230         231         236         235
         231         232         237         236
         232         233         238         237
         233         234         239         238
         235         236         241         240
         236         237         242         241
         237         238         243         242
         238         239         244         243
         240         241         246         245
         241         242         247         246
         242         243         248         247
         243         244         249         248
         250         251         256         255
         251         252         257         256
         252         253         258         257
         253         254         259         258
         255         256         261         260
         256         257         262         261
         257         258         263         262
         258         259         264         263
         260         261         266         265
         261         262         267         266
         262         263         268         267
         263         264         269         268
         265         266         271         270
         266         267         272         271
         267         268         273         272
         268         269         274         273
         275         276         281         280
         276         277         282         281
         277         278         283         282
         278         279         284         283
         280         281         286         285
         281         282         287         286
         282         283         288         287
         283         284         289         288
         285         286         291         290
         286         287         292         291
         287         288         293         292
         288         289         294         293
         290         291         296         295
         291         292         297         296
         292         293         298         297
         293         294         299         298
         300         301         306         305
         301         302         307         306
         302         303         308         307
         303         304         309         308
         305         306         311         310
         306         307         312         311
         307         308         313         312
         308         309         314         313
         310         311         316         315
         311         312         317         316
         312         313         318         317
         313         314         319         318
         315         316         321         320
         316         317         322         321
         317         318         323         322
         318         319         324         323
         325         326         331         330
         326         327         332         331
         327         328         333         332
         328         329         334         333
         330         331         336         335
         331         332         337         336
         332         333         338         337
         333         334         339         338
         335         336         341         340
         336         337         342         341
         337         338         343         342
         338         339         344         343
         340         341         346         345
         341         342         347         346
         342         343         348         347
         343         344         349         348
         350         351         356         355
         351         352         357         356
         352         353         358         357
         353         354         359         358
         355         356         361         360
         356         357         362         361
         357         358         363         362
         358         359         364         363
         360         361         366         365
         361         362         367         366
         362         363         368         367
         363         364         369         368
         365         366         371         370
         366         367         372         371
         367         368         373         372
         368         369         374         373
         375         376         381         380
         376         377         382         381
         377         378         383         382
         378         379         384         383
         380         381         386         385
         381         382         387         386
         382         383         388         387
         383         384         389         388
         385         386         391         390
         386         387         392         391
         387         388         393         392
         388         389         394         393
         390         391         396         395
         391         392         397         396
         392         393         398         397
         393         394         399         398
         400         401         406         405
         401         402         407         406
         402         403         408         407
         403         404         409         408
         405         406         411         410
         406         407         412         411
         407         408         413         412
         408         409         414         413
         410         411         416         415
         411         412         417         416
         412         413         418         417
         413         414         419         418
         415         416         421         420
         416         417         422         421
         417         418         423         422
         418         419         424         423
         425         426         431         430
         426         427         432         431
         427         428         433         432
         428         429         434         433
         430         431         436         435
         431         432         437         436
         432         433         438         437
         433         434         439         438
         435         436         441         440
         436         437         442         441
         437         438         443         442
         438         439         444         443
         440         441         446         445
         441         442         447         446
         442         443         448         447
         443         444         449         448
         450         451         456         455
         451         452         457         456
         452         453         458         457
         453         454         459         458
         455         456         461         460
         456         457         462         461
         457         458         463         462
         458         459         464         463
         460         461         466         465
         461         462         467         466
         462         463         468         467
         463         464         469         468
         465         466         471         470
         466         467         472         471
         467         468         473         472
         468         469         474         473
         475         476         481         480
         476         477         482         481
         477         478         483         482
         478         479         484         483
         480         481         486         485
         481         482         487         486
         482         483         488         487
         483         484         489         488
         485         486         491         490
         486         487         492         491
         487         488         493         492
         488         489         494         493
         490         491         496         495
         491         492         497         496
         492         493         498         497
         493         494         499         498
         500         501         506         505
         501         502         507         506
         502         503         508         507
         503         504         509         508
         505         506         511         510
         506         507         512         511
         507         508         513         512
         508         509         514         513
         510         511         516         515
         511         512         517         516
         512         513         518         517
         513         514         519         518
         515         516         521         520
         516         517         522         521
         517         518         523         522
         518         519         524         523
         525         526         531         530
         526         527         532         531
         527         528         533         532
         528         529         534         533
         530         531         536         535
         531         532         537         536
         532         533         538         537
         533         534         539         538
         535         536         541         540
         536         537         542         541
         537         538         543         542
         538         539         544         543
         540         541         546         545
         541         542         547         546
         542         543         548         547
         543         544         549         548
         550         551         556         555
         551         552         557         556
         552         553         558         557
         553         554         559         558
         555         556         561         560
         556         557         562         561
         557         558         563         562
         558         559         564         563
         560         561         566         565
         561         562         567         566
         562         563         568         567
         563         564         569         568
         565         566         571         570
         566         567         572         571
         567         568         573         572
         568         569         574         573
         575         576         581         580
         576         577         582         581
         577         578         583         582
         578         579         584         583
         580         581         586         585
         581         582         587         586
         582         583         588         587
         583         584         589         588
         585         586         591         590
         586         587         592         591
         587         588         593         592
         588         589         594         593
         590         591         596         595
         591         592         597         596
         592         593         598         597
         593         594         599         598
         600         601         606         605
         601         602         607         606
         602         603         608         607
         603         604         609         608
         605         606         611         610
         606         607         612         611
         607         608         613         612
         608         609         614         613
         610         611         616         615
         611         612         617         616
         612         613         618         617
         613         614         619         618
         615         616         621         620
         616         617         622         621
         617         618         623         622
         618         619         624         623
         625         626         631         630
         626         627         632         631
         627         628         633         632
         628         629         634         633
         630         631         636         635
         631         632         637         636
         632         633         638         637
         633         634         639         638
         635         636         641         640
         636         637         642         641
         637         638         643         642
         638         639         644         643
         640         641         646         645
         641         642         647         646
         642         643         648         647
         643         644         649         648
         650         651         656         655
         651         652         657         656
         652         653         658         657
         653         654         659         658
         655         656         661         660
         656         657         662         661
         657         658         663         662
         658         659         664         663
         660         661         666         665
         661         662         667         666
         662         663         668         667
         663         664         669         668
         665         666         671         670
         666         667         672         671
         667         668         673         672
         668         669         674         673
         675         676         681         680
         676         677         682         681
         677         678         683         682
         678         679         684         683
         680         681         686         685
         681         682         687         686
         682         683         688         687
         683         684         689         688
         685         686         691         690
         686         687         692         691
         687         688         693         692
         688         689         694         693
         690         691         696         695
         691         692         697         696
         692         693         698         697
         693         694         699         698
         700         701         706         705
         701         702         707         706
         702         703         708         707
         703         704         709         708
         705         706         711         710
         706         707         712         711
         707         708         713         712
         708         709         714         713
         710         711         716         715
         711         712         717         716
         712         713         718         717
         713         714         719         718
         715         716         721         720
         716         717         722         721
         717         718         723         722
         718         719         724         723
         725         726         731         730
         726         727         732         731
         727         728         733         732
         728         729         734         733
         730         731         736         735
         731         732         737         736
         732         733         738         737
         733         734         739         738
         735         736         741         740
         736         737         742         741
         737         738         743         742
         738         739         744         743
         740         741         746         745
         741         742         747         746
         742         743         748         747
         743         744         749         748
         750         751         756         755
         751         752         757         756
         752         753         758         757
         753         754         759         758
         755         756         761         760
         756         757         762         761
         757         758         763         762
         758         759         764         763
         760         761         766         765
         761         762         767         766
         762         763         768         767
         763         764         769         768
         765         766         771         770
         766         767         772         771
         767         768         773         772
         768         769         774         773
         775         776         781         780
         776         777         782         781
         777         778         783         782
         778         779         784         783
         780         781         786         785
         781         782         787         786
         782         783         788         787
         783         784         789         788
         785         786         791         790
         786         787         792         791
         787         788         793         792
         788         789         794         793
         790         791         796         795
         791         792         797         796
         792         793         798         797
         793         794         799         798
         800         801         806         805
         801         802         807         806
         802         803         808         807
         803         804         809         808
         805         806         811         810
         806         807         812         811
         807         808         813         812
         808         809         814         813
         810         811         816         815
         811         812         817         816
         812         813         818         817
         813         814         819         818
         815         816         821         820
         816         817         822         821
         817         818         823         822
         818         819         824         823
         825         826         831         830
         826         827         832         831
         827         828         833         832
         828         829         834         833
         830         831         836         835
         831         832         837         836
         832         833         838         837
         833         834         839         838
         835         836         841         840
         836         837         842         841
         837         838         843         842
         838         839         844         843
         840         841         846         845
         841         842         847         846
         842         843         848         847
         843         844         849         848
         850         851         856         855
         851         852         857         856
         852         853         858         857
         853         854         859         858
         855         856         861         860
         856         857         862         861
         857         858         863         862
         858         859         864         863
         860         861         866         865
         861         862         867         866
         862         863         868         867
         863         864         869         868
         865         866         871         870
         866         867         872         871
         867         868         873         872
         868         869         874         873
         875         876         881         880
         876         877         882         881
         877         878         883         882
         878         879         884         883
         880         881         886         885
         881         882         887         886
         882         883         888         887
         883         884         889         888
         885         886         891         890
         886         887         892         891
         887         888         893         892
         888         889         894         893
         890         891         896         895
         891         892         897         896
         892         893         898         897
         893         894         899         898
         900         901         906         905
         901         902         907         906
         902         903         908         907
         903         904         909         908
         905         906         911         910
         906         907         912         911
         907         908         913         912
         908         909         914         913
         910         911         916         915
         911         912         917         916
         912         913         918         917
         913         914         919         918
         915         916         921         920
         916         917         922         921
         917         918         923         922
         918         919         924         923
         925         926         931         930
         926         927         932         931
         927         928         933         932
         928         929         934         933
         930         931         936         935
         931         932         937         936
         932         933         938         937
         933         934         939         938
         935         936         941         940
         936         937         942         941
         937         938         943         942
         938         939         944         943
         940         941         946         945
         941         942         947         946
         942         943         948         947
         943         944         949         948
         950         951         956         955
         951         952         957         956
         952         953         958         957
         953         954         959         958
         955         956         961         960
         956         957         962         961
         957         958         963         962
         958         959         964         963
         960         961         966         965
         961         962         967         966
         962         963         968         967
         963         964         969         968
         965         966         971         970
         966         967         972         971
         967         968         973         972
         968         969         974         973
         975         976         981         980
         976         977         982         981
         977         978         983         982
         978         979         984         983
         980         981         986         985
         981         982         987         986
         982         983         988         987
         983         984         989         988
         985         986         991         990
         986         987         992         991
         987         988         993         992
         988         989         994         993
         990         991         996         995
         991         992         997         996
         992         993         998         997
         993         994         999         998
        1000        1001        1006        1005
        1001        1002        1007        1006
        1002        1003        1008        1007
        1003        1004        1009        1008
        1005        1006        1011        1010
        1006        1007        1012        1011
        1007        1008        1013        1012
        1008        1009        1014        1013
        1010        1011        1016        1015
        1011        1012        1017        1016
        1012        1013        1018        1017
        1013        1014        1019        1018
        1015        1016        1021        1020
        1016        1017        1022        1021
        1017        1018        1023        1022
        1018        1019        1024        1023
        1025        1026        1031        1030
        1026        1027        1032        1031
        1027        1028        1033        1032
        1028        1029        1034        1033
        1030        1031        1036        1035
        1031        1032        1037        1036
        1032        1033        1038        1037
        1033        1034        1039        1038
        1035        1036        1041        1040
        1036        1037        1042        1041
        1037        1038        1043        1042
        1038        1039        1044        1043
        1040        1041        1046        1045
        1041        1042        1047        1046
        1042        1043        1048        1047
        1043        1044        1049        1048
        1050        1051        1056        1055
        1051        1052        1057        1056
        1052        1053        1058        1057
        1053        1054        1059        1058
        1055        1056        1061        1060
        1056        1057        1062        1061
        1057        1058        1063        1062
        1058        1059        1064        1063
        1060        1061        1066        1065
        1061        1062        1067        1066
        1062        1063        1068        1067
        1063        1064        1069        1068
        1065        1066        1071        1070
        1066        1067        1072        1071
        1067        1068        1073        1072
        1068        1069        1074        1073
        1075        1076        1081        1080
        1076        1077        1082        1081
        1077        1078        1083        1082
        1078        1079        1084        1083
        1080        1081        1086        1085
        1081        1082        1087        1086
        1082        1083        1088        1087
        1083        1084        1089        1088
        1085        1086        1091        1090
        1086        1087        1092        1091
        1087        1088        1093        1092
        1088        1089        1094        1093
        1090        1091        1096        1095
        1091        1092        1097        1096
        1092        1093        1098        1097
        1093        1094        1099        1098
        1100        1101        1106        1105
        1101        1102        1107        1106
        1102        1103        1108        1107
        1103        1104        1109        1108
        1105        1106        1111        1110
        1106        1107        1112        1111
        1107        1108        1113        1112
        1108        1109        1114        1113
        1110        1111        1116        1115
        1111        1112        1117        1116
        1112        1113        1118        1117
        1113        1114        1119        1118
        1115        1116        1121        1120
        1116        1117        1122        1121
        1117        1118        1123        1122
        1118        1119        1124        1123
        1125        1126        1131        1130
        1126        1127        1132        1131
        1127        1128        1133        1132
        1128        1129        1134        1133
        1130        1131        1136        1135
        1131        1132        1137        1136
        1132        1133        1138        1137
        1133        1134        1139        1138
        1135        1136        1141        1140
        1136        1137        1142        1141
        1137        1138        1143        1142
        1138        1139        1144        1143
        1140        1141        1146        1145
        1141        1142        1147        1146
        1142        1143        1148        1147
        1143        1144        1149        1148
        1150        1151        1156        1155
        1151        1152        1157        1156
        1152        1153        1158        1157
        1153        1154        1159        1158
        1155        1156        1161        1160
        1156        1157        1162        1161
        1157        1158        1163        1162
        1158        1159        1164        1163
        1160        1161        1166        1165
        1161        1162        1167        1166
        1162        1163        1168        1167
        1163        1164        1169        1168
        1165        1166        1171        1170
        1166        1167        1172        1171
        1167        1168        1173        1172
        1168        1169        1174        1173
        1175        1176        1181        1180
        1176        1177        1182        1181
        1177        1178        1183        1182
        1178        1179        1184        1183
        1180        1181        1186        1185
        1181        1182        1187        1186
        1182        1183        1188        1187
        1183        1184        1189        1188
        1185        1186        1191        1190
        1186        1187        1192        1191
        1187        1188        1193        1192
        1188        1189        1194        1193
        1190        1191        1196        1195
        1191        1192        1197        1196
        1192        1193        1198        1197
        1193        1194        1199        1198
        1200        1201        1206        1205
        1201        1202        1207        1206
        1202        1203        1208        1207
        1203        1204        1209        1208
        1205        1206        1211        1210
        1206        1207        1212        1211
        1207        1208        1213        1212
        1208        1209        1214        1213
        1210        1211        1216        1215
        1211        1212        1217        1216
        1212        1213        1218        1217
        1213        1214        1219        1218
        1215        1216        1221        1220
        1216        1217        1222        1221
        1217        1218        1223        1222
        1218        1219        1224        1223
        1225        1226        1231        1230
        1226        1227        1232        1231
        1227        1228        1233        1232
        1228        1229        1234        1233
        1230        1231        1236        1235
        1231        1232        1237        1236
        1232        1233        1238        1237
        1233        1234        1239        1238
        1235        1236        1241        1240
        1236        1237        1242        1241
        1237        1238        1243        1242
        1238        1239        1244        1243
        1240        1241        1246        1245
        1241        1242        1247        1246
        1242        1243        1248        1247
        1243        1244        1249        1248
        1250        1251        1256        1255
        1251        1252        1257        1256
        1252        1253        1258        1257
        1253        1254        1259        1258
        1255        1256        1261        1260
        1256        1257        1262        1261
        1257        1258        1263        1262
        1258        1259        1264        1263
        1260        1261        1266        1265
        1261        1262        1267        1266
        1262        1263        1268        1267
        1263        1264        1269        1268
        1265        1266        1271        1270
        1266        1267        1272        1271
        1267        1268        1273        1272
        1268        1269        1274        1273
        1275        1276        1281        1280
        1276        1277        1282        1281
        1277        1278        1283        1282
        1278        1279        1284        1283
        1280        1281        1286        1285
        1281        1282        1287        1286
        1282        1283        1288        1287
        1283        1284        1289        1288
        1285        1286        1291        1290
        1286        1287        1292        1291
        1287        1288        1293        1292
        1288        1289        1294        1293
        1290        1291        1296        1295
        1291        1292        1297        1296
        1292        1293        1298        1297
        1293        1294        1299        1298
        1300        1301        1306        1305
        1301        1302        1307        1306
        1302        1303        1308        1307
        1303        1304        1309        1308
        1305        1306        1311        1310
        1306        1307        1312        1311
        1307        1308        1313        1312
        1308        1309        1314        1313
        1310        1311        1316        1315
        1311        1312        1317        1316
        1312        1313        1318        1317
        1313        1314        1319        1318
        1315        1316        1321        1320
        1316        1317        1322        1321
        1317        1318        1323        1322
        1318        1319        1324        1323
        1325        1326        1331        1330
        1326        1327        1332        1331
        1327        1328        1333        1332
        1328        1329        1334        1333
        1330        1331        1336        1335
        1331        1332        1337        1336
        1332        1333        1338        1337
        1333        1334        1339        1338
        1335        1336        1341        1340
        1336        1337        1342        1341
        1337        1338        1343        1342
        1338        1339        1344        1343
        1340        1341        1346        1345
        1341        1342        1347        1346
        1342        1343        1348        1347
        1343        1344        1349        1348
        1350        1351        1356        1355
        1351        1352        1357        1356
        1352        1353        1358        1357
        1353        1354        1359        1358
        1355        1356        1361        1360
        1356        1357        1362        1361
        1357        1358        1363        1362
        1358        1359        1364        1363
        1360        1361        1366        1365
        1361        1362        1367        1366
        1362        1363        1368        1367
        1363        1364        1369        1368
        1365        1366        1371        1370
        1366        1367        1372        1371
        1367        1368        1373        1372
        1368        1369        1374        1373
        1375        1376        1381        1380
        1376        1377        1382        1381
        1377        1378        1383        1382
        1378        1379        1384        1383
        1380        1381        1386        1385
        1381        1382        1387        1386
        1382        1383        1388        1387
        1383        1384        1389        1388
        1385        1386        1391        1390
        1386        1387        1392        1391
        1387        1388        1393        1392
        1388        1389        1394        1393
        1390        1391        1396        1395
        1391        1392        1397        1396
        1392        1393        1398        1397
        1393        1394        1399        1398
        1400        1401        1406        1405
        1401        1402        1407        1406
        1402        1403        1408        1407
        1403        1404        1409        1408
        1405        1406        1411        1410
        1406        1407        1412        1411
        1407        1408        1413        1412
        1408        1409        1414        1413
        1410        1411        1416        1415
        1411        1412        1417        1416
        1412        1413        1418        1417
        1413        1414        1419        1418
        1415        1416        1421        1420
        1416        1417        1422        1421
        1417        1418        1423        1422
        1418        1419        1424        1423
        1425        1426        1431        1430
        1426        1427        1432        1431
        1427        1428        1433        1432
        1428        1429        1434        1433
        1430        1431        1436        1435
        1431        1432        1437        1436
        1432        1433        1438        1437
        1433        1434        1439        1438
        1435        1436        1441        1440
        1436        1437        1442        1441
        1437        1438        1443        1442
        1438        1439        1444        1443
        1440        1441        1446        1445
        1441        1442        1447        1446
        1442        1443        1448        1447
        1443        1444        1449        1448
        1450        1451        1456        1455
        1451        1452        1457        1456
        1452        1453        1458        1457
        1453        1454        1459        1458
        1455        1456        1461        1460
        1456        1457        1462        1461
        1457        1458        1463        1462
        1458        1459        1464        1463
        1460        1461        1466        1465
        1461        1462        1467        1466
        1462        1463        1468        1467
        1463        1464        1469        1468
        1465        1466        1471        1470
        1466        1467        1472        1471
        1467        1468        1473        1472
        1468        1469        1474        1473
        1475        1476        1481        1480
        1476        1477        1482        1481
        1477        1478        1483        1482
        1478        1479        1484        1483
        1480        1481        1486        1485
        1481        1482        1487        1486
        1482        1483        1488        1487
        1483        1484        1489        1488
        1485        1486        1491        1490
        1486        1487        1492        1491
        1487        1488        1493        1492
        1488        1489        1494        1493
        1490        1491        1496        1495
        1491        1492        1497        1496
        1492        1493        1498        1497
        1493        1494        1499        1498
        1500        1501        1506        1505
        1501        1502        1507        1506
        1502        1503        1508        1507
        1503        1504        1509        1508
        1505        1506        1511        1510
        1506        1507        1512        1511
        1507        1508        1513        1512
        1508        1509        1514        1513
        1510        1511        1516        1515
        1511        1512        1517        1516
        1512        1513        1518        1517
        1513        1514        1519        1518
        1515        1516        1521        1520
        1516        1517        1522        1521
        1517        1518        1523        1522
        1518        1519        1524        1523
        1525        1526        1531        1530
        1526        1527        1532        1531
        1527        1528        1533        1532
        1528        1529        1534        1533
        1530        1531        1536        1535
        1531        1532        1537        1536
        1532        1533        1538        1537
        1533        1534        1539        1538
        1535        1536        1541        1540
        1536        1537        1542        1541
        1537        1538        1543        1542
        1538        1539        1544        1543
        1540        1541        1546        1545
        1541        1542        1547        1546
        1542        1543        1548        1547
        1543        1544        1549        1548
        1550        1551        1556        1555
        1551        1552        1557        1556
        1552        1553        1558        1557
        1553        1554        1559        1558
        1555        1556        1561        1560
        1556        1557        1562        1561
        1557        1558        1563        1562
        1558        1559        1564        1563
        1560        1561        1566        1565
        1561        1562        1567        1566
        1562        1563        1568        1567
        1563        1564        1569        1568
        1565        1566        1571        1570
        1566        1567        1572        1571
        1567        1568        1573        1572
        1568        1569        1574        1573
        1575        1576        1581        1580
        1576        1577        1582        1581
        1577        1578        1583        1582
        1578        1579        1584        1583
        1580        1581        1586        1585
        1581        1582        1587        1586
        1582        1583        1588        1587
        1583        1584        1589        1588
        1585        1586        1591        1590
        1586        1587        1592        1591
        1587        1588        1593        1592
        1588        1589        1594        1593
        1590        1591        1596        1595
        1591        1592        1597        1596
        1592        1593        1598        1597
        1593        1594        1599        1598
 </DataArray>
 <DataArray  type="Int32"  Name="offsets"  format="ascii"> 
           4
           8
          12
          16
          20
          24
          28
          32
          36
          40
          44
          48
          52
          56
          60
          64
          68
          72
          76
          80
          84
          88
          92
          96
         100
         104
         108
         112
         116
         120
         124
         128
         132
         136
         140
         144
         148
         152
         156
         160
         164
         168
         172
         176
         180
         184
         188
         192
         196
         200
         204
         208
         212
         216
         220
         224
         228
         232
         236
         240
         244
         248
         252
         256
         260
         264
         268
         272
         276
         280
         284
         288
         292
         296
         300
         304
         308
         312
         316
         320
         324
         328
         332
         336
         340
         344
         348
         352
         356
         360
         364
         368
         372
         376
         380
         384
         388
         392
         396
         400
         404
         408
         412
         416
         420
         424
         428
         432
         436
         440
         444
         448
         452
         456
         460
         464
         468
         472
         476
         480
         484
         488
         492
         496
         500
         504
         508
         512
         516
         520
         524
         528
         532
         536
         540
         544
         548
         552
         556
         560
         564
         568
         572
         576
         580
         584
         588
         592
         596
         600
         604
         608
         612
         616
         620
         624
         628
         632
         636
         640
         644
         648
         652
         656
         660
         664
         668
         672
         676
         680
         684
         688
         692
         696
         700
         704
         708
         712
         716
         720
         724
         728
         732
         736
         740
         744
         748
         752
         756
         760
         764
         768
         772
         776
         780
         784
         788
         792
         796
         800
         804
         808
         812
         816
         820
         824
         828
         832
         836
         840
         844
         848
         852
         856
         860
         864
         868
         872
         876
         880
         884
         888
         892
         896
         900
         904
         908
         912
         916
         920
         924
         928
         932
         936
         940
         944
         948
         952
         956
         960
         964
         968
         972
         976
         980
         984
         988
         992
         996
        1000
        1004
        1008
        1012
        1016
        1020
        1024
        1028
        1032
        1036
        1040
        1044
        1048
        1052
        1056
        1060
        1064
        1068
        1072
        1076
        1080
        1084
        1088
        1092
        1096
        1100
        1104
        1108
        1112
        1116
        1120
        1124
        1128
        1132
        1136
        1140
        1144
        1148
        1152
        1156
        1160
        1164
        1168
        1172
        1176
        1180
        1184
        1188
        1192
        1196
        1200
        1204
        1208
        1212
        1216
        1220
        1224
        1228
        1232
        1236
        1240
        1244
        1248
        1252
        1256
        1260
        1264
        1268
        1272
        1276
        1280
        1284
        1288
        1292
        1296
        1300
        1304
        1308
        1312
        1316
        1320
        1324
        1328
        1332
        1336
        1340
        1344
        1348
        1352
        1356
        1360
        1364
        1368
        1372
        1376
        1380
        1384
        1388
        1392
        1396
        1400
        1404
        1408
        1412
        1416
        1420
        1424
        1428
        1432
        1436
        1440
        1444
        1448
        1452
        1456
        1460
        1464
        1468
        1472
        1476
        1480
        1484
        1488
        1492
        1496
        1500
        1504
        1508
        1512
        1516
        1520
        1524
        1528
        1532
        1536
        1540
        1544
        1548
        1552
        1556
        1560
        1564
        1568
        1572
        1576
        1580
        1584
        1588
        1592
        1596
        1600
        1604
        1608
        1612
        1616
        1620
        1624
        1628
        1632
        1636
        1640
        1644
        1648
        1652
        1656
        1660
        1664
        1668
        1672
        1676
        1680
        1684
        1688
        1692
        1696
        1700
        1704
        1708
        1712
        1716
        1720
        1724
        1728
        1732
        1736
        1740
        1744
        1748
        1752
        1756
        1760
        1764
        1768
        1772
        1776
        1780
        1784
        1788
        1792
        1796
        1800
        1804
        1808
        1812
        1816
        1820
        1824
        1828
        1832
        1836
        1840
        1844
        1848
        1852
        1856
        1860
        1864
        1868
        1872
        1876
        1880
        1884
        1888
        1892
        1896
        1900
        1904
        1908
        1912
        1916
        1920
        1924
        1928
        1932
        1936
        1940
        1944
        1948
        1952
        1956
        1960
        1964
        1968
        1972
        1976
        1980
        1984
        1988
        1992
        1996
        2000
        2004
        2008
        2012
        2016
        2020
        2024
        2028
        2032
        2036
        2040
        2044
        2048
        2052
        2056
        2060
        2064
        2068
        2072
        2076
        2080
        2084
        2088
        2092
        2096
        2100
        2104
        2108
        2112
        2116
        2120
        2124
        2128
        2132
        2136
        2140
        2144
        2148
        2152
        2156
        2160
        2164
        2168
        2172
        2176
        2180
        2184
        2188
        2192
        2196
        2200
        2204
        2208
        2212
        2216
        2220
        2224
        2228
        2232
        2236
        2240
        2244
        2248
        2252
        2256
        2260
        2264
        2268
        2272
        2276
        2280
        2284
        2288
        2292
        2296
        2300
        2304
        2308
        2312
        2316
        2320
        2324
        2328
        2332
        2336
        2340
        2344
        2348
        2352
        2356
        2360
        2364
        2368
        2372
        2376
        2380
        2384
        2388
        2392
        2396
        2400
        2404
        2408
        2412
        2416
        2420
        2424
        2428
        2432
        2436
        2440
        2444
        2448
        2452
        2456
        2460
        2464
        2468
        2472
        2476
        2480
        2484
        2488
        2492
        2496
        2500
        2504
        2508
        2512
        2516
        2520
        2524
        2528
        2532
        2536
        2540
        2544
        2548
        2552
        2556
        2560
        2564
        2568
        2572
        2576
        2580
        2584
        2588
        2592
        2596
        2600
        2604
        2608
        2612
        2616
        2620
        2624
        2628
        2632
        2636
        2640
        2644
        2648
        2652
        2656
        2660
        2664
        2668
        2672
        2676
        2680
        2684
        2688
        2692
        2696
        2700
        2704
        2708
        2712
        2716
        2720
        2724
        2728
        2732
        2736
        2740
        2744
        2748
        2752
        2756
        2760
        2764
        2768
        2772
        2776
        2780
        2784
        2788
        2792
        2796
        2800
        2804
        2808
        2812
        2816
        2820
        2824
        2828
        2832
        2836
        2840
        2844
        2848
        2852
        2856
        2860
        2864
        2868
        2872
        2876
        2880
        2884
        2888
        2892
        2896
        2900
        2904
        2908
        2912
        2916
        2920
        2924
        2928
        2932
        2936
        2940
        2944
        2948
        2952
        2956
        2960
        2964
        2968
        2972
        2976
        2980
        2984
        2988
        2992
        2996
        3000
        3004
        3008
        3012
        3016
        3020
        3024
        3028
        3032
        3036
        3040
        3044
        3048
        3052
        3056
        3060
        3064
        3068
        3072
        3076
        3080
        3084
        3088
        3092
        3096
        3100
        3104
        3108
        3112
        3116
        3120
        3124
        3128
        3132
        3136
        3140
        3144
        3148
        3152
        3156
        3160
        3164
        3168
        3172
        3176
        3180
        3184
        3188
        3192
        3196
        3200
        3204
        3208
        3212
        3216
        3220
        3224
        3228
        3232
        3236
        3240
        3244
        3248
        3252
        3256
        3260
        3264
        3268
        3272
        3276
        3280
        3284
        3288
        3292
        3296
        3300
        3304
        3308
        3312
        3316
        3320
        3324
        3328
        3332
        3336
        3340
        3344
        3348
        3352
        3356
        3360
        3364
        3368
        3372
        3376
        3380
        3384
        3388
        3392
        3396
        3400
        3404
        3408
        3412
        3416
        3420
        3424
        3428
        3432
        3436
        3440
        3444
        3448
        3452
        3456
        3460
        3464
        3468
        3472
        3476
        3480
        3484
        3488
        3492
        3496
        3500
        3504
        3508
        3512
        3516
        3520
        3524
        3528
        3532
        3536
        3540
        3544
        3548
        3552
        3556
        3560
        3564
        3568
        3572
        3576
        3580
        3584
        3588
        3592
        3596
        3600
        3604
        3608
        3612
        3616
        3620
        3624
        3628
        3632
        3636
        3640
        3644
        3648
        3652
        3656
        3660
        3664
        3668
        3672
        3676
        3680
        3684
        3688
        3692
        3696
        3700
        3704
        3708
        3712
        3716
        3720
        3724
        3728
        3732
        3736
        3740
        3744
        3748
        3752
        3756
        3760
        3764
        3768
        3772
        3776
        3780
        3784
        3788
        3792
        3796
        3800
        3804
        3808
        3812
        3816
        3820
        3824
        3828
        3832
        3836
        3840
        3844
        3848
        3852
        3856
        3860
        3864
        3868
        3872
        3876
        3880
        3884
        3888
        3892
        3896
        3900
        3904
        3908
        3912
        3916
        3920
        3924
        3928
        3932
        3936
        3940
        3944
        3948
        3952
        3956
        3960
        3964
        3968
        3972
        3976
        3980
        3984
        3988
        3992
        3996
        4000
        4004
        4008
        4012
        4016
        4020
        4024
        4028
        4032
        4036
        4040
        4044
        4048
        4052
        4056
        4060
        4064
        4068
        4072
        4076
        4080
        4084
        4088
        4092
        4096
 </DataArray>
 <DataArray  type="UInt8"  Name="types"  format="ascii">
 9
 9
 9
 9
 9
 9
 9
 9
 9
 9
 9
 9
 9
 9
 9
 9
 9
 9
 9
 9
 9
 9
 9
 9
 9
 9
 9
 9
 9
 9
 9
 9
 9
 9
 9
 9
 9
 9
 9
 9
 9
 9
 9
 9
 9
 9
 9
 9
 9
 9
 9
 9
 9
 9
 9
 9
 9
 9
 9
 9
 9
 9
 9
 9
 9
 9
 9
 9
 9
 9
 9
 9
 9
 9
 9
 9
 9
 9
 9
 9
 9
 9
 9
 9
 9
 9
 9
 9
 9
 9
 9
 9
 9
 9
 9
 9
 9
 9
 9
 9
 9
 9
 9
 9
 9
 9
 9
 9
 9
 9
 9
 9
 9
 9
 9
 9
 9
 9
 9
 9
 9
 9
 9
 9
 9
 9
 9
 9
 9
 9
 9
 9
 9
 9
 9
 9
 9
 9
 9
 9
 9
 9
 9
 9
 9
 9
 9
 9
 9
 9
 9
 9
 9
 9
 9
 9
 9
 9
 9
 9
 9
 9
 9
 9
 9
 9
 9
 9
 9
 9
 9
 9
 9
 9
 9
 9
 9
 9
 9
 9
 9
 9
 9
 9
 9
 9
 9
 9
 9
 9
 9
 9
 9
 9
 9
 9
 9
 9
 9
 9
 9
 9
 9
 9
 9
 9
 9
 9
 9
 9
 9
 9
 9
 9
 9
 9
 9
 9
 9
 9
 9
 9
 9
 9
 9
 9
 9
 9
 9
 9
 9
 9
 9
 9
 9
 9
 9
 9
 9
 9
 9
 9
 9
 9
 9
 9
 9
 9
 9
 9
 9
 9
 9
 9
 9
 9
 9
 9
 9
 9
 9
 9
 9
 9
 9
 9
 9
 9
 9
 9
 9
 9
 9
 9
 9
 9
 9
 9
 9
 9
 9
 9
 9
 9
 9
 9
 9
 9
 9
 9
 9
 9
 9
 9
 9
 9
 9
 9
 9
 9
 9
 9
 9
 9
 9
 9
 9
 9
 9
 9
 9
 9
 9
 9
 9
 9
 9
 9
 9
 9
 9
 9
 9
 9
 9
 9
 9
 9
 9
 9
 9
 9
 9
 9
 9
 9
 9
 9
 9
 9
 9
 9
 9
 9
 9
 9
 9
 9
 9
 9
 9
 9
 9
 9
 9
 9
 9
 9
 9
 9
 9
 9
 9
 9
 9
 9
 9
 9
 9
 9
 9
 9
 9
 9
 9
 9
 9
 9
 9
 9
 9
 9
 9
 9
 9
 9
 9
 9
 9
 9
 9
 9
 9
 9
 9
 9
 9
 9
 9
 9
 9
 9
 9
 9
 9
 9
 9
 9
 9
 9
 9
 9
 9
 9
 9
 9
 9
 9
 9
 9
 9
 9
 9
 9
 9
 9
 9
 9
 9
 9
 9
 9
 9
 9
 9
 9
 9
 9
 9
 9
 9
 9
 9
 9
 9
 9
 9
 9
 9
 9
 9
 9
 9
 9
 9
 9
 9
 9
 9
 9
 9
 9
 9
 9
 9
 9
 9
 9
 9
 9
 9
 9
 9
 9
 9
 9
 9
 9
 9
 9
 9
 9
 9
 9
 9
 9
 9
 9
 9
 9
 9
 9
 9
 9
 9
 9
 9
 9
 9
 9
 9
 9
 9
 9
 9
 9
 9
 9
 9
 9
 9
 9
 9
 9
 9
 9
 9
 9
 9
 9
 9
 9
 9
 9
 9
 9
 9
 9
 9
 9
 9
 9
 9
 9
 9
 9
 9
 9
 9
 9
 9
 9
 9
 9
 9
 9
 9
 9
 9
 9
 9
 9
 9
 9
 9
 9
 9
 9
 9
 9
 9
 9
 9
 9
 9
 9
 9
 9
 9
 9
 9
 9
 9
 9
 9
 9
 9
 9
 9
 9
 9
 9
 9
 9
 9
 9
 9
 9
 9
 9
 9
 9
 9
 9
 9
 9
 9
 9
 9
 9
 9
 9
 9
 9
 9
 9
 9
 9
 9
 9
 9
 9
 9
 9
 9
 9
 9
 9
 9
 9
 9
 9
 9
 9
 9
 9
 9
 9
 9
 9
 9
 9
 9
 9
 9
 9
 9
 9
 9
 9
 9
 9
 9
 9
 9
 9
 9
 9
 9
 9
 9
 9
 9
 9
 9
 9
 9
 9
 9
 9
 9
 9
 9
 9
 9
 9
 9
 9
 9
 9
 9
 9
 9
 9
 9
 9
 9
 9
 9
 9
 9
 9
 9
 9
 9
 9
 9
 9
 9
 9
 9
 9
 9
 9
 9
 9
 9
 9
 9
 9
 9
 9
 9
 9
 9
 9
 9
 9
 9
 9
 9
 9
 9
 9
 9
 9
 9
 9
 9
 9
 9
 9
 9
 9
 9
 9
 9
 9
 9
 9
 9
 9
 9
 9
 9
 9
 9
 9
 9
 9
 9
 9
 9
 9
 9
 9
 9
 9
 9
 9
 9
 9
 9
 9
 9
 9
 9
 9
 9
 9
 9
 9
 9
 9
 9
 9
 9
 9
 9
 9
 9
 9
 9
 9
 9
 9
 9
 9
 9
 9
 9
 9
 9
 9
 9
 9
 9
 9
 9
 9
 9
 9
 9
 9
 9
 9
 9
 9
 9
 9
 9
 9
 9
 9
 9
 9
 9
 9
 9
 9
 9
 9
 9
 9
 9
 9
 9
 9
 9
 9
 9
 9
 9
 9
 9
 9
 9
 9
 9
 9
 9
 9
 9
 9
 9
 9
 9
 9
 9
 9
 9
 9
 9
 9
 9
 9
 9
 9
 9
 9
 9
 9
 9
 9
 9
 9
 9
 9
 9
 9
 9
 9
 9
 9
 9
 9
 9
 9
 9
 9
 9
 9
 9
 9
 9
 9
 9
 9
 9
 9
 9
 9
 9
 9
 9
 9
 9
 9
 9
 9
 9
 9
 9
 9
 9
 9
 9
 9
 9
 9
 9
 9
 9
 9
 9
 9
 9
 9
 9
 9
 9
 9
 9
 9
 9
 9
 9
 9
 9
 9
 9
 9
 9
 9
 9
 9
 9
 9
 9
 9
 9
 9
 9
 9
 9
 9
 9
 9
 9
 9
 9
 9
 9
 9
 9
 9
 9
 9
 9
 9
 9
 9
 9
 9
 9
 9
 9
 9
 9
 9
 9
 9
 9
 9
 9
 9
 9
 9
 9
 9
 9
 9
 9
 9
 9
 9
 9
 9
 9
 9
 9
 9
 9
 9
 9
 9
 9
 9
 9
 9
 9
 9
 9
 9
 9
 9
 9
 9
 9
 9
 9
 9
 9
 9
 9
 9
 9
 9
 9
 9
 9
 9
 9
 9
 9
 9
 9
 9
 9
 9
 9
 9
 9
 9
 </DataArray>
 </Cells> 
 <PointData>
 <DataArray  type="Float64" Name="disp" NumberOfComponents="3" format="ascii">
   0.0000000000000000        0.0000000000000000        0.0000000000000000     
   6.0959191097378056E-003   3.7907013775749449E-003   0.0000000000000000     
   1.1665900838090906E-002   7.3242771057539305E-003   0.0000000000000000     
   1.6709945185059298E-002   1.0600727184536956E-002   0.0000000000000000     
   2.1228052150642985E-002   1.3620051613924022E-002   0.0000000000000000     
   0.0000000000000000        0.0000000000000000        0.0000000000000000     
   4.8910869826927859E-003   3.0223612268150874E-003   0.0000000000000000     
   9.5734916076980203E-003   6.0609230364135121E-003   0.0000000000000000     
   1.4047213875015702E-002   9.1156854287952754E-003   0.0000000000000000     
   1.8312253784645835E-002   1.2186648403960373E-002   0.0000000000000000     
   0.0000000000000000        0.0000000000000000        0.0000000000000000     
   3.9534945373199178E-003   2.4252963364148330E-003   0.0000000000000000     
   7.9104691147738101E-003   5.0632512413190398E-003   0.0000000000000000     
   1.1870923732361680E-002   7.9138647147126186E-003   0.0000000000000000     
   1.5834858390083518E-002   1.0977136756595573E-002   0.0000000000000000     
   0.0000000000000000        0.0000000000000000        0.0000000000000000     
   3.2831417736192059E-003   1.9995067063741830E-003   0.0000000000000000     
   6.6768333593182809E-003   4.3312617204705126E-003   0.0000000000000000     
   1.0181074757097227E-002   6.9952650422889905E-003   0.0000000000000000     
   1.3795865966956039E-002   9.9915166718296169E-003   0.0000000000000000     
   0.0000000000000000        0.0000000000000000        0.0000000000000000     
   2.8800286915906465E-003   1.7449923366931355E-003   0.0000000000000000     
   5.8725843413314277E-003   3.8649544738679322E-003   0.0000000000000000     
   8.9776669492223453E-003   6.3598864115243896E-003   0.0000000000000000     
   1.2195276515263396E-002   9.2297881496625090E-003   0.0000000000000000     
   2.1228052150642985E-002   1.3620051613924022E-002   0.0000000000000000     
   2.5432991269981015E-002   1.6613016815239648E-002   0.0000000000000000     
   2.9537532078212431E-002   1.9810389209808349E-002   0.0000000000000000     
   3.3541674575337244E-002   2.3212168797630130E-002   0.0000000000000000     
   3.7445418761355445E-002   2.6818355578704985E-002   0.0000000000000000     
   1.8312253784645835E-002   1.2186648403960373E-002   0.0000000000000000     
   2.2406739312165774E-002   1.5342238141956711E-002   0.0000000000000000     
   2.6368798433152884E-002   1.8650880822832193E-002   0.0000000000000000     
   3.0198431147607160E-002   2.2112576446586808E-002   0.0000000000000000     
   3.3895637455528607E-002   2.5727325013220569E-002   0.0000000000000000     
   1.5834858390083518E-002   1.0977136756595573E-002   0.0000000000000000     
   1.9730430251847446E-002   1.4211902537023893E-002   0.0000000000000000     
   2.3485796481561565E-002   1.7576997226053572E-002   0.0000000000000000     
   2.7100957079225867E-002   2.1072420823684618E-002   0.0000000000000000     
   3.0575912044840364E-002   2.4698173329917028E-002   0.0000000000000000     
   1.3795865966956039E-002   9.9915166718296169E-003   0.0000000000000000     
   1.7404064089026020E-002   1.3222010000441186E-002   0.0000000000000000     
   2.0888526223438463E-002   1.6588738419472501E-002   0.0000000000000000     
   2.4249252370193371E-002   2.0091701928923560E-002   0.0000000000000000     
   2.7486242529290741E-002   2.3730900528794355E-002   0.0000000000000000     
   1.2195276515263396E-002   9.2297881496625090E-003   0.0000000000000000     
   1.5427640823701502E-002   1.2372560532208600E-002   0.0000000000000000     
   1.8576987658783597E-002   1.5686104403088971E-002   0.0000000000000000     
   2.1643317020509662E-002   1.9170419762303621E-002   0.0000000000000000     
   2.4626628908879709E-002   2.2825506609852560E-002   0.0000000000000000     
   3.7445418761355445E-002   2.6818355578704985E-002   0.0000000000000000     
   4.1253260205364496E-002   3.0623886476253200E-002   0.0000000000000000     
   4.4969694476461840E-002   3.4623698413495052E-002   0.0000000000000000     
   4.8594721574647490E-002   3.8817791390430546E-002   0.0000000000000000     
   5.2128341499921446E-002   4.3206165407059675E-002   0.0000000000000000     
   3.3895637455528607E-002   2.5727325013220569E-002   0.0000000000000000     
   3.7483741155521715E-002   2.9523746384305462E-002   0.0000000000000000     
   4.0986066046190962E-002   3.3530460421413485E-002   0.0000000000000000     
   4.4402612127536378E-002   3.7747467124544624E-002   0.0000000000000000     
   4.7733379399557942E-002   4.2174766493698911E-002   0.0000000000000000     
   3.0575912044840364E-002   2.4698173329917028E-002   0.0000000000000000     
   3.3940245669880194E-002   2.8498734223686185E-002   0.0000000000000000     
   3.7223542245820460E-002   3.2518582983927506E-002   0.0000000000000000     
   4.0425801772661175E-002   3.6757719610640976E-002   0.0000000000000000     
   4.3547024250402334E-002   4.1216144103826610E-002   0.0000000000000000     
   2.7486242529290741E-002   2.3730900528794355E-002   0.0000000000000000     
   3.0622773748439937E-002   2.7548849994395379E-002   0.0000000000000000     
   3.3682123075350311E-002   3.1588066101037121E-002   0.0000000000000000     
   3.6664290510021874E-002   3.5848548848719596E-002   0.0000000000000000     
   3.9569276052454631E-002   4.0330298237442760E-002   0.0000000000000000     
   2.4626628908879709E-002   2.2825506609852560E-002   0.0000000000000000     
   2.7531325391200932E-002   2.6674093696433039E-002   0.0000000000000000     
   3.0361808534780522E-002   3.0738909772742330E-002   0.0000000000000000     
   3.3118078339618481E-002   3.5019954838780447E-002   0.0000000000000000     
   3.5800134805714812E-002   3.9517228894547375E-002   0.0000000000000000     
   5.2128341499921446E-002   4.3206165407059675E-002   0.0000000000000000     
   5.5567271837169196E-002   4.7793903585049931E-002   0.0000000000000000     
   5.8908230171276249E-002   5.2586089046068804E-002   0.0000000000000000     
   6.2151216502242597E-002   5.7582721790116288E-002   0.0000000000000000     
   6.5296230830068233E-002   6.2783801817192383E-002   0.0000000000000000     
   4.7733379399557942E-002   4.2174766493698911E-002   0.0000000000000000     
   5.0973293010288009E-002   4.6806033394745580E-002   0.0000000000000000     
   5.4117278107758911E-002   5.1634942693553898E-002   0.0000000000000000     
   5.7165334691970660E-002   5.6661494390123877E-002   0.0000000000000000     
   6.0117462762923263E-002   6.1885688484455512E-002   0.0000000000000000     
   4.3547024250402334E-002   4.1216144103826610E-002   0.0000000000000000     
   4.6581915399902869E-002   4.5881307566412122E-002   0.0000000000000000     
   4.9525180942021747E-002   5.0740661101325246E-002   0.0000000000000000     
   5.2376820876758920E-002   5.5794204708566005E-002   0.0000000000000000     
   5.5136835204114401E-002   6.1041938388134369E-002   0.0000000000000000     
   3.9569276052454631E-002   4.0330298237442760E-002   0.0000000000000000     
   4.2393139006013832E-002   4.5019726100049555E-002   0.0000000000000000     
   4.5131938674064738E-002   4.9903244269382842E-002   0.0000000000000000     
   4.7785675056607357E-002   5.4980852745442642E-002   0.0000000000000000     
   5.0354348153641690E-002   6.0252551528228955E-002   0.0000000000000000     
   3.5800134805714812E-002   3.9517228894547375E-002   0.0000000000000000     
   3.8406963828620848E-002   4.4221288995657880E-002   0.0000000000000000     
   4.0937551303887897E-002   4.9122692197726685E-002   0.0000000000000000     
   4.3391897231515979E-002   5.4221438500753831E-002   0.0000000000000000     
   4.5770001611505087E-002   5.9517527904739270E-002   0.0000000000000000     
   6.5296230830068233E-002   6.2783801817192383E-002   0.0000000000000000     
   6.8349674330341378E-002   6.8175108469161125E-002   0.0000000000000000     
   7.1317948178650239E-002   7.3742421087886548E-002   0.0000000000000000     
   7.4201052374994816E-002   7.9485739673368652E-002   0.0000000000000000     
   7.6998986919375109E-002   8.5405064225607452E-002   0.0000000000000000     
   6.0117462762923263E-002   6.1885688484455512E-002   0.0000000000000000     
   6.2981353131261034E-002   6.7298297774100860E-002   0.0000000000000000     
   6.5764696607628334E-002   7.2890095056612009E-002   0.0000000000000000     
   6.8467493192025164E-002   7.8661080331988958E-002   0.0000000000000000     
   7.1089742884451496E-002   8.4611253600231695E-002   0.0000000000000000     
   5.5136835204114401E-002   6.1041938388134369E-002   0.0000000000000000     
   5.7812976742457334E-002   6.6477220862927844E-002   0.0000000000000000     
   6.0412998310156792E-002   7.2093410855843906E-002   0.0000000000000000     
   6.2936899907212795E-002   7.7890508366882522E-002   0.0000000000000000     
   6.5384681533625338E-002   8.3868513396043759E-002   0.0000000000000000     
   5.0354348153641690E-002   6.0252551528228955E-002   0.0000000000000000     
   5.2844545163930258E-002   6.5711877735642049E-002   0.0000000000000000     
   5.5262853286235612E-002   7.1352368485582171E-002   0.0000000000000000     
   5.7609272520557753E-002   7.7174023778049383E-002   0.0000000000000000     
   5.9883802866896672E-002   8.3176843613043630E-002   0.0000000000000000     
   4.5770001611505087E-002   5.9517527904739270E-002   0.0000000000000000     
   4.8076058395679827E-002   6.5002268392243490E-002   0.0000000000000000     
   5.0314261535864796E-002   7.0666967945826900E-002   0.0000000000000000     
   5.2484611032060015E-002   7.6511626565489516E-002   0.0000000000000000     
   5.4587106884265463E-002   8.2536244251231322E-002   0.0000000000000000     
   7.6998986919375109E-002   8.5405064225607452E-002   0.0000000000000000     
   7.9698469615252648E-002   9.1493410545177248E-002   0.0000000000000000     
   8.2286218266088992E-002   9.7743794432652367E-002   0.0000000000000000     
   8.4762232871884086E-002  0.10415621588803281        0.0000000000000000     
   8.7126513432637984E-002  0.11073067491131858        0.0000000000000000     
   7.1089742884451496E-002   8.4611253600231695E-002   0.0000000000000000     
   7.3619380379629687E-002   9.0731159055875740E-002   0.0000000000000000     
   7.6044340372282082E-002   9.7011340893456630E-002   0.0000000000000000     
   7.8364622862408653E-002  0.10345179911297436        0.0000000000000000     
   8.0580227850009414E-002  0.11005253371442894        0.0000000000000000     
   6.5384681533625338E-002   8.3868513396043759E-002   0.0000000000000000     
   6.7745620740973164E-002   9.0016669771309385E-002   0.0000000000000000     
   7.0008995080834954E-002   9.6324221320661249E-002   0.0000000000000000     
   7.2174804553210736E-002  0.10279116804409931        0.0000000000000000     
   7.4243049158100496E-002  0.10941750994162362        0.0000000000000000     
   5.9883802866896672E-002   8.3176843613043630E-002   0.0000000000000000     
   6.2077190699283052E-002   8.9349942691478154E-002   0.0000000000000000     
   6.4180182391747609E-002   9.5682435714266142E-002   0.0000000000000000     
   6.6192777944290321E-002  0.10217432268140765        0.0000000000000000     
   6.8114977356911188E-002  0.10882560359290264        0.0000000000000000     
   5.4587106884265463E-002   8.2536244251231322E-002   0.0000000000000000     
   5.6614090254559393E-002   8.8730977816382048E-002   0.0000000000000000     
   5.8557902305020039E-002   9.5085984074271379E-002   0.0000000000000000     
   6.0418543035647414E-002  0.10160126302489939        0.0000000000000000     
   6.2196012446441518E-002  0.10827681466826598        0.0000000000000000     
   8.7126513432637984E-002  0.11073067491131858        0.0000000000000000     
   8.9395508774068114E-002  0.11745122284585943        0.0000000000000000     
   9.1585667721891945E-002  0.12430191103500512        0.0000000000000000     
   9.3696990276109463E-002  0.13128273947875568        0.0000000000000000     
   9.5729476436720695E-002  0.13839370817711105        0.0000000000000000     
   8.0580227850009414E-002  0.11005253371442894        0.0000000000000000     
   8.2704817262430300E-002  0.11679888602807738        0.0000000000000000     
   8.4752053027017188E-002  0.12367619738417669        0.0000000000000000     
   8.6721935143770107E-002  0.13068446778272691        0.0000000000000000     
   8.8614463612689057E-002  0.13782369722372800        0.0000000000000000     
   7.4243049158100496E-002  0.10941750994162362        0.0000000000000000     
   7.6225372763599419E-002  0.11618917422258329        0.0000000000000000     
   7.8133419237802676E-002  0.12309208809632745        0.0000000000000000     
   7.9967188580710280E-002  0.13012625156285609        0.0000000000000000     
   8.1726680792322218E-002  0.13729166462216921        0.0000000000000000     
   6.8114977356911188E-002  0.10882560359290264        0.0000000000000000     
   6.9957175277575459E-002  0.11562208742937721        0.0000000000000000     
   7.1729766354248395E-002  0.12254958317145738        0.0000000000000000     
   7.3432750586929954E-002  0.12960809081914323        0.0000000000000000     
   7.5066127975620178E-002  0.13679761037243468        0.0000000000000000     
   6.2196012446441518E-002  0.10827681466826598        0.0000000000000000     
   6.3900224804358446E-002  0.11509762564845907        0.0000000000000000     
   6.5541094376354331E-002  0.12204868260956650        0.0000000000000000     
   6.7118621162429157E-002  0.12912998555158828        0.0000000000000000     
   6.8632805162582952E-002  0.13634153447452441        0.0000000000000000     
   9.5729476436720695E-002  0.13839370817711105        0.0000000000000000     
   9.7668902269982108E-002  0.14562610169014087        0.0000000000000000     
   9.9501043842150236E-002  0.15297120457791469        0.0000000000000000     
  0.10122590115322508       0.16042901684043251        0.0000000000000000     
  0.10284347420320662       0.16799953847769436        0.0000000000000000     
   8.8614463612689057E-002  0.13782369722372800        0.0000000000000000     
   9.0417994897823900E-002  0.14508436476771910        0.0000000000000000     
   9.2120885463224611E-002  0.15245694947523938        0.0000000000000000     
   9.3723135308891134E-002  0.15994145134628879        0.0000000000000000     
   9.5224744434823483E-002  0.16753787038086740        0.0000000000000000     
   8.1726680792322218E-002  0.13729166462216921        0.0000000000000000     
   8.3401819501842417E-002  0.14457863288778994        0.0000000000000000     
   8.4982528338474847E-002  0.15197746197324127        0.0000000000000000     
   8.6468807302219453E-002  0.15948815187852330        0.0000000000000000     
   8.7860656393076303E-002  0.16711070260363603        0.0000000000000000     
   7.5066127975620178E-002  0.13679761037243468        0.0000000000000000     
   7.6620376082037644E-002  0.14410890605035323        0.0000000000000000     
   7.8085972467900944E-002  0.15153274207192038        0.0000000000000000     
   7.9462917133210076E-002  0.15906911843713606        0.0000000000000000     
   8.0751210077965055E-002  0.16671803514600034        0.0000000000000000     
   6.8632805162582952E-002  0.13634153447452441        0.0000000000000000     
   7.0073664638409569E-002  0.14367518425540915        0.0000000000000000     
   7.1431217851502901E-002  0.15112278977127666        0.0000000000000000     
   7.2705464801862962E-002  0.15868435102212705        0.0000000000000000     
   7.3896405489489739E-002  0.16635986800796021        0.0000000000000000     
   0.0000000000000000        0.0000000000000000        0.0000000000000000     
   2.8800286915906465E-003   1.7449923366931355E-003   0.0000000000000000     
   5.8725843413314277E-003   3.8649544738679322E-003   0.0000000000000000     
   8.9776669492223453E-003   6.3598864115243896E-003   0.0000000000000000     
   1.2195276515263396E-002   9.2297881496625090E-003   0.0000000000000000     
   0.0000000000000000        0.0000000000000000        0.0000000000000000     
   2.6103064411619756E-003   1.5890786667011165E-003   0.0000000000000000     
   5.2897260442810812E-003   3.5569985400239214E-003   0.0000000000000000     
   8.0382588093573185E-003   5.9037596199684158E-003   0.0000000000000000     
   1.0855904736390684E-002   8.6293619065346012E-003   0.0000000000000000     
   0.0000000000000000        0.0000000000000000        0.0000000000000000     
   2.3401261722609278E-003   1.4590911357275492E-003   0.0000000000000000     
   4.7202624516350707E-003   3.3000629574511057E-003   0.0000000000000000     
   7.1404088381224300E-003   5.5229154651706691E-003   0.0000000000000000     
   9.6005653317230034E-003   8.1276486588862384E-003   0.0000000000000000     
   0.0000000000000000        0.0000000000000000        0.0000000000000000     
   2.0694878848875023E-003   1.3550297437724351E-003   0.0000000000000000     
   4.1641935633933954E-003   3.0941477261494849E-003   0.0000000000000000     
   6.2841170355176779E-003   5.2173539471311479E-003   0.0000000000000000     
   8.4292583012603520E-003   7.7246484067174269E-003   0.0000000000000000     
   0.0000000000000000        0.0000000000000000        0.0000000000000000     
   1.7983915790417001E-003   1.2768944908357731E-003   0.0000000000000000     
   3.6215193795560551E-003   2.9392528461190583E-003   0.0000000000000000     
   5.4693834015430640E-003   4.9870750658498539E-003   0.0000000000000000     
   7.3419836450027282E-003   7.4203611500281638E-003   0.0000000000000000     
   1.2195276515263396E-002   9.2297881496625090E-003   0.0000000000000000     
   1.5427640823701502E-002   1.2372560532208600E-002   0.0000000000000000     
   1.8576987658783597E-002   1.5686104403088971E-002   0.0000000000000000     
   2.1643317020509662E-002   1.9170419762303621E-002   0.0000000000000000     
   2.4626628908879709E-002   2.2825506609852560E-002   0.0000000000000000     
   1.0855904736390684E-002   8.6293619065346012E-003   0.0000000000000000     
   1.3689302125366910E-002   1.1651523260680998E-002   0.0000000000000000     
   1.6485089276271726E-002   1.4887961543366142E-002   0.0000000000000000     
   1.9243266189105129E-002   1.8338676754590024E-002   0.0000000000000000     
   2.1963832863867116E-002   2.2003668894352655E-002   0.0000000000000000     
   9.6005653317230034E-003   8.1276486588862384E-003   0.0000000000000000     
   1.2077189663515252E-002   1.1046867314213260E-002   0.0000000000000000     
   1.4546739564577632E-002   1.4213176206767169E-002   0.0000000000000000     
   1.7009215034910142E-002   1.7626575336547972E-002   0.0000000000000000     
   1.9464616074512792E-002   2.1287064703555666E-002   0.0000000000000000     
   8.4292583012603520E-003   7.7246484067174269E-003   0.0000000000000000     
   1.0591303438146528E-002   1.0558592692805378E-002   0.0000000000000000     
   1.2761938523701314E-002   1.3661748393292058E-002   0.0000000000000000     
   1.4941163557924717E-002   1.7034115508177468E-002   0.0000000000000000     
   1.7128978540816735E-002   2.0675694037461608E-002   0.0000000000000000     
   7.3419836450027282E-003   7.4203611500281638E-003   0.0000000000000000     
   9.2316434492607357E-003   1.0186699396457357E-002   0.0000000000000000     
   1.1130686153642773E-002   1.3233678102940800E-002   0.0000000000000000     
   1.3039111758148841E-002   1.6561297269478505E-002   0.0000000000000000     
   1.4956920262778943E-002   2.0169556896070463E-002   0.0000000000000000     
   2.4626628908879709E-002   2.2825506609852560E-002   0.0000000000000000     
   2.7531325391200932E-002   2.6674093696433039E-002   0.0000000000000000     
   3.0361808534780522E-002   3.0738909772742330E-002   0.0000000000000000     
   3.3118078339618481E-002   3.5019954838780447E-002   0.0000000000000000     
   3.5800134805714812E-002   3.9517228894547375E-002   0.0000000000000000     
   2.1963832863867116E-002   2.2003668894352655E-002   0.0000000000000000     
   2.4630470846014992E-002   2.5880931710134756E-002   0.0000000000000000     
   2.7226861681006052E-002   2.9968458949417076E-002   0.0000000000000000     
   2.9753005368840301E-002   3.4266250612199602E-002   0.0000000000000000     
   3.2208901909517730E-002   3.8774306698482343E-002   0.0000000000000000     
   1.9464616074512792E-002   2.1287064703555666E-002   0.0000000000000000     
   2.1884780360733918E-002   2.5175830415836143E-002   0.0000000000000000     
   2.4241545570921851E-002   2.9274058581435281E-002   0.0000000000000000     
   2.6534911705076613E-002   3.3581749200353075E-002   0.0000000000000000     
   2.8764878763198186E-002   3.8098902272589531E-002   0.0000000000000000     
   1.7128978540816735E-002   2.0675694037461608E-002   0.0000000000000000     
   1.9294253935357695E-002   2.4558789813537193E-002   0.0000000000000000     
   2.1405860204527921E-002   2.8655708668796950E-002   0.0000000000000000     
   2.3463797348327434E-002   3.2966450603240868E-002   0.0000000000000000     
   2.5468065366756207E-002   3.7491015616868968E-002   0.0000000000000000     
   1.4956920262778943E-002   2.0169556896070463E-002   0.0000000000000000     
   1.6858891569886333E-002   2.4029809903237911E-002   0.0000000000000000     
   1.8719805581824265E-002   2.8113409211502086E-002   0.0000000000000000     
   2.0539662298592748E-002   3.2420354820862987E-002   0.0000000000000000     
   2.2318461720191769E-002   3.6950646731320619E-002   0.0000000000000000     
   3.5800134805714812E-002   3.9517228894547375E-002   0.0000000000000000     
   3.8406963828620848E-002   4.4221288995657880E-002   0.0000000000000000     
   4.0937551303887897E-002   4.9122692197726685E-002   0.0000000000000000     
   4.3391897231515979E-002   5.4221438500753831E-002   0.0000000000000000     
   4.5770001611505087E-002   5.9517527904739270E-002   0.0000000000000000     
   3.2208901909517730E-002   3.8774306698482343E-002   0.0000000000000000     
   3.4596195008688477E-002   4.3488304088357820E-002   0.0000000000000000     
   3.6916528372002676E-002   4.8403919661918579E-002   0.0000000000000000     
   3.9169901999460334E-002   5.3521153419164615E-002   0.0000000000000000     
   4.1356315891061445E-002   5.8840005360095926E-002   0.0000000000000000     
   2.8764878763198186E-002   3.8098902272589531E-002   0.0000000000000000     
   3.0933637687181270E-002   4.2823079213270117E-002   0.0000000000000000     
   3.3043379418920528E-002   4.7751841437520322E-002   0.0000000000000000     
   3.5094103958415959E-002   5.2885188945340125E-002   0.0000000000000000     
   3.7085811305667571E-002   5.8223121736729534E-002   0.0000000000000000     
   2.5468065366756207E-002   3.7491015616868968E-002   0.0000000000000000     
   2.7419291864099218E-002   4.2225614370394786E-002   0.0000000000000000     
   2.9318104444641436E-002   4.7166457524531920E-002   0.0000000000000000     
   3.1164503108382851E-002   5.2313545079280356E-002   0.0000000000000000     
   3.2958487855323480E-002   5.7666877034640102E-002   0.0000000000000000     
   2.2318461720191769E-002   3.6950646731320619E-002   0.0000000000000000     
   2.4053157539442323E-002   4.1695909559731799E-002   0.0000000000000000     
   2.5740703449165410E-002   4.6647767922953352E-002   0.0000000000000000     
   2.7381099449361020E-002   5.1806221820985293E-002   0.0000000000000000     
   2.8974345540029159E-002   5.7171271253827621E-002   0.0000000000000000     
   4.5770001611505087E-002   5.9517527904739270E-002   0.0000000000000000     
   4.8076058395679827E-002   6.5002268392243490E-002   0.0000000000000000     
   5.0314261535864796E-002   7.0666967945826900E-002   0.0000000000000000     
   5.2484611032060015E-002   7.6511626565489516E-002   0.0000000000000000     
   5.4587106884265463E-002   8.2536244251231322E-002   0.0000000000000000     
   4.1356315891061445E-002   5.8840005360095926E-002   0.0000000000000000     
   4.3477475337689572E-002   6.4348908196163845E-002   0.0000000000000000     
   4.5535085630228289E-002   7.0036294638819704E-002   0.0000000000000000     
   4.7529146768677602E-002   7.5902164688063489E-002   0.0000000000000000     
   4.9459658753037511E-002   8.1946518343895228E-002   0.0000000000000000     
   3.7085811305667571E-002   5.8223121736729534E-002   0.0000000000000000     
   3.9018754889943039E-002   6.3752312510834824E-002   0.0000000000000000     
   4.0893188140510045E-002   6.9459433966802306E-002   0.0000000000000000     
   4.2709111057368569E-002   7.5344486104631944E-002   0.0000000000000000     
   4.4466523640518625E-002   8.1407468924323739E-002   0.0000000000000000     
   3.2958487855323480E-002   5.7666877034640102E-002   0.0000000000000000     
   3.4699897052440219E-002   6.3212481336256440E-002   0.0000000000000000     
   3.6388569066710029E-002   6.8936385929774691E-002   0.0000000000000000     
   3.8024503898132889E-002   7.4838590815194839E-002   0.0000000000000000     
   3.9607701546708805E-002   8.0919095992516885E-002   0.0000000000000000     
   2.8974345540029159E-002   5.7171271253827621E-002   0.0000000000000000     
   3.0520901825181135E-002   6.2729414672428679E-002   0.0000000000000000     
   3.2021228408828269E-002   6.8467150527736872E-002   0.0000000000000000     
   3.3475325290970574E-002   7.4384478819752201E-002   0.0000000000000000     
   3.4883192471608038E-002   8.0481399548474636E-002   0.0000000000000000     
   5.4587106884265463E-002   8.2536244251231322E-002   0.0000000000000000     
   5.6614090254559393E-002   8.8730977816382048E-002   0.0000000000000000     
   5.8557902305020039E-002   9.5085984074271379E-002   0.0000000000000000     
   6.0418543035647414E-002  0.10160126302489939        0.0000000000000000     
   6.2196012446441518E-002  0.10827681466826598        0.0000000000000000     
   4.9459658753037511E-002   8.1946518343895228E-002   0.0000000000000000     
   5.1320378120278176E-002   8.8160794736926770E-002   0.0000000000000000     
   5.3105061407369744E-002   9.4536432997769981E-002   0.0000000000000000     
   5.4813708614312208E-002  0.10107343312642490        0.0000000000000000     
   5.6446319741105609E-002  0.10777179512289151        0.0000000000000000     
   4.4466523640518625E-002   8.1407468924323739E-002   0.0000000000000000     
   4.6160113009915432E-002   8.7640413044017984E-002   0.0000000000000000     
   4.7784566285514196E-002   9.4035349081854971E-002   0.0000000000000000     
   4.9339883467314917E-002  0.10059227703783463        0.0000000000000000     
   5.0826064555317595E-002  0.10731119691195706        0.0000000000000000     
   3.9607701546708805E-002   8.0919095992516885E-002   0.0000000000000000     
   4.1133294923471168E-002   8.7169832737655745E-002   0.0000000000000000     
   4.2596416939453409E-002   9.3582732326526308E-002   0.0000000000000000     
   4.3997067594655513E-002  0.10015779475912863        0.0000000000000000     
   4.5335246889077488E-002  0.10689502003546268        0.0000000000000000     
   3.4883192471608038E-002   8.0481399548474636E-002   0.0000000000000000     
   3.6239923860945392E-002   8.6749053817840011E-002   0.0000000000000000     
   3.7540613369187376E-002   9.3178582731784060E-002   0.0000000000000000     
   3.8785260996334010E-002   9.9769986290306839E-002   0.0000000000000000     
   3.9973866742385261E-002  0.10652326449340832        0.0000000000000000     
   6.2196012446441518E-002  0.10827681466826598        0.0000000000000000     
   6.3900224804358446E-002  0.11509762564845907        0.0000000000000000     
   6.5541094376354331E-002  0.12204868260956650        0.0000000000000000     
   6.7118621162429157E-002  0.12912998555158828        0.0000000000000000     
   6.8632805162582952E-002  0.13634153447452441        0.0000000000000000     
   5.6446319741105609E-002  0.10777179512289151        0.0000000000000000     
   5.8012523329729900E-002  0.11461558434953664        0.0000000000000000     
   5.9521947922165086E-002  0.12158886616872720        0.0000000000000000     
   6.0974593518411190E-002  0.12869164058046315        0.0000000000000000     
   6.2370460118468196E-002  0.13592390758474451        0.0000000000000000     
   5.0826064555317595E-002  0.10731119691195706        0.0000000000000000     
   5.2252072839471329E-002  0.11417575900231765        0.0000000000000000     
   5.3626871609725235E-002  0.12116961360701184        0.0000000000000000     
   5.4950460866079312E-002  0.12829276072603968        0.0000000000000000     
   5.6222840608533567E-002  0.13554520035940110        0.0000000000000000     
   4.5335246889077488E-002  0.10689502003546268        0.0000000000000000     
   4.6618873333582757E-002  0.11377814960680206        0.0000000000000000     
   4.7855865439034785E-002  0.12079092492442045        0.0000000000000000     
   4.9046223205433538E-002  0.12793334598831782        0.0000000000000000     
   5.0189946632779071E-002  0.13520541279849418        0.0000000000000000     
   3.9973866742385261E-002  0.10652326449340832        0.0000000000000000     
   4.1112924812064161E-002  0.11342275616298991        0.0000000000000000     
   4.2208929410093701E-002  0.12045280012095301        0.0000000000000000     
   4.3261880536473882E-002  0.12761339636729760        0.0000000000000000     
   4.4271778191204710E-002  0.13490454490202372        0.0000000000000000     
   6.8632805162582952E-002  0.13634153447452441        0.0000000000000000     
   7.0073664638409569E-002  0.14367518425540915        0.0000000000000000     
   7.1431217851502901E-002  0.15112278977127666        0.0000000000000000     
   7.2705464801862962E-002  0.15868435102212705        0.0000000000000000     
   7.3896405489489739E-002  0.16635986800796021        0.0000000000000000     
   6.2370460118468196E-002  0.13592390758474451        0.0000000000000000     
   6.3698820981095042E-002  0.14327860859412955        0.0000000000000000     
   6.4948949365050676E-002  0.15074868502117655        0.0000000000000000     
   6.6120845270335099E-002  0.15833413686588546        0.0000000000000000     
   6.7214508696948325E-002  0.16603496412825633        0.0000000000000000     
   5.6222840608533567E-002  0.13554520035940110        0.0000000000000000     
   5.7432980920230886E-002  0.14292032015768658        0.0000000000000000     
   5.8569851884314184E-002  0.15041150777148643        0.0000000000000000     
   5.9633453500783473E-002  0.15801876320080063        0.0000000000000000     
   6.0623785769638741E-002  0.16574208644562927        0.0000000000000000     
   5.0189946632779071E-002  0.13520541279849418        0.0000000000000000     
   5.1276144455817109E-002  0.14260031894608011        0.0000000000000000     
   5.2293925409293444E-002  0.15011125802220621        0.0000000000000000     
   5.3243289493208071E-002  0.15773823002687246        0.0000000000000000     
   5.4124236707560988E-002  0.16548123496007897        0.0000000000000000     
   4.4271778191204710E-002  0.13490454490202372        0.0000000000000000     
   4.5228311587853717E-002  0.14231860495931023        0.0000000000000000     
   4.6121169939988452E-002  0.14984793577333605        0.0000000000000000     
   4.6950353247608906E-002  0.15749253734410110        0.0000000000000000     
   4.7715861510715094E-002  0.16525240967160548        0.0000000000000000     
   0.0000000000000000        0.0000000000000000        0.0000000000000000     
   1.7983915790417001E-003   1.2768944908357731E-003   0.0000000000000000     
   3.6215193795560551E-003   2.9392528461190583E-003   0.0000000000000000     
   5.4693834015430640E-003   4.9870750658498539E-003   0.0000000000000000     
   7.3419836450027282E-003   7.4203611500281638E-003   0.0000000000000000     
   0.0000000000000000        0.0000000000000000        0.0000000000000000     
   1.5351078997314000E-003   1.2175745275079127E-003   0.0000000000000000     
   3.0995873935356793E-003   2.8208754842120312E-003   0.0000000000000000     
   4.6934384814128387E-003   4.8099028701123559E-003   0.0000000000000000     
   6.3166611633628756E-003   7.1846566852088864E-003   0.0000000000000000     
   0.0000000000000000        0.0000000000000000        0.0000000000000000     
   1.2879074919644815E-003   1.1699590043792027E-003   0.0000000000000000     
   2.6057450987448981E-003   2.7245128072806088E-003   0.0000000000000000     
   3.9535128203412508E-003   4.6636614087042201E-003   0.0000000000000000     
   5.3312106567535373E-003   6.9874048086500332E-003   0.0000000000000000     
   0.0000000000000000        0.0000000000000000        0.0000000000000000     
   1.0567903557409451E-003   1.1340479214496427E-003   0.0000000000000000     
   2.1399924951837116E-003   2.6501648153247907E-003   0.0000000000000000     
   3.2496064183283003E-003   4.5483506816254449E-003   0.0000000000000000     
   4.3856321251747104E-003   6.8286055203516027E-003   0.0000000000000000     
   0.0000000000000000        0.0000000000000000        0.0000000000000000     
   8.4175649106079048E-004   1.1098412787192340E-003   0.0000000000000000     
   1.7023295828521201E-003   2.5978315083445775E-003   0.0000000000000000     
   2.5817192753739889E-003   4.4639706888760320E-003   0.0000000000000000     
   3.4799255686263973E-003   6.7082588203135965E-003   0.0000000000000000     
   7.3419836450027282E-003   7.4203611500281638E-003   0.0000000000000000     
   9.2316434492607357E-003   1.0186699396457357E-002   0.0000000000000000     
   1.1130686153642773E-002   1.3233678102940800E-002   0.0000000000000000     
   1.3039111758148841E-002   1.6561297269478505E-002   0.0000000000000000     
   1.4956920262778943E-002   2.0169556896070463E-002   0.0000000000000000     
   6.3166611633628756E-003   7.1846566852088864E-003   0.0000000000000000     
   7.9565484480051216E-003   9.8955885804749150E-003   0.0000000000000000     
   9.6003933439589052E-003   1.2893150206883726E-002   0.0000000000000000     
   1.1248195851224222E-002   1.6177341564435326E-002   0.0000000000000000     
   1.2899955969801074E-002   1.9748162653129706E-002   0.0000000000000000     
   5.3312106567535373E-003   6.9874048086500332E-003   0.0000000000000000     
   6.7243571855269300E-003   9.6496614001637705E-003   0.0000000000000000     
   8.1184709842066043E-003   1.2604349576291144E-002   0.0000000000000000     
   9.5135520527925548E-003   1.5851469337032163E-002   0.0000000000000000     
   1.0909600391284783E-002   1.9391020682386819E-002   0.0000000000000000     
   4.3856321251747104E-003   6.8286055203516027E-003   0.0000000000000000     
   5.5350696618261608E-003   9.4489178555239237E-003   0.0000000000000000     
   6.6849190743858726E-003   1.2367276211163059E-002   0.0000000000000000     
   7.8351803628538431E-003   1.5583680587269015E-002   0.0000000000000000     
   8.9858535272300723E-003   1.9098130983841791E-002   0.0000000000000000     
   3.4799255686263973E-003   6.7082588203135965E-003   0.0000000000000000     
   4.3886858769028141E-003   9.2933579465553744E-003   0.0000000000000000     
   5.2997376144967093E-003   1.2181930111499473E-002   0.0000000000000000     
   6.2130807814080842E-003   1.5373975315145892E-002   0.0000000000000000     
   7.1287153776369381E-003   1.8869493557494628E-002   0.0000000000000000     
   1.4956920262778943E-002   2.0169556896070463E-002   0.0000000000000000     
   1.6858891569886333E-002   2.4029809903237911E-002   0.0000000000000000     
   1.8719805581824265E-002   2.8113409211502086E-002   0.0000000000000000     
   2.0539662298592748E-002   3.2420354820862987E-002   0.0000000000000000     
   2.2318461720191769E-002   3.6950646731320619E-002   0.0000000000000000     
   1.2899955969801074E-002   1.9748162653129706E-002   0.0000000000000000     
   1.4539384732133714E-002   2.3579394326426351E-002   0.0000000000000000     
   1.6150193170666381E-002   2.7644817437784727E-002   0.0000000000000000     
   1.7732381285399085E-002   3.1944431987204834E-002   0.0000000000000000     
   1.9285949076331819E-002   3.6478237974686675E-002   0.0000000000000000     
   1.0909600391284783E-002   1.9391020682386819E-002   0.0000000000000000     
   1.2296424889913719E-002   2.3198046724590578E-002   0.0000000000000000     
   1.3663834438909780E-002   2.7247590575878913E-002   0.0000000000000000     
   1.5011829038272972E-002   3.1539652236251818E-002   0.0000000000000000     
   1.6340408688003294E-002   3.6074231705709302E-002   0.0000000000000000     
   8.9858535272300723E-003   1.9098130983841791E-002   0.0000000000000000     
   1.0130012043226349E-002   2.2885767097730596E-002   0.0000000000000000     
   1.1260729386554461E-002   2.6921728625784652E-002   0.0000000000000000     
   1.2378005557214409E-002   3.1206015568003946E-002   0.0000000000000000     
   1.3481840555206192E-002   3.5738627924388491E-002   0.0000000000000000     
   7.1287153776369381E-003   1.8869493557494628E-002   0.0000000000000000     
   8.0401461920716066E-003   2.2642555445846403E-002   0.0000000000000000     
   8.9408780136004274E-003   2.6667231587501936E-002   0.0000000000000000     
   9.8309108422233952E-003   3.0943521982461211E-002   0.0000000000000000     
   1.0710244677940519E-002   3.5471426630724251E-002   0.0000000000000000     
   2.2318461720191769E-002   3.6950646731320619E-002   0.0000000000000000     
   2.4053157539442323E-002   4.1695909559731799E-002   0.0000000000000000     
   2.5740703449165410E-002   4.6647767922953352E-002   0.0000000000000000     
   2.7381099449361020E-002   5.1806221820985293E-002   0.0000000000000000     
   2.8974345540029159E-002   5.7171271253827621E-002   0.0000000000000000     
   1.9285949076331819E-002   3.6478237974686675E-002   0.0000000000000000     
   2.0804114553493031E-002   4.1232483401465084E-002   0.0000000000000000     
   2.2280095726911163E-002   4.6193416268774885E-002   0.0000000000000000     
   2.3713892596586215E-002   5.1361036576616101E-002   0.0000000000000000     
   2.5105505162518197E-002   5.6735344324988710E-002   0.0000000000000000     
   1.6340408688003294E-002   3.6074231705709302E-002   0.0000000000000000     
   1.7641042746533765E-002   4.0833854515778534E-002   0.0000000000000000     
   1.8905200572297397E-002   4.5801046197986729E-002   0.0000000000000000     
   2.0132882165294207E-002   5.0975806752333888E-002   0.0000000000000000     
   2.1324087525524178E-002   5.6358136178819969E-002   0.0000000000000000     
   1.3481840555206192E-002   3.5738627924388491E-002   0.0000000000000000     
   1.4563942118564524E-002   4.0500022902672177E-002   0.0000000000000000     
   1.5616017985324126E-002   4.5470657710588891E-002   0.0000000000000000     
   1.6638068155484981E-002   5.0650532348138641E-002   0.0000000000000000     
   1.7630092629047103E-002   5.6039646815321420E-002   0.0000000000000000     
   1.0710244677940519E-002   3.5471426630724251E-002   0.0000000000000000     
   1.1572812669585321E-002   4.0230988562145985E-002   0.0000000000000000     
   1.2412547965991330E-002   4.5202250806581357E-002   0.0000000000000000     
   1.3229450567158548E-002   5.0385213364030380E-002   0.0000000000000000     
   1.4023520473086977E-002   5.5779876234493049E-002   0.0000000000000000     
   2.8974345540029159E-002   5.7171271253827621E-002   0.0000000000000000     
   3.0520901825181135E-002   6.2729414672428679E-002   0.0000000000000000     
   3.2021228408828269E-002   6.8467150527736872E-002   0.0000000000000000     
   3.3475325290970574E-002   7.4384478819752201E-002   0.0000000000000000     
   3.4883192471608038E-002   8.0481399548474636E-002   0.0000000000000000     
   2.5105505162518197E-002   5.6735344324988710E-002   0.0000000000000000     
   2.6456240068174236E-002   6.2303565537933175E-002   0.0000000000000000     
   2.7767403957021486E-002   6.8052926239490025E-002   0.0000000000000000     
   2.9038996829059936E-002   7.3983426429659216E-002   0.0000000000000000     
   3.0271018684289597E-002   8.0095066108440791E-002   0.0000000000000000     
   2.1324087525524178E-002   5.6358136178819969E-002   0.0000000000000000     
   2.2480382641428012E-002   6.1935386951351590E-002   0.0000000000000000     
   2.3603333501446382E-002   6.7694911543835320E-002   0.0000000000000000     
   2.4692940105579302E-002   7.3636709956271154E-002   0.0000000000000000     
   2.5749202453826770E-002   7.9760782188659132E-002   0.0000000000000000     
   1.7630092629047103E-002   5.6039646815321420E-002   0.0000000000000000     
   1.8593329544942448E-002   6.1624878912683902E-002   0.0000000000000000     
   1.9529017042102970E-002   6.7393106440772760E-002   0.0000000000000000     
   2.0437155120528672E-002   7.3344329399588015E-002   0.0000000000000000     
   2.1317743780219545E-002   7.9478547789129605E-002   0.0000000000000000     
   1.4023520473086977E-002   5.5779876234493049E-002   0.0000000000000000     
   1.4795080778717558E-002   6.1372041421930118E-002   0.0000000000000000     
   1.5544454578991243E-002   6.7147510930302343E-002   0.0000000000000000     
   1.6271641873908033E-002   7.3106284759609744E-002   0.0000000000000000     
   1.6976642663467930E-002   7.9248362909852293E-002   0.0000000000000000     
   3.4883192471608038E-002   8.0481399548474636E-002   0.0000000000000000     
   3.6239923860945392E-002   8.6749053817840011E-002   0.0000000000000000     
   3.7540613369187376E-002   9.3178582731784060E-002   0.0000000000000000     
   3.8785260996334010E-002   9.9769986290306839E-002   0.0000000000000000     
   3.9973866742385261E-002  0.10652326449340832        0.0000000000000000     
   3.0271018684289597E-002   8.0095066108440791E-002   0.0000000000000000     
   3.1458416941733194E-002   8.6378025832704458E-002   0.0000000000000000     
   3.2596139020413452E-002   9.2822486159319983E-002   0.0000000000000000     
   3.3684184920330394E-002   9.9428447088287381E-002   0.0000000000000000     
   3.4722554641483994E-002  0.10619590861960664        0.0000000000000000     
   2.5749202453826770E-002   7.9760782188659132E-002   0.0000000000000000     
   2.6767191285229693E-002   8.6056698330382805E-002   0.0000000000000000     
   2.7741977338828987E-002   9.2514028470825904E-002   0.0000000000000000     
   2.8673560614624657E-002   9.9132772609988373E-002   0.0000000000000000     
   2.9561941112616695E-002  0.10591293074787024        0.0000000000000000     
   2.1317743780219545E-002   7.9478547789129605E-002   0.0000000000000000     
   2.2166246891434888E-002   8.5785071310875052E-002   0.0000000000000000     
   2.2978128324433970E-002   9.2253209666301794E-002   0.0000000000000000     
   2.3753388079216804E-002   9.8882962855409803E-002   0.0000000000000000     
   2.4492026155783383E-002  0.10567433087819911        0.0000000000000000     
   1.6976642663467930E-002   7.9248362909852293E-002   0.0000000000000000     
   1.7655583760348773E-002   8.5563144774181213E-002   0.0000000000000000     
   1.8304591977228404E-002   9.2040029745747681E-002   0.0000000000000000     
   1.8923667314106829E-002   9.8679017824551699E-002   0.0000000000000000     
   1.9512809770984050E-002  0.10548010901059328        0.0000000000000000     
   3.9973866742385261E-002  0.10652326449340832        0.0000000000000000     
   4.1112924812064161E-002  0.11342275616298991        0.0000000000000000     
   4.2208929410093701E-002  0.12045280012095301        0.0000000000000000     
   4.3261880536473882E-002  0.12761339636729760        0.0000000000000000     
   4.4271778191204710E-002  0.13490454490202372        0.0000000000000000     
   3.4722554641483994E-002  0.10619590861960664        0.0000000000000000     
   3.5716408566679812E-002  0.11310989960994691        0.0000000000000000     
   3.6670907078723419E-002  0.12015544891597738        0.0000000000000000     
   3.7586050177614787E-002  0.12733255653769804        0.0000000000000000     
   3.8461837863353943E-002  0.13464122247510885        0.0000000000000000     
   2.9561941112616695E-002  0.10591293074787024        0.0000000000000000     
   3.0411505889193967E-002  0.11283990088673881        0.0000000000000000     
   3.1226642000745309E-002  0.11989908102886140        0.0000000000000000     
   3.2007349447270739E-002  0.12709047117423802        0.0000000000000000     
   3.2753628228770253E-002  0.13441407132286867        0.0000000000000000     
   2.4492026155783383E-002  0.10567433087819911        0.0000000000000000     
   2.5198216779606611E-002  0.11261275999336556        0.0000000000000000     
   2.5876134176159398E-002  0.11968369645960508        0.0000000000000000     
   2.6525778345441731E-002  0.12688714027691761        0.0000000000000000     
   2.7147149287453622E-002  0.13422309144530320        0.0000000000000000     
   1.9512809770984050E-002  0.10548010901059328        0.0000000000000000     
   2.0076541237917758E-002  0.11242847692982723        0.0000000000000000     
   2.0619383604965662E-002  0.11950929520820841        0.0000000000000000     
   2.1141336872127763E-002  0.12672256384573680        0.0000000000000000     
   2.1642401039404055E-002  0.13406828284241243        0.0000000000000000     
   4.4271778191204710E-002  0.13490454490202372        0.0000000000000000     
   4.5228311587853717E-002  0.14231860495931023        0.0000000000000000     
   4.6121169939988452E-002  0.14984793577333605        0.0000000000000000     
   4.6950353247608906E-002  0.15749253734410110        0.0000000000000000     
   4.7715861510715094E-002  0.16525240967160548        0.0000000000000000     
   3.8461837863353943E-002  0.13464122247510885        0.0000000000000000     
   3.9288698420207990E-002  0.14207288045479069        0.0000000000000000     
   4.0057060132444026E-002  0.14961896420332430        0.0000000000000000     
   4.0766923000062065E-002  0.15727947372070974        0.0000000000000000     
   4.1418287023062085E-002  0.16505440900694698        0.0000000000000000     
   3.2753628228770253E-002  0.13441407132286867        0.0000000000000000     
   3.3456521056747214E-002  0.14186084768993523        0.0000000000000000     
   3.4107070642704997E-002  0.14942176649061964        0.0000000000000000     
   3.4705276986643607E-002  0.15709682772492176        0.0000000000000000     
   3.5251140088563039E-002  0.16488603139284172        0.0000000000000000     
   2.7147149287453622E-002  0.13422309144530320        0.0000000000000000     
   2.7731779497471389E-002  0.14168250666474394        0.0000000000000000     
   2.8271201470771369E-002  0.14925634263522189        0.0000000000000000     
   2.8765415207353560E-002  0.15694459935673721        0.0000000000000000     
   2.9214420707217963E-002  0.16474727682928972        0.0000000000000000     
   2.1642401039404055E-002  0.13406828284241243        0.0000000000000000     
   2.2114473742380521E-002  0.14153785737921673        0.0000000000000000     
   2.2549452616643140E-002  0.14912269263713124        0.0000000000000000     
   2.2947337662191914E-002  0.15682278861615598        0.0000000000000000     
   2.3308128879026842E-002  0.16463814531629090        0.0000000000000000     
   0.0000000000000000        0.0000000000000000        0.0000000000000000     
   8.4175649106079048E-004   1.1098412787192340E-003   0.0000000000000000     
   1.7023295828521201E-003   2.5978315083445775E-003   0.0000000000000000     
   2.5817192753739889E-003   4.4639706888760320E-003   0.0000000000000000     
   3.4799255686263973E-003   6.7082588203135965E-003   0.0000000000000000     
   0.0000000000000000        0.0000000000000000        0.0000000000000000     
   6.3390253868766434E-004   1.0937811589175808E-003   0.0000000000000000     
   1.2782204338852286E-003   2.5616712894143230E-003   0.0000000000000000     
   1.9329536855926931E-003   4.4036703914902275E-003   0.0000000000000000     
   2.5981022938100576E-003   6.6197784651452936E-003   0.0000000000000000     
   0.0000000000000000        0.0000000000000000        0.0000000000000000     
   4.2432513938521298E-004   1.0823096447742889E-003   0.0000000000000000     
   8.5312912041814301E-004   2.5358425616083817E-003   0.0000000000000000     
   1.2864119430987899E-003   4.3605987505022778E-003   0.0000000000000000     
   1.7241736074271540E-003   6.5565782114559764E-003   0.0000000000000000     
   0.0000000000000000        0.0000000000000000        0.0000000000000000     
   2.1302429315343661E-004   1.0754267362893585E-003   0.0000000000000000     
   4.2705564245086309E-004   2.5203453249267524E-003   0.0000000000000000     
   6.4209404789227951E-004   4.3347557659121818E-003   0.0000000000000000     
   8.5813950947768590E-004   6.5186580592456475E-003   0.0000000000000000     
   0.0000000000000000        0.0000000000000000        0.0000000000000000     
  -7.6648214684948979E-015   1.0731324334627894E-003   0.0000000000000000     
  -1.6610844644215916E-014   2.5151795793694367E-003   0.0000000000000000     
  -2.6837961106945807E-014   4.3261414377199405E-003   0.0000000000000000     
  -3.8346143751630257E-014   6.5060180085143027E-003   0.0000000000000000     
   3.4799255686263973E-003   6.7082588203135965E-003   0.0000000000000000     
   4.3886858769028141E-003   9.2933579465553744E-003   0.0000000000000000     
   5.2997376144967093E-003   1.2181930111499473E-002   0.0000000000000000     
   6.2130807814080842E-003   1.5373975315145892E-002   0.0000000000000000     
   7.1287153776369381E-003   1.8869493557494628E-002   0.0000000000000000     
   2.5981022938100576E-003   6.6197784651452936E-003   0.0000000000000000     
   3.2706940729421803E-003   9.1770108668152908E-003   0.0000000000000000     
   3.9477568373939209E-003   1.2042382952935993E-002   0.0000000000000000     
   4.6292905871652777E-003   1.5215894723507395E-002   0.0000000000000000     
   5.3152953222562523E-003   1.8697546178529503E-002   0.0000000000000000     
   1.7241736074271540E-003   6.5565782114559764E-003   0.0000000000000000     
   2.1665824921295539E-003   9.0939058098608427E-003   0.0000000000000000     
   2.6138069759323096E-003   1.1942706411108230E-002   0.0000000000000000     
   3.0658470588354209E-003   1.5102980015198149E-002   0.0000000000000000     
   3.5227027408388867E-003   1.8574726622130590E-002   0.0000000000000000     
   8.5813950947768590E-004   6.5186580592456475E-003   0.0000000000000000     
   1.0763511344649341E-003   9.0440427756920214E-003   0.0000000000000000     
   1.2978880301118760E-003   1.1882900486016189E-002   0.0000000000000000     
   1.5227501964185121E-003   1.5035231190218143E-002   0.0000000000000000     
   1.7509376333848415E-003   1.8501034888297883E-002   0.0000000000000000     
  -3.8346143751630257E-014   6.5060180085143027E-003   0.0000000000000000     
  -5.1678699839428910E-014   9.0274217643088392E-003   0.0000000000000000     
  -6.7379065380509390E-014   1.1862965177659866E-002   0.0000000000000000     
  -8.5447225128278646E-014   1.5012648248567384E-002   0.0000000000000000     
  -1.0588307574471711E-013   1.8476470977031395E-002   0.0000000000000000     
   7.1287153776369381E-003   1.8869493557494628E-002   0.0000000000000000     
   8.0401461920716066E-003   2.2642555445846403E-002   0.0000000000000000     
   8.9408780136004274E-003   2.6667231587501936E-002   0.0000000000000000     
   9.8309108422233952E-003   3.0943521982461211E-002   0.0000000000000000     
   1.0710244677940519E-002   3.5471426630724251E-002   0.0000000000000000     
   5.3152953222562523E-003   1.8697546178529503E-002   0.0000000000000000     
   5.9989427900177545E-003   2.2459962489502022E-002   0.0000000000000000     
   6.6734047378006938E-003   2.6475768827924649E-002   0.0000000000000000     
   7.3386811656050710E-003   3.0744965193797397E-002   0.0000000000000000     
   7.9947720734308871E-003   3.5267551587120256E-002   0.0000000000000000     
   3.5227027408388867E-003   1.8574726622130590E-002   0.0000000000000000     
   3.9785172906330593E-003   2.2329538949261471E-002   0.0000000000000000     
   4.4274339769082884E-003   2.6339009713946693E-002   0.0000000000000000     
   4.8694527996645748E-003   3.0603138916186275E-002   0.0000000000000000     
   5.3045737589019187E-003   3.5121926555980190E-002   0.0000000000000000     
   1.7509376333848415E-003   1.8501034888297883E-002   0.0000000000000000     
   1.9788696939175223E-003   2.2251284825124749E-002   0.0000000000000000     
   2.2029657309232107E-003   2.6256954245568065E-002   0.0000000000000000     
   2.4232257444019071E-003   3.0518043149627836E-002   0.0000000000000000     
   2.6396497343536113E-003   3.5034551537304066E-002   0.0000000000000000     
  -1.0588307574471711E-013   1.8476470977031395E-002   0.0000000000000000     
  -1.2885742819990220E-013   2.2225200117091864E-002   0.0000000000000000     
  -1.5453976531625002E-013   2.6229602422788763E-002   0.0000000000000000     
  -1.8293227582689628E-013   3.0489677894122092E-002   0.0000000000000000     
  -2.1403278455123242E-013   3.5005426531091857E-002   0.0000000000000000     
   1.0710244677940519E-002   3.5471426630724251E-002   0.0000000000000000     
   1.1572812669585321E-002   4.0230988562145985E-002   0.0000000000000000     
   1.2412547965991330E-002   4.5202250806581357E-002   0.0000000000000000     
   1.3229450567158548E-002   5.0385213364030380E-002   0.0000000000000000     
   1.4023520473086977E-002   5.5779876234493049E-002   0.0000000000000000     
   7.9947720734308871E-003   3.5267551587120256E-002   0.0000000000000000     
   8.6384039831074125E-003   4.0023932320941778E-002   0.0000000000000000     
   9.2663034164639224E-003   4.4994511708310508E-002   0.0000000000000000     
   9.8784703735004132E-003   5.0179289749226440E-002   0.0000000000000000     
   1.0474904854216887E-002   5.5578266443689586E-002   0.0000000000000000     
   5.3045737589019187E-003   3.5121926555980190E-002   0.0000000000000000     
   5.7314656426420731E-003   3.9876035005801370E-002   0.0000000000000000     
   6.1487972389067946E-003   4.4846126638122680E-002   0.0000000000000000     
   6.5565685476960825E-003   5.0032201452944139E-002   0.0000000000000000     
   6.9547795690099376E-003   5.5434259450265748E-002   0.0000000000000000     
   2.6396497343536113E-003   3.5034551537304066E-002   0.0000000000000000     
   2.8519976481893002E-003   3.9787296616724740E-002   0.0000000000000000     
   3.0600294333199486E-003   4.4757095596017864E-002   0.0000000000000000     
   3.2637450897455575E-003   4.9943948475183478E-002   0.0000000000000000     
   3.4631446174661264E-003   5.5347855254221541E-002   0.0000000000000000     
  -2.1403278455123242E-013   3.5005426531091857E-002   0.0000000000000000     
  -2.5090650043746443E-013   3.9757717153711916E-002   0.0000000000000000     
  -2.9661597613847568E-013   4.4727418581996102E-002   0.0000000000000000     
  -3.5116277019488912E-013   4.9914530815944456E-002   0.0000000000000000     
  -4.1454578485200511E-013   5.5319053855556945E-002   0.0000000000000000     
   1.4023520473086977E-002   5.5779876234493049E-002   0.0000000000000000     
   1.4795080778717558E-002   6.1372041421930118E-002   0.0000000000000000     
   1.5544454578991243E-002   6.7147510930302343E-002   0.0000000000000000     
   1.6271641873908033E-002   7.3106284759609744E-002   0.0000000000000000     
   1.6976642663467930E-002   7.9248362909852293E-002   0.0000000000000000     
   1.0474904854216887E-002   5.5578266443689586E-002   0.0000000000000000     
   1.1055003279196379E-002   6.1176039482236683E-002   0.0000000000000000     
   1.1618162069021916E-002   6.6957206555404492E-002   0.0000000000000000     
   1.2164381223693505E-002   7.2921767663192985E-002   0.0000000000000000     
   1.2693660743211143E-002   7.9069722805602205E-002   0.0000000000000000     
   6.9547795690099376E-003   5.5434259450265748E-002   0.0000000000000000     
   7.3424639828219458E-003   6.1036038096750039E-002   0.0000000000000000     
   7.7186554691056931E-003   6.6821274859059587E-002   0.0000000000000000     
   8.0833540278611830E-003   7.2789969737194343E-002   0.0000000000000000     
   8.4365596590884103E-003   7.8942122731154335E-002   0.0000000000000000     
   3.4631446174661264E-003   5.5347855254221541E-002   0.0000000000000000     
   3.6574628895942635E-003   6.0952037265470195E-002   0.0000000000000000     
   3.8459347792425777E-003   6.6739715841267616E-002   0.0000000000000000     
   4.0285602864110672E-003   7.2710890981613818E-002   0.0000000000000000     
   4.2053394110997322E-003   7.8865562686508739E-002   0.0000000000000000     
  -4.1454578485200511E-013   5.5319053855556945E-002   0.0000000000000000     
  -4.8666843124878234E-013   6.0924036988397150E-002   0.0000000000000000     
  -5.6743374105341915E-013   6.6712529502028620E-002   0.0000000000000000     
  -6.5684167360833406E-013   7.2684531396451368E-002   0.0000000000000000     
  -7.5489267614692324E-013   7.8840042671665361E-002   0.0000000000000000     
   1.6976642663467930E-002   7.9248362909852293E-002   0.0000000000000000     
   1.7655583760348773E-002   8.5563144774181213E-002   0.0000000000000000     
   1.8304591977228404E-002   9.2040029745747681E-002   0.0000000000000000     
   1.8923667314106829E-002   9.8679017824551699E-002   0.0000000000000000     
   1.9512809770984050E-002  0.10548010901059328        0.0000000000000000     
   1.2693660743211143E-002   7.9069722805602205E-002   0.0000000000000000     
   1.3202967900474412E-002   8.5390703015812433E-002   0.0000000000000000     
   1.3689269968382890E-002   9.1874339327004076E-002   0.0000000000000000     
   1.4152566946936581E-002   9.8520631739177064E-002   0.0000000000000000     
   1.4592858836135477E-002  0.10532958025233145        0.0000000000000000     
   8.4365596590884103E-003   7.8942122731154335E-002   0.0000000000000000     
   8.7761653203148621E-003   8.5267530331279914E-002   0.0000000000000000     
   9.1000639690680188E-003   9.1755989027911475E-002   0.0000000000000000     
   9.4082556053478855E-003   9.8407498821048961E-002   0.0000000000000000     
   9.7007402291544517E-003  0.10522205971069241        0.0000000000000000     
   4.2053394110997322E-003   7.8865562686508739E-002   0.0000000000000000     
   4.3751760198701252E-003   8.5193626720583684E-002   0.0000000000000000     
   4.5369739792837961E-003   9.1684978848469878E-002   0.0000000000000000     
   4.6907332893407448E-003   9.8339619070167375E-002   0.0000000000000000     
   4.8364539500409722E-003  0.10515754738567612        0.0000000000000000     
  -7.5489267614692324E-013   7.8840042671665361E-002   0.0000000000000000     
  -8.5980159623966212E-013   8.5168992183723688E-002   0.0000000000000000     
  -9.6978208883463646E-013   9.1661308788679327E-002   0.0000000000000000     
  -1.0848356989199420E-012   9.8316992486532293E-002   0.0000000000000000     
  -1.2049627788612849E-012  0.10513604327728261        0.0000000000000000     
   1.9512809770984050E-002  0.10548010901059328        0.0000000000000000     
   2.0076541237917758E-002  0.11242847692982723        0.0000000000000000     
   2.0619383604965662E-002  0.11950929520820841        0.0000000000000000     
   2.1141336872127763E-002  0.12672256384573680        0.0000000000000000     
   2.1642401039404055E-002  0.13406828284241243        0.0000000000000000     
   1.4592858836135477E-002  0.10532958025233145        0.0000000000000000     
   1.5014855842162417E-002  0.11228597954976148        0.0000000000000000     
   1.5423268171200221E-002  0.11937462431476141        0.0000000000000000     
   1.5818095823248890E-002  0.12659551454733120        0.0000000000000000     
   1.6199338798308423E-002  0.13394865024747094        0.0000000000000000     
   9.7007402291544517E-003  0.10522205971069241        0.0000000000000000     
   9.9815371703755925E-003  0.11218419570680604        0.0000000000000000     
   1.0254665758899162E-002  0.11927843081935408        0.0000000000000000     
   1.0520125994725163E-002  0.12650476504833652        0.0000000000000000     
   1.0777917877853597E-002  0.13386319839375338        0.0000000000000000     
   4.8364539500409722E-003  0.10515754738567612        0.0000000000000000     
   4.9765852225572846E-003  0.11212312540096091        0.0000000000000000     
   5.1135763680624892E-003  0.11922071472198643        0.0000000000000000     
   5.2474273865565834E-003  0.12645031534875270        0.0000000000000000     
   5.3781382780395716E-003  0.13381192728125979        0.0000000000000000     
  -1.2049627788612849E-012  0.10513604327728261        0.0000000000000000     
  -1.2925029969912405E-012  0.11210276863222604        0.0000000000000000     
  -1.3097978647860775E-012  0.11920147602265843        0.0000000000000000     
  -1.2568463251486778E-012  0.12643216544857977        0.0000000000000000     
  -1.1336500314873543E-012  0.13379483690999006        0.0000000000000000     
   2.1642401039404055E-002  0.13406828284241243        0.0000000000000000     
   2.2114473742380521E-002  0.14153785737921673        0.0000000000000000     
   2.2549452616643140E-002  0.14912269263713124        0.0000000000000000     
   2.2947337662191914E-002  0.15682278861615598        0.0000000000000000     
   2.3308128879026842E-002  0.16463814531629090        0.0000000000000000     
   1.6199338798308423E-002  0.13394865024747094        0.0000000000000000     
   1.6559628243681207E-002  0.14142602939039692        0.0000000000000000     
   1.6891595306669612E-002  0.14901964995132552        0.0000000000000000     
   1.7195239987273649E-002  0.15672951193025678        0.0000000000000000     
   1.7470562285493318E-002  0.16455561532719071        0.0000000000000000     
   1.0777917877853597E-002  0.13386319839375338        0.0000000000000000     
   1.1022267453580047E-002  0.14134615225532773        0.0000000000000000     
   1.1247400767200098E-002  0.14894604803278272        0.0000000000000000     
   1.1453317818713751E-002  0.15666288572611822        0.0000000000000000     
   1.1640018608121005E-002  0.16449666533533439        0.0000000000000000     
   5.3781382780395716E-003  0.13381192728125979        0.0000000000000000     
   5.5023913720770442E-003  0.14129822597400921        0.0000000000000000     
   5.6168689982345902E-003  0.14890188688150272        0.0000000000000000     
   5.7215711565122129E-003  0.15662291000374035        0.0000000000000000     
   5.8164978469099132E-003  0.16446129534072201        0.0000000000000000     
  -1.1336500314873543E-012  0.13379483690999006        0.0000000000000000     
  -8.2780397120396643E-013  0.14128225054644133        0.0000000000000000     
  -2.2690898639210477E-013  0.14888716649748571        0.0000000000000000     
   6.6903812134463947E-013  0.15660958476312312        0.0000000000000000     
   1.8600355630726817E-012  0.16444950534335356        0.0000000000000000     
   0.0000000000000000        0.0000000000000000        0.0000000000000000     
  -7.6648214684948979E-015   1.0731324334627894E-003   0.0000000000000000     
  -1.6610844644215916E-014   2.5151795793694367E-003   0.0000000000000000     
  -2.6837961106945807E-014   4.3261414377199405E-003   0.0000000000000000     
  -3.8346143751630257E-014   6.5060180085143027E-003   0.0000000000000000     
   0.0000000000000000        0.0000000000000000        0.0000000000000000     
  -2.1302429316843254E-004   1.0754267362943967E-003   0.0000000000000000     
  -4.2705564248339485E-004   2.5203453249361004E-003   0.0000000000000000     
  -6.4209404794488695E-004   4.3347557659251107E-003   0.0000000000000000     
  -8.5813950955290872E-004   6.5186580592614275E-003   0.0000000000000000     
   0.0000000000000000        0.0000000000000000        0.0000000000000000     
  -4.2432513939920759E-004   1.0823096447839958E-003   0.0000000000000000     
  -8.5312912044860475E-004   2.5358425616264116E-003   0.0000000000000000     
  -1.2864119431481918E-003   4.3605987505272474E-003   0.0000000000000000     
  -1.7241736074979680E-003   6.5565782114865032E-003   0.0000000000000000     
   0.0000000000000000        0.0000000000000000        0.0000000000000000     
  -6.3390253869999020E-004   1.0937811589315865E-003   0.0000000000000000     
  -1.2782204339122408E-003   2.5616712894403707E-003   0.0000000000000000     
  -1.9329536856367525E-003   4.4036703915263506E-003   0.0000000000000000     
  -2.5981022938735242E-003   6.6197784651895299E-003   0.0000000000000000     
   0.0000000000000000        0.0000000000000000        0.0000000000000000     
  -8.4175649107078010E-004   1.1098412787371688E-003   0.0000000000000000     
  -1.7023295828743029E-003   2.5978315083779761E-003   0.0000000000000000     
  -2.5817192754105686E-003   4.4639706889224228E-003   0.0000000000000000     
  -3.4799255686795779E-003   6.7082588203705076E-003   0.0000000000000000     
  -3.8346143751630257E-014   6.5060180085143027E-003   0.0000000000000000     
  -5.1678699839428910E-014   9.0274217643088392E-003   0.0000000000000000     
  -6.7379065380509390E-014   1.1862965177659866E-002   0.0000000000000000     
  -8.5447225128278646E-014   1.5012648248567384E-002   0.0000000000000000     
  -1.0588307574471711E-013   1.8476470977031395E-002   0.0000000000000000     
  -8.5813950955290872E-004   6.5186580592614275E-003   0.0000000000000000     
  -1.0763511345663306E-003   9.0440427757106350E-003   0.0000000000000000     
  -1.2978880302440224E-003   1.1882900486038321E-002   0.0000000000000000     
  -1.5227501965859843E-003   1.5035231190244478E-002   0.0000000000000000     
  -1.7509376335922166E-003   1.8501034888329115E-002   0.0000000000000000     
  -1.7241736074979680E-003   6.5565782114865032E-003   0.0000000000000000     
  -2.1665824922250665E-003   9.0939058098967619E-003   0.0000000000000000     
  -2.6138069760566194E-003   1.1942706411150606E-002   0.0000000000000000     
  -3.0658470589926268E-003   1.5102980015248034E-002   0.0000000000000000     
  -3.5227027410330877E-003   1.8574726622189047E-002   0.0000000000000000     
  -2.5981022938735242E-003   6.6197784651895299E-003   0.0000000000000000     
  -3.2706940730278869E-003   9.1770108668672180E-003   0.0000000000000000     
  -3.9477568375051704E-003   1.2042382952996722E-002   0.0000000000000000     
  -4.6292905873053731E-003   1.5215894723578049E-002   0.0000000000000000     
  -5.3152953224284982E-003   1.8697546178611191E-002   0.0000000000000000     
  -3.4799255686795779E-003   6.7082588203705076E-003   0.0000000000000000     
  -4.3886858769747912E-003   9.2933579466220016E-003   0.0000000000000000     
  -5.2997376145896740E-003   1.2181930111576672E-002   0.0000000000000000     
  -6.2130807815242257E-003   1.5373975315234526E-002   0.0000000000000000     
  -7.1287153777784456E-003   1.8869493557595554E-002   0.0000000000000000     
  -1.0588307574471711E-013   1.8476470977031395E-002   0.0000000000000000     
  -1.2885742819990220E-013   2.2225200117091864E-002   0.0000000000000000     
  -1.5453976531625002E-013   2.6229602422788763E-002   0.0000000000000000     
  -1.8293227582689628E-013   3.0489677894122092E-002   0.0000000000000000     
  -2.1403278455123242E-013   3.5005426531091857E-002   0.0000000000000000     
  -1.7509376335922166E-003   1.8501034888329115E-002   0.0000000000000000     
  -1.9788696941696621E-003   2.2251284825160256E-002   0.0000000000000000     
  -2.2029657312252625E-003   2.6256954245605930E-002   0.0000000000000000     
  -2.4232257447590177E-003   3.0518043149666142E-002   0.0000000000000000     
  -2.6396497347709286E-003   3.5034551537340891E-002   0.0000000000000000     
  -3.5227027410330877E-003   1.8574726622189047E-002   0.0000000000000000     
  -3.9785172908684725E-003   2.2329538949327366E-002   0.0000000000000000     
  -4.4274339771892546E-003   2.6339009714016707E-002   0.0000000000000000     
  -4.8694527999954239E-003   3.0603138916257083E-002   0.0000000000000000     
  -5.3045737592869900E-003   3.5121926556048476E-002   0.0000000000000000     
  -5.3152953224284982E-003   1.8697546178611191E-002   0.0000000000000000     
  -5.9989427902252942E-003   2.2459962489593199E-002   0.0000000000000000     
  -6.6734047380465119E-003   2.6475768828021107E-002   0.0000000000000000     
  -7.3386811658921539E-003   3.0744965193894906E-002   0.0000000000000000     
  -7.9947720737622175E-003   3.5267551587214611E-002   0.0000000000000000     
  -7.1287153777784456E-003   1.8869493557595554E-002   0.0000000000000000     
  -8.0401461922401211E-003   2.2642555445957748E-002   0.0000000000000000     
  -8.9408780137970410E-003   2.6667231587619102E-002   0.0000000000000000     
  -9.8309108424492041E-003   3.0943521982579620E-002   0.0000000000000000     
  -1.0710244678196611E-002   3.5471426630839291E-002   0.0000000000000000     
  -2.1403278455123242E-013   3.5005426531091857E-002   0.0000000000000000     
  -2.5090650043746443E-013   3.9757717153711916E-002   0.0000000000000000     
  -2.9661597613847568E-013   4.4727418581996102E-002   0.0000000000000000     
  -3.5116277019488912E-013   4.9914530815944456E-002   0.0000000000000000     
  -4.1454578485200511E-013   5.5319053855556945E-002   0.0000000000000000     
  -2.6396497347709286E-003   3.5034551537340891E-002   0.0000000000000000     
  -2.8519976486778061E-003   3.9787296616760316E-002   0.0000000000000000     
  -3.0600294338964610E-003   4.4757095596054550E-002   0.0000000000000000     
  -3.2637450904268949E-003   4.9943948475223612E-002   0.0000000000000000     
  -3.4631446182691048E-003   5.5347855254267463E-002   0.0000000000000000     
  -5.3045737592869900E-003   3.5121926556048476E-002   0.0000000000000000     
  -5.7314656430906613E-003   3.9876035005867422E-002   0.0000000000000000     
  -6.1487972394331505E-003   4.4846126638190410E-002   0.0000000000000000     
  -6.5565685483144551E-003   5.0032201453017476E-002   0.0000000000000000     
  -6.9547795697345784E-003   5.5434259450348591E-002   0.0000000000000000     
  -7.9947720737622175E-003   3.5267551587214611E-002   0.0000000000000000     
  -8.6384039834894715E-003   4.0023932321033198E-002   0.0000000000000000     
  -9.2663034169066794E-003   4.4994511708403698E-002   0.0000000000000000     
  -9.8784703740138428E-003   5.0179289749326061E-002   0.0000000000000000     
  -1.0474904854810963E-002   5.5578266443800324E-002   0.0000000000000000     
  -1.0710244678196611E-002   3.5471426630839291E-002   0.0000000000000000     
  -1.1572812669874236E-002   4.0230988562257694E-002   0.0000000000000000     
  -1.2412547966317054E-002   4.5202250806694377E-002   0.0000000000000000     
  -1.3229450567525062E-002   5.0385213364149362E-002   0.0000000000000000     
  -1.4023520473498264E-002   5.5779876234622654E-002   0.0000000000000000     
  -4.1454578485200511E-013   5.5319053855556945E-002   0.0000000000000000     
  -4.8666843124878234E-013   6.0924036988397150E-002   0.0000000000000000     
  -5.6743374105341915E-013   6.6712529502028620E-002   0.0000000000000000     
  -6.5684167360833406E-013   7.2684531396451368E-002   0.0000000000000000     
  -7.5489267614692324E-013   7.8840042671665361E-002   0.0000000000000000     
  -3.4631446182691048E-003   5.5347855254267463E-002   0.0000000000000000     
  -3.6574628905356524E-003   6.0952037265524554E-002   0.0000000000000000     
  -3.8459347803390977E-003   6.6739715841333286E-002   0.0000000000000000     
  -4.0285602876794380E-003   7.2710890981693616E-002   0.0000000000000000     
  -4.2053394125566761E-003   7.8865562686605606E-002   0.0000000000000000     
  -6.9547795697345784E-003   5.5434259450348591E-002   0.0000000000000000     
  -7.3424639836674925E-003   6.1036038096846094E-002   0.0000000000000000     
  -7.7186554700871745E-003   6.6821274859172289E-002   0.0000000000000000     
  -8.0833540289936192E-003   7.2789969737327209E-002   0.0000000000000000     
  -8.4365596603868300E-003   7.8942122731310793E-002   0.0000000000000000     
  -1.0474904854810963E-002   5.5578266443800324E-002   0.0000000000000000     
  -1.1055003279882186E-002   6.1176039482361749E-002   0.0000000000000000     
  -1.1618162069811660E-002   6.6957206555545670E-002   0.0000000000000000     
  -1.2164381224599383E-002   7.2921767663352025E-002   0.0000000000000000     
  -1.2693660744245354E-002   7.9069722805780895E-002   0.0000000000000000     
  -1.4023520473498264E-002   5.5779876234622654E-002   0.0000000000000000     
  -1.4795080779179738E-002   6.1372041422071547E-002   0.0000000000000000     
  -1.5544454579512559E-002   6.7147510930453402E-002   0.0000000000000000     
  -1.6271641874496728E-002   7.3106284759768200E-002   0.0000000000000000     
  -1.6976642664132249E-002   7.9248362910015940E-002   0.0000000000000000     
  -7.5489267614692324E-013   7.8840042671665361E-002   0.0000000000000000     
  -8.5980159623966212E-013   8.5168992183723688E-002   0.0000000000000000     
  -9.6978208883463646E-013   9.1661308788679327E-002   0.0000000000000000     
  -1.0848356989199420E-012   9.8316992486532293E-002   0.0000000000000000     
  -1.2049627788612849E-012  0.10513604327728261        0.0000000000000000     
  -4.2053394125566761E-003   7.8865562686605606E-002   0.0000000000000000     
  -4.3751760215280386E-003   8.5193626720678373E-002   0.0000000000000000     
  -4.5369739811507515E-003   9.1684978848521045E-002   0.0000000000000000     
  -4.6907332914248182E-003   9.8339619070133652E-002   0.0000000000000000     
  -4.8364539523502387E-003  0.10515754738551616        0.0000000000000000     
  -8.4365596603868300E-003   7.8942122731310793E-002   0.0000000000000000     
  -8.7761653217877066E-003   8.5267530331426131E-002   0.0000000000000000     
  -9.1000639707171493E-003   9.1755989027976312E-002   0.0000000000000000     
  -9.4082556071751599E-003   9.8407498820961323E-002   0.0000000000000000     
  -9.7007402311617384E-003  0.10522205971038115        0.0000000000000000     
  -1.2693660744245354E-002   7.9069722805780895E-002   0.0000000000000000     
  -1.3202967901638808E-002   8.5390703015966990E-002   0.0000000000000000     
  -1.3689269969668976E-002   9.1874339327045154E-002   0.0000000000000000     
  -1.4152566948335860E-002   9.8520631739015319E-002   0.0000000000000000     
  -1.4592858837639463E-002  0.10532958025187754        0.0000000000000000     
  -1.6976642664132249E-002   7.9248362910015940E-002   0.0000000000000000     
  -1.7655583761081339E-002   8.5563144774300950E-002   0.0000000000000000     
  -1.8304591978006230E-002   9.2040029745727517E-002   0.0000000000000000     
  -1.8923667314906922E-002   9.8679017824295640E-002   0.0000000000000000     
  -1.9512809771783411E-002  0.10548010901000533        0.0000000000000000     
  -1.2049627788612849E-012  0.10513604327728261        0.0000000000000000     
  -1.2925029969912405E-012  0.11210276863222604        0.0000000000000000     
  -1.3097978647860775E-012  0.11920147602265843        0.0000000000000000     
  -1.2568463251486778E-012  0.12643216544857977        0.0000000000000000     
  -1.1336500314873543E-012  0.13379483690999006        0.0000000000000000     
  -4.8364539523502387E-003  0.10515754738551616        0.0000000000000000     
  -4.9765852250316196E-003  0.11212312540062544        0.0000000000000000     
  -5.1135763705735743E-003  0.11922071472141828        0.0000000000000000     
  -5.2474273889761003E-003  0.12645031534789472        0.0000000000000000     
  -5.3781382802391984E-003  0.13381192728005467        0.0000000000000000     
  -9.7007402311617384E-003  0.10522205971038115        0.0000000000000000     
  -9.9815371725179153E-003  0.11218419570618300        0.0000000000000000     
  -1.0254665761084716E-002  0.11927843081831412        0.0000000000000000     
  -1.0520125996862145E-002  0.12650476504677444        0.0000000000000000     
  -1.0777917879850203E-002  0.13386319839156402        0.0000000000000000     
  -1.4592858837639463E-002  0.10532958025187754        0.0000000000000000     
  -1.5014855843751380E-002  0.11228597954889875        0.0000000000000000     
  -1.5423268172843218E-002  0.11937462431334589        0.0000000000000000     
  -1.5818095824914981E-002  0.12659551454521903        0.0000000000000000     
  -1.6199338799966666E-002  0.13394865024451810        0.0000000000000000     
  -1.9512809771783411E-002  0.10548010901000533        0.0000000000000000     
  -2.0076541238732027E-002  0.11242847692877267        0.0000000000000000     
  -2.0619383605849095E-002  0.11950929520651368        0.0000000000000000     
  -2.1141336873134610E-002  0.12672256384322844        0.0000000000000000     
  -2.1642401040588580E-002  0.13406828283891686        0.0000000000000000     
  -1.1336500314873543E-012  0.13379483690999006        0.0000000000000000     
  -8.2780397120396643E-013  0.14128225054644133        0.0000000000000000     
  -2.2690898639210477E-013  0.14888716649748571        0.0000000000000000     
   6.6903812134463947E-013  0.15660958476312312        0.0000000000000000     
   1.8600355630726817E-012  0.16444950534335356        0.0000000000000000     
  -5.3781382802391984E-003  0.13381192728005467        0.0000000000000000     
  -5.5023913737130455E-003  0.14129822597268982        0.0000000000000000     
  -5.6168689987478194E-003  0.14890188688059172        0.0000000000000000     
  -5.7215711553435218E-003  0.15662291000376038        0.0000000000000000     
  -5.8164978435001494E-003  0.16446129534219581        0.0000000000000000     
  -1.0777917879850203E-002  0.13386319839156402        0.0000000000000000     
  -1.1022267455157230E-002  0.14134615225282038        0.0000000000000000     
  -1.1247400767891566E-002  0.14894604803068112        0.0000000000000000     
  -1.1453317818053211E-002  0.15666288572514614        0.0000000000000000     
  -1.1640018605642167E-002  0.16449666533621551        0.0000000000000000     
  -1.6199338799966666E-002  0.13394865024451810        0.0000000000000000     
  -1.6559628245160357E-002  0.14142602938683302        0.0000000000000000     
  -1.6891595307658148E-002  0.14901964994775380        0.0000000000000000     
  -1.7195239987460035E-002  0.15672951192728032        0.0000000000000000     
  -1.7470562284566019E-002  0.16455561532541266        0.0000000000000000     
  -2.1642401040588580E-002  0.13406828283891686        0.0000000000000000     
  -2.2114473743722426E-002  0.14153785737472774        0.0000000000000000     
  -2.2549452618047559E-002  0.14912269263180977        0.0000000000000000     
  -2.2947337663563983E-002  0.15682278861016294        0.0000000000000000     
  -2.3308128880271704E-002  0.16463814530978729        0.0000000000000000     
   0.0000000000000000        0.0000000000000000        0.0000000000000000     
  -8.4175649107078010E-004   1.1098412787371688E-003   0.0000000000000000     
  -1.7023295828743029E-003   2.5978315083779761E-003   0.0000000000000000     
  -2.5817192754105686E-003   4.4639706889224228E-003   0.0000000000000000     
  -3.4799255686795779E-003   6.7082588203705076E-003   0.0000000000000000     
   0.0000000000000000        0.0000000000000000        0.0000000000000000     
  -1.0567903557482431E-003   1.1340479214708929E-003   0.0000000000000000     
  -2.1399924952002669E-003   2.6501648153644530E-003   0.0000000000000000     
  -3.2496064183560724E-003   4.5483506816806803E-003   0.0000000000000000     
  -4.3856321252156586E-003   6.8286055204195752E-003   0.0000000000000000     
   0.0000000000000000        0.0000000000000000        0.0000000000000000     
  -1.2879074919690450E-003   1.1699590044029081E-003   0.0000000000000000     
  -2.6057450987556100E-003   2.7245128073250221E-003   0.0000000000000000     
  -3.9535128203596944E-003   4.6636614087663423E-003   0.0000000000000000     
  -5.3312106567812998E-003   6.9874048087268667E-003   0.0000000000000000     
   0.0000000000000000        0.0000000000000000        0.0000000000000000     
  -1.5351078997331859E-003   1.2175745275332147E-003   0.0000000000000000     
  -3.0995873935403314E-003   2.8208754842596845E-003   0.0000000000000000     
  -4.6934384814214369E-003   4.8099028701794081E-003   0.0000000000000000     
  -6.3166611633765002E-003   7.1846566852923881E-003   0.0000000000000000     
   0.0000000000000000        0.0000000000000000        0.0000000000000000     
  -1.7983915790406656E-003   1.2768944908618130E-003   0.0000000000000000     
  -3.6215193795544314E-003   2.9392528461684394E-003   0.0000000000000000     
  -5.4693834015412963E-003   4.9870750659198795E-003   0.0000000000000000     
  -7.3419836450012623E-003   7.4203611501161343E-003   0.0000000000000000     
  -3.4799255686795779E-003   6.7082588203705076E-003   0.0000000000000000     
  -4.3886858769747912E-003   9.2933579466220016E-003   0.0000000000000000     
  -5.2997376145896740E-003   1.2181930111576672E-002   0.0000000000000000     
  -6.2130807815242257E-003   1.5373975315234526E-002   0.0000000000000000     
  -7.1287153777784456E-003   1.8869493557595554E-002   0.0000000000000000     
  -4.3856321252156586E-003   6.8286055204195752E-003   0.0000000000000000     
  -5.5350696618818272E-003   9.4489178556033861E-003   0.0000000000000000     
  -6.6849190744573813E-003   1.2367276211254363E-002   0.0000000000000000     
  -7.8351803629423209E-003   1.5583680587372507E-002   0.0000000000000000     
  -8.9858535273366416E-003   1.9098130983957819E-002   0.0000000000000000     
  -5.3312106567812998E-003   6.9874048087268667E-003   0.0000000000000000     
  -6.7243571855650436E-003   9.6496614002536379E-003   0.0000000000000000     
  -8.1184709842555391E-003   1.2604349576393703E-002   0.0000000000000000     
  -9.5135520528527914E-003   1.5851469337147050E-002   0.0000000000000000     
  -1.0909600391356800E-002   1.9391020682513693E-002   0.0000000000000000     
  -6.3166611633765002E-003   7.1846566852923881E-003   0.0000000000000000     
  -7.9565484480244378E-003   9.8955885805727655E-003   0.0000000000000000     
  -9.6003933439841507E-003   1.2893150206994690E-002   0.0000000000000000     
  -1.1248195851255645E-002   1.6177341564558158E-002   0.0000000000000000     
  -1.2899955969838919E-002   1.9748162653263169E-002   0.0000000000000000     
  -7.3419836450012623E-003   7.4203611501161343E-003   0.0000000000000000     
  -9.2316434492600071E-003   1.0186699396560762E-002   0.0000000000000000     
  -1.1130686153643212E-002   1.3233678103057324E-002   0.0000000000000000     
  -1.3039111758150876E-002   1.6561297269605819E-002   0.0000000000000000     
  -1.4956920262782995E-002   2.0169556896206250E-002   0.0000000000000000     
  -7.1287153777784456E-003   1.8869493557595554E-002   0.0000000000000000     
  -8.0401461922401211E-003   2.2642555445957748E-002   0.0000000000000000     
  -8.9408780137970410E-003   2.6667231587619102E-002   0.0000000000000000     
  -9.8309108424492041E-003   3.0943521982579620E-002   0.0000000000000000     
  -1.0710244678196611E-002   3.5471426630839291E-002   0.0000000000000000     
  -8.9858535273366416E-003   1.9098130983957819E-002   0.0000000000000000     
  -1.0130012043351119E-002   2.2885767097857019E-002   0.0000000000000000     
  -1.1260729386696516E-002   2.6921728625916807E-002   0.0000000000000000     
  -1.2378005557372833E-002   3.1206015568137190E-002   0.0000000000000000     
  -1.3481840555380074E-002   3.5738627924518179E-002   0.0000000000000000     
  -1.0909600391356800E-002   1.9391020682513693E-002   0.0000000000000000     
  -1.2296424889996443E-002   2.3198046724726987E-002   0.0000000000000000     
  -1.3663834439000613E-002   2.7247590576020293E-002   0.0000000000000000     
  -1.5011829038369302E-002   3.1539652236393614E-002   0.0000000000000000     
  -1.6340408688102510E-002   3.6074231705846949E-002   0.0000000000000000     
  -1.2899955969838919E-002   1.9748162653263169E-002   0.0000000000000000     
  -1.4539384732176102E-002   2.3579394326567658E-002   0.0000000000000000     
  -1.6150193170709332E-002   2.7644817437929559E-002   0.0000000000000000     
  -1.7732381285438602E-002   3.1944431987348865E-002   0.0000000000000000     
  -1.9285949076363926E-002   3.6478237974825578E-002   0.0000000000000000     
  -1.4956920262782995E-002   2.0169556896206250E-002   0.0000000000000000     
  -1.6858891569890087E-002   2.4029809903379037E-002   0.0000000000000000     
  -1.8719805581822676E-002   2.8113409211644607E-002   0.0000000000000000     
  -2.0539662298580744E-002   3.2420354821002965E-002   0.0000000000000000     
  -2.2318461720164308E-002   3.6950646731454095E-002   0.0000000000000000     
  -1.0710244678196611E-002   3.5471426630839291E-002   0.0000000000000000     
  -1.1572812669874236E-002   4.0230988562257694E-002   0.0000000000000000     
  -1.2412547966317054E-002   4.5202250806694377E-002   0.0000000000000000     
  -1.3229450567525062E-002   5.0385213364149362E-002   0.0000000000000000     
  -1.4023520473498264E-002   5.5779876234622654E-002   0.0000000000000000     
  -1.3481840555380074E-002   3.5738627924518179E-002   0.0000000000000000     
  -1.4563942118752771E-002   4.0500022902797951E-002   0.0000000000000000     
  -1.5616017985525459E-002   4.5470657710714686E-002   0.0000000000000000     
  -1.6638068155698137E-002   5.0650532348268371E-002   0.0000000000000000     
  -1.7630092629270809E-002   5.6039646815459018E-002   0.0000000000000000     
  -1.6340408688102510E-002   3.6074231705846949E-002   0.0000000000000000     
  -1.7641042746632890E-002   4.0833854515911074E-002   0.0000000000000000     
  -1.8905200572393092E-002   4.5801046198116771E-002   0.0000000000000000     
  -2.0132882165383101E-002   5.0975806752464027E-002   0.0000000000000000     
  -2.1324087525602938E-002   5.6358136178952863E-002   0.0000000000000000     
  -1.9285949076363926E-002   3.6478237974825578E-002   0.0000000000000000     
  -2.0804114553514597E-002   4.1232483401597061E-002   0.0000000000000000     
  -2.2280095726919944E-002   4.6193416268900660E-002   0.0000000000000000     
  -2.3713892596579959E-002   5.1361036576736359E-002   0.0000000000000000     
  -2.5105505162494646E-002   5.6735344325104187E-002   0.0000000000000000     
  -2.2318461720164308E-002   3.6950646731454095E-002   0.0000000000000000     
  -2.4053157539397886E-002   4.1695909559855922E-002   0.0000000000000000     
  -2.5740703449106020E-002   4.6647767923066345E-002   0.0000000000000000     
  -2.7381099449288699E-002   5.1806221821085359E-002   0.0000000000000000     
  -2.8974345539945934E-002   5.7171271253912984E-002   0.0000000000000000     
  -1.4023520473498264E-002   5.5779876234622654E-002   0.0000000000000000     
  -1.4795080779179738E-002   6.1372041422071547E-002   0.0000000000000000     
  -1.5544454579512559E-002   6.7147510930453402E-002   0.0000000000000000     
  -1.6271641874496728E-002   7.3106284759768200E-002   0.0000000000000000     
  -1.6976642664132249E-002   7.9248362910015940E-002   0.0000000000000000     
  -1.7630092629270809E-002   5.6039646815459018E-002   0.0000000000000000     
  -1.8593329545177603E-002   6.1624878912827377E-002   0.0000000000000000     
  -1.9529017042352648E-002   6.7393106440914188E-002   0.0000000000000000     
  -2.0437155120795945E-002   7.3344329399719466E-002   0.0000000000000000     
  -2.1317743780507489E-002   7.9478547789243209E-002   0.0000000000000000     
  -2.1324087525602938E-002   5.6358136178952863E-002   0.0000000000000000     
  -2.2480382641493251E-002   6.1935386951481139E-002   0.0000000000000000     
  -2.3603333501494711E-002   6.7694911543946745E-002   0.0000000000000000     
  -2.4692940105607315E-002   7.3636709956349689E-002   0.0000000000000000     
  -2.5749202453831055E-002   7.9760782188689955E-002   0.0000000000000000     
  -2.5105505162494646E-002   5.6735344325104187E-002   0.0000000000000000     
  -2.6456240068126680E-002   6.2303565538032825E-002   0.0000000000000000     
  -2.7767403956938743E-002   6.8052926239551059E-002   0.0000000000000000     
  -2.9038996828930835E-002   7.3983426429658841E-002   0.0000000000000000     
  -3.0271018684102948E-002   8.0095066108356192E-002   0.0000000000000000     
  -2.8974345539945934E-002   5.7171271253912984E-002   0.0000000000000000     
  -3.0520901825077891E-002   6.2729414672482470E-002   0.0000000000000000     
  -3.2021228408684752E-002   6.8467150527727130E-002   0.0000000000000000     
  -3.3475325290766501E-002   7.4384478819646938E-002   0.0000000000000000     
  -3.4883192471323161E-002   8.0481399548241905E-002   0.0000000000000000     
  -1.6976642664132249E-002   7.9248362910015940E-002   0.0000000000000000     
  -1.7655583761081339E-002   8.5563144774300950E-002   0.0000000000000000     
  -1.8304591978006230E-002   9.2040029745727517E-002   0.0000000000000000     
  -1.8923667314906922E-002   9.8679017824295640E-002   0.0000000000000000     
  -1.9512809771783411E-002  0.10548010901000533        0.0000000000000000     
  -2.1317743780507489E-002   7.9478547789243209E-002   0.0000000000000000     
  -2.2166246891725465E-002   8.5785071310919739E-002   0.0000000000000000     
  -2.2978128324688051E-002   9.2253209666183417E-002   0.0000000000000000     
  -2.3753388079395255E-002   9.8882962855034243E-002   0.0000000000000000     
  -2.4492026155847071E-002  0.10567433087747222        0.0000000000000000     
  -2.5749202453831055E-002   7.9760782188689955E-002   0.0000000000000000     
  -2.6767191285181343E-002   8.6056698330315123E-002   0.0000000000000000     
  -2.7741977338673587E-002   9.2514028470572843E-002   0.0000000000000000     
  -2.8673560614307779E-002   9.9132772609463071E-002   0.0000000000000000     
  -2.9561941112083916E-002  0.10591293074698582        0.0000000000000000     
  -3.0271018684102948E-002   8.0095066108356192E-002   0.0000000000000000     
  -3.1458416941448977E-002   8.6378025832487174E-002   0.0000000000000000     
  -3.2596139019962819E-002   9.2822486158895809E-002   0.0000000000000000     
  -3.3684184919644491E-002   9.9428447087582181E-002   0.0000000000000000     
  -3.4722554640493959E-002  0.10619590861854622        0.0000000000000000     
  -3.4883192471323161E-002   8.0481399548241905E-002   0.0000000000000000     
  -3.6239923860528364E-002   8.6749053817435792E-002   0.0000000000000000     
  -3.7540613368555777E-002   9.3178582731152301E-002   0.0000000000000000     
  -3.8785260995405385E-002   9.9769986289391502E-002   0.0000000000000000     
  -3.9973866741077183E-002  0.10652326449215335        0.0000000000000000     
  -1.9512809771783411E-002  0.10548010901000533        0.0000000000000000     
  -2.0076541238732027E-002  0.11242847692877267        0.0000000000000000     
  -2.0619383605849095E-002  0.11950929520651368        0.0000000000000000     
  -2.1141336873134610E-002  0.12672256384322844        0.0000000000000000     
  -2.1642401040588580E-002  0.13406828283891686        0.0000000000000000     
  -2.4492026155847071E-002  0.10567433087747222        0.0000000000000000     
  -2.5198216779599859E-002  0.11261275999215140        0.0000000000000000     
  -2.5876134176209993E-002  0.11968369645772590        0.0000000000000000     
  -2.6525778345677480E-002  0.12688714027419570        0.0000000000000000     
  -2.7147149288002301E-002  0.13422309144156078        0.0000000000000000     
  -2.9561941112083916E-002  0.10591293074698582        0.0000000000000000     
  -3.0411505888494891E-002  0.11283990088538161        0.0000000000000000     
  -3.1226642000033594E-002  0.11989908102689092        0.0000000000000000     
  -3.2007349446700029E-002  0.12709047117151379        0.0000000000000000     
  -3.2753628228494182E-002  0.13441407131925018        0.0000000000000000     
  -3.4722554640493959E-002  0.10619590861854622        0.0000000000000000     
  -3.5716408565417128E-002  0.11310989960846332        0.0000000000000000     
  -3.6670907077319896E-002  0.12015544891400881        0.0000000000000000     
  -3.7586050176202250E-002  0.12733255653518272        0.0000000000000000     
  -3.8461837862064210E-002  0.13464122247198507        0.0000000000000000     
  -3.9973866741077183E-002  0.10652326449215335        0.0000000000000000     
  -4.1112924810366568E-002  0.11342275616139649        0.0000000000000000     
  -4.2208929408068897E-002  0.12045280011907955        0.0000000000000000     
  -4.3261880534184172E-002  0.12761339636520252        0.0000000000000000     
  -4.4271778188712398E-002  0.13490454489976544        0.0000000000000000     
  -2.1642401040588580E-002  0.13406828283891686        0.0000000000000000     
  -2.2114473743722426E-002  0.14153785737472774        0.0000000000000000     
  -2.2549452618047559E-002  0.14912269263180977        0.0000000000000000     
  -2.2947337663563983E-002  0.15682278861016294        0.0000000000000000     
  -2.3308128880271704E-002  0.16463814530978729        0.0000000000000000     
  -2.7147149288002301E-002  0.13422309144156078        0.0000000000000000     
  -2.7731779498478930E-002  0.14168250665973170        0.0000000000000000     
  -2.8271201472401818E-002  0.14925634262861892        0.0000000000000000     
  -2.8765415209770970E-002  0.15694459934822244        0.0000000000000000     
  -2.9214420710586376E-002  0.16474727681854237        0.0000000000000000     
  -3.2753628228494182E-002  0.13441407131925018        0.0000000000000000     
  -3.3456521057065383E-002  0.14186084768507196        0.0000000000000000     
  -3.4107070644062945E-002  0.14942176648395100        0.0000000000000000     
  -3.4705276989486895E-002  0.15709682771588734        0.0000000000000000     
  -3.5251140093337192E-002  0.16488603138088095        0.0000000000000000     
  -3.8461837862064210E-002  0.13464122247198507        0.0000000000000000     
  -3.9288698419481780E-002  0.14207288045074856        0.0000000000000000     
  -4.0057060133030946E-002  0.14961896419780607        0.0000000000000000     
  -4.0766923002711744E-002  0.15727947371315754        0.0000000000000000     
  -4.1418287028524146E-002  0.16505440899680299        0.0000000000000000     
  -4.4271778188712398E-002  0.13490454489976544        0.0000000000000000     
  -4.5228311585728105E-002  0.14231860495676157        0.0000000000000000     
  -4.6121169939305810E-002  0.14984793577018413        0.0000000000000000     
  -4.6950353249445534E-002  0.15749253734003307        0.0000000000000000     
  -4.7715861516147248E-002  0.16525240966630850        0.0000000000000000     
   0.0000000000000000        0.0000000000000000        0.0000000000000000     
  -1.7983915790406656E-003   1.2768944908618130E-003   0.0000000000000000     
  -3.6215193795544314E-003   2.9392528461684394E-003   0.0000000000000000     
  -5.4693834015412963E-003   4.9870750659198795E-003   0.0000000000000000     
  -7.3419836450012623E-003   7.4203611501161343E-003   0.0000000000000000     
   0.0000000000000000        0.0000000000000000        0.0000000000000000     
  -2.0694878848836660E-003   1.3550297437984347E-003   0.0000000000000000     
  -4.1641935633855579E-003   3.0941477261991891E-003   0.0000000000000000     
  -6.2841170355056753E-003   5.2173539472022646E-003   0.0000000000000000     
  -8.4292583012440195E-003   7.7246484068076594E-003   0.0000000000000000     
   0.0000000000000000        0.0000000000000000        0.0000000000000000     
  -2.3401261722543689E-003   1.4590911357528127E-003   0.0000000000000000     
  -4.7202624516213603E-003   3.3000629574998354E-003   0.0000000000000000     
  -7.1404088381009723E-003   5.5229154652410668E-003   0.0000000000000000     
  -9.6005653316932060E-003   8.1276486589765117E-003   0.0000000000000000     
   0.0000000000000000        0.0000000000000000        0.0000000000000000     
  -2.6103064411527746E-003   1.5890786667249464E-003   0.0000000000000000     
  -5.2897260442618379E-003   3.5569985400703765E-003   0.0000000000000000     
  -8.0382588093271898E-003   5.9037596200362920E-003   0.0000000000000000     
  -1.0855904736348827E-002   8.6293619066226922E-003   0.0000000000000000     
   0.0000000000000000        0.0000000000000000        0.0000000000000000     
  -2.8800286915788833E-003   1.7449923367148365E-003   0.0000000000000000     
  -5.8725843413069906E-003   3.8649544739108150E-003   0.0000000000000000     
  -8.9776669491843219E-003   6.3598864115879360E-003   0.0000000000000000     
  -1.2195276515210877E-002   9.2297881497462007E-003   0.0000000000000000     
  -7.3419836450012623E-003   7.4203611501161343E-003   0.0000000000000000     
  -9.2316434492600071E-003   1.0186699396560762E-002   0.0000000000000000     
  -1.1130686153643212E-002   1.3233678103057324E-002   0.0000000000000000     
  -1.3039111758150876E-002   1.6561297269605819E-002   0.0000000000000000     
  -1.4956920262782995E-002   2.0169556896206250E-002   0.0000000000000000     
  -8.4292583012440195E-003   7.7246484068076594E-003   0.0000000000000000     
  -1.0591303438126075E-002   1.0558592692911914E-002   0.0000000000000000     
  -1.2761938523677326E-002   1.3661748393411572E-002   0.0000000000000000     
  -1.4941163557897775E-002   1.7034115508306632E-002   0.0000000000000000     
  -1.7128978540787425E-002   2.0675694037597094E-002   0.0000000000000000     
  -9.6005653316932060E-003   8.1276486589765117E-003   0.0000000000000000     
  -1.2077189663476954E-002   1.1046867314320507E-002   0.0000000000000000     
  -1.4546739564531100E-002   1.4213176206887397E-002   0.0000000000000000     
  -1.7009215034855647E-002   1.7626575336677185E-002   0.0000000000000000     
  -1.9464616074450596E-002   2.1287064703689861E-002   0.0000000000000000     
  -1.0855904736348827E-002   8.6293619066226922E-003   0.0000000000000000     
  -1.3689302125312643E-002   1.1651523260786539E-002   0.0000000000000000     
  -1.6485089276204529E-002   1.4887961543484797E-002   0.0000000000000000     
  -1.9243266189024482E-002   1.8338676754717464E-002   0.0000000000000000     
  -2.1963832863772504E-002   2.2003668894484549E-002   0.0000000000000000     
  -1.2195276515210877E-002   9.2297881497462007E-003   0.0000000000000000     
  -1.5427640823633149E-002   1.2372560532310012E-002   0.0000000000000000     
  -1.8576987658697613E-002   1.5686104403203775E-002   0.0000000000000000     
  -2.1643317020404288E-002   1.9170419762427490E-002   0.0000000000000000     
  -2.4626628908753150E-002   2.2825506609981162E-002   0.0000000000000000     
  -1.4956920262782995E-002   2.0169556896206250E-002   0.0000000000000000     
  -1.6858891569890087E-002   2.4029809903379037E-002   0.0000000000000000     
  -1.8719805581822676E-002   2.8113409211644607E-002   0.0000000000000000     
  -2.0539662298580744E-002   3.2420354821002965E-002   0.0000000000000000     
  -2.2318461720164308E-002   3.6950646731454095E-002   0.0000000000000000     
  -1.7128978540787425E-002   2.0675694037597094E-002   0.0000000000000000     
  -1.9294253935323621E-002   2.4558789813675527E-002   0.0000000000000000     
  -2.1405860204483731E-002   2.8655708668934507E-002   0.0000000000000000     
  -2.3463797348267749E-002   3.2966450603374046E-002   0.0000000000000000     
  -2.5468065366675671E-002   3.7491015616994118E-002   0.0000000000000000     
  -1.9464616074450596E-002   2.1287064703689861E-002   0.0000000000000000     
  -2.1884780360661917E-002   2.5175830415971542E-002   0.0000000000000000     
  -2.4241545570835594E-002   2.9274058581568344E-002   0.0000000000000000     
  -2.6534911704971624E-002   3.3581749200480258E-002   0.0000000000000000     
  -2.8764878763070007E-002   3.8098902272707305E-002   0.0000000000000000     
  -2.1963832863772504E-002   2.2003668894484549E-002   0.0000000000000000     
  -2.4630470845904969E-002   2.5880931710267081E-002   0.0000000000000000     
  -2.7226861680878262E-002   2.9968458949546108E-002   0.0000000000000000     
  -2.9753005368692381E-002   3.4266250612321629E-002   0.0000000000000000     
  -3.2208901909347325E-002   3.8774306698593636E-002   0.0000000000000000     
  -2.4626628908753150E-002   2.2825506609981162E-002   0.0000000000000000     
  -2.7531325391052779E-002   2.6674093696562144E-002   0.0000000000000000     
  -3.0361808534611734E-002   3.0738909772867803E-002   0.0000000000000000     
  -3.3118078339430014E-002   3.5019954838898130E-002   0.0000000000000000     
  -3.5800134805507623E-002   3.9517228894653138E-002   0.0000000000000000     
  -2.2318461720164308E-002   3.6950646731454095E-002   0.0000000000000000     
  -2.4053157539397886E-002   4.1695909559855922E-002   0.0000000000000000     
  -2.5740703449106020E-002   4.6647767923066345E-002   0.0000000000000000     
  -2.7381099449288699E-002   5.1806221821085359E-002   0.0000000000000000     
  -2.8974345539945934E-002   5.7171271253912984E-002   0.0000000000000000     
  -2.5468065366675671E-002   3.7491015616994118E-002   0.0000000000000000     
  -2.7419291863998118E-002   4.2225614370507931E-002   0.0000000000000000     
  -2.9318104444525692E-002   4.7166457524628669E-002   0.0000000000000000     
  -3.1164503108258405E-002   5.2313545079356337E-002   0.0000000000000000     
  -3.2958487855196263E-002   5.7666877034690922E-002   0.0000000000000000     
  -2.8764878763070007E-002   3.8098902272707305E-002   0.0000000000000000     
  -3.0933637687030620E-002   4.2823079213373395E-002   0.0000000000000000     
  -3.3043379418753335E-002   4.7751841437602478E-002   0.0000000000000000     
  -3.5094103958238150E-002   5.2885188945394568E-002   0.0000000000000000     
  -3.7085811305485092E-002   5.8223121736749657E-002   0.0000000000000000     
  -3.2208901909347325E-002   3.8774306698593636E-002   0.0000000000000000     
  -3.4596195008495402E-002   4.3488304088452306E-002   0.0000000000000000     
  -3.6916528371788951E-002   4.8403919661987788E-002   0.0000000000000000     
  -3.9169901999227950E-002   5.3521153419200072E-002   0.0000000000000000     
  -4.1356315890812421E-002   5.8840005360089188E-002   0.0000000000000000     
  -3.5800134805507623E-002   3.9517228894653138E-002   0.0000000000000000     
  -3.8406963828392482E-002   4.4221288995744665E-002   0.0000000000000000     
  -4.0937551303632538E-002   4.9122692197784569E-002   0.0000000000000000     
  -4.3391897231227793E-002   5.4221438500772857E-002   0.0000000000000000     
  -4.5770001611178251E-002   5.9517527904709516E-002   0.0000000000000000     
  -2.8974345539945934E-002   5.7171271253912984E-002   0.0000000000000000     
  -3.0520901825077891E-002   6.2729414672482470E-002   0.0000000000000000     
  -3.2021228408684752E-002   6.8467150527727130E-002   0.0000000000000000     
  -3.3475325290766501E-002   7.4384478819646938E-002   0.0000000000000000     
  -3.4883192471323161E-002   8.0481399548241905E-002   0.0000000000000000     
  -3.2958487855196263E-002   5.7666877034690922E-002   0.0000000000000000     
  -3.4699897052299353E-002   6.3212481336259049E-002   0.0000000000000000     
  -3.6388569066527807E-002   6.8936385929687330E-002   0.0000000000000000     
  -3.8024503897881611E-002   7.4838590814975778E-002   0.0000000000000000     
  -3.9607701546360764E-002   8.0919095992124379E-002   0.0000000000000000     
  -3.7085811305485092E-002   5.8223121736749657E-002   0.0000000000000000     
  -3.9018754889743559E-002   6.3752312510791539E-002   0.0000000000000000     
  -4.0893188140263000E-002   6.9459433966644030E-002   0.0000000000000000     
  -4.2709111057043420E-002   7.5344486104307107E-002   0.0000000000000000     
  -4.4466523640084826E-002   8.1407468923780812E-002   0.0000000000000000     
  -4.1356315890812421E-002   5.8840005360089188E-002   0.0000000000000000     
  -4.3477475337410490E-002   6.4348908196079954E-002   0.0000000000000000     
  -4.5535085629890337E-002   7.0036294638597216E-002   0.0000000000000000     
  -4.7529146768251936E-002   7.5902164687640966E-002   0.0000000000000000     
  -4.9459658752495320E-002   8.1946518343211233E-002   0.0000000000000000     
  -4.5770001611178251E-002   5.9517527904709516E-002   0.0000000000000000     
  -4.8076058395300159E-002   6.5002268392124279E-002   0.0000000000000000     
  -5.0314261535409799E-002   7.0666967945546902E-002   0.0000000000000000     
  -5.2484611031507172E-002   7.6511626564977342E-002   0.0000000000000000     
  -5.4587106883592272E-002   8.2536244250415641E-002   0.0000000000000000     
  -3.4883192471323161E-002   8.0481399548241905E-002   0.0000000000000000     
  -3.6239923860528364E-002   8.6749053817435792E-002   0.0000000000000000     
  -3.7540613368555777E-002   9.3178582731152301E-002   0.0000000000000000     
  -3.8785260995405385E-002   9.9769986289391502E-002   0.0000000000000000     
  -3.9973866741077183E-002  0.10652326449215335        0.0000000000000000     
  -3.9607701546360764E-002   8.0919095992124379E-002   0.0000000000000000     
  -4.1133294922968466E-002   8.7169832737050576E-002   0.0000000000000000     
  -4.2596416938707880E-002   9.3582732325671783E-002   0.0000000000000000     
  -4.3997067593579041E-002  0.10015779475798808        0.0000000000000000     
  -4.5335246887581920E-002  0.10689502003399937        0.0000000000000000     
  -4.4466523640084826E-002   8.1407468923780812E-002   0.0000000000000000     
  -4.6160113009318209E-002   8.7640413043221024E-002   0.0000000000000000     
  -4.7784566284674611E-002   9.4035349080783731E-002   0.0000000000000000     
  -4.9339883466154026E-002  0.10059227703646888        0.0000000000000000     
  -5.0826064553756455E-002  0.10731119691027650        0.0000000000000000     
  -4.9459658752495320E-002   8.1946518343211233E-002   0.0000000000000000     
  -5.1320378119577598E-002   8.8160794735947220E-002   0.0000000000000000     
  -5.3105061406455947E-002   9.4536432996488104E-002   0.0000000000000000     
  -5.4813708613130341E-002  0.10107343312483395        0.0000000000000000     
  -5.6446319739600792E-002  0.10777179512098470        0.0000000000000000     
  -5.4587106883592272E-002   8.2536244250415641E-002   0.0000000000000000     
  -5.6614090253746661E-002   8.8730977815229081E-002   0.0000000000000000     
  -5.8557902304051897E-002   9.5085984072784943E-002   0.0000000000000000     
  -6.0418543034507992E-002  0.10160126302308324        0.0000000000000000     
  -6.2196012445114940E-002  0.10827681466612397        0.0000000000000000     
  -3.9973866741077183E-002  0.10652326449215335        0.0000000000000000     
  -4.1112924810366568E-002  0.11342275616139649        0.0000000000000000     
  -4.2208929408068897E-002  0.12045280011907955        0.0000000000000000     
  -4.3261880534184172E-002  0.12761339636520252        0.0000000000000000     
  -4.4271778188712398E-002  0.13490454489976544        0.0000000000000000     
  -4.5335246887581920E-002  0.10689502003399937        0.0000000000000000     
  -4.6618873331618703E-002  0.11377814960509082        0.0000000000000000     
  -4.7855865436591531E-002  0.12079092492264741        0.0000000000000000     
  -4.9046223202500433E-002  0.12793334598666919        0.0000000000000000     
  -5.0189946629345401E-002  0.13520541279715617        0.0000000000000000     
  -5.0826064553756455E-002  0.10731119691027650        0.0000000000000000     
  -5.2252072837448996E-002  0.11417575900045600        0.0000000000000000     
  -5.3626871607198735E-002  0.12116961360525674        0.0000000000000000     
  -5.4950460863005694E-002  0.12829276072467874        0.0000000000000000     
  -5.6222840604869859E-002  0.13554520035872203        0.0000000000000000     
  -5.6446319739600792E-002  0.10777179512098470        0.0000000000000000     
  -5.8012523327857467E-002  0.11461558434749200        0.0000000000000000     
  -5.9521947919890530E-002  0.12158886616690749        0.0000000000000000     
  -6.0974593515699976E-002  0.12869164057923113        0.0000000000000000     
  -6.2370460115285783E-002  0.13592390758446296        0.0000000000000000     
  -6.2196012445114940E-002  0.10827681466612397        0.0000000000000000     
  -6.3900224802844102E-002  0.11509762564619888        0.0000000000000000     
  -6.5541094374666875E-002  0.12204868260759968        0.0000000000000000     
  -6.7118621160583231E-002  0.12912998555032643        0.0000000000000000     
  -6.8632805160593183E-002  0.13634153447437911        0.0000000000000000     
  -4.4271778188712398E-002  0.13490454489976544        0.0000000000000000     
  -4.5228311585728105E-002  0.14231860495676157        0.0000000000000000     
  -4.6121169939305810E-002  0.14984793577018413        0.0000000000000000     
  -4.6950353249445534E-002  0.15749253734003307        0.0000000000000000     
  -4.7715861516147248E-002  0.16525240966630850        0.0000000000000000     
  -5.0189946629345401E-002  0.13520541279715617        0.0000000000000000     
  -5.1276144452499277E-002  0.14260031894514613        0.0000000000000000     
  -5.2293925407334949E-002  0.15011125802167680        0.0000000000000000     
  -5.3243289493852375E-002  0.15773823002674831        0.0000000000000000     
  -5.4124236712051584E-002  0.16548123496036055        0.0000000000000000     
  -5.6222840604869859E-002  0.13554520035872203        0.0000000000000000     
  -5.7432980916490212E-002  0.14292032015793743        0.0000000000000000     
  -5.8569851881565715E-002  0.15041150777287596        0.0000000000000000     
  -5.9633453500096391E-002  0.15801876320353753        0.0000000000000000     
  -6.0623785772082245E-002  0.16574208644992211        0.0000000000000000     
  -6.2370460115285783E-002  0.13592390758446296        0.0000000000000000     
  -6.3698820977700896E-002  0.14327860859513558        0.0000000000000000     
  -6.4948949361998159E-002  0.15074868502378144        0.0000000000000000     
  -6.6120845268177603E-002  0.15833413687040071        0.0000000000000000     
  -6.7214508696239225E-002  0.16603496413499325        0.0000000000000000     
  -6.8632805160593183E-002  0.13634153447437911        0.0000000000000000     
  -7.0073664636131322E-002  0.14367518425674047        0.0000000000000000     
  -7.1431217848632267E-002  0.15112278977439342        0.0000000000000000     
  -7.2705464798095989E-002  0.15868435102733791        0.0000000000000000     
  -7.3896405484522518E-002  0.16635986801557390        0.0000000000000000     
   0.0000000000000000        0.0000000000000000        0.0000000000000000     
  -2.8800286915788833E-003   1.7449923367148365E-003   0.0000000000000000     
  -5.8725843413069906E-003   3.8649544739108150E-003   0.0000000000000000     
  -8.9776669491843219E-003   6.3598864115879360E-003   0.0000000000000000     
  -1.2195276515210877E-002   9.2297881497462007E-003   0.0000000000000000     
   0.0000000000000000        0.0000000000000000        0.0000000000000000     
  -3.2831417736059621E-003   1.9995067063934922E-003   0.0000000000000000     
  -6.6768333592906581E-003   4.3312617205092246E-003   0.0000000000000000     
  -1.0181074757054088E-002   6.9952650423472000E-003   0.0000000000000000     
  -1.3795865966896251E-002   9.9915166719074140E-003   0.0000000000000000     
   0.0000000000000000        0.0000000000000000        0.0000000000000000     
  -3.9534945373072804E-003   2.4252963364319239E-003   0.0000000000000000     
  -7.9104691147466790E-003   5.0632512413536831E-003   0.0000000000000000     
  -1.1870923732318199E-002   7.9138647147652796E-003   0.0000000000000000     
  -1.5834858390021835E-002   1.0977136756666712E-002   0.0000000000000000     
   0.0000000000000000        0.0000000000000000        0.0000000000000000     
  -4.8910869826828372E-003   3.0223612268301323E-003   0.0000000000000000     
  -9.5734916076750561E-003   6.0609230364441907E-003   0.0000000000000000     
  -1.4047213874976653E-002   9.1156854288421754E-003   0.0000000000000000     
  -1.8312253784587635E-002   1.2186648404024088E-002   0.0000000000000000     
   0.0000000000000000        0.0000000000000000        0.0000000000000000     
  -6.0959191097326336E-003   3.7907013775881158E-003   0.0000000000000000     
  -1.1665900838075784E-002   7.3242771057807458E-003   0.0000000000000000     
  -1.6709945185029454E-002   1.0600727184577890E-002   0.0000000000000000     
  -2.1228052150593636E-002   1.3620051613979549E-002   0.0000000000000000     
  -1.2195276515210877E-002   9.2297881497462007E-003   0.0000000000000000     
  -1.5427640823633149E-002   1.2372560532310012E-002   0.0000000000000000     
  -1.8576987658697613E-002   1.5686104403203775E-002   0.0000000000000000     
  -2.1643317020404288E-002   1.9170419762427490E-002   0.0000000000000000     
  -2.4626628908753150E-002   2.2825506609981162E-002   0.0000000000000000     
  -1.3795865966896251E-002   9.9915166719074140E-003   0.0000000000000000     
  -1.7404064088947423E-002   1.3222010000536591E-002   0.0000000000000000     
  -2.0888526223337887E-002   1.6588738419581448E-002   0.0000000000000000     
  -2.4249252370067635E-002   2.0091701929041989E-002   0.0000000000000000     
  -2.7486242529136676E-002   2.3730900528918214E-002   0.0000000000000000     
  -1.5834858390021835E-002   1.0977136756666712E-002   0.0000000000000000     
  -1.9730430251764443E-002   1.4211902537111942E-002   0.0000000000000000     
  -2.3485796481452877E-002   1.7576997226154936E-002   0.0000000000000000     
  -2.7100957079087138E-002   2.1072420823795693E-002   0.0000000000000000     
  -3.0575912044667215E-002   2.4698173330034216E-002   0.0000000000000000     
  -1.8312253784587635E-002   1.2186648404024088E-002   0.0000000000000000     
  -2.2406739312084197E-002   1.5342238142036061E-002   0.0000000000000000     
  -2.6368798433042583E-002   1.8650880822924234E-002   0.0000000000000000     
  -3.0198431147462772E-002   2.2112576446688601E-002   0.0000000000000000     
  -3.3895637455344775E-002   2.5727325013329170E-002   0.0000000000000000     
  -2.1228052150593636E-002   1.3620051613979549E-002   0.0000000000000000     
  -2.5432991269906700E-002   1.6613016815308957E-002   0.0000000000000000     
  -2.9537532078107005E-002   1.9810389209889347E-002   0.0000000000000000     
  -3.3541674575194552E-002   2.3212168797720718E-002   0.0000000000000000     
  -3.7445418761169344E-002   2.6818355578803077E-002   0.0000000000000000     
  -2.4626628908753150E-002   2.2825506609981162E-002   0.0000000000000000     
  -2.7531325391052779E-002   2.6674093696562144E-002   0.0000000000000000     
  -3.0361808534611734E-002   3.0738909772867803E-002   0.0000000000000000     
  -3.3118078339430014E-002   3.5019954838898130E-002   0.0000000000000000     
  -3.5800134805507623E-002   3.9517228894653138E-002   0.0000000000000000     
  -2.7486242529136676E-002   2.3730900528918214E-002   0.0000000000000000     
  -3.0622773748257896E-002   2.7548849994520275E-002   0.0000000000000000     
  -3.3682123075144184E-002   3.1588066101158330E-002   0.0000000000000000     
  -3.6664290509795548E-002   3.5848548848832387E-002   0.0000000000000000     
  -3.9569276052211978E-002   4.0330298237542438E-002   0.0000000000000000     
  -3.0575912044667215E-002   2.4698173330034216E-002   0.0000000000000000     
  -3.3940245669672860E-002   2.8498734223805014E-002   0.0000000000000000     
  -3.7223542245583788E-002   3.2518582984042622E-002   0.0000000000000000     
  -4.0425801772400009E-002   3.6757719610747017E-002   0.0000000000000000     
  -4.3547024250121504E-002   4.1216144103918204E-002   0.0000000000000000     
  -3.3895637455344775E-002   2.5727325013329170E-002   0.0000000000000000     
  -3.7483741155297672E-002   2.9523746384416370E-002   0.0000000000000000     
  -4.0986066045930532E-002   3.3530460421520657E-002   0.0000000000000000     
  -4.4402612127243377E-002   3.7747467124642012E-002   0.0000000000000000     
  -4.7733379399236185E-002   4.2174766493780422E-002   0.0000000000000000     
  -3.7445418761169344E-002   2.6818355578803077E-002   0.0000000000000000     
  -4.1253260205132321E-002   3.0623886476354337E-002   0.0000000000000000     
  -4.4969694476184430E-002   3.4623698413592432E-002   0.0000000000000000     
  -4.8594721574325664E-002   3.8817791390517352E-002   0.0000000000000000     
  -5.2128341499556030E-002   4.3206165407129113E-002   0.0000000000000000     
  -3.5800134805507623E-002   3.9517228894653138E-002   0.0000000000000000     
  -3.8406963828392482E-002   4.4221288995744665E-002   0.0000000000000000     
  -4.0937551303632538E-002   4.9122692197784569E-002   0.0000000000000000     
  -4.3391897231227793E-002   5.4221438500772857E-002   0.0000000000000000     
  -4.5770001611178251E-002   5.9517527904709516E-002   0.0000000000000000     
  -3.9569276052211978E-002   4.0330298237542438E-002   0.0000000000000000     
  -4.2393139005748884E-002   4.5019726100127673E-002   0.0000000000000000     
  -4.5131938673761654E-002   4.9903244269427292E-002   0.0000000000000000     
  -4.7785675056250296E-002   5.4980852745441261E-002   0.0000000000000000     
  -5.0354348153214802E-002   6.0252551528169621E-002   0.0000000000000000     
  -4.3547024250121504E-002   4.1216144103918204E-002   0.0000000000000000     
  -4.6581915399591667E-002   4.5881307566478548E-002   0.0000000000000000     
  -4.9525180941653847E-002   5.0740661101350372E-002   0.0000000000000000     
  -5.2376820876308058E-002   5.5794204708533697E-002   0.0000000000000000     
  -5.5136835203554280E-002   6.1041938388028502E-002   0.0000000000000000     
  -4.7733379399236185E-002   4.2174766493780422E-002   0.0000000000000000     
  -5.0973293009920817E-002   4.6806033394797254E-002   0.0000000000000000     
  -5.4117278107309118E-002   5.1634942693553822E-002   0.0000000000000000     
  -5.7165334691401087E-002   5.6661494390050117E-002   0.0000000000000000     
  -6.0117462762196719E-002   6.1885688484286161E-002   0.0000000000000000     
  -5.2128341499556030E-002   4.3206165407129113E-002   0.0000000000000000     
  -5.5567271836736348E-002   4.7793903585083834E-002   0.0000000000000000     
  -5.8908230170727473E-002   5.2586089046037642E-002   0.0000000000000000     
  -6.2151216501529383E-002   5.7582721789990562E-002   0.0000000000000000     
  -6.5296230829142099E-002   6.2783801816942569E-002   0.0000000000000000     
  -4.5770001611178251E-002   5.9517527904709516E-002   0.0000000000000000     
  -4.8076058395300159E-002   6.5002268392124279E-002   0.0000000000000000     
  -5.0314261535409799E-002   7.0666967945546902E-002   0.0000000000000000     
  -5.2484611031507172E-002   7.6511626564977342E-002   0.0000000000000000     
  -5.4587106883592272E-002   8.2536244250415641E-002   0.0000000000000000     
  -5.0354348153214802E-002   6.0252551528169621E-002   0.0000000000000000     
  -5.2844545163419111E-002   6.5711877735480290E-002   0.0000000000000000     
  -5.5262853285627155E-002   7.1352368485241180E-002   0.0000000000000000     
  -5.7609272519838918E-002   7.7174023777452305E-002   0.0000000000000000     
  -5.9883802866054443E-002   8.3176843612113679E-002   0.0000000000000000     
  -5.5136835203554280E-002   6.1041938388028502E-002   0.0000000000000000     
  -5.7812976741773867E-002   6.6477220862703704E-002   0.0000000000000000     
  -6.0412998309348112E-002   7.2093410855428183E-002   0.0000000000000000     
  -6.2936899906277016E-002   7.7890508366201927E-002   0.0000000000000000     
  -6.5384681532560593E-002   8.3868513395024949E-002   0.0000000000000000     
  -6.0117462762196719E-002   6.1885688484286161E-002   0.0000000000000000     
  -6.2981353130364459E-002   6.7298297773794535E-002   0.0000000000000000     
  -6.5764696606572692E-002   7.2890095056107884E-002   0.0000000000000000     
  -6.8467493190821460E-002   7.8661080331226207E-002   0.0000000000000000     
  -7.1089742883110735E-002   8.4611253599149505E-002   0.0000000000000000     
  -6.5296230829142099E-002   6.2783801816942569E-002   0.0000000000000000     
  -6.8349674329190840E-002   6.8175108468752785E-002   0.0000000000000000     
  -7.1317948177300888E-002   7.3742421087280310E-002   0.0000000000000000     
  -7.4201052373472215E-002   7.9485739672525160E-002   0.0000000000000000     
  -7.6998986917704848E-002   8.5405064224487320E-002   0.0000000000000000     
  -5.4587106883592272E-002   8.2536244250415641E-002   0.0000000000000000     
  -5.6614090253746661E-002   8.8730977815229081E-002   0.0000000000000000     
  -5.8557902304051897E-002   9.5085984072784943E-002   0.0000000000000000     
  -6.0418543034507992E-002  0.10160126302308324        0.0000000000000000     
  -6.2196012445114940E-002  0.10827681466612397        0.0000000000000000     
  -5.9883802866054443E-002   8.3176843612113679E-002   0.0000000000000000     
  -6.2077190698330051E-002   8.9349942690182524E-002   0.0000000000000000     
  -6.4180182390722110E-002   9.5682435712616115E-002   0.0000000000000000     
  -6.6192777943230655E-002  0.10217432267941444        0.0000000000000000     
  -6.8114977355855644E-002  0.10882560359057747        0.0000000000000000     
  -6.5384681532560593E-002   8.3868513395024949E-002   0.0000000000000000     
  -6.7745620739832452E-002   9.0016669769923410E-002   0.0000000000000000     
  -7.0008995079726272E-002   9.6324221318923473E-002   0.0000000000000000     
  -7.2174804552241997E-002  0.10279116804202514        0.0000000000000000     
  -7.4243049157379670E-002  0.10941750993922836        0.0000000000000000     
  -7.1089742883110735E-002   8.4611253599149505E-002   0.0000000000000000     
  -7.3619380378253912E-002   9.0731159054451796E-002   0.0000000000000000     
  -7.6044340371064334E-002   9.7011340891707071E-002   0.0000000000000000     
  -7.8364622861542041E-002  0.10345179911091534        0.0000000000000000     
  -8.0580227849687006E-002  0.11005253371207660        0.0000000000000000     
  -7.6998986917704848E-002   8.5405064224487320E-002   0.0000000000000000     
  -7.9698469613594364E-002   9.1493410543767612E-002   0.0000000000000000     
  -8.2286218264736338E-002   9.7743794430966868E-002   0.0000000000000000     
  -8.4762232871130758E-002  0.10415621588608509        0.0000000000000000     
  -8.7126513432777650E-002  0.11073067490912228        0.0000000000000000     
  -6.2196012445114940E-002  0.10827681466612397        0.0000000000000000     
  -6.3900224802844102E-002  0.11509762564619888        0.0000000000000000     
  -6.5541094374666875E-002  0.12204868260759968        0.0000000000000000     
  -6.7118621160583231E-002  0.12912998555032643        0.0000000000000000     
  -6.8632805160593183E-002  0.13634153447437911        0.0000000000000000     
  -6.8114977355855644E-002  0.10882560359057747        0.0000000000000000     
  -6.9957175276570360E-002  0.11562208742694002        0.0000000000000000     
  -7.1729766353348032E-002  0.12254958316933685        0.0000000000000000     
  -7.3432750586188714E-002  0.12960809081776797        0.0000000000000000     
  -7.5066127975092337E-002  0.13679761037223334        0.0000000000000000     
  -7.4243049157379670E-002  0.10941750993922836        0.0000000000000000     
  -7.6225372763197630E-002  0.11618917422007891        0.0000000000000000     
  -7.8133419237754270E-002  0.12309208809412249        0.0000000000000000     
  -7.9967188581049578E-002  0.13012625156135910        0.0000000000000000     
  -8.1726680793083539E-002  0.13729166462178879        0.0000000000000000     
  -8.0580227849687006E-002  0.11005253371207660        0.0000000000000000     
  -8.2704817262725924E-002  0.11679888602561551        0.0000000000000000     
  -8.4752053027885535E-002  0.12367619738195659        0.0000000000000000     
  -8.6721935145165824E-002  0.13068446778109993        0.0000000000000000     
  -8.8614463614566791E-002  0.13782369722304544        0.0000000000000000     
  -8.7126513432777650E-002  0.11073067490912228        0.0000000000000000     
  -8.9395508775155272E-002  0.11745122284354982        0.0000000000000000     
  -9.1585667723741895E-002  0.12430191103283919        0.0000000000000000     
  -9.3696990278537520E-002  0.13128273947699032        0.0000000000000000     
  -9.5729476439542119E-002  0.13839370817600327        0.0000000000000000     
  -6.8632805160593183E-002  0.13634153447437911        0.0000000000000000     
  -7.0073664636131322E-002  0.14367518425674047        0.0000000000000000     
  -7.1431217848632267E-002  0.15112278977439342        0.0000000000000000     
  -7.2705464798095989E-002  0.15868435102733791        0.0000000000000000     
  -7.3896405484522518E-002  0.16635986801557390        0.0000000000000000     
  -7.5066127975092337E-002  0.13679761037223334        0.0000000000000000     
  -7.6620376081167008E-002  0.14410890605158388        0.0000000000000000     
  -7.8085972465520737E-002  0.15153274207467055        0.0000000000000000     
  -7.9462917128153593E-002  0.15906911844149324        0.0000000000000000     
  -8.0751210069065521E-002  0.16671803515205197        0.0000000000000000     
  -8.1726680793083539E-002  0.13729166462178879        0.0000000000000000     
  -8.3401819502193386E-002  0.14457863288849759        0.0000000000000000     
  -8.4982528336716351E-002  0.15197746197457165        0.0000000000000000     
  -8.6468807296652420E-002  0.15948815188001086        0.0000000000000000     
  -8.7860656382001592E-002  0.16711070260481534        0.0000000000000000     
  -8.8614463614566791E-002  0.13782369722304544        0.0000000000000000     
  -9.0417994899210527E-002  0.14508436476748157        0.0000000000000000     
  -9.2120885462219082E-002  0.15245694947409669        0.0000000000000000     
  -9.3723135303592497E-002  0.15994145134289084        0.0000000000000000     
  -9.5224744423330732E-002  0.16753787037386397        0.0000000000000000     
  -9.5729476439542119E-002  0.13839370817600327        0.0000000000000000     
  -9.7668902272218389E-002  0.14562610168853579        0.0000000000000000     
  -9.9501043842028944E-002  0.15297120457324576        0.0000000000000000     
 -0.10122590114897380       0.16042901683013314        0.0000000000000000     
 -0.10284347419305297       0.16799953845919791        0.0000000000000000     
 </DataArray>
 <DataArray  type="Float64" Name="stress" NumberOfComponents="3" format="ascii">
   13416554480.028467        4024966344.0085402        2894225872.4476981     
   11766344618.402225        1890266046.1165221        1715953170.4584868     
   10313468783.940350        413345838.77239466        810764532.44586837     
   9057926976.6428452       -405794278.02383995        178659958.40984398     
   7999719196.5097046       -567154304.27218628       -180360551.64958671     
   10539804472.692524        3161941341.8077569        2225915767.6972938     
   9667379441.2483368        1589424992.8607938        1446830202.0906920     
   8943633371.0689583        512505181.46319294        863221838.27560341     
   8368566262.1543894       -68818092.385045528        475090676.25202698     
   7942178114.5046272       -154544828.68392420        282436716.01996386     
   8337767772.6655254        2501330331.7996578        1712467976.9871852     
   8021393679.4460182        1424477764.2105372        1275805304.2137086     
   7805043481.5917635        681038181.17224979        957012971.04666388     
   7688717179.1027594        271011582.68479633        756090977.48605072     
   7672414771.9790020        194397968.74817467        673039323.53187144     
   6810444379.9474726        2043133313.9842417        1353882500.3173726     
   6828387332.9952755        1395424360.1657526        1202878476.8275352     
   6897699115.5087681        918944837.89956737        1092137930.7590494     
   7018379727.4879560        613694747.18568730        1021660862.1119150     
   7190429168.9328318        479674088.02410936        991447270.88613248     
   5957834294.5383635        1787350288.3615091        1150159337.6878560     
   6088360401.8961020        1502264780.7264395        1228049719.9321728     
   6221600272.8199739        1226225151.6451445        1268596717.4127610     
   6357553907.3099766        959231401.11762464        1271800330.1296198     
   6496221305.3661127        701283529.14387965        1237660558.0827496     
   7999719196.5097046       -567154304.27218628       -180360551.64958671     
   7917235836.2317190       -199549647.44983482       -78317249.443593204     
   7793185936.9965048        29499879.515084743       -8878892.7496060897     
   7627569498.8040562        119994276.62255526        27954518.432373911     
   7420386521.6543770        71933543.872594357        32182984.102341115     
   7942178114.5046272       -154544828.68392420        282436716.01996386     
   7739298846.6380529        16719946.904290676        281232517.19566023     
   7512975022.7498398        109836202.42036819        265330230.63848180     
   7263206642.8399849        124803937.86430693        234729856.34843209     
   6989993706.9084835        61623153.236104488        189431394.32550746     
   7672414771.9790020        194397968.74817467        673039323.53187144     
   7400302047.3213692        184671598.34150743        589729937.10212219     
   7122866749.5776882        157203317.64800501        509629320.71863580     
   6840108878.7479544        111993126.66766167        432737474.38141435     
   6552028434.8321695        49041025.400486469        359054398.09045225     
   7190429168.9328318        479674088.02410936        991447270.88613248     
   6900245438.2816715        304305306.86181998        847175010.27579474     
   6622861117.4800539        171601225.19799685        724018377.49085605     
   6358276206.5279732        81561843.032634974        621977372.53131497     
   6106490705.4254332        34187160.365739584        541051995.39717305     
   6496221305.3661127        701283529.14387965        1237660558.0827496     
   6239129019.5189581        375621072.46522975        1053567736.7166791     
   6012958126.4569340        153029925.07034206        908497400.95514321     
   5817708626.1800394        33510086.959224463        802449550.79814041     
   5653380518.6882725        17061558.131868362        735424186.24567187     
   7420386521.6543770        71933543.872594357        32182984.102341115     
   7217568295.9534588       -19121301.828945637        14873047.718117781     
   7027105484.9990826       -68991431.708661556        2046802.6099321404     
   6848998088.7912626       -77676845.766538143       -6295751.2222230146     
   6683246107.3299837       -45177544.002599239       -10154613.778342079     
   6989993706.9084835        61623153.236104488        189431394.32550746     
   6807436921.2050190        2084913.8971743584        180967706.84625933     
   6632794383.9765139       -31072497.191891193        176332988.15918511     
   6466066095.2229662       -37849080.031096935        175527238.26428422     
   6307252054.9443789       -18244834.620432377        178550457.16156477     
   6552028434.8321695        49041025.400486469        359054398.09045225     
   6387862453.4579992        20458201.723722696        354255598.86598241     
   6227169554.2871990        3452318.7248523235        352631045.94983417     
   6069949737.3197708       -1976623.5961148739        354180739.34200346     
   5916203002.5557060        4171374.7608077526        358904679.04249418     
   6106490705.4254332        34187160.365739584        541051995.39717305     
   5958844892.7123976        35998561.650692940        534736723.77729541     
   5810230995.9311409        34583016.041578531        530940975.98188317     
   5660649015.0816593        29940523.538388491        529664752.01093525     
   5510098950.1639595        22071084.141125441        530908051.86445057     
   5653380518.6882725        17061558.131868362        735424186.24567187     
   5520384238.9682083        48705993.678089857        722411081.58020067     
   5381978708.9083328        62319594.758273840        711262778.25533569     
   5238163928.5086451        57902361.372418165        701979276.27107739     
   5088939897.7691498        35454293.520529270        694560575.62742722     
   6683246107.3299837       -45177544.002599239       -10154613.778342079     
   6507136613.8875685       -5188368.7101399899       -3926854.6151393764     
   6325658822.4828959        16906480.041460752        2975697.3236342384     
   6138812733.1159763        21107002.252234936        10553042.037982928     
   5946598345.7867985        7413197.9221558571        18805179.527899329     
   6307252054.9443789       -18244834.620432377        178550457.16156477     
   6129357259.8958702        2715000.0764687061        175318066.18658766     
   5948216226.7353935        12854041.066807747        174428959.79955488     
   5763828955.4629612        12172288.350629807        175883138.00046492     
   5576195446.0785580        669741.92787671089        179680600.78932536     
   5916203002.5557060        4171374.7608077526        358904679.04249418     
   5741290025.3650227        7532004.7013216019        348687874.42134511     
   5565252869.9126701        7145373.7695851326        342482846.20050848     
   5388091536.1986456        3011481.9656145573        340289594.37999165     
   5209806024.2229414       -4869670.7106101513        342108118.95979506     
   5510098950.1639595        22071084.141125441        530908051.86445057     
   5342934910.2950373        9262645.1644353867        516182570.08912659     
   5176768752.0147257       -219521.85020232201        507137356.52649617     
   5011600475.3230352       -6375416.9027824402        503772411.17655796     
   4847430080.2199574       -9205039.9933097363        506087734.03931445     
   5088939897.7691498        35454293.520529270        694560575.62742722     
   4934291914.6859035        7906921.4658088684        677802153.18993914     
   4782763873.0415640       -9240645.7925560474        668392490.77751744     
   4634355772.8361301       -15988408.254565239        666331588.39016044     
   4489067614.0696058       -12336365.920216560        671619446.02787256     
   5946598345.7867985        7413197.9221558571        18805179.527899329     
   5779949851.1258230       -2996011.7096757889        8134915.2948333276     
   5615778331.5025539       -5148637.8824884892        950691.18031638931     
   5454083786.9169979        955319.40374088287       -2747492.8156530885     
   5294866217.3691511        15315860.149003267       -2959636.6930818316     
   5576195446.0785580        669741.92787671089        179680600.78932536     
   5420167978.3754778       -3921708.4713113308        172692548.03905872     
   5265691770.8849125       -3342291.4954695702        169045916.08417651     
   5112766823.6068468        2407992.8553783894        168740704.92467180     
   4961393136.5412865        13329144.581240654        171776914.56054991     
   5209806024.2229414       -4869670.7106101513        342108118.95979506     
   5063986385.4115896       -3767321.2969887257        337722277.06292325     
   4918792291.9875402       -579820.59236907959        336533236.63826531     
   4774223743.9507914        4692831.4032485485        338540997.68582863     
   4630280741.3013353        12050634.689861298        343745560.20561200     
   4847430080.2199574       -9205039.9933097363        506087734.03931445     
   4711405072.2341509       -2532850.1867454052        503224102.36642241     
   4575079894.8104362        3138774.8268115520        503412652.84259015     
   4438454547.9488163        7809835.0473339558        506653385.46780944     
   4301529031.6492891        11480330.474845648        512946300.24208832     
   4489067614.0696058       -12336365.920216560        671619446.02787256     
   4362424038.8431568       -218295.14056158066        669198023.94956398     
   4234554579.3536024        7813494.7620737553        669684164.69714463     
   4105459235.6009283        11759003.787651062        673077868.27061546     
   3975138007.5851507        11618231.936208963        679379134.66998374     
   5294866217.3691511        15315860.149003267       -2959636.6930818316     
   5080142549.4988289        14668188.845047951       -9148748.7387482002     
   4864025610.4023666        9376280.1206223965       -10147586.628193125     
   4646515400.0797510       -559866.02432084084       -5956150.3614114793     
   4427611918.5309906       -15140249.589730978        3425560.0615813625     
   4961393136.5412865        13329144.581240654        171776914.56054991     
   4759464005.9817810        10168058.881404400        165134185.45678744     
   4556698601.3344660        4219392.8888664246        163723152.68108639     
   4353096922.5993519       -4516853.3963317871        167543816.23345798     
   4148658969.7764339       -16040679.974219799        176596176.11390060     
   4630280741.3013353        12050634.689861298        343745560.20561200     
   4441264497.1150684        6411639.3128244877        337299044.03847039     
   4251968975.9793515       -158279.22906637192        336125646.37124813     
   4062394177.8941827       -7659120.9357867241        340225367.20396012     
   3872540102.8595524       -16090885.807376146        349598206.53659689     
   4301529031.6492891        11480330.474845648        512946300.24208832     
   4125544022.8987112        3398930.1393663883        507345827.00630867     
   3949836734.3370261       -3756736.2331426144        507059894.44231331     
   3774407165.9642310       -9986668.6426835060        512088502.55009395     
   3599255317.7803268       -15290867.089253902        522431651.32966352     
   3975138007.5851507        11618231.936208963        679379134.66998374     
   3812302583.3327045        1129931.3610217571        675274534.36030972     
   3650301876.4074907       -6575978.1233880520        676525896.89426506     
   3489135886.8095202       -11499496.516988039        683133222.27185762     
   3328804614.5387807       -13640623.819817781        695096510.49309111     
   4427611918.5309906       -15140249.589730978        3425560.0615813625     
   4277764952.8597870       -10077216.080051899       -7899290.7308412110     
   4128603431.3676057       -2729368.6403071880       -18717660.004989695     
   3980127354.0544405        6903292.7294831276       -29029547.760851279     
   3832336720.9202833        18820768.029323339       -38834953.998451591     
   4148658969.7764339       -16040679.974219799        176596176.11390060     
   4001628754.3120170       -11078052.051473141        167456366.50303519     
   3854949626.0956583       -4945133.3018720150        159999976.82224828     
   3708621585.1273670        2358076.2746169567        154227007.07153893     
   3562644631.4071298        10831576.677966356        150137457.25092405     
   3872540102.8595524       -16090885.807376146        349598206.53659689     
   3731689318.7785101       -10219859.118617535        342253355.02116060     
   3590855265.0145764       -4293064.7061684132        337768861.84762287     
   3450037941.5677500        1689497.4299745560        336144727.01597774     
   3309237348.4380364        7727827.2898240089        337380950.52622414     
   3599255317.7803268       -15290867.089253902        522431651.32966352     
   3467946646.2592669       -7502637.2814784050        516491674.82354814     
   3336320348.1243539       -773162.85320520401        514588995.07114249     
   3204376423.3755999        4897556.1955991983        516723612.07244074     
   3072114872.0129938        9509519.8648989201        522895525.82743180     
   3328804614.5387807       -13640623.819817781        695096510.49309111     
   3210400736.7542896       -2926386.5400646925        690171325.91019678     
   3091344875.4249940        5614572.2570184469        690460376.49280441     
   2971637030.5509009        11982252.571432590        695963662.24092722     
   2851277202.1320095        16176654.403184533        706681183.15456545     
   3832336720.9202833        18820768.029323339       -38834953.998451591     
   3624499768.8566775        12650198.814373255       -58726271.885342844     
   3415928483.2716889        4031851.1948022842       -73551825.871549264     
   3206622864.1653123       -7034274.8294135332       -83311615.957100302     
   2996582911.5375099       -20548179.258335590       -88005642.141966492     
   3562644631.4071298        10831576.677966356        150137457.25092405     
   3367575781.7989683        4702684.2827763557        135201040.01416609     
   3172238378.5478988       -2321386.9221031666        125010858.42250890     
   2976632421.6539388       -10240636.936646938        119566912.47595249     
   2780757911.1170588       -19055065.760879278        118869202.17452250     
   3309237348.4380364        7727827.2898240089        337380950.52622414     
   3126023663.4122562        1366730.3524516821        327942843.79783446     
   2943007204.6220722       -4336945.7996253967        322931444.45899004     
   2760187972.0674858       -9383201.1663774252        322346752.50967723     
   2577565965.7484765       -13772035.747849226        326188767.94990867     
   3072114872.0129938        9509519.8648989201        522895525.82743180     
   2899843413.6965556        2642337.0234171152        519499139.46566373     
   2728234961.4942117       -2014825.4377547503        520209932.23787117     
   2557289515.4059381       -4461967.5186630487        525027904.14403737     
   2387007075.4317770       -4699089.2192474604        533953055.18419206     
   2851277202.1320095        16176654.403184533        706681183.15456545     
   2689035032.6518660        8529504.2956991196        709869927.01765335     
   2527921649.1643047        4644974.1634918451        716846321.75915015     
   2367937051.6693177        4523064.0065521002        727610367.37906015     
   2209081240.1669259        8163773.8248955011        742162063.87736750     
   5957834294.5383635        1787350288.3615091        1150159337.6878560     
   6088360401.8961020        1502264780.7264395        1228049719.9321728     
   6221600272.8199739        1226225151.6451445        1268596717.4127610     
   6357553907.3099766        959231401.11762464        1271800330.1296198     
   6496221305.3661127        701283529.14387965        1237660558.0827496     
   5434549155.5518112        1630364746.6655433        1033593646.8112776     
   5489887314.9799442        1372501041.5670207        1114004684.5640135     
   5547412655.7576733        1121927940.9671483        1167640269.6261938     
   5607125177.8849974        878645444.86592662        1194500401.9978199     
   5669024881.3619156        642653553.26335454        1194585081.6788907     
   4895200602.1014223        1468560180.6304266        936480585.40028012     
   4905544905.2375908        1246976505.5597432        1018797932.7421411     
   4917549807.5068169        1030928160.9325857        1084907759.4666212     
   4931215308.9091015        820415146.74895322        1134810065.5737202     
   4946541409.4444427        615437463.00884688        1168504851.0634382     
   4339788634.1871977        1301936590.2561593        858820153.45486379     
   4335333172.6690416        1125691172.7046072        942429464.46655643     
   4332011728.0674057        953225811.54145598        1020399186.9340421     
   4329824300.3822889        784540506.76670539        1092729320.8573205     
   4328770889.6136932        619635258.38035643        1159419866.2363925     
   3768313251.8091378        1130493975.5427413        800612350.97502792     
   3779252117.2742963        1008645043.0016123        884899279.73725891     
   3790798417.4394369        888820892.79375958        974114552.02845657     
   3802952152.3045621        771021524.91918302        1068258167.8486211     
   3815713321.8696675        655246939.37788224        1167330127.1977522     
   6496221305.3661127        701283529.14387965        1237660558.0827496     
   6239129019.5189581        375621072.46522975        1053567736.7166791     
   6012958126.4569340        153029925.07034206        908497400.95514321     
   5817708626.1800394        33510086.959224463        802449550.79814041     
   5653380518.6882725        17061558.131868362        735424186.24567187     
   5669024881.3619156        642653553.26335454        1194585081.6788907     
   5518920342.3111429        383010613.41781473        1073777899.0690284     
   5392969429.2835283        203879760.31612968        981011224.50574601     
   5291172142.2790651        105260993.95829701        916285057.98904490     
   5213528481.2977629        87154314.344320297        879599399.51892173     
   4946541409.4444427        615437463.00884688        1168504851.0634382     
   4872047538.4530382        412400916.37531495        1103087579.3208170     
   4814939526.7228155        267317233.94572425        1054728838.0668210     
   4775217374.2537756        180186415.72007656        1023428627.3014497     
   4752881081.0459185        151008461.69837070        1009186947.0247030     
   4328770889.6136932        619635258.38035643        1159419866.2363925     
   4298510607.9446440        463791981.33772683        1141496777.4720416     
   4278868418.7748022        343342345.95912921        1129650241.6383631     
   4269844322.1041698        258286352.24456048        1123880258.7353530     
   4271438317.9327483        208624000.19402266        1124186828.7630131     
   3815713321.8696675        655246939.37788224        1167330127.1977522     
   3798309550.7859597        537183808.30505276        1189005493.5227048     
   3784756105.4394855        431955096.35634196        1205775435.2203720     
   3775052985.8302474        339560803.53174984        1217639952.2907560     
   3769200191.9582458        260000929.83127761        1224599044.7338543     
   5653380518.6882725        17061558.131868362        735424186.24567187     
   5520384238.9682083        48705993.678089857        722411081.58020067     
   5381978708.9083328        62319594.758273840        711262778.25533569     
   5238163928.5086451        57902361.372418165        701979276.27107739     
   5088939897.7691498        35454293.520529270        694560575.62742722     
   5213528481.2977629        87154314.344320297        879599399.51892173     
   5078030593.0126095        85076428.530766249        855967393.69750273     
   4940391207.4899578        75860218.592216253        836328346.41458714     
   4800610324.7298088        59505684.528663635        820682257.67017555     
   4658687944.7321568        36012826.340118408        809029127.46426904     
   4752881081.0459185        151008461.69837070        1009186947.0247030     
   4620962033.3325291        117032389.26609683        978748418.66669762     
   4490169241.4839506        86810503.049865723        954431006.04509604     
   4360502705.5001850        60342803.049673557        936234709.15989625     
   4231962425.3812342        37629289.265526295        924159528.01109529     
   4271438317.9327483        208624000.19402266        1124186828.7630131     
   4149178559.9279685        144573875.88408422        1090754156.4877880     
   4031312810.8903141        95170448.131227493        1065570757.1468636     
   3917841070.8197832        60413716.935450554        1048636630.7402356     
   3808763339.7163763        40303682.296753168        1039951777.2679094     
   3769200191.9582458        260000929.83127761        1224599044.7338543     
   3662680172.7989273        167700888.38472760        1191984607.1607721     
   3563821915.7090454        100940053.83629930        1169747599.7198882     
   3472625420.6885986        59718426.185989380        1157888022.4111977     
   3389090687.7375898        44036005.433804631        1156405875.2347057     
   5088939897.7691498        35454293.520529270        694560575.62742722     
   4934291914.6859035        7906921.4658088684        677802153.18993914     
   4782763873.0415640       -9240645.7925560474        668392490.77751744     
   4634355772.8361301       -15988408.254565239        666331588.39016044     
   4489067614.0696058       -12336365.920216560        671619446.02787256     
   4658687944.7321568        36012826.340118408        809029127.46426904     
   4523776908.4152546        14851681.432341099        796167441.96799970     
   4391157903.5181837        1330641.2573392391        789665518.46378362     
   4260830930.0409551       -4550294.1848604679        789523356.95162928     
   4132795987.9835572       -2791124.8942792416        795740957.43152642     
   4231962425.3812342        37629289.265526295        924159528.01109529     
   4113962627.1649280        22006658.904963255        914228684.43379521     
   3997426950.3493891        11264433.213619947        909668604.81554115     
   3882355394.9346142        5402612.1914918423        910479289.15633440     
   3768747960.9206066        4421195.8385856152        916660737.45617115     
   3808763339.7163763        40303682.296753168        1039951777.2679094     
   3704849070.9349284        29371853.883686781        1031985880.5873294     
   3601571013.5351701        20560730.076268196        1028401749.8327833     
   3498929167.5171089        13870310.874497652        1029199385.0042758     
   3396923532.8807421        9300596.2783761024        1034378786.1018010     
   3389090687.7375898        44036005.433804631        1156405875.2347057     
   3296436239.7252488        36947266.368505597        1149439030.4285960     
   3203590093.0755348        29219531.845292807        1145864953.5155132     
   3110552247.7884407        20852801.864150524        1145683644.4954536     
   3017322703.8639731        11847076.425097346        1148895103.3684223     
   4489067614.0696058       -12336365.920216560        671619446.02787256     
   4362424038.8431568       -218295.14056158066        669198023.94956398     
   4234554579.3536024        7813494.7620737553        669684164.69714463     
   4105459235.6009283        11759003.787651062        673077868.27061546     
   3975138007.5851507        11618231.936208963        679379134.66998374     
   4132795987.9835572       -2791124.8942792416        795740957.43152642     
   4012782039.2906485        3876965.6348915100        789779362.33366001     
   3892126140.4279490        8405222.2647733688        787267604.87811303     
   3770828291.3954635        10793644.995372057        788205685.06489170     
   3648888492.1931944        11042233.826685429        792593602.89399576     
   3768747960.9206066        4421195.8385856152        916660737.45617115     
   3656912995.3796010        6104113.1027729511        907840225.78095424     
   3545020013.7621369        7593643.4454317093        903011826.56449485     
   3433069016.0682135        8889786.8665521145        902175539.80678892     
   3321060002.2978258        9992543.3661384583        905331365.50784028     
   3396923532.8807421        9300596.2783761024        1034378786.1018010     
   3294816907.1100240        6463147.2631015778        1023380614.2914562     
   3193236199.3561678        5378758.3040345907        1016916829.7562948     
   3092181409.6191792        6047429.4011961222        1014987432.4963188     
   2991652537.8990574        8469160.5545729399        1017592422.5115290     
   3017322703.8639731        11847076.425097346        1148895103.3684223     
   2926493774.4819131        4954068.1158646345        1136400527.8651557     
   2836774697.2100410        1760566.8406010866        1128982614.4535048     
   2748165472.0483618        2266572.5993105173        1126641363.1334720     
   2660666098.9968715        6472085.3919790983        1129376773.9050584     
   3975138007.5851507        11618231.936208963        679379134.66998374     
   3812302583.3327045        1129931.3610217571        675274534.36030972     
   3650301876.4074907       -6575978.1233880520        676525896.89426506     
   3489135886.8095202       -11499496.516988039        683133222.27185762     
   3328804614.5387807       -13640623.819817781        695096510.49309111     
   3648888492.1931944        11042233.826685429        792593602.89399576     
   3500553729.3605404        3223937.3386759758        788653812.63906896     
   3352763073.0293961       -2780670.8109581470        789896259.68946493     
   3205516523.1997676       -6971590.6222027540        796320944.04517365     
   3058814079.8716574       -9348822.0950595140        807927865.70620108     
   3321060002.2978258        9992543.3661384583        905331365.50784028     
   3186729542.2040553        4695343.3610328436        901217339.34432709     
   3052652577.7860713        243128.94189858437        902111824.94781184     
   2918829109.0438843       -3364099.8912501335        908014822.31830060     
   2785259135.9774909       -6126343.1384290457        918926331.45578265     
   2991652537.8990574        8469160.5545729399        1017592422.5115290     
   2870830021.8632522        5544149.4280899763        1012965114.4760833     
   2749970390.6775255        2495421.1352010965        1013172592.6693237     
   2629073644.3418608       -677024.32414638996        1018214857.0912368     
   2508139782.8562717       -3973186.9499102831        1028091907.7418373     
   2660666098.9968715        6472085.3919790983        1129376773.9050584     
   2552855168.3381329        5770355.5398586988        1123897138.0343397     
   2444716511.7037454        3976205.7689166069        1123078562.8539865     
   2336250129.0937042        1089636.0791218281        1126921048.3639932     
   2227456020.5080132       -2889353.5295001268        1135424594.5643609     
   3328804614.5387807       -13640623.819817781        695096510.49309111     
   3210400736.7542896       -2926386.5400646925        690171325.91019678     
   3091344875.4249940        5614572.2570184469        690460376.49280441     
   2971637030.5509009        11982252.571432590        695963662.24092722     
   2851277202.1320095        16176654.403184533        706681183.15456545     
   3058814079.8716574       -9348822.0950595140        807927865.70620108     
   2952863142.5586557        866962.47181987762        800831660.65793705     
   2846610448.7893400        10076892.184328318        798215432.97135031     
   2740055998.5637031        18280967.042432427        800079182.64645195     
   2633199791.8817520        25479187.046151876        806422909.68323457     
   2785259135.9774909       -6126343.1384290457        918926331.45578265     
   2689663259.6964622        2961624.8837391138        910067704.21205020     
   2594115854.0476079        12211161.679804325        904954796.52616739     
   2498616919.0309134        21622267.249748468        903587608.39813793     
   2403166454.6463890        31194941.593584418        905966139.82795596     
   2508139782.8562717       -3973186.9499102831        1028091907.7418373     
   2420801088.1677122        3357600.6956901550        1017879456.5725307     
   2333861091.1998014        12017380.743463397        1010678467.1572465     
   2247319791.9525361        22006153.193384528        1006488939.4959826     
   2161177190.4259181        33323918.045472860        1005310873.5887424     
   2227456020.5080132       -2889353.5295001268        1135424594.5643609     
   2146276627.9724002        2054889.9076691866        1124266917.7393765     
   2065846160.2459245        9495549.3753027916        1115386444.8645906     
   1986164617.3285742        19432624.873359084        1108783175.9399934     
   1907231999.2203598        31866116.401858449        1104457110.9655855     
   2851277202.1320095        16176654.403184533        706681183.15456545     
   2689035032.6518660        8529504.2956991196        709869927.01765335     
   2527921649.1643047        4644974.1634918451        716846321.75915015     
   2367937051.6693177        4523064.0065521002        727610367.37906015     
   2209081240.1669259        8163773.8248955011        742162063.87736750     
   2633199791.8817520        25479187.046151876        806422909.68323457     
   2481262435.7967939        19709196.925367117        806434603.66277301     
   2329993518.3855686        16167335.717019677        810152235.53249598     
   2179393039.6480660        14853603.421082020        817575805.29241884     
   2029460999.5842826        15768000.037552357        828705312.94252801     
   2403166454.6463890        31194941.593584418        905966139.82795596     
   2261300446.2759972        27232071.755324244        902263712.05194950     
   2119642529.2604747        23962839.766637206        902185509.17791080     
   1978192703.5998201        21387245.627499104        905731531.20584190     
   1836950969.2940316        19505289.337927103        912901778.13574791     
   2161177190.4259181        33323918.045472860        1005310873.5887424     
   2029149064.0894694        31098128.785558939        997357252.18518591     
   1896868681.7890265        28031486.312343359        992946142.69537652     
   1764336043.5245924        24123990.625822186        992077545.11932337     
   1631551149.2961731        19375641.726019323        994751459.45701993     
   1907231999.2203598        31866116.401858449        1104457110.9655855     
   1784808289.2372162        31307368.016079187        1091715224.0624821     
   1661671975.9712324        28373275.354163349        1082434136.0849082     
   1537823059.4223952        23063838.416065633        1076613847.0328734     
   1413261539.5907140        15379057.201831520        1074254356.9063585     
   3768313251.8091378        1130493975.5427413        800612350.97502792     
   3779252117.2742963        1008645043.0016123        884899279.73725891     
   3790798417.4394369        888820892.79375958        974114552.02845657     
   3802952152.3045621        771021524.91918302        1068258167.8486211     
   3815713321.8696675        655246939.37788224        1167330127.1977522     
   3207923557.3344216        962377067.20032644        756709892.61032081     
   3236051074.3898458        868157255.31864607        853067592.78823864     
   3263903546.4051723        773020626.63664079        951343038.20059812     
   3291480973.3804026        676967181.15431058        1051536228.8473996     
   3318783355.3155346        579996918.87165546        1153647164.7286437     
   2685768653.1302276        805730595.93906820        721965493.01028955     
   2722483112.3629894        736559391.89295816        829364404.90713370     
   2758040046.8155742        663529771.91292179        935670463.74389517     
   2792439456.4879818        586641735.99895942        1040883669.5205736     
   2825681341.3802099        505895284.15107048        1145004022.2371690     
   2201848539.1965556        660554561.75896668        696379152.17493439     
   2238548231.1937275        613851452.72454846        813789716.09394455     
   2273207918.6706419        560348328.62260270        927096828.65834701     
   2305827601.6272979        500045189.45312959        1036300489.8681419     
   2336407280.0636959        432942035.21612865        1141400699.7233284     
   1756163215.5334067        526848964.66002202        679950870.10425520     
   1784246430.8820605        500033437.81341726        806343526.34867096     
   1809407161.9703758        463476296.76568353        925622132.94395399     
   1831645408.7983520        417177541.51682138        1037786689.8901045     
   1850961171.3659902        361137172.06682980        1142837197.1871221     
   3815713321.8696675        655246939.37788224        1167330127.1977522     
   3798309550.7859597        537183808.30505276        1189005493.5227048     
   3784756105.4394855        431955096.35634196        1205775435.2203720     
   3775052985.8302474        339560803.53174984        1217639952.2907560     
   3769200191.9582458        260000929.83127761        1224599044.7338543     
   3318783355.3155346        579996918.87165546        1153647164.7286437     
   3294193352.1314650        472701529.19759679        1181984218.3166897     
   3273335045.5112457        377845128.06970251        1207213962.2858739     
   3256208435.4548745        295427715.48797226        1229336396.6361947     
   3242813521.9623542        225449291.45240819        1248351521.3676529     
   2825681341.3802099        505895284.15107048        1145004022.2371690     
   2799042577.5484161        410908877.31157351        1179864362.3860252     
   2776016881.1070848        327966028.44028699        1213415507.9244409     
   2756604252.0562162        257066737.53721011        1245657458.8524158     
   2740804690.3958120        198211004.60234416        1276590215.1699502     
   2336407280.0636959        432942035.21612865        1141400699.7233284     
   2312857227.0368104        351805852.64698392        1182645925.7307107     
   2292801612.2270021        282317797.46809477        1224380072.1360738     
   2276240435.6342697        224477869.67946154        1266603138.9394188     
   2263173697.2586150        178286069.28108275        1309315126.1407456     
   1850961171.3659902        361137172.06682980        1142837197.1871221     
   1835637300.5966485        295392455.20382744        1190328908.3507462     
   1823689238.8709970        240900435.15312552        1240107654.9207730     
   1815116986.1890361        197661111.91472566        1292173436.8972037     
   1809920542.5507658        165674485.48862708        1346526254.2800384     
   3769200191.9582458        260000929.83127761        1224599044.7338543     
   3662680172.7989273        167700888.38472760        1191984607.1607721     
   3563821915.7090454        100940053.83629930        1169747599.7198882     
   3472625420.6885986        59718426.185989380        1157888022.4111977     
   3389090687.7375898        44036005.433804631        1156405875.2347057     
   3242813521.9623542        225449291.45240819        1248351521.3676529     
   3165582326.7914991        151182046.53601277        1231084838.6519644     
   3094418597.8849277        97139689.167236447        1221809175.8267081     
   3029322335.2426405        63322219.346071362        1220524532.8918817     
   2970293538.8646393        49729637.072528124        1227230909.8474867     
   2740804690.3958120        198211004.60234416        1276590215.1699502     
   2686044004.2369437        139931061.72316051        1272811275.5389793     
   2635756488.5372105        96561687.041089058        1274636945.5566728     
   2589942143.2966108        68102880.556132555        1282067225.2230315     
   2548600968.5151443        54554642.268286824        1295102114.5380573     
   2263173697.2586150        178286069.28108275        1309315126.1407456     
   2224065205.1352654        133947933.94617021        1317163917.8218133     
   2187835587.6658978        99206047.457866192        1328230908.9097822     
   2154484844.8505135        74060409.816172957        1342516099.4046524     
   2124012976.6891117        58511021.021084905        1360019489.3064213     
   1809920542.5507658        165674485.48862708        1346526254.2800384     
   1779645929.4864612        133232663.20504373        1364142765.5004709     
   1750655895.2709880        105072770.41756320        1382591065.8860383     
   1722950439.9043462        81194807.126191437        1401871155.4367399     
   1696529563.3865356        61598773.330920517        1421983034.1525793     
   3389090687.7375898        44036005.433804631        1156405875.2347057     
   3296436239.7252488        36947266.368505597        1149439030.4285960     
   3203590093.0755348        29219531.845292807        1145864953.5155132     
   3110552247.7884407        20852801.864150524        1145683644.4954536     
   3017322703.8639731        11847076.425097346        1148895103.3684223     
   2970293538.8646393        49729637.072528124        1227230909.8474867     
   2885833991.0962992        38177355.133761525        1219592677.3586392     
   2801682488.5484304        27651890.596564054        1215895494.7506459     
   2717839031.2210345        18153243.460941672        1216139362.0235054     
   2634303619.1141100        9681413.7268931866        1220324279.1772165     
   2548600968.5151443        54554642.268286824        1295102114.5380573     
   2473902840.9560266        39008773.445615172        1287375528.8672972     
   2400012502.4752278        26155534.884010792        1284138275.0652163     
   2326929953.0727477        15994926.583464980        1285390353.1318128     
   2254655192.7485867        8526948.5439863205        1291131763.0670946     
   2124012976.6891117        58511021.021084905        1360019489.3064213     
   2060642789.3044353        39441521.304075837        1352787584.9545698     
   1998580134.8559246        24730464.707623124        1350593294.4592218     
   1937825013.3435814        14377851.231725574        1353436617.8203840     
   1878377424.7674038        8383680.8763840199        1361317555.0380507     
   1696529563.3865356        61598773.330920517        1421983034.1525793     
   1646053836.1415215        39475598.709139407        1415828845.6204548     
   1597385385.6905222        23376680.067409396        1415260552.9326651     
   1550524212.0335360        13302017.405721605        1420278156.0892103     
   1505470315.1705647        9251610.7240846157        1430881655.0900886     
   3017322703.8639731        11847076.425097346        1148895103.3684223     
   2926493774.4819131        4954068.1158646345        1136400527.8651557     
   2836774697.2100410        1760566.8406010866        1128982614.4535048     
   2748165472.0483618        2266572.5993105173        1126641363.1334720     
   2660666098.9968715        6472085.3919790983        1129376773.9050584     
   2634303619.1141100        9681413.7268931866        1220324279.1772165     
   2556860284.6735768        4791473.1680629253        1209992392.8916423     
   2480265563.8314552        2730244.6039392948        1204418209.6039944     
   2404519456.5877509        3497728.0345420837        1203601729.3142731     
   2329621962.9424553        7093923.4598364830        1207542952.0224812     
   2254655192.7485867        8526948.5439863205        1291131763.0670946     
   2189686141.5533233        5366682.2266874313        1282657787.7354724     
   2125304465.4446936        4164332.8648341894        1278622556.3080823     
   2061510164.4226990        4919900.4584330320        1279026068.7849312     
   1998303238.4873414        7633385.0074813366        1283868325.1660149     
   1878377424.7674038        8383680.8763840199        1361317555.0380507     
   1824971345.1211500        6679695.2917330265        1354396712.3966391     
   1771891402.0497532        6062831.6232707500        1351595654.5657701     
   1719137595.5532138        6533089.8710030317        1352914381.5454459     
   1666709925.6315289        8090470.0349167585        1358352893.3356693     
   1505470315.1705647        9251610.7240846157        1430881655.0900886     
   1462715895.3770614        8730512.3632087708        1425209166.8751459     
   1420026373.6466346        8425740.8792554736        1423337504.3770578     
   1377401749.9792883        8337296.2722374201        1425266667.5958209     
   1334842024.3750205        8465178.5421466231        1430996656.5314379     
   2660666098.9968715        6472085.3919790983        1129376773.9050584     
   2552855168.3381329        5770355.5398586988        1123897138.0343397     
   2444716511.7037454        3976205.7689166069        1123078562.8539865     
   2336250129.0937042        1089636.0791218281        1126921048.3639932     
   2227456020.5080132       -2889353.5295001268        1135424594.5643609     
   2329621962.9424553        7093923.4598364830        1207542952.0224812     
   2233755101.4189425        5465262.4667857885        1201730760.0603685     
   2137742453.0740204        3350645.4023727179        1200659160.0829022     
   2041584017.9076841        750072.26657938957        1204328152.0900791     
   1945279795.9199371       -2336456.9405826330        1212737736.0818934     
   1998303238.4873414        7633385.0074813366        1283868325.1660149     
   1914607678.3684232        5145962.5543090105        1277935839.4591293     
   1830948270.5823376        2779047.8772411346        1276823477.0311649     
   1747325015.1290767        532640.97625100613        1280531237.8821208     
   1663737912.0086451       -1593258.1486283541        1289059122.0120008     
   1666709925.6315289        8090470.0349167585        1358352893.3356693     
   1595412899.1865790        4812455.8024374247        1352512376.2306175     
   1524333964.2286980        2261413.1935212016        1351571513.6987679     
   1453473120.7578828        437342.20815485716        1355530305.7401190     
   1382830368.7741373       -659757.15364110470        1364388752.3546734     
   1334842024.3750205        8465178.5421466231        1430996656.5314379     
   1276170763.8734078        4464742.2111693621        1425460370.3748353     
   1217899534.0131025        1797741.3512169123        1424903270.0857146     
   1160028334.7941017        464175.96227902174        1429325355.6640739     
   1102557166.2164152        464046.04438835382        1438726627.1099148     
   2227456020.5080132       -2889353.5295001268        1135424594.5643609     
   2146276627.9724002        2054889.9076691866        1124266917.7393765     
   2065846160.2459245        9495549.3753027916        1115386444.8645906     
   1986164617.3285742        19432624.873359084        1108783175.9399934     
   1907231999.2203598        31866116.401858449        1104457110.9655855     
   1945279795.9199371       -2336456.9405826330        1212737736.0818934     
   1870940681.5269532        1741139.2570264339        1202998660.9848123     
   1797126206.5661492        7567533.5619044304        1196444129.8717728     
   1723836371.0375295        15142725.974058151        1193074142.7427688     
   1651071174.9410937        24466716.493494809        1192888699.5978029     
   1663737912.0086451       -1593258.1486283541        1289059122.0120008     
   1598831475.8549936        2395410.8384112716        1280476982.3697090     
   1534225393.7565753        7385260.0095654726        1275986726.7453063     
   1469919665.7133908        13376289.364832163        1275588355.1387877     
   1405914291.7254403        20368498.904210031        1279281867.5501568     
   1382830368.7741373       -659757.15364110470        1364388752.3546734     
   1329949010.9565265        4017704.6518481374        1356701881.8940666     
   1277143721.8171992        8948728.7182863355        1354014235.4851902     
   1224414501.3561609        14133315.045683861        1356325813.1280532     
   1171761349.5733995        19571463.634008229        1363636614.8226464     
   1102557166.2164152        464046.04438835382        1438726627.1099148     
   1064293286.8315530        6608020.6973413825        1431673359.5578842     
   1025881190.7480255        12257939.688077092        1430526656.0914330     
   987320877.96583402        17413803.016600490        1435286516.7105651     
   948612348.48497701        22075610.682905257        1445952941.4152799     
   1907231999.2203598        31866116.401858449        1104457110.9655855     
   1784808289.2372162        31307368.016079187        1091715224.0624821     
   1661671975.9712324        28373275.354163349        1082434136.0849082     
   1537823059.4223952        23063838.416065633        1076613847.0328734     
   1413261539.5907140        15379057.201831520        1074254356.9063585     
   1651071174.9410937        24466716.493494809        1192888699.5978029     
   1537999214.0071180        21952785.602144361        1183735826.6248388     
   1424570157.4039364        18248535.813430727        1178767003.8039203     
   1310784005.1315296        13353967.127305865        1177982231.1350348     
   1196640757.1899033        7269079.5437854528        1181381508.6181862     
   1405914291.7254403        20368498.904210031        1279281867.5501568     
   1304260511.9163666        16519315.130032003        1274132767.3899074     
   1202605144.0517054        12664837.837224007        1273890968.6082027     
   1100948188.1314542        8805067.0257781744        1278556471.2050333     
   999289644.15561008        4940002.6956948042        1288129275.1804078     
   1171761349.5733995        19571463.634008229        1363636614.8226464     
   1083592182.9649565        15006956.599719465        1362906046.3576770     
   995776935.91454816        11622181.425549686        1367806030.4977458     
   908315608.42217505        9417138.1114918590        1378336567.2428639     
   821208200.48783684        8391826.6575567126        1394497656.5930300     
   948612348.48497701        22075610.682905257        1445952941.4152799     
   875994227.15288091        17415710.011194050        1450055663.5281448     
   804085532.99245155        15120566.578378469        1460512189.4725609     
   732886266.00368655        15190180.384440690        1477322519.2485251     
   662396426.18658698        17624551.429382354        1500486652.8560426     
   1756163215.5334067        526848964.66002202        679950870.10425520     
   1784246430.8820605        500033437.81341726        806343526.34867096     
   1809407161.9703758        463476296.76568353        925622132.94395399     
   1831645408.7983520        417177541.51682138        1037786689.8901045     
   1850961171.3659902        361137172.06682980        1142837197.1871221     
   1326477068.1657269        397943120.44971806        669582774.00221539     
   1339739017.5315113        375491336.67230618        791719361.62661374     
   1350809103.7019813        345733342.24384588        908562007.43581653     
   1359687326.6771369        308669137.16433692        1020110711.4298230     
   1366373686.4569776        264298721.43377945        1126365473.6086335     
   890554483.11846220        267166344.93553868        662176991.07277822     
   894195474.59833980        250638396.65640858        780909901.31968760     
   896375223.94792700        229239641.27631015        896168977.58533764     
   897093731.16722345        202970078.79524353        1007954219.8697289     
   896350996.25622976        171829709.21320838        1116265628.1728601     
   448395460.39161319        134518638.11748394        657733521.31594396     
   447615802.08254582        125474617.76572411        773915145.42789221     
   446105522.70821214        113995193.86307633        888443043.39251804     
   443864622.26861203        100080366.40954036        1001317215.2098219     
   440893100.76374549        83730135.405116826        1112537660.8798029     
  -1.4820447982397457E-002  -4.4461343947192374E-003   656252364.73171234     
  -1.5870506603038764E-002   2.5301418469505284E-004   770735093.95122766     
  -1.7162813638231626E-002   4.1444512085029818E-003   885384204.85735738     
  -1.8697430565813529E-002   7.2282102750575884E-003   1000199697.4501013     
  -2.0474436020227735E-002   9.5040075855044922E-003   1115181571.7294598     
   1850961171.3659902        361137172.06682980        1142837197.1871221     
   1835637300.5966485        295392455.20382744        1190328908.3507462     
   1823689238.8709970        240900435.15312552        1240107654.9207730     
   1815116986.1890361        197661111.91472566        1292173436.8972037     
   1809920542.5507658        165674485.48862708        1346526254.2800384     
   1366373686.4569776        264298721.43377945        1126365473.6086335     
   1360688073.0466847        216732370.68725368        1181723484.1910546     
   1357534316.4192259        177605542.55017522        1238013495.9240758     
   1356912416.5746021        146918237.02254677        1295235508.8076980     
   1358822373.5128129        124670454.10436690        1353389522.8419197     
   896350996.25622976        171829709.21320838        1116265628.1728601     
   896432113.75983346        141280266.64961326        1178505327.2030797     
   898201135.78541577        116357172.49261364        1240321993.1280968     
   901658062.33297694        97060426.742209852        1301715625.9479108     
   906802893.40251696        83390029.398401856        1362686225.6625228     
   440893100.76374549        83730135.405116826        1112537660.8798029     
   442869422.73609459        69036143.090906575        1180674437.3868220     
   445689696.96956635        57155324.980439067        1247033146.5328362     
   449353923.46416157        48087681.073715582        1311613788.3178444     
   453862102.21987951        41833211.370735303        1374416362.7418475     
  -2.0474436020227735E-002   9.5040075855044922E-003   1115181571.7294598     
  -2.4531504346207451E-002   1.1134036687127031E-002   1188230814.7422810     
  -2.8321329942410042E-002   1.3654658047572174E-002   1258146956.1382937     
  -3.1844272382698852E-002   1.7064911611773335E-002   1324929995.9174979     
  -3.5099967804059086E-002   2.1366162044750704E-002   1388579934.0798936     
   1809920542.5507658        165674485.48862708        1346526254.2800384     
   1779645929.4864612        133232663.20504373        1364142765.5004709     
   1750655895.2709880        105072770.41756320        1382591065.8860383     
   1722950439.9043462        81194807.126191437        1401871155.4367399     
   1696529563.3865356        61598773.330920517        1421983034.1525793     
   1358822373.5128129        124670454.10436690        1353389522.8419197     
   1333666250.4463761        99604038.412375391        1372280768.4762828     
   1309473561.5163920        77749069.841889918        1392575508.0381188     
   1286244306.7228589        59105548.392910779        1414273741.5274289     
   1263978486.0657787        43673474.065439522        1437375468.9442103     
   906802893.40251696        83390029.398401856        1362686225.6625228     
   888398702.51205766        66189052.951438725        1382477536.8797076     
   870636801.04566884        51129041.251379251        1404244046.7867024     
   853517189.00335300        38209994.298228800        1427985755.3835080     
   837039866.38510883        27431912.091984093        1453702662.6701233     
   453862102.21987951        41833211.370735303        1374416362.7418475     
   443843285.68350315        32987706.822229952        1394733070.7107441     
   434145613.85881925        25212684.646031931        1417596682.1317875     
   424769086.74582696        18508144.842139989        1443007197.0049796     
   415713704.34452653        12874087.410553500        1470964615.3303192     
  -3.5099967804059086E-002   2.1366162044750704E-002   1388579934.0798936     
  -3.9285104473514715E-002   2.4752532898810835E-002   1409047369.9693918     
  -4.4159261869891123E-002   2.5841994524120764E-002   1432633414.0733747     
  -4.9719443306040806E-002   2.4644449141665050E-002   1459338066.3918436     
  -5.5968416714367170E-002   2.1151624408010730E-002   1489161326.9247973     
   1696529563.3865356        61598773.330920517        1421983034.1525793     
   1646053836.1415215        39475598.709139407        1415828845.6204548     
   1597385385.6905222        23376680.067409396        1415260552.9326651     
   1550524212.0335360        13302017.405721605        1420278156.0892103     
   1505470315.1705647        9251610.7240846157        1430881655.0900886     
   1263978486.0657787        43673474.065439522        1437375468.9442103     
   1229058752.8400688        27962211.761183858        1434687911.7219698     
   1195494477.2100868        16769141.442690611        1436900935.8277409     
   1163285659.1758335        10094263.109957635        1444014541.2615201     
   1132432298.7373087        7937576.7629852295        1456028728.0233064     
   837039866.38510883        27431912.091984093        1453702662.6701233     
   815718085.70348859        17545149.662690103        1453954614.3597684     
   795299943.41930997        10670515.224869251        1458421832.8610973     
   775785439.53257430        6808008.7785242200        1467104318.1741109     
   757174574.04328096        5957630.3236542344        1480002070.2988064     
   415713704.34452653        12874087.410553500        1470964615.3303192     
   406031834.73177969        8224412.4136535376        1473628953.5338485     
   396801784.31819117        5080801.4139461368        1479823244.0327361     
   388023553.10375834        3443254.4114250690        1489547486.8269815     
   379697141.08848172        3311771.4060917646        1502801681.9165881     
  -5.5968416714367170E-002   2.1151624408010730E-002   1489161326.9247973     
  -7.5054042651175545E-002   1.4086591325636045E-002   1493710929.2442110     
  -9.3269691420754822E-002   9.9214821340250434E-003   1501105169.3426566     
 -0.11061471679095293        8.6586244126988024E-003   1511344047.2201376     
 -0.12708844965414345        1.0299728103369356E-002   1524427562.8766508     
   1505470315.1705647        9251610.7240846157        1430881655.0900886     
   1462715895.3770614        8730512.3632087708        1425209166.8751459     
   1420026373.6466346        8425740.8792554736        1423337504.3770578     
   1377401749.9792883        8337296.2722374201        1425266667.5958209     
   1334842024.3750205        8465178.5421466231        1430996656.5314379     
   1132432298.7373087        7937576.7629852295        1456028728.0233064     
   1099734031.3856773        7357017.2428309917        1449719378.1486590     
   1067084437.5816755        6938702.8814429641        1447358426.2415087     
   1034483517.3253000        6682633.6788077950        1448945872.3018522     
   1001931270.6165478        6588809.6349175572        1454481716.3296950     
   757174574.04328096        5957630.3236542344        1480002070.2988064     
   734954094.13536096        5444100.1447835267        1473036930.1630948     
   712766063.25961566        5038733.4064951837        1470167760.2455220     
   690610481.41604638        4741530.1087935567        1471394560.5460882     
   668487348.60465097        4552490.2516711652        1476717331.0647941     
   379697141.08848172        3311771.4060917646        1502801681.9165881     
   368376083.62610823        2991761.0690525919        1495161822.9184520     
   357071250.68045491        2725832.4544146061        1491765506.3890970     
   345782642.25152904        2513985.5622010529        1492612732.3285229     
   334510258.33932579        2356220.3923946321        1497703500.7367320     
 -0.12708844965414345        1.0299728103369356E-002   1524427562.8766508     
 -0.14208144734000411        1.5636461905496946E-002   1516094056.4147308     
 -0.15580236276948331        2.5213816840257953E-002   1512151664.6722333     
 -0.16825204233513419        3.9029145071489565E-002   1512600387.6491606     
 -0.17942886187827367        5.7085952265644918E-002   1517440225.3455129     
   1334842024.3750205        8465178.5421466231        1430996656.5314379     
   1276170763.8734078        4464742.2111693621        1425460370.3748353     
   1217899534.0131025        1797741.3512169123        1424903270.0857146     
   1160028334.7941017        464175.96227902174        1429325355.6640739     
   1102557166.2164152        464046.04438835382        1438726627.1099148     
   1001931270.6165478        6588809.6349175572        1454481716.3296950     
   956755930.33989596        3236913.9167296290        1449303906.9666326     
   911880613.04049635        885094.78938323259        1449378725.6138768     
   867305318.71834791       -466647.74712479115        1454706172.2714255     
   823030047.37345183       -818313.69279426336        1465286246.9392819     
   668487348.60465097        4552490.2516711652        1476717331.0647941     
   637589191.81817782        2083514.1258422434        1471781322.8872032     
   606891050.34489954        281255.71066275239        1472371384.8627472     
   576392924.18481696       -854284.99386492372        1478487516.9914243     
   546094813.33793044       -1323107.9877392352        1490129719.2732308     
   334510258.33932579        2356220.3923946321        1497703500.7367320     
   318670548.30824763        1004542.8384874016        1492892618.1365526     
   302930845.92630726       -13775.884961530566        1493881247.8323300     
   287291151.19350898       -698735.77793490887        1500669389.8240671     
   271751464.10984814       -1050336.8404533416        1513257044.1117623     
 -0.17942886187827367        5.7085952265644918E-002   1517440225.3455129     
 -0.18989530643913208        5.4662112748270611E-002   1512637792.7146735     
 -0.21527841322774999        2.5178005285071414E-003   1513908314.5226226     
 -0.25557658096091890       -9.9344422340511759E-002   1521251790.7693536     
 -0.31079342396359527      -0.25093521582986045        1534668221.4548717     
   1102557166.2164152        464046.04438835382        1438726627.1099148     
   1064293286.8315530        6608020.6973413825        1431673359.5578842     
   1025881190.7480255        12257939.688077092        1430526656.0914330     
   987320877.96583402        17413803.016600490        1435286516.7105651     
   948612348.48497701        22075610.682905257        1445952941.4152799     
   823030047.37345183       -818313.69279426336        1465286246.9392819     
   798725241.13411570        5107598.2398799062        1458476305.8047228     
   774309272.36589658        10662968.409609139        1456547871.3242731     
   749782141.06878567        15847796.816367865        1459500943.4979463     
   725143847.24278891        20662083.460173279        1467335522.3257360     
   546094813.33793044       -1323107.9877392352        1490129719.2732308     
   532820344.72565883        3506120.5691300631        1483606334.4208724     
   519471767.75427717        8088321.2622944713        1480939398.7911737     
   506049082.42378491        12423494.091759622        1482128912.3841252     
   492552288.73418307        16511639.057526052        1487174875.1997364     
   271751464.10984814       -1050336.8404533416        1513257044.1117623     
   266578597.60617483        1803587.6850633174        1507063445.4063528     
   261368676.91316724        4533998.2461324632        1503701238.4921341     
   256121702.03083035        7140894.8427701890        1503170423.3691099     
   250837672.95915508        9624277.4749471992        1505471000.0372772     
 -0.31079342396359527      -0.25093521582986045        1534668221.4548717     
 -0.22433392140256742      -0.41230919777269770        1528847638.7611468     
 -0.15743180568707413      -0.63887377531125977        1524833390.4271514     
 -0.11008515527726512      -0.93062358414679780        1522625476.4528880     
  -8.2291682625699469E-002  -1.2875506521764806        1522223896.8383534     
   948612348.48497701        22075610.682905257        1445952941.4152799     
   875994227.15288091        17415710.011194050        1450055663.5281448     
   804085532.99245155        15120566.578378469        1460512189.4725609     
   732886266.00368655        15190180.384440690        1477322519.2485251     
   662396426.18658698        17624551.429382354        1500486652.8560426     
   725143847.24278891        20662083.460173279        1467335522.3257360     
   669621068.51287556        16849401.620442539        1469092953.2507548     
   614630360.21578276        14810287.890116394        1477451331.8462141     
   560171722.35152340        14544742.269233584        1492410658.1121156     
   506245154.92009109        16052764.757770687        1513970932.0484602     
   492552288.73418307        16511639.057526052        1487174875.1997364     
   454830977.86042166        13758013.625936538        1486380098.7415948     
   417464380.68065214        12186767.174319908        1492433413.7927897     
   380452497.19487429        11797899.702674285        1505334820.3533211     
   343795327.40308744        12591411.211000085        1525084318.4231832     
   250837672.95915508        9624277.4749471992        1505471000.0372772     
   231623955.19553030        8141546.0277092755        1501917100.0006690     
   212587594.38705975        7250004.4309861884        1505458435.3122911     
   193728590.53374246        6949652.6847767308        1516095005.9721444     
   175046943.63558167        7240490.7890854999        1533826811.9802163     
  -8.2291682625699469E-002  -1.2875506521764806        1522223896.8383534     
  0.51819569697513179       -1.1742509666089120        1515703957.0279734     
   1.3349965363942737      -0.33990710886969783        1516526396.4047124     
   2.3681223648708283        1.2155214335063391        1524691214.9685709     
   3.6175677837928353        3.4920118079202647        1540198412.7195511     
  -1.4820447982397457E-002  -4.4461343947192374E-003   656252364.73171234     
  -1.5870506603038764E-002   2.5301418469505284E-004   770735093.95122766     
  -1.7162813638231626E-002   4.1444512085029818E-003   885384204.85735738     
  -1.8697430565813529E-002   7.2282102750575884E-003   1000199697.4501013     
  -2.0474436020227735E-002   9.5040075855044922E-003   1115181571.7294598     
  -448395460.42057353       -134518638.12617207        657733521.31993353     
  -447615802.11379302       -125474617.76577978        773915145.43183649     
  -446105522.74218386       -113995193.85595880        888443043.39645052     
  -443864622.30574620       -100080366.39670980        1001317215.2137747     
  -440893100.80447984       -83730135.388031334        1112537660.8838103     
  -890554483.14538085       -267166344.94361424        662176991.08045721     
  -894195474.62763727       -250638396.65658900        780909901.32733059     
  -896375223.97999430       -229239641.26989901        896168977.59301138     
  -897093731.20245206       -202970078.78354442        1007954219.8774990     
  -896350996.29501021       -171829709.19752488        1116265628.1807938     
  -1326477068.1892428       -397943120.45677286        669582774.01328325     
  -1339739017.5574036       -375491336.67217487        791719361.63770998     
  -1350809103.7305944       -345733342.23767608        908562007.44703996     
  -1359687326.7088149       -308669137.15327626        1020110711.4412737     
  -1366373686.4920650       -264298721.41897565        1126365473.6204104     
  -1756163215.5521588       -526848964.66564769        679950870.11841190     
  -1784246430.9030919       -500033437.81253743        806343526.36297429     
  -1809407161.9939842       -463476296.75928998        925622132.95853662     
  -1831645408.8248348       -417177541.50590527        1037786689.9050988     
  -1850961171.3956447       -361137172.05238330        1142837197.2026606     
  -2.0474436020227735E-002   9.5040075855044922E-003   1115181571.7294598     
  -2.4531504346207451E-002   1.1134036687127031E-002   1188230814.7422810     
  -2.8321329942410042E-002   1.3654658047572174E-002   1258146956.1382937     
  -3.1844272382698852E-002   1.7064911611773335E-002   1324929995.9174979     
  -3.5099967804059086E-002   2.1366162044750704E-002   1388579934.0798936     
  -440893100.80447984       -83730135.388031334        1112537660.8838103     
  -442869422.78477734       -69036143.071027473        1180674437.3920631     
  -445689697.02586287       -57155324.956650287        1247033146.5395458     
  -449353923.52773607       -48087681.044898510        1311613788.3262577     
  -453862102.29039699       -41833211.335772842        1374416362.7521996     
  -896350996.29501021       -171829709.19752488        1116265628.1807938     
  -896432113.80572510       -141280266.63139957        1178505327.2132475     
  -898201135.83828318       -116357172.47141808        1240321993.1409686     
  -901658062.39268386       -97060426.717578650        1301715625.9639578     
  -906802893.46892726       -83390029.369881809        1362686225.6822135     
  -1366373686.4920650       -264298721.41897565        1126365473.6204104     
  -1360688073.0873749       -216732370.66998249        1181723484.2058342     
  -1357534316.4655821       -177605542.53064963        1238013495.9425635     
  -1356912416.6266880       -146918237.00097716        1295235508.8305984     
  -1358822373.5706904       -124670454.08096105        1353389522.8699391     
  -1850961171.3956447       -361137172.05238330        1142837197.2026606     
  -1835637300.6297257       -295392455.18677533        1190328908.3698232     
  -1823689238.9077599       -240900435.13434470        1240107654.9443300     
  -1815116986.2297473       -197661111.89508945        1292173436.9261799     
  -1809920542.5956867       -165674485.46900988        1346526254.3153739     
  -3.5099967804059086E-002   2.1366162044750704E-002   1388579934.0798936     
  -3.9285104473514715E-002   2.4752532898810835E-002   1409047369.9693918     
  -4.4159261869891123E-002   2.5841994524120764E-002   1432633414.0733747     
  -4.9719443306040806E-002   2.4644449141665050E-002   1459338066.3918436     
  -5.5968416714367170E-002   2.1151624408010730E-002   1489161326.9247973     
  -453862102.29039699       -41833211.335772842        1374416362.7521996     
  -443843285.76252645       -32987706.782676741        1394733070.7214279     
  -434145613.94739902       -25212684.605390713        1417596682.1432035     
  -424769086.84501624       -18508144.803920031        1443007197.0175259     
  -415713704.45537543       -12874087.378257051        1470964615.3443973     
  -906802893.46892726       -83390029.369881809        1362686225.6822135     
  -888398702.58596730       -66189052.920164108        1382477536.9004419     
  -870636801.12780631       -51129041.219777942        1404244046.8092792     
  -853517189.09444523       -38209994.268722534        1427985755.4087255     
  -837039866.48588252       -27431912.066996992        1453702662.6987801     
  -1358822373.5706904       -124670454.08096105        1353389522.8699391     
  -1333666250.5096076       -99604038.387713015        1372280768.5064347     
  -1309473561.5853796       -77749069.817312419        1392575508.0716012     
  -1286244306.7980068       -59105548.369764030        1414273741.5654390     
  -1263978486.1474881       -43673474.045063376        1437375468.9879456     
  -1809920542.5956867       -165674485.46900988        1346526254.3153739     
  -1779645929.5334475       -133232663.18531966        1364142765.5394056     
  -1750655895.3201187       -105072770.39799798        1382591065.9301701     
  -1722950439.9557009       -81194807.107047021        1401871155.4876666     
  -1696529563.4401939       -61598773.312463164        1421983034.2118957     
  -5.5968416714367170E-002   2.1151624408010730E-002   1489161326.9247973     
  -7.5054042651175545E-002   1.4086591325636045E-002   1493710929.2442110     
  -9.3269691420754822E-002   9.9214821340250434E-003   1501105169.3426566     
 -0.11061471679095293        8.6586244126988024E-003   1511344047.2201376     
 -0.12708844965414345        1.0299728103369356E-002   1524427562.8766508     
  -415713704.45537543       -12874087.378257051        1470964615.3443973     
  -406031834.87881893       -8224412.3943573833        1473628953.5534425     
  -396801784.50017917       -5080801.4035149217        1479823244.0591094     
  -388023553.31945950       -3443254.4057382941        1489547486.8613997     
  -379697141.33665526       -3311771.4010141343        1502801681.9603112     
  -837039866.48588252       -27431912.066996992        1453702662.6987801     
  -815718085.83485675       -17545149.648480922        1453954614.3988705     
  -795299943.58053923       -10670515.218989938        1458421832.9131725     
  -775785439.72292769       -6808008.7785189152        1467104318.2416849     
  -757174574.26202178       -5957630.3270687461        1480002070.3844092     
  -1263978486.1474881       -43673474.045063376        1437375468.9879456     
  -1229058752.9431710       -27962211.748290181        1434687911.7804954     
  -1195494477.3343463       -16769141.436492383        1436900935.9048443     
  -1163285659.3210194       -10094263.109686613        1444014541.3609931     
  -1132432298.9031863       -7937576.7678607106        1456028728.1489418     
  -1696529563.4401939       -61598773.312463164        1421983034.2118957     
  -1646053836.2037575       -39475598.693777084        1415828845.6983166     
  -1597385385.7616048       -23376680.056036413        1415260553.0341258     
  -1550524212.1137373       -13302017.399245441        1420278156.2193244     
  -1505470315.2601516       -9251610.7233961225        1430881655.2539115     
 -0.12708844965414345        1.0299728103369356E-002   1524427562.8766508     
 -0.14208144734000411        1.5636461905496946E-002   1516094056.4147308     
 -0.15580236276948331        2.5213816840257953E-002   1512151664.6722333     
 -0.16825204233513419        3.9029145071489565E-002   1512600387.6491606     
 -0.17942886187827367        5.7085952265644918E-002   1517440225.3455129     
  -379697141.33665526       -3311771.4010141343        1502801681.9603112     
  -368376083.90537953       -2991761.0606244355        1495161822.9729168     
  -357071250.98973334       -2725832.4389984310        1491765506.4551377     
  -345782642.58971065       -2513985.5361178964        1492612732.4069767     
  -334510258.70531720       -2356220.3520022184        1497703500.8284285     
  -757174574.26202178       -5957630.3270687461        1480002070.3844092     
  -734954094.38393056       -5444100.1514666080        1473036930.2684920     
  -712766063.53836465       -5038733.4176143110        1470167760.3723817     
  -690610481.72532558       -4741530.1255168915        1471394560.6960797     
  -668487348.94481099       -4552490.2751703262        1476717331.2395866     
  -1132432298.9031863       -7937576.7678607106        1456028728.1489418     
  -1099734031.5777318       -7357017.2568811774        1449719378.3014524     
  -1067084437.8016995       -6938702.9106444716        1447358426.4239635     
  -1034483517.5750942       -6682633.7291628122        1448945872.5164740     
  -1001931270.8979111       -6588809.7124229074        1454481716.5789855     
  -1505470315.2601516       -9251610.7233961225        1430881655.2539115     
  -1462715895.4867835       -8730512.3768708110        1425209167.0718021     
  -1420026373.7797375       -8425740.9180873036        1423337504.6098850     
  -1377401750.1390159       -8337296.3470482826        1425266667.8681593     
  -1334842024.5646174       -8465178.6637572050        1430996656.8466256     
 -0.17942886187827367        5.7085952265644918E-002   1517440225.3455129     
 -0.18989530643913208        5.4662112748270611E-002   1512637792.7146735     
 -0.21527841322774999        2.5178005285071414E-003   1513908314.5226226     
 -0.25557658096091890       -9.9344422340511759E-002   1521251790.7693536     
 -0.31079342396359527      -0.25093521582986045        1534668221.4548717     
  -334510258.70531720       -2356220.3520022184        1497703500.8284285     
  -318670548.69451100       -1004542.8139916211        1492892618.2107794     
  -302930846.35535604        13775.818513154984        1493881247.8921525     
  -287291151.68785477        698735.54550707340        1500669389.8725410     
  -271751464.69200277        1050336.3670017868        1513257044.1519468     
  -668487348.94481099       -4552490.2751703262        1476717331.2395866     
  -637589192.16921139       -2083514.1736774147        1471781323.0356064     
  -606891050.72199833       -281255.83347424865        1472371384.9908760     
  -576392924.60316885        854284.74545109272        1478487517.1053982     
  -546094813.81272435        1323107.5630934834        1490129719.3791673     
  -1001931270.8979111       -6588809.7124229074        1454481716.5789855     
  -956755930.61399567       -3236914.0243917108        1449303907.1891494     
  -911880613.31519818       -885094.95342051983        1449378725.8187973     
  -867305319.00152338        466647.50047808886        1454706172.4679277     
  -823030047.67296338        818313.33732402325        1465286247.1365414     
  -1334842024.5646174       -8465178.6637572050        1430996656.8466256     
  -1276170764.0288596       -4464742.3661166430        1425460370.6714096     
  -1217899534.1349599       -1797741.5413396955        1424903270.3759112     
  -1160028334.8829119       -464176.18939721584        1429325355.9601283     
  -1102557166.2727141       -464046.31029224396        1438726627.4240611     
 -0.31079342396359527      -0.25093521582986045        1534668221.4548717     
 -0.22433392140256742      -0.41230919777269770        1528847638.7611468     
 -0.15743180568707413      -0.63887377531125977        1524833390.4271514     
 -0.11008515527726512      -0.93062358414679780        1522625476.4528880     
  -8.2291682625699469E-002  -1.2875506521764806        1522223896.8383534     
  -271751464.69200277        1050336.3670017868        1513257044.1519468     
  -266578598.01626202       -1803588.4061997682        1507063445.4190867     
  -261368677.18447053       -4533999.3258991987        1503701238.4594464     
  -256121702.19663444       -7140896.3921170831        1503170423.2730224     
  -250837673.05274293       -9624279.6048172861        1505470999.8598108     
  -546094813.81272435        1323107.5630934834        1490129719.3791673     
  -532820345.08059728       -3506121.1818000376        1483606334.4787166     
  -519471768.01682013       -8088322.1545241773        1480939398.7649677     
  -506049082.62138534       -12423495.355057687        1482128912.2379210     
  -492552288.89429909       -16511640.783418745        1487174874.8975756     
  -823030047.67296338        818313.33732402325        1465286247.1365414     
  -798725241.41735005       -5107598.7391384244        1458476305.9400337     
  -774309272.65447736       -10662969.124736637        1456547871.3437157     
  -749782141.38434660       -15847797.819471389        1459500943.3475864     
  -725143847.60695767       -20662084.823349208        1467335521.9516411     
  -1102557166.2727141       -464046.31029224396        1438726627.4240611     
  -1064293287.0265086       -6608021.0781835318        1431673359.8030396     
  -1025881191.0974455       -12257940.236545622        1430526656.1956906     
  -987320878.48551238       -17413803.785344779        1435286516.6020164     
  -948612349.19071937       -22075611.724607348        1445952941.0220163     
  -8.2291682625699469E-002  -1.2875506521764806        1522223896.8383534     
  0.51819569697513179       -1.1742509666089120        1515703957.0279734     
   1.3349965363942737      -0.33990710886969783        1516526396.4047124     
   2.3681223648708283        1.2155214335063391        1524691214.9685709     
   3.6175677837928353        3.4920118079202647        1540198412.7195511     
  -250837673.05274293       -9624279.6048172861        1505470999.8598108     
  -231623954.21001640       -8141548.1391313076        1501917100.1382015     
  -212587592.09338820       -7250005.7604379356        1505458435.7191050     
  -193728586.70286062       -6949652.4687495232        1516095006.6025157     
  -175046938.03843316       -7240488.2640575767        1533826812.7884498     
  -492552288.89429909       -16511640.783418745        1487174874.8975756     
  -454830977.19391894       -13758015.580702126        1486380098.8319116     
  -417464379.16206294       -12186769.273066595        1492433414.1841557     
  -380452494.79872543       -11797901.860491902        1505334820.9543004     
  -343795324.10390627       -12591413.342981935        1525084319.1423631     
  -725143847.60695767       -20662084.823349208        1467335521.9516411     
  -669621068.43351817       -16849403.498990297        1469092953.1091027     
  -614630359.87102211       -14810290.877771825        1477451331.7998624     
  -560171721.91946661       -14544746.959693760        1492410658.0239260     
  -506245154.57884926       -16052771.744737267        1513970931.7812853     
  -948612349.19071937       -22075611.724607348        1445952941.0220163     
  -875994227.92881548       -17415711.893991232        1450055662.9697814     
  -804085534.22027135       -15120570.574576586        1460512188.5662351     
  -732886268.06508815       -15190187.766364485        1477322517.8113832     
  -662396429.46326172       -17624563.469340116        1500486650.7052195     
  -1756163215.5521588       -526848964.66564769        679950870.11841190     
  -1784246430.9030919       -500033437.81253743        806343526.36297429     
  -1809407161.9939842       -463476296.75928998        925622132.95853662     
  -1831645408.8248348       -417177541.50590527        1037786689.9050988     
  -1850961171.3956447       -361137172.05238330        1142837197.2026606     
  -2201848539.2098866       -660554561.76296592        696379152.19167447     
  -2238548231.2093663       -613851452.72370028        813789716.11059248     
  -2273207918.6887550       -560348328.61746264        927096828.67513120     
  -2305827601.6480513       -500045189.44425321        1036300489.8852901     
  -2336407280.0872574       -432942035.20407182        1141400699.7410707     
  -2685768653.1381836       -805730595.94145501        721965493.02890229     
  -2722483112.3730078       -736559391.89207315        829364404.92556787     
  -2758040046.8276892       -663529771.90888441        935670463.76247478     
  -2792439456.5022292       -586641735.99188936        1040883669.5396237     
  -2825681341.3966260       -505895284.14108682        1145004022.2570143     
  -3207923557.3370504       -962377067.20111513        756709892.63009536     
  -3236051074.3940148       -868157255.31765592        853067592.80790067     
  -3263903546.4107866       -773020626.63355505        951343038.22056854     
  -3291480973.3873677       -676967181.14881337        1051536228.8680990     
  -3318783355.3237553       -579996918.86343026        1153647164.7504921     
  -3768313251.8064852       -1130493975.5419455        800612350.99525368     
  -3779252117.2723885       -1008645043.0004486        884899279.75759065     
  -3790798417.4380484       -888820892.79147518        974114552.04941142     
  -3802952152.3034658       -771021524.91502595        1068258167.8707159     
  -3815713321.8686404       -655246939.37110007        1167330127.2215037     
  -1850961171.3956447       -361137172.05238330        1142837197.2026606     
  -1835637300.6297257       -295392455.18677533        1190328908.3698232     
  -1823689238.9077599       -240900435.13434470        1240107654.9443300     
  -1815116986.2297473       -197661111.89508945        1292173436.9261799     
  -1809920542.5956867       -165674485.46900988        1346526254.3153739     
  -2336407280.0872574       -432942035.20407182        1141400699.7410707     
  -2312857227.0616941       -351805852.63213432        1182645925.7518299     
  -2292801612.2535911       -282317797.45172936        1224380072.1612029     
  -2276240435.6629462       -224477869.66285437        1266603138.9691899     
  -2263173697.2897625       -178286069.26551270        1309315126.1757917     
  -2825681341.3966260       -505895284.14108682        1145004022.2570143     
  -2799042577.5649328       -410908877.29887438        1179864362.4089451     
  -2776016881.1242046       -327966028.42654872        1213415507.9507611     
  -2756604252.0744424       -257066737.52411056        1245657458.8824613     
  -2740804690.4156475       -198211004.59155977        1276590215.2040472     
  -3318783355.3237553       -579996918.86343026        1153647164.7504921     
  -3294193352.1394415       -472701529.18699551        1181984218.3411703     
  -3273335045.5196009       -377845128.05880296        1207213962.3130038     
  -3256208435.4642329       -295427715.47885430        1229336396.6659927     
  -3242813521.9733377       -225449291.44714797        1248351521.4001377     
  -3815713321.8686404       -655246939.37110007        1167330127.2215037     
  -3798309550.7852211       -537183808.29649758        1189005493.5485048     
  -3784756105.4397793       -431955096.34849226        1205775435.2479320     
  -3775052985.8323183       -339560803.52708673        1217639952.3197854     
  -3769200191.9628363       -260000929.83227766        1224599044.7640643     
  -1809920542.5956867       -165674485.46900988        1346526254.3153739     
  -1779645929.5334475       -133232663.18531966        1364142765.5394056     
  -1750655895.3201187       -105072770.39799798        1382591065.9301701     
  -1722950439.9557009       -81194807.107047021        1401871155.4876666     
  -1696529563.4401939       -61598773.312463164        1421983034.2118957     
  -2263173697.2897625       -178286069.26551270        1309315126.1757917     
  -2224065205.1647677       -133947933.93096459        1317163917.8594444     
  -2187835587.6937423       -99206047.442985535        1328230908.9513631     
  -2154484844.8766875       -74060409.801570058        1342516099.4515491     
  -2124012976.7136049       -58511021.006729960        1360019489.3600013     
  -2740804690.4156475       -198211004.59155977        1276590215.2040472     
  -2686044004.2520814       -139931061.71340704        1272811275.5747497     
  -2635756488.5475483       -96561687.032023191        1274636945.5952532     
  -2589942143.3020439       -68102880.547408462        1282067225.2655575     
  -2548600968.5155735       -54554642.259566784        1295102114.5856638     
  -3242813521.9733377       -225449291.44714797        1248351521.4001377     
  -3165582326.7953925       -151182046.53264892        1231084838.6853201     
  -3094418597.8815374       -97139689.165119052        1221809175.8618386     
  -3029322335.2317743       -63322219.344559073        1220524532.9296911     
  -2970293538.8461022       -49729637.070971012        1227230909.8888800     
  -3769200191.9628363       -260000929.83227766        1224599044.7640643     
  -3662680172.7946987       -167700888.38868904        1191984607.1911578     
  -3563821915.6957102       -100940053.84226787        1169747599.7511191     
  -3472625420.6658735       -59718426.193015814        1157888022.4439518     
  -3389090687.7051892       -44036005.440942764        1156405875.2696521     
  -1696529563.4401939       -61598773.312463164        1421983034.2118957     
  -1646053836.2037575       -39475598.693777084        1415828845.6983166     
  -1597385385.7616048       -23376680.056036413        1415260553.0341258     
  -1550524212.1137373       -13302017.399245441        1420278156.2193244     
  -1505470315.2601516       -9251610.7233961225        1430881655.2539115     
  -2124012976.7136049       -58511021.006729960        1360019489.3600013     
  -2060642789.3268075       -39441521.290791273        1352787585.0232015     
  -1998580134.8768203       -24730464.697551131        1350593294.5456176     
  -1937825013.3636446       -14377851.227016926        1353436617.9272482     
  -1878377424.7872784       -8383680.8791812658        1361317555.1680934     
  -2548600968.5155735       -54554642.259566784        1295102114.5856638     
  -2473902840.9503407       -39008773.437952399        1287375528.9260290     
  -2400012502.4644427       -26155534.880791306        1284138275.1354361     
  -2326929953.0578828       -15994926.588087916        1285390353.2138853     
  -2254655192.7306581       -8526948.5598373413        1291131763.1613762     
  -2970293538.8461022       -49729637.070971012        1227230909.8888800     
  -2885833991.0743551       -38177355.135254622        1219592677.4067962     
  -2801682488.5244727       -27651890.605752945        1215895494.8035815     
  -2717839031.1964536       -18153243.482458234        1216139362.0792339     
  -2634303619.0902948       -9681413.7653707266        1220324279.2337561     
  -3389090687.7051892       -44036005.440942764        1156405875.2696521     
  -3296436239.6988540       -36947266.382705450        1149439030.4655058     
  -3203590093.0569105       -29219531.872435212        1145864953.5500548     
  -3110552247.7793550       -20852801.910126448        1145683644.5232980     
  -3017322703.8661895       -11847076.495784521        1148895103.3852358     
  -1505470315.2601516       -9251610.7233961225        1430881655.2539115     
  -1462715895.4867835       -8730512.3768708110        1425209167.0718021     
  -1420026373.7797375       -8425740.9180873036        1423337504.6098850     
  -1377401750.1390159       -8337296.3470482826        1425266667.8681593     
  -1334842024.5646174       -8465178.6637572050        1430996656.8466256     
  -1878377424.7872784       -8383680.8791812658        1361317555.1680934     
  -1824971345.1523094       -6679695.3124867678        1354396712.5446136     
  -1771891402.0961766       -6062831.6752383709        1351595654.7359791     
  -1719137595.6188776       -6533089.9674382210        1352914381.7421877     
  -1666709925.7204094       -8090470.1890789270        1358352893.5632441     
  -2254655192.7306581       -8526948.5598373413        1291131763.1613762     
  -2189686141.5350852       -5366682.2632808685        1282657787.8319292     
  -2125304465.4308577       -4164332.9378687143        1278622556.4119809     
  -2061510164.4179704       -4919900.5835975409        1279026068.9015310     
  -1998303238.4964263       -7633385.2004663944        1283868325.3005795     
  -2634303619.0902948       -9681413.7653707266        1220324279.2337561     
  -2556860284.6351066       -4791473.2292451859        1209992392.9337497     
  -2480265563.7837725       -2730244.7059643269        1204418209.6378968     
  -2404519456.5362892       -3497728.1955161095        1203601729.3461909     
  -2329621962.8926616       -7093923.6979218721        1207542952.0586398     
  -3017322703.8661895       -11847076.495784521        1148895103.3852358     
  -2926493774.4523778       -4954068.2103896141        1136400527.8500748     
  -2836774697.1549301       -1760566.9795362949        1128982614.4137173     
  -2748165471.9738445       -2266572.8032200336        1126641363.0761652     
  -2660666098.9091172       -6472085.6814401150        1129376773.8374176     
  -1334842024.5646174       -8465178.6637572050        1430996656.8466256     
  -1276170764.0288596       -4464742.3661166430        1425460370.6714096     
  -1217899534.1349599       -1797741.5413396955        1424903270.3759112     
  -1160028334.8829119       -464176.18939721584        1429325355.9601283     
  -1102557166.2727141       -464046.31029224396        1438726627.4240611     
  -1666709925.7204094       -8090470.1890789270        1358352893.5632441     
  -1595412899.2101698       -4812455.9894248843        1352512376.4333098     
  -1524333964.1841083       -2261413.4037054181        1351571513.8881793     
  -1453473120.6422303       -437342.43192356825        1355530305.9278536     
  -1382830368.5845284        659756.92592889071        1364388752.5523391     
  -1998303238.4964263       -7633385.2004663944        1283868325.3005795     
  -1914607678.2828705       -5145962.7801370621        1277935839.5665419     
  -1830948270.3958266       -2779048.1148452759        1276823477.1224024     
  -1747325014.8352871       -532641.20457148552        1280531237.9681551     
  -1663737911.6012604        1593257.9506664276        1289059122.1038036     
  -2329621962.8926616       -7093923.6979218721        1207542952.0586398     
  -2233755101.2469678       -5465262.7382781506        1201730760.0711198     
  -2137742452.7701104       -3350645.6747514009        1200659160.0785832     
  -2041584017.4620898       -750072.50734972954        1204328152.0810297     
  -1945279795.3229039        2336456.7639329433        1212737736.0784633     
  -2660666098.9091172       -6472085.6814401150        1129376773.8374176     
  -2552855168.1024585       -5770355.8638290167        1123897137.9470313     
  -2444716511.3069615       -3976206.0834287405        1123078562.7567170     
  -2336250128.5226288       -1089636.3402384520        1126921048.2664785     
  -2227456019.7494621        2889353.3657283783        1135424594.4763160     
  -1102557166.2727141       -464046.31029224396        1438726627.4240611     
  -1064293287.0265086       -6608021.0781835318        1431673359.8030396     
  -1025881191.0974455       -12257940.236545622        1430526656.1956906     
  -987320878.48551238       -17413803.785344779        1435286516.6020164     
  -948612349.19071937       -22075611.724607348        1445952941.0220163     
  -1382830368.5845284        659756.92592889071        1364388752.5523391     
  -1329949011.0384970       -4017704.9669543505        1356701882.0273788     
  -1277143722.1602945       -8948729.0859377384        1354014235.5174541     
  -1224414501.9499311       -14133315.431046188        1356325813.0225711     
  -1171761350.4073956       -19571464.002250195        1363636614.5427206     
  -1663737911.6012604        1593257.9506664276        1289059122.1038036     
  -1598831475.7514987       -2395411.0660167336        1280476982.4324279     
  -1534225393.9202681       -7385260.1444704533        1275986726.7774503     
  -1469919666.1075704       -13376289.284700394        1275588355.1388741     
  -1405914292.3134034       -20368498.486700773        1279281867.5166976     
  -1945279795.3229039        2336456.7639329433        1212737736.0784633     
  -1870940681.1655211       -1741139.3753899336        1202998661.0181899     
  -1797126206.3773637       -7567533.4121348858        1196444129.9756751     
  -1723836370.9584417       -15142725.346324205        1193074142.9509265     
  -1651071174.9087474       -24466715.177944720        1192888699.9439423     
  -2227456019.7494621        2889353.3657283783        1135424594.4763160     
  -2146276627.2805610       -2054889.8950716257        1124266917.7846608     
  -2065846159.5315883       -9495548.8889539242        1115386445.1121325     
  -1986164616.5025399       -19432623.615924954        1108783176.4587321     
  -1907231998.1934214       -31866114.075990915        1104457111.8244574     
  -948612349.19071937       -22075611.724607348        1445952941.0220163     
  -875994227.92881548       -17415711.893991232        1450055662.9697814     
  -804085534.22027135       -15120570.574576586        1460512188.5662351     
  -732886268.06508815       -15190187.766364485        1477322517.8113832     
  -662396429.46326172       -17624563.469340116        1500486650.7052195     
  -1171761350.4073956       -19571464.002250195        1363636614.5427206     
  -1083592184.2246187       -15006957.336943150        1362906045.6794527     
  -995776937.82821691       -11622183.292872310        1367806029.2216887     
  -908315611.21818423       -9417141.8700382113        1378336565.1694508     
  -821208204.39452434       -8391833.0684489608        1394497653.5226972     
  -1405914292.3134034       -20368498.486700773        1279281867.5166976     
  -1304260513.3331318       -16519314.623706520        1274132766.9038799     
  -1202605146.3722401       -12664837.491984963        1273890967.4533916     
  -1100948191.4307377       -8805067.0915592313        1278556469.1652310     
  -999289648.50861740       -4940003.4224002957        1288129272.0394037     
  -1651071174.9087474       -24466715.177944720        1192888699.9439423     
  -1537999215.2543483       -21952783.754278421        1183735826.6430628     
  -1424570159.8523500       -18248533.171933472        1178767003.2613263     
  -1310784008.7027450       -13353963.430908024        1177982229.7987485     
  -1196640761.8055367       -7269074.5312029123        1181381506.2553108     
  -1907231998.1934214       -31866114.075990915        1104457111.8244574     
  -1784808289.9882784       -31307364.728674293        1091715224.8970017     
  -1661671978.2685344       -28373270.332686841        1082434136.6455123     
  -1537823063.0342140       -23063830.888107598        1076613847.0699949     
  -1413261544.2852890       -15379046.394855320        1074254356.1704395     
  -3768313251.8064852       -1130493975.5419455        800612350.99525368     
  -3779252117.2723885       -1008645043.0004486        884899279.75759065     
  -3790798417.4380484       -888820892.79147518        974114552.04941142     
  -3802952152.3034658       -771021524.91502595        1068258167.8707159     
  -3815713321.8686404       -655246939.37110007        1167330127.2215037     
  -4339788634.1792765       -1301936590.2537830        858820153.47491050     
  -4335333172.6610193       -1125691172.7029462        942429464.48694861     
  -4332011728.0589972       -953225811.53955936        1020399186.9551632     
  -4329824300.3732109       -784540506.76362288        1092729320.8795543     
  -4328770889.6036587       -619635258.37513578        1159419866.2601221     
  -4895200602.0882101       -1468560180.6264629        936480585.41959953     
  -4905544905.2238131       -1246976505.5576930        1018797932.7621143     
  -4917549807.4921284       -1030928160.9312983        1084907759.4874988     
  -4931215308.8931580       -820415146.74728024        1134810065.5957525     
  -4946541409.4268990       -615437463.00563800        1168504851.0868759     
  -5434549155.5332870       -1630364746.6599860        1033593646.8293200     
  -5489887314.9607706       -1372501041.5646887        1114004684.5830877     
  -5547412655.7374449       -1121927940.9666924        1167640269.6464179     
  -5607125177.8633089       -878645444.86599863        1194500402.0193100     
  -5669024881.3383665       -642653553.26260829        1194585081.7017648     
  -5957834294.5145054       -1787350288.3543518        1150159337.7040727     
  -6088360401.8718910       -1502264780.7239330        1228049719.9498692     
  -6221600272.7949438       -1226225151.6457415        1268596717.4319205     
  -6357553907.2836657       -959231401.11977983        1271800330.1502275     
  -6496221305.3380566       -701283529.14604521        1237660558.1047890     
  -3815713321.8686404       -655246939.37110007        1167330127.2215037     
  -3798309550.7852211       -537183808.29649758        1189005493.5485048     
  -3784756105.4397793       -431955096.34849226        1205775435.2479320     
  -3775052985.8323183       -339560803.52708673        1217639952.3197854     
  -3769200191.9628363       -260000929.83227766        1224599044.7640643     
  -4328770889.6036587       -619635258.37513578        1159419866.2601221     
  -4298510607.9353504       -463791981.33125067        1141496777.4967263     
  -4278868418.7667847       -343342345.95316637        1129650241.6640601     
  -4269844322.0979576       -258286352.24088120        1123880258.7621219     
  -4271438317.9288678       -208624000.19439507        1124186828.7909148     
  -4946541409.4268990       -615437463.00563800        1168504851.0868759     
  -4872047538.4356976       -412400916.37106991        1103087579.3443627     
  -4814939526.7059965       -267317233.94150257        1054728838.0908827     
  -4775217374.2377949       -180186415.71693563        1023428627.3264338     
  -4752881081.0310926       -151008461.69736981        1009186947.0510180     
  -5669024881.3383665       -642653553.26260829        1194585081.7017648     
  -5518920342.2862577       -383010613.41595173        1073777899.0914142     
  -5392969429.2574129       -203879760.31350017        981011224.52839899     
  -5291172142.2518301       -105260993.95525002        916285058.01271939     
  -5213528481.2695036       -87154314.341200829        879599399.54437494     
  -6496221305.3380566       -701283529.14604521        1237660558.1047890     
  -6239129019.4870367       -375621072.46590114        1053567736.7378805     
  -6012958126.4210396       -153029925.06916094        908497400.97661030     
  -5817708626.1400604       -33510086.955821991        802449550.82097900     
  -5653380518.6441059       -17061558.125889063        735424186.27098548     
  -3769200191.9628363       -260000929.83227766        1224599044.7640643     
  -3662680172.7946987       -167700888.38868904        1191984607.1911578     
  -3563821915.6957102       -100940053.84226787        1169747599.7511191     
  -3472625420.6658735       -59718426.193015814        1157888022.4439518     
  -3389090687.7051892       -44036005.440942764        1156405875.2696521     
  -4271438317.9288678       -208624000.19439507        1124186828.7909148     
  -4149178559.9140801       -144573875.88541675        1090754156.5165269     
  -4031312810.8662877       -95170448.133097172        1065570757.1762187     
  -3917841070.7854915       -60413716.937433720        1048636630.7699926     
  -3808763339.6716952       -40303682.298432350        1039951777.2978469     
  -4752881081.0310926       -151008461.69736981        1009186947.0510180     
  -4620962033.3090477       -117032389.26482272        978748418.69432867     
  -4490169241.4518452       -86810503.048419237        954431006.07293129     
  -4360502705.4594870       -60342803.048163891        936234709.18682587     
  -4231962425.3319726       -37629289.264052153        924159528.03601265     
  -5213528481.2695036       -87154314.341200829        879599399.54437494     
  -5078030592.9796009       -85076428.526902199        855967393.72456431     
  -4940391207.4523869       -75860218.588239193        836328346.44125688     
  -4800610324.6878633       -59505684.525206089        820682257.69445086     
  -4658687944.6860275       -36012826.337806225        809029127.48414934     
  -5653380518.6441059       -17061558.125889063        735424186.27098548     
  -5520384238.9257393       -48705993.671659708        722411081.60723102     
  -5381978708.8679085       -62319594.752549410        711262778.28119373     
  -5238163928.4706163       -57902361.368562937        701979276.29286826     
  -5088939897.7338572       -35454293.519693136        694560575.64225924     
  -3389090687.7051892       -44036005.440942764        1156405875.2696521     
  -3296436239.6988540       -36947266.382705450        1149439030.4655058     
  -3203590093.0569105       -29219531.872435212        1145864953.5500548     
  -3110552247.7793550       -20852801.910126448        1145683644.5232980     
  -3017322703.8661895       -11847076.495784521        1148895103.3852358     
  -3808763339.6716952       -40303682.298432350        1039951777.2978469     
  -3704849070.9043875       -29371853.894542933        1031985880.6160560     
  -3601571013.5203047       -20560730.101400375        1028401749.8588605     
  -3498929167.5194407       -13870310.918992996        1029199385.0262611     
  -3396923532.9018064       -9300596.3473405838        1034378786.1182564     
  -4231962425.3319726       -37629289.264052153        924159528.03601265     
  -4113962627.1296897       -22006658.912309408        914228684.45460391     
  -3997426950.3294644       -11264433.234090328        909668604.83369172     
  -3882355394.9312968       -5402612.2293939590        910479289.17327607     
  -3768747960.9351840       -4421195.8982188702        916660737.47335625     
  -4658687944.6860275       -36012826.337806225        809029127.48414934     
  -4523776908.3747683       -14851681.436013222        796167441.98115158     
  -4391157903.4843988       -1330641.2705142498        789665518.47454870     
  -4260830930.0149217        4550294.1586742401        789523356.96434665     
  -4132795987.9663324        2791124.8515675068        795740957.45053899     
  -5088939897.7338572       -35454293.519693136        694560575.64225924     
  -4934291914.6396179       -7906921.4656405449        677802153.19569731     
  -4782763872.9851036        9240645.7893264294        668392490.78143179     
  -4634355772.7703104        15988408.245219707        666331588.39946759     
  -4489067613.9952440        12336365.902027369        671619446.04979920     
  -3017322703.8661895       -11847076.495784521        1148895103.3852358     
  -2926493774.4523778       -4954068.2103896141        1136400527.8500748     
  -2836774697.1549301       -1760566.9795362949        1128982614.4137173     
  -2748165471.9738445       -2266572.8032200336        1126641363.0761652     
  -2660666098.9091172       -6472085.6814401150        1129376773.8374176     
  -3396923532.9018064       -9300596.3473405838        1034378786.1182564     
  -3294816907.0827165       -6463147.3481154442        1023380614.2759682     
  -3193236199.2866974       -5378758.4257920980        1016916829.7126667     
  -3092181409.5137463       -6047429.5803562403        1014987432.4283527     
  -2991652537.7638617       -8469160.8118109703        1017592422.4230263     
  -3768747960.9351840       -4421195.8982188702        916660737.47335625     
  -3656912995.3388720       -6104113.1735920906        907840225.76611853     
  -3545020013.6723328       -7593643.5482132435        903011826.51805067     
  -3433069015.9355645       -8889787.0220739841        902175539.72915268     
  -3321060002.1285734       -9992543.5951788425        905331365.39942348     
  -4132795987.9663324        2791124.8515675068        795740957.45053899     
  -4012782039.2208409       -3876965.6868147850        789779362.32052648     
  -3892126140.3118296       -8405222.3467924595        787267604.82986903     
  -3770828291.2392955       -10793645.128365755        788205684.97856343     
  -3648888492.0032425       -11042234.031533718        792593602.76661122     
  -4489067613.9952440        12336365.902027369        671619446.04979920     
  -4362424038.7286234        218295.11222529411        669198023.93919158     
  -4234554579.2051897       -7813494.8215293884        669684164.64811921     
  -4105459235.4249382       -11759003.899230719        673077868.17658496     
  -3975138007.3878694       -11618232.120872498        679379134.52458334     
  -2660666098.9091172       -6472085.6814401150        1129376773.8374176     
  -2552855168.1024585       -5770355.8638290167        1123897137.9470313     
  -2444716511.3069615       -3976206.0834287405        1123078562.7567170     
  -2336250128.5226288       -1089636.3402384520        1126921048.2664785     
  -2227456019.7494621        2889353.3657283783        1135424594.4763160     
  -2991652537.7638617       -8469160.8118109703        1017592422.4230263     
  -2870830021.5682225       -5544149.7166191339        1012965114.3720335     
  -2749970390.2113252       -2495421.4172365665        1013172592.5484328     
  -2629073643.6931686        677024.08634436131        1018214856.9522262     
  -2508139782.0137591        3973186.7941050529        1028091907.5834094     
  -3321060002.1285734       -9992543.5951788425        905331365.39942348     
  -3186729541.8944716       -4695343.6275620461        901217339.22231793     
  -3052652577.3266897       -243129.21434426308        902111824.79992211     
  -2918829108.4252324        3364099.6444635391        908014822.13223445     
  -2785259135.1900916        6126342.9488711357        918926331.21925902     
  -3648888492.0032425       -11042234.031533718        792593602.76661122     
  -3500553729.0811954       -3223937.5966403484        788653812.49787962     
  -3352763072.6530533        2780670.5252499580        789896259.51117861     
  -3205516522.7188158        6971590.3341270685        796320943.80650473     
  -3058814079.2784691        9348821.8300269842        807927865.38386178     
  -3975138007.3878694       -11618232.120872498        679379134.52458334     
  -3812302583.1284080       -1129931.6238718033        675274534.19872224     
  -3650301876.1904211        6575977.8015377522        676525896.68220711     
  -3489135886.5739145        11499496.155345201        683133221.97504056     
  -3328804614.2788882        13640623.437563896        695096510.07721615     
  -2227456019.7494621        2889353.3657283783        1135424594.4763160     
  -2146276627.2805610       -2054889.8950716257        1124266917.7846608     
  -2065846159.5315883       -9495548.8889539242        1115386445.1121325     
  -1986164616.5025399       -19432623.615924954        1108783176.4587321     
  -1907231998.1934214       -31866114.075990915        1104457111.8244574     
  -2508139782.0137591        3973186.7941050529        1028091907.5834094     
  -2420801087.2528472       -3357600.6787276268        1017879456.5780693     
  -2333861090.1400447       -12017380.311915278        1010678467.3656162     
  -2247319790.6753473       -22006152.105456710        1006488939.9460549     
  -2161177188.8587499       -33323916.059333444        1005310874.3193800     
  -2785259135.1900916        6126342.9488711357        918926331.21925902     
  -2689663258.7835736       -2961624.9299259186        910067704.15069032     
  -2594115852.9533339       -12211161.396327138        904954796.64877605     
  -2498616917.6993766       -21622266.450344920        903587608.71350908     
  -2403166453.0217037       -31194940.091965079        905966140.34489274     
  -3058814079.2784691        9348821.8300269842        807927865.38386178     
  -2952863141.8727336       -866962.64865231514        800831660.50252771     
  -2846610447.9714532       -10076892.142191052        798215432.96160328     
  -2740055997.5746398       -18280966.650608420        800079182.76109242     
  -2633199790.6822839       -25479186.173883796        806422909.90099370     
  -3328804614.2788882        13640623.437563896        695096510.07721615     
  -3210400736.5203285        2926386.1650973558        690171325.63357580     
  -3091344875.1944118       -5614572.5495127439        690460376.30410480     
  -2971637030.3011293       -11982252.706241131        695963662.08881080     
  -2851277201.8404832       -16176654.305091739        706681182.98768747     
  -1907231998.1934214       -31866114.075990915        1104457111.8244574     
  -1784808289.9882784       -31307364.728674293        1091715224.8970017     
  -1661671978.2685344       -28373270.332686841        1082434136.6455123     
  -1537823063.0342140       -23063830.888107598        1076613847.0699949     
  -1413261544.2852890       -15379046.394855320        1074254356.1704395     
  -2161177188.8587499       -33323916.059333444        1005310874.3193800     
  -2029149064.7596769       -31098126.299060941        997357253.08007610     
  -1896868684.5315626       -28031482.775307536        992946143.75714779     
  -1764336048.1744080       -24123985.488092661        992077546.35059202     
  -1631551155.6882126       -19375634.437408745        994751460.86040592     
  -2403166453.0217037       -31194940.091965079        905966140.34489274     
  -2261300446.6275449       -27232069.998386860        902263712.84393358     
  -2119642531.4898922       -23962837.426499128        902185510.49975073     
  -1978192707.6087489       -21387242.376318574        905731533.31234562     
  -1836950974.9841313       -19505284.847854137        912901781.28172362     
  -2633199790.6822839       -25479186.173883796        806422909.90099370     
  -2481262435.5918779       -19709195.826656342        806434604.18856752     
  -2329993519.1435347       -16167334.286293983        810152236.87332416     
  -2179393041.3372502       -14853601.552811027        817575807.95526910     
  -2029461002.1730361       -15767997.626198530        828705317.43438840     
  -2851277201.8404832       -16176654.305091739        706681182.98768747     
  -2689035031.6526785       -8529503.7838593721        709869927.11397886     
  -2527921647.4924808       -4644973.3546743393        716846322.87786233     
  -2367937049.3598957       -4523063.0175217390        727610370.27933800     
  -2209081237.2549362       -8163772.7724417448        742162069.31839979     
  -5957834294.5145054       -1787350288.3543518        1150159337.7040727     
  -6088360401.8718910       -1502264780.7239330        1228049719.9498692     
  -6221600272.7949438       -1226225151.6457415        1268596717.4319205     
  -6357553907.2836657       -959231401.11977983        1271800330.1502275     
  -6496221305.3380566       -701283529.14604521        1237660558.1047890     
  -6810444379.9207296       -2043133313.9762189        1353882500.3315976     
  -6828387332.9675941       -1395424360.1618741        1202878476.8421519     
  -6897699115.4798403       -918944837.89879823        1092137930.7744064     
  -7018379727.4574661       -613694747.18699050        1021660862.1283618     
  -7190429168.9004717       -479674088.02645183        991447270.90401709     
  -8337767772.6408186       -2501330331.7922454        1712467976.9996355     
  -8021393679.4187469       -1424477764.2064500        1275805304.2252831     
  -7805043481.5617695       -681038181.17096400        957012971.05807698     
  -7688717179.0698833       -271011582.68578720        756090977.49801636     
  -7672414771.9430923       -194397968.75091982        673039323.54510224     
  -10539804472.674772       -3161941341.8024316        2225915767.7081861     
  -9667379441.2253532       -1589424992.8576610        1446830202.0992630     
  -8943633371.0407372       -512505181.46224117        863221838.28293145     
  -8368566262.1209240        68818092.383828640        475090676.25919116     
  -7942178114.4659157        154544828.68055010        282436716.02804333     
  -13416554480.022593       -4024966344.0067782        2894225872.4572496     
  -11766344618.387405       -1890266046.1155076        1715953170.4640918     
  -10313468783.916733       -413345838.77262783        810764532.44897091     
  -9057926976.6105804        405794278.02186251        178659958.41188642     
  -7999719196.4689426        567154304.26796007       -180360551.64716110     
  -6496221305.3380566       -701283529.14604521        1237660558.1047890     
  -6239129019.4870367       -375621072.46590114        1053567736.7378805     
  -6012958126.4210396       -153029925.06916094        908497400.97661030     
  -5817708626.1400604       -33510086.955821991        802449550.82097900     
  -5653380518.6441059       -17061558.125889063        735424186.27098548     
  -7190429168.9004717       -479674088.02645183        991447270.90401709     
  -6900245438.2428732       -304305306.86301064        847175010.29270339     
  -6622861117.4345837       -171601225.19726253        724018377.50774300     
  -6358276206.4756002       -81561843.029207945        621977372.54913652     
  -6106490705.3659286       -34187160.358849049        541051995.41688311     
  -7672414771.9430923       -194397968.75091982        673039323.54510224     
  -7400302047.2768707       -184671598.34356642        589729937.11438072     
  -7122866749.5242443       -157203317.64819908        509629320.73072839     
  -6840108878.6852131       -111993126.66481519        432737474.39414567     
  -6552028434.7597752       -49041025.393412352        359054398.10463005     
  -7942178114.4659157        154544828.68055010        282436716.02804333     
  -7739298846.5890274       -16719946.907574177        281232517.20291227     
  -7512975022.6900206       -109836202.42197227        265330230.64556685     
  -7263206642.7688971       -124803937.86264706        234729856.35600454     
  -6989993706.8256550       -61623153.229588032        189431394.33422732     
  -7999719196.4689426        567154304.26796007       -180360551.64716110     
  -7917235836.1793432        199549647.44497395       -78317249.441701770     
  -7793185936.9319153       -29499879.518577576       -8878892.7477433160     
  -7627569498.7266560       -119994276.62269688        27954518.434716891     
  -7420386521.5635633       -71933543.867372990        32182984.105675627     
  -5653380518.6441059       -17061558.125889063        735424186.27098548     
  -5520384238.9257393       -48705993.671659708        722411081.60723102     
  -5381978708.8679085       -62319594.752549410        711262778.28119373     
  -5238163928.4706163       -57902361.368562937        701979276.29286826     
  -5088939897.7338572       -35454293.519693136        694560575.64225924     
  -6106490705.3659286       -34187160.358849049        541051995.41688311     
  -5958844892.6607285       -35998561.645060062        534736723.79816937     
  -5810230995.8876905       -34583016.038483620        530940976.00248486     
  -5660649015.0468168       -29940523.539120674        529664752.02982980     
  -5510098950.1381083       -22071084.146964312        530908051.88020217     
  -6552028434.7597752       -49041025.393412352        359054398.10463005     
  -6387862453.3954153       -20458201.718370199        354255598.88072443     
  -6227169554.2348480       -3452318.7226319313        352631045.96516198     
  -6069949737.2780685        1976623.5938038826        354180739.35794419     
  -5916203002.5250788       -4171374.7690544128        358904679.05906886     
  -6989993706.8256550       -61623153.229588032        189431394.33422732     
  -6807436921.1298065       -2084913.8915920258        180967706.85489807     
  -6632794383.9093714        31072497.195012093        176332988.16922566     
  -6466066095.1643581        37849080.030227661        175527238.27721491     
  -6307252054.8947611        18244834.614040375        178550457.17885637     
  -7420386521.5635633       -71933543.867372990        32182984.105675627     
  -7217568295.8638964        19121301.835276127        14873047.720686881     
  -7027105484.9112759        68991431.714440346        2046802.6146737002     
  -6848998088.7056971        77676845.770122528       -6295751.2123637935     
  -6683246107.2471657        45177544.002324581       -10154613.760432046     
  -5088939897.7338572       -35454293.519693136        694560575.64225924     
  -4934291914.6396179       -7906921.4656405449        677802153.19569731     
  -4782763872.9851036        9240645.7893264294        668392490.78143179     
  -4634355772.7703104        15988408.245219707        666331588.39946759     
  -4489067613.9952440        12336365.902027369        671619446.04979920     
  -5510098950.1381083       -22071084.146964312        530908051.88020217     
  -5342934910.2377234       -9262645.1667931080        516182570.09932280     
  -5176768751.9279146        219521.84479141235        507137356.53869104     
  -5011600475.2086782        6375416.8878030777        503772411.19830662     
  -4847430080.0800152        9205039.9622266293        506087734.07816935     
  -5916203002.5250788       -4171374.7690544128        358904679.05906886     
  -5741290025.2815485       -7532004.7016658783        348687874.43454725     
  -5565252869.7794437       -7145373.7723596096        342482846.21822262     
  -5388091536.0187626       -3011481.9811275005        340289594.41009474     
  -5209806023.9995050        4869670.6720139980        342108119.01016438     
  -6307252054.8947611        18244834.614040375        178550457.17885637     
  -6129357259.7710867       -2715000.0702490807        175318066.20136571     
  -5948216226.5396948       -12854041.062125206        174428959.82002628     
  -5763828955.2005720       -12172288.361578703        175883138.03482723     
  -5576195445.7537260       -669741.96862506866        179680600.84577954     
  -6683246107.2471657        45177544.002324581       -10154613.760432046     
  -6507136613.7063541        5188368.7274494171       -3926854.6002128548     
  -6325658822.2086639       -16906480.024510860        2975697.3441002392     
  -6138812732.7540989       -21107002.253544807        10553042.072509237     
  -5946598345.3426580       -7413197.9596641064        18805179.585016459     
  -4489067613.9952440        12336365.902027369        671619446.04979920     
  -4362424038.7286234        218295.11222529411        669198023.93919158     
  -4234554579.2051897       -7813494.8215293884        669684164.64811921     
  -4105459235.4249382       -11759003.899230719        673077868.17658496     
  -3975138007.3878694       -11618232.120872498        679379134.52458334     
  -4847430080.0800152        9205039.9622266293        506087734.07816935     
  -4711405072.0758066        2532850.1334993839        503224102.37459028     
  -4575079894.6343031       -3138774.9042572975        503412652.81244844     
  -4438454547.7555170       -7809835.1510558128        506653385.39174515     
  -4301529031.4394341       -11480330.606883049        512946300.11248380     
  -5209806023.9995050        4869670.6720139980        342108119.01016438     
  -5063986385.1951265        3767321.2231411934        337722277.09082979     
  -4918792291.7729826        579820.50014305115        336533236.63483709     
  -4774223743.7330761       -4692831.4969737530        338540997.64218718     
  -4630280741.0754032       -12050634.768216848        343745560.11288011     
  -5576195445.7537260       -669741.96862506866        179680600.84577954     
  -5420167978.0865889        3921708.3811345100        172692548.08791107     
  -5265691770.6212234        3342291.3916742802        169045916.11528555     
  -5112766823.3576145       -2407992.9369919300        168740704.92790529     
  -4961393136.2957735       -13329144.604876280        171776914.52577141     
  -5946598345.3426580       -7413197.9596641064        18805179.585016459     
  -5779949850.7501926        2996011.6074953079        8134915.3658284601     
  -5615778331.1790209        5148637.7703459263        950691.25379062875     
  -5454083786.6291380       -955319.47109532356       -2747492.7510964754     
  -5294866217.1005421       -15315860.116842270       -2959636.6488364553     
  -3975138007.3878694       -11618232.120872498        679379134.52458334     
  -3812302583.1284080       -1129931.6238718033        675274534.19872224     
  -3650301876.1904211        6575977.8015377522        676525896.68220711     
  -3489135886.5739145        11499496.155345201        683133221.97504056     
  -3328804614.2788882        13640623.437563896        695096510.07721615     
  -4301529031.4394341       -11480330.606883049        512946300.11248380     
  -4125544022.7791238       -3398930.3271613121        507345826.86152291     
  -3949836734.3040462        3756736.0017795563        507059894.23662716     
  -3774407166.0142002        9986668.3799476624        512088502.23779392     
  -3599255317.9095926        15290866.807330370        522431650.86502397     
  -4630280741.0754032       -12050634.768216848        343745560.11288011     
  -4441264497.1093388       -6411639.4343070984        337299043.92910421     
  -4251968976.1922617        158279.06964445114        336125646.18811256     
  -4062394178.3241744        7659120.7436368465        340225366.88990110     
  -3872540103.5050707        16090885.587671518        349598206.03447133     
  -4961393136.2957735       -13329144.604876280        171776914.52577141     
  -4759464006.1190453       -10168058.945287228        165134185.40147209     
  -4556698601.8550673       -4219392.9948608875        163723152.53667313     
  -4353096923.5038328        4516853.2464177608        167543815.93136841     
  -4148658971.0653343        16040679.778577089        176596175.58555883     
  -5294866217.1005421       -15315860.116842270       -2959636.6488364553     
  -5080142549.8082571       -14668188.860131979       -9148748.7213761993     
  -4864025611.2924671       -9376280.1917507648       -10147586.717702614     
  -4646515401.5531788        559865.88829851151       -5956150.6378071327     
  -4427611920.5903826        15140249.380033493        3425559.5182928713     
  -3328804614.2788882        13640623.437563896        695096510.07721615     
  -3210400736.5203285        2926386.1650973558        690171325.63357580     
  -3091344875.1944118       -5614572.5495127439        690460376.30410480     
  -2971637030.3011293       -11982252.706241131        695963662.08881080     
  -2851277201.8404832       -16176654.305091739        706681182.98768747     
  -3599255317.9095926        15290866.807330370        522431650.86502397     
  -3467946646.5002823        7502636.9747388363        516491674.48831660     
  -3336320348.4780712        773162.51846766472        514588994.85804981     
  -3204376423.8429775       -4897556.5615141392        516723611.97421074     
  -3072114872.5949879       -9509520.2651748657        522895525.83680844     
  -3872540103.5050707        16090885.587671518        349598206.03447133     
  -3731689319.4956946        10219858.879746199        342253354.61115909     
  -3590855265.8278842        4293064.3665914536        337768861.56654131     
  -3450037942.5016594       -1689497.9518373013        336144726.90061814     
  -3309237349.5170002       -7727828.0754954815        337380950.61339128     
  -4148658971.0653343        16040679.778577089        176596175.58555883     
  -4001628755.5065684        11078051.880133390        167456366.00209785     
  -3854949627.2438426        4945132.9948801994        159999976.42958045     
  -3708621586.2771668       -2358076.8772013187        154227006.86802840     
  -3562644632.6065264       -10831577.736064196        150137457.31742528     
  -4427611920.5903826        15140249.380033493        3425559.5182928713     
  -4277764954.5329175        10077215.975837946       -7899291.3388817525     
  -4128603432.7259498        2729368.4033176899       -18717660.552832235     
  -3980127355.1695118       -6903293.3376300335       -29029548.123570431     
  -3832336721.8635678       -18820769.246901035       -38834954.051083848     
  -2851277201.8404832       -16176654.305091739        706681182.98768747     
  -2689035031.6526785       -8529503.7838593721        709869927.11397886     
  -2527921647.4924808       -4644973.3546743393        716846322.87786233     
  -2367937049.3598957       -4523063.0175217390        727610370.27933800     
  -2209081237.2549362       -8163772.7724417448        742162069.31839979     
  -3072114872.5949879       -9509520.2651748657        522895525.83680844     
  -2899843411.9398079       -2642337.0950922966        519499139.58465683     
  -2728234957.6437297        2014824.8779784441        520209932.98161942     
  -2557289509.7067552        4461965.6540547609        525027906.02769840     
  -2387007068.1288714        4699085.2331200838        533953058.72289473     
  -3309237349.5170002       -7727828.0754954815        337380950.61339128     
  -3126023661.2186575       -1366731.1038445234        327942843.59605002     
  -2943007199.6109037        4336943.5658541918        322931444.23936105     
  -2760187964.6937385        9383195.9335957766        322346752.54330778     
  -2577565956.4671559        13772025.999377251        326188768.50790596     
  -3562644632.6065264       -10831577.736064196        150137457.31742528     
  -3367575779.4892306       -4702685.8101055622        135201039.14817154     
  -3172238373.3940029        2321382.7089453936        125010856.65108739     
  -2976632414.3208494        10240627.821104169        119566909.82617244     
  -2780757902.2697668        19055049.526336193        118869198.67343815     
  -3832336721.8635678       -18820769.246901035       -38834954.051083848     
  -3624499766.7515249       -12650201.213909626       -58726273.758996636     
  -3415928478.9930220       -4031857.6927158833       -73551829.783196539     
  -3206622858.5880919        7034261.3165824413       -83311622.123705506     
  -2996582905.5367188        20548155.813993096       -88005650.780512780     
 </DataArray>
 <DataArray  type="Float64" Name="VM" NumberOfComponents="1" format="ascii">
   12935715602.684637     
   11340720238.796652     
   10210165577.296396     
   9272654592.4221478     
   8303724236.0824871     
   10130311490.250233     
   9321956633.1676407     
   8826269700.1379185     
   8443380805.8177938     
   8035472068.1700449     
   7982302496.5877247     
   7734897158.3219185     
   7669068106.1869297     
   7669492057.8459578     
   7666236557.1073742     
   6491601810.7520866     
   6586830389.4430332     
   6757396206.1595507     
   6961214349.5899582     
   7171624598.5756054     
   5657762207.4758387     
   5890918501.7725382     
   6116442449.1331463     
   6331878035.9547424     
   6537002968.0668945     
   8303724236.0824871     
   8020020308.1343622     
   7778493154.1732950     
   7568440709.0505266     
   7384892896.9534941     
   8035472068.1700449     
   7746283025.7220774     
   7472808135.6555099     
   7213082855.8485842     
   6967116817.0042229     
   7666236557.1073742     
   7380737942.7586718     
   7100659931.6351652     
   6826080274.8481646     
   6557203948.5201769     
   7171624598.5756054     
   6910812109.7958145     
   6657916574.4755564     
   6409079768.7847919     
   6161156198.7611208     
   6537002968.0668945     
   6328845764.1400766     
   6142883983.8935146     
   5965205822.7540941     
   5786803358.2137661     
   7384892896.9534941     
   7227193829.9342279     
   7061854852.0437641     
   6888173632.4139881     
   6705972079.8151655     
   6967116817.0042229     
   6813608206.8147736     
   6655396629.2928076     
   6492195883.3582411     
   6323960541.1877823     
   6557203948.5201769     
   6407106380.5468121     
   6255333753.3655176     
   6101854121.0741634     
   5946699452.1202812     
   6161156198.7611208     
   6012690628.8180628     
   5865555375.1771650     
   5719789782.8840284     
   5575450994.7090063     
   5786803358.2137661     
   5636822857.9754562     
   5491070937.6305742     
   5349461344.6222172     
   5212042277.3457623     
   6705972079.8151655     
   6509735902.1336374     
   6317224652.2674322     
   6128313752.0622873     
   5942984472.0853910     
   6323960541.1877823     
   6135519200.3797464     
   5949475546.3626833     
   5765805931.4449711     
   5584539089.7041149     
   5946699452.1202812     
   5769226478.8525543     
   5593228785.8074017     
   5418736416.8336020     
   5245816090.8195429     
   5575450994.7090063     
   5412659501.4858999     
   5250870029.7221699     
   5090136632.6815872     
   4930583970.1571741     
   5212042277.3457623     
   5068188180.8679628     
   4925378873.4319448     
   4783680422.8094864     
   4643326076.3367481     
   5942984472.0853910     
   5781465608.7874002     
   5618354661.0679579     
   5453608266.2238464     
   5287227409.8306351     
   5584539089.7041149     
   5430373906.1620464     
   5275495241.1063118     
   5119912026.7361431     
   4963667023.4918804     
   5245816090.8195429     
   5099531250.7498970     
   4953497130.6194496     
   4807770769.7227716     
   4662438221.5554085     
   4930583970.1571741     
   4792596472.1462069     
   4655886451.2923470     
   4520549648.9768162     
   4386712043.6695118     
   4643326076.3367481     
   4513886775.7257891     
   4386782135.8642607     
   4262130822.5952783     
   4140089505.4558430     
   5287227409.8306351     
   5072849109.4775429     
   4859376040.9321203     
   4646806810.0485544     
   4435205393.3491688     
   4963667023.4918804     
   4762983770.8121824     
   4563409827.8782892     
   4365014124.9716673     
   4167941277.1812191     
   4662438221.5554085     
   4476349806.6765165     
   4291719299.6001277     
   4108707751.6521659     
   3927568596.9161572     
   4386712043.6695118     
   4216432374.2024856     
   4048134390.7305918     
   3882093101.0285888     
   3718697739.6400328     
   4140089505.4558430     
   3987145810.4325805     
   3836901511.0087352     
   3689761208.9584417     
   3546267146.8191009     
   4435205393.3491688     
   4282834306.8990202     
   4130096037.1492052     
   3976998060.0506768     
   3823552785.6098347     
   4167941277.1812191     
   4017662326.0612798     
   3867366583.5553832     
   3717054252.8668656     
   3566733632.1142993     
   3927568596.9161572     
   3783537899.0553422     
   3640321297.7417507     
   3497987372.0362325     
   3356637610.8028102     
   3718697739.6400328     
   3585110866.7866297     
   3453696437.6728239     
   3324660660.7225838     
   3198284707.9645452     
   3546267146.8191009     
   3427110401.6533866     
   3311992553.9746189     
   3201290297.3249378     
   3095499010.7433505     
   3823552785.6098347     
   3619620737.6356597     
   3416290496.5153880     
   3213387374.1849260     
   3010770777.6190219     
   3566733632.1142993     
   3373364800.8125372     
   3180778026.8396277     
   2988949112.2947154     
   2797919734.7868118     
   3356637610.8028102     
   3176537880.6393294     
   2997820546.9560308     
   2820699801.6750522     
   2645511603.5251632     
   3198284707.9645452     
   3034975207.4781122     
   2874129799.1980543     
   2716270056.1436219     
   2562100547.2535386     
   3095499010.7433505     
   2952929386.7721272     
   2814298004.1938930     
   2680426560.8445001     
   2552349059.2846241     
   5657762207.4758387     
   5890918501.7725382     
   6116442449.1331463     
   6331878035.9547424     
   6537002968.0668945     
   5151413772.3766613     
   5311380714.4730663     
   5467985334.3962135     
   5618335092.6259880     
   5760965914.1142445     
   4643463030.8637228     
   4755635568.6910954     
   4868936530.9705400     
   4980733215.0304480     
   5089101988.7012529     
   4134173535.9782381     
   4224519846.9917092     
   4320789646.2215357     
   4421326931.3736486     
   4524677831.4274168     
   3625063637.0927296     
   3719855868.2011414     
   3825900138.3673291     
   3943131729.5352850     
   4071456877.8448071     
   6537002968.0668945     
   6328845764.1400766     
   6142883983.8935146     
   5965205822.7540941     
   5786803358.2137661     
   5760965914.1142445     
   5652465898.9365931     
   5559974637.9850979     
   5474428134.4867735     
   5390285605.6624527     
   5089101988.7012529     
   5054511992.8878345     
   5030441690.2705479     
   5011682080.7364206     
   4995030705.3630629     
   4524677831.4274168     
   4539573369.3644705     
   4559145884.4903574     
   4580912613.0147600     
   4603148140.8688841     
   4071456877.8448071     
   4112971394.1098366     
   4151843264.7755318     
   4187171804.4667630     
   4218222786.5572767     
   5786803358.2137661     
   5636822857.9754562     
   5491070937.6305742     
   5349461344.6222172     
   5212042277.3457623     
   5390285605.6624527     
   5249728805.6298628     
   5112413931.5911579     
   4978382761.2015829     
   4847729587.8982439     
   4995030705.3630629     
   4868267645.4049740     
   4744699955.3055868     
   4624295236.5204697     
   4507093153.5330849     
   4603148140.8688841     
   4495103490.6102333     
   4391264244.1711359     
   4291311394.1936646     
   4195151305.2945685     
   4218222786.5572767     
   4134198450.5411153     
   4056625630.5546894     
   3984649030.3804369     
   3917965861.0528226     
   5212042277.3457623     
   5068188180.8679628     
   4925378873.4319448     
   4783680422.8094864     
   4643326076.3367481     
   4847729587.8982439     
   4722207130.4621201     
   4598602107.3272343     
   4477067159.1222515     
   4357884421.6475420     
   4507093153.5330849     
   4397963219.5809431     
   4291504546.6232314     
   4187917781.9240780     
   4087495454.4189339     
   4195151305.2945685     
   4100357988.2529979     
   4008804816.5102277     
   3920704093.8872132     
   3836326497.3636670     
   3917965861.0528226     
   3835321750.4230347     
   3756228871.8652935     
   3680880252.8266578     
   3609502746.2841439     
   4643326076.3367481     
   4513886775.7257891     
   4386782135.8642607     
   4262130822.5952783     
   4140089505.4558430     
   4357884421.6475420     
   4237703579.9066925     
   4120118105.1691484     
   4005292265.2349267     
   3893434362.8081059     
   4087495454.4189339     
   3977844809.9542828     
   3871252513.0956631     
   3767928444.0424433     
   3668136883.7337193     
   3836326497.3636670     
   3738514274.6681700     
   3644443747.1471920     
   3554366491.6554203     
   3468602436.6580343     
   3609502746.2841439     
   3524785211.1255612     
   3444721277.8504109     
   3369592255.1434278     
   3299763872.2122064     
   4140089505.4558430     
   3987145810.4325805     
   3836901511.0087352     
   3689761208.9584417     
   3546267146.8191009     
   3893434362.8081059     
   3756131753.3611946     
   3622452096.2501531     
   3492866082.5015860     
   3367977077.2533436     
   3668136883.7337193     
   3546390067.4080615     
   3429192742.5731587     
   3317056929.0121493     
   3210614621.4940090     
   3468602436.6580343     
   3362153240.2371278     
   3261140467.7052031     
   3166084824.8501024     
   3077607053.7200475     
   3299763872.2122064     
   3208084515.1267500     
   3122635155.1115556     
   3043907577.1619654     
   2972468941.7049937     
   3546267146.8191009     
   3427110401.6533866     
   3311992553.9746189     
   3201290297.3249378     
   3095499010.7433505     
   3367977077.2533436     
   3262029355.3113127     
   3160071397.3944373     
   3062438618.3447695     
   2969554220.8717647     
   3210614621.4940090     
   3116247924.4908500     
   3025679850.8513670     
   2939207370.3436651     
   2857190829.3760619     
   3077607053.7200475     
   2993392199.9757771     
   2912630770.4628339     
   2835583821.7987790     
   2762558288.6199794     
   2972468941.7049937     
   2897244472.1046267     
   2824969901.2922926     
   2755872187.8626518     
   2690213709.2096353     
   3095499010.7433505     
   2952929386.7721272     
   2814298004.1938930     
   2680426560.8445001     
   2552349059.2846241     
   2969554220.8717647     
   2838865679.7607117     
   2713024387.1457610     
   2592854296.5407968     
   2479358288.8801455     
   2857190829.3760619     
   2737677997.1910625     
   2623829661.8035293     
   2516434881.6256142     
   2416424637.6241498     
   2762558288.6199794     
   2653200848.8706870     
   2550205999.2416139     
   2454293051.3324785     
   2366286883.7085524     
   2690213709.2096353     
   2589627294.0371289     
   2495957271.0376234     
   2409824833.2705617     
   2331925670.9048638     
   3625063637.0927296     
   3719855868.2011414     
   3825900138.3673291     
   3943131729.5352850     
   4071456877.8448071     
   3138079140.0133400     
   3255686611.2704086     
   3382709448.6101699     
   3518677633.4084187     
   3663132622.0864325     
   2694856506.9815807     
   2830671206.1960421     
   2973794314.5132236     
   3123142896.9172244     
   3277805492.8946776     
   2298882335.5068927     
   2449599316.5701928     
   2605033938.7776484     
   2763263330.9046731     
   2922857426.0907555     
   1955363356.6538937     
   2119423397.0020783     
   2284836148.1010256     
   2448641320.6683030     
   2608880413.0783606     
   4071456877.8448071     
   4112971394.1098366     
   4151843264.7755318     
   4187171804.4667630     
   4218222786.5572767     
   3663132622.0864325     
   3702599953.9454613     
   3740691408.5106988     
   3776506403.9731503     
   3809294091.1804619     
   3277805492.8946776     
   3321080208.9350948     
   3364598608.0418429     
   3407536729.4614916     
   3449215568.0012174     
   2922857426.0907555     
   2975794576.0329294     
   3030950932.2545233     
   3087644047.7549310     
   3145340532.0412006     
   2608880413.0783606     
   2676795906.1184630     
   2749208779.9550700     
   2825611105.5908065     
   2905649946.4359221     
   4218222786.5572767     
   4134198450.5411153     
   4056625630.5546894     
   3984649030.3804369     
   3917965861.0528226     
   3809294091.1804619     
   3756580613.2869196     
   3709814645.4774246     
   3668517480.8161249     
   3632587540.9125438     
   3449215568.0012174     
   3423258350.5779533     
   3402369962.5469465     
   3386317306.0870876     
   3375081266.1075649     
   3145340532.0412006     
   3141856378.9179654     
   3141975798.6845670     
   3145596333.2764688     
   3152702892.8645425     
   2905649946.4359221     
   2920691709.8757205     
   2937101335.0189328     
   2954823919.5849624     
   2973820787.5642838     
   3917965861.0528226     
   3835321750.4230347     
   3756228871.8652935     
   3680880252.8266578     
   3609502746.2841439     
   3632587540.9125438     
   3561115095.2302966     
   3493983849.2038846     
   3431417460.7360229     
   3373680415.1073246     
   3375081266.1075649     
   3316205707.1939569     
   3262668208.9624634     
   3214704473.2280235     
   3172598478.6967406     
   3152702892.8645425     
   3107512220.7744179     
   3068845886.8033133     
   3036919949.6467409     
   3012006104.9158807     
   2973820787.5642838     
   2942751527.7293377     
   2919543161.2745185     
   2904349720.2825484     
   2897389405.9080458     
   3609502746.2841439     
   3524785211.1255612     
   3444721277.8504109     
   3369592255.1434278     
   3299763872.2122064     
   3373680415.1073246     
   3304171774.9951491     
   3239880037.9904270     
   3181082687.4701753     
   3128121256.7635465     
   3172598478.6967406     
   3117472670.5147352     
   3068014482.0019312     
   3024471688.1680217     
   2987134732.9218955     
   3012006104.9158807     
   2970108775.7847204     
   2934165240.6916351     
   2904372125.7223339     
   2880949620.1242352     
   2897389405.9080458     
   2867142699.8426909     
   2842929839.9352479     
   2824885219.9972215     
   2813152947.5369663     
   3299763872.2122064     
   3208084515.1267500     
   3122635155.1115556     
   3043907577.1619654     
   2972468941.7049937     
   3128121256.7635465     
   3051221742.7317567     
   2981197487.8646727     
   2918519046.1915574     
   2863714799.9542499     
   2987134732.9218955     
   2924937020.3307261     
   2870213506.7351203     
   2823383617.0233941     
   2784905277.1035061     
   2880949620.1242352     
   2832941370.4008732     
   2792917590.8856864     
   2761219996.3475280     
   2738211569.4312983     
   2813152947.5369663     
   2778263087.1711216     
   2751752355.4586563     
   2733869128.6798310     
   2724871337.4189658     
   2972468941.7049937     
   2897244472.1046267     
   2824969901.2922926     
   2755872187.8626518     
   2690213709.2096353     
   2863714799.9542499     
   2799782461.5644751     
   2740539312.7488155     
   2686264187.4386082     
   2637269175.3922052     
   2784905277.1035061     
   2733368228.9562807     
   2688307614.0868549     
   2650010874.1802425     
   2618789758.1980276     
   2738211569.4312983     
   2699140077.9454885     
   2668297397.7635231     
   2645929840.3214869     
   2632297298.8925166     
   2724871337.4189658     
   2697183126.8321586     
   2679407924.5641327     
   2671713850.7843790     
   2674275836.5122986     
   2690213709.2096353     
   2589627294.0371289     
   2495957271.0376234     
   2409824833.2705617     
   2331925670.9048638     
   2637269175.3922052     
   2556531177.5502391     
   2484393642.4527607     
   2421519209.2239923     
   2368605131.9607992     
   2618789758.1980276     
   2559309634.8661480     
   2509897075.8160734     
   2471151648.4723587     
   2443665032.6380205     
   2632297298.8925166     
   2594354347.5135655     
   2567647501.5449214     
   2552647110.6004348     
   2549790783.0183282     
   2674275836.5122986     
   2657140834.3403511     
   2652152241.8328257     
   2659636408.1451979     
   2679885407.3551869     
   1955363356.6538937     
   2119423397.0020783     
   2284836148.1010256     
   2448641320.6683030     
   2608880413.0783606     
   1653801980.1334877     
   1820245210.7478991     
   1988379188.3074899     
   2155506979.6563077     
   2319870166.0383983     
   1393547293.6238956     
   1570906188.9741457     
   1749260166.3596072     
   1926604774.7640224     
   2101689245.4258323     
   1206928482.3132069     
   1398847140.0668755     
   1590328356.0723600     
   1780594913.2343688     
   1969188046.7536891     
   1136662438.3025477     
   1334952341.8998983     
   1533530427.0319142     
   1732396693.6985946     
   1931551141.8999407     
   2608880413.0783606     
   2676795906.1184630     
   2749208779.9550700     
   2825611105.5908065     
   2905649946.4359221     
   2319870166.0383983     
   2406854997.7229362     
   2496271174.8671646     
   2587729924.9373002     
   2680956091.4247370     
   2101689245.4258323     
   2205340540.3695269     
   2308893255.9429431     
   2412111810.0151844     
   2514829678.8009257     
   1969188046.7536891     
   2086217078.6150081     
   2200388034.7208018     
   2311626088.8299770     
   2419879197.5359631     
   1931551141.8999407     
   2058076142.2525926     
   2179174451.4196568     
   2294846069.4011316     
   2405090996.1970181     
   2905649946.4359221     
   2920691709.8757205     
   2937101335.0189328     
   2954823919.5849624     
   2973820787.5642838     
   2680956091.4247370     
   2702815496.8844199     
   2727041475.9486389     
   2753616595.5400653     
   2782533264.8705893     
   2514829678.8009257     
   2543337059.1654000     
   2575230440.5793228     
   2610511187.7557278     
   2649184957.3122449     
   2419879197.5359631     
   2453423056.5614319     
   2491367732.1143074     
   2533716430.9612331     
   2580473288.0230765     
   2405090996.1970181     
   2440541635.0582876     
   2481393861.7959466     
   2527647676.4099965     
   2579303078.9004359     
   2973820787.5642838     
   2942751527.7293377     
   2919543161.2745185     
   2904349720.2825484     
   2897389405.9080458     
   2782533264.8705893     
   2766222752.0987806     
   2757443332.3842149     
   2756288608.5459700     
   2762885469.6740007     
   2649184957.3122449     
   2644493144.9293656     
   2646717273.8018498     
   2655897792.5189548     
   2672088368.1121655     
   2580473288.0230765     
   2583860870.2082033     
   2593278214.9728942     
   2608734025.6321602     
   2630239932.4319749     
   2579303078.9004359     
   2587183221.2718940     
   2599990420.8057647     
   2617724677.5020547     
   2640385991.3607583     
   2897389405.9080458     
   2867142699.8426909     
   2842929839.9352479     
   2824885219.9972215     
   2813152947.5369663     
   2762885469.6740007     
   2739787789.1176672     
   2723206272.5217452     
   2713230575.0524201     
   2709955597.1370559     
   2672088368.1121655     
   2654373633.8155875     
   2643605330.1109443     
   2639828901.1169348     
   2643091940.4885378     
   2630239932.4319749     
   2615556236.5460095     
   2608184611.9434085     
   2608137452.1606855     
   2615427653.9743557     
   2640385991.3607583     
   2625951934.7635093     
   2619123511.9621639     
   2619900722.9567256     
   2628283567.7471948     
   2813152947.5369663     
   2778263087.1711216     
   2751752355.4586563     
   2733869128.6798310     
   2724871337.4189658     
   2709955597.1370559     
   2685840817.2325978     
   2670733233.7466936     
   2664795227.1504936     
   2668191144.1428652     
   2643091940.4885378     
   2627473440.3349638     
   2621407755.2734489     
   2624975799.9603119     
   2638257678.6513634     
   2615427653.9743557     
   2605267148.8943481     
   2605151592.2531505     
   2615102920.9299994     
   2635142507.8521142     
   2628283567.7471948     
   2619965510.4306540     
   2622166118.7541466     
   2634885392.7176595     
   2658123332.3212028     
   2724871337.4189658     
   2697183126.8321586     
   2679407924.5641327     
   2671713850.7843790     
   2674275836.5122986     
   2668191144.1428652     
   2648653985.4292297     
   2637424352.8932571     
   2634572266.7855616     
   2640170097.4428616     
   2638257678.6513634     
   2623986460.8770247     
   2616344624.1973162     
   2615353027.4164939     
   2621033169.1966748     
   2635142507.8521142     
   2623796350.5567021     
   2617346240.2244473     
   2615795165.0624671     
   2619146202.3694797     
   2658123332.3212028     
   2648041787.3660154     
   2641088905.2973366     
   2637264686.1151710     
   2636569129.8195133     
   2674275836.5122986     
   2657140834.3403511     
   2652152241.8328257     
   2659636408.1451979     
   2679885407.3551869     
   2640170097.4428616     
   2629086510.4228663     
   2630109177.5186872     
   2643430549.8843260     
   2669220703.3173170     
   2621033169.1966748     
   2613193510.7019372     
   2617519812.5393271     
   2634102032.3366690     
   2663019233.3780928     
   2619146202.3694797     
   2611339711.7424335     
   2615897568.3709488     
   2632843504.5487108     
   2662198433.4095302     
   2636569129.8195133     
   2625276262.8056440     
   2626700769.5923014     
   2640842650.1794863     
   2667701904.5672011     
   1136662438.3025477     
   1334952341.8998983     
   1533530427.0319142     
   1732396693.6985946     
   1931551141.8999407     
   1206928482.3282294     
   1398847140.0820155     
   1590328356.0877507     
   1780594913.2501285     
   1969188046.7699218     
   1393547293.6484323     
   1570906188.9998608     
   1749260166.3865349     
   1926604774.7922568     
   2101689245.4554899     
   1653801980.1618314     
   1820245210.7787859     
   1988379188.3408487     
   2155506979.6921840     
   2319870166.0768929     
   1955363356.6819670     
   2119423397.0337908     
   2284836148.1362844     
   2448641320.7071447     
   2608880413.1208925     
   1931551141.8999407     
   2058076142.2525926     
   2179174451.4196568     
   2294846069.4011316     
   2405090996.1970181     
   1969188046.7699218     
   2086217078.6348879     
   2200388034.7446728     
   2311626088.8581963     
   2419879197.5688930     
   2101689245.4554899     
   2205340540.4055467     
   2308893255.9859757     
   2412111810.0658941     
   2514829678.8599758     
   2319870166.0768929     
   2406854997.7692041     
   2496271174.9221520     
   2587729925.0019507     
   2680956091.5000033     
   2608880413.1208925     
   2676795906.1687355     
   2749208780.0143070     
   2825611105.6602211     
   2905649946.5167389     
   2405090996.1970181     
   2440541635.0582876     
   2481393861.7959466     
   2527647676.4099965     
   2579303078.9004359     
   2419879197.5688930     
   2453423056.5964632     
   2491367732.1519117     
   2533716431.0018606     
   2580473288.0671735     
   2514829678.8599758     
   2543337059.2287154     
   2575230440.6479235     
   2610511187.8306189     
   2649184957.3944273     
   2680956091.5000033     
   2702815496.9655576     
   2727041476.0372758     
   2753616595.6378369     
   2782533264.9791503     
   2905649946.5167389     
   2920691709.9629426     
   2937101335.1147923     
   2954823919.6917415     
   2973820787.6843114     
   2579303078.9004359     
   2587183221.2718940     
   2599990420.8057647     
   2617724677.5020547     
   2640385991.3607583     
   2580473288.0671735     
   2583860870.2660546     
   2593278215.0464888     
   2608734025.7234735     
   2630239932.5429487     
   2649184957.3944273     
   2644493145.0360446     
   2646717273.9369164     
   2655897792.6862965     
   2672088368.3156686     
   2782533264.9791503     
   2766222752.2378650     
   2757443332.5595512     
   2756288608.7633772     
   2762885469.9393945     
   2973820787.6843114     
   2942751527.8802066     
   2919543161.4636965     
   2904349720.5177646     
   2897389406.1973414     
   2640385991.3607583     
   2625951934.7635093     
   2619123511.9621639     
   2619900722.9567256     
   2628283567.7471948     
   2630239932.5429487     
   2615556236.6791697     
   2608184612.0999446     
   2608137452.3417568     
   2615427654.1810751     
   2672088368.3156686     
   2654373634.0587158     
   2643605330.3960052     
   2639828901.4462185     
   2643091940.8643208     
   2762885469.9393945     
   2739787789.4342623     
   2723206272.8929529     
   2713230575.4817200     
   2709955597.6279969     
   2897389406.1973414     
   2867142700.1883202     
   2842929840.3416524     
   2824885220.4690671     
   2813152948.0791483     
   2628283567.7471948     
   2619965510.4306540     
   2622166118.7541466     
   2634885392.7176595     
   2658123332.3212028     
   2615427654.1810751     
   2605267149.0706115     
   2605151592.4020915     
   2615102921.0549941     
   2635142507.9568934     
   2643091940.8643208     
   2627473440.6636257     
   2621407755.5624280     
   2624975800.2174706     
   2638257678.8851023     
   2709955597.6279969     
   2685840817.6712432     
   2670733234.1461163     
   2664795227.5243125     
   2668191144.5053511     
   2813152948.0791483     
   2778263087.6635599     
   2751752355.9214067     
   2733869129.1337118     
   2724871337.8855963     
   2658123332.3212028     
   2648041787.3660154     
   2641088905.2973366     
   2637264686.1151710     
   2636569129.8195133     
   2635142507.9568934     
   2623796350.5840306     
   2617346240.1429238     
   2615795164.8412032     
   2619146201.9780874     
   2638257678.8851023     
   2623986460.9855909     
   2616344624.1187205     
   2615353027.0894775     
   2621033168.5606270     
   2668191144.5053511     
   2648653985.6635790     
   2637424352.9075251     
   2634572266.4878254     
   2640170096.7411871     
   2724871337.8855963     
   2697183127.2250299     
   2679407924.7616177     
   2671713850.6627555     
   2674275835.9456687     
   2636569129.8195133     
   2625276262.8056440     
   2626700769.5923014     
   2640842650.1794863     
   2667701904.5672011     
   2619146201.9780874     
   2611339711.8068037     
   2615897568.8397589     
   2632843505.3682404     
   2662198434.5222521     
   2621033168.5606270     
   2613193510.5819783     
   2617519812.8125100     
   2634102032.8801265     
   2663019234.0680313     
   2640170096.7411871     
   2629086509.9382582     
   2630109177.0287080     
   2643430549.1734166     
   2669220702.1784463     
   2674275835.9456687     
   2657140833.3814683     
   2652152240.1212621     
   2659636405.3376064     
   2679885403.1327395     
   1955363356.6819670     
   2119423397.0337908     
   2284836148.1362844     
   2448641320.7071447     
   2608880413.1208925     
   2298882335.5321927     
   2449599316.5992918     
   2605033938.8105631     
   2763263330.9415035     
   2922857426.1316633     
   2694856507.0028043     
   2830671206.2207723     
   2973794314.5416169     
   3123142896.9495049     
   3277805492.9311223     
   3138079140.0297680     
   3255686611.2896800     
   3382709448.6325784     
   3518677633.4343352     
   3663132622.1162958     
   3625063637.1039519     
   3719855868.2142472     
   3825900138.3827214     
   3943131729.5534844     
   4071456877.8664432     
   2608880413.1208925     
   2676795906.1687355     
   2749208780.0143070     
   2825611105.6602211     
   2905649946.5167389     
   2922857426.1316633     
   2975794576.0799932     
   3030950932.3085175     
   3087644047.8165812     
   3145340532.1112146     
   3277805492.9311223     
   3321080208.9762015     
   3364598608.0879383     
   3407536729.5128093     
   3449215568.0579333     
   3663132622.1162958     
   3702599953.9788566     
   3740691408.5475221     
   3776506404.0131707     
   3809294091.2233515     
   4071456877.8664432     
   4112971394.1344113     
   4151843264.8025575     
   4187171804.4955955     
   4218222786.5871630     
   2905649946.5167389     
   2920691709.9629426     
   2937101335.1147923     
   2954823919.6917415     
   2973820787.6843114     
   3145340532.1112146     
   3141856378.9902830     
   3141975798.7609611     
   3145596333.3587899     
   3152702892.9547262     
   3449215568.0579333     
   3423258350.6328492     
   3402369962.6014233     
   3386317306.1426506     
   3375081266.1658401     
   3809294091.2233515     
   3756580613.3241973     
   3709814645.5101786     
   3668517480.8455820     
   3632587540.9400816     
   4218222786.5871630     
   4134198450.5621438     
   4056625630.5676837     
   3984649030.3863997     
   3917965861.0529141     
   2973820787.6843114     
   2942751527.8802066     
   2919543161.4636965     
   2904349720.5177646     
   2897389406.1973414     
   3152702892.9547262     
   3107512220.8829794     
   3068845886.9341035     
   3036919949.8038511     
   3012006105.1037068     
   3375081266.1658401     
   3316205707.2609172     
   3262668209.0386438     
   3214704473.3140998     
   3172598478.7935410     
   3632587540.9400816     
   3561115095.2615199     
   3493983849.2364216     
   3431417460.7674642     
   3373680415.1352057     
   3917965861.0529141     
   3835321750.4276958     
   3756228871.8697300     
   3680880252.8258400     
   3609502746.2727351     
   2897389406.1973414     
   2867142700.1883202     
   2842929840.3416524     
   2824885220.4690671     
   2813152948.0791483     
   3012006105.1037068     
   2970108775.9999347     
   2934165240.9392533     
   2904372126.0077424     
   2880949620.4532709     
   3172598478.7935410     
   3117472670.6082110     
   3068014482.0970607     
   3024471688.2702770     
   2987134733.0374112     
   3373680415.1352057     
   3304171774.9880834     
   3239880037.9527874     
   3181082687.4068727     
   3128121256.6802793     
   3609502746.2727351     
   3524785211.0473666     
   3444721277.7087841     
   3369592254.9421806     
   3299763871.9559503     
   2813152948.0791483     
   2778263087.6635599     
   2751752355.9214067     
   2733869129.1337118     
   2724871337.8855963     
   2880949620.4532709     
   2832941370.6521134     
   2792917591.0791650     
   2761219996.5042863     
   2738211569.5734444     
   2987134733.0374112     
   2924937020.3420753     
   2870213506.6624393     
   2823383616.8880553     
   2784905276.9282465     
   3128121256.6802793     
   3051221742.5198221     
   2981197487.5443468     
   2918519045.7845554     
   2863714799.4839506     
   3299763871.9559503     
   3208084514.7193432     
   3122635154.5734987     
   3043907576.5153389     
   2972468940.9737797     
   2724871337.8855963     
   2697183127.2250299     
   2679407924.7616177     
   2671713850.6627555     
   2674275835.9456687     
   2738211569.5734444     
   2699140078.1096797     
   2668297397.8895292     
   2645929840.3453522     
   2632297298.7464056     
   2784905276.9282465     
   2733368228.9175653     
   2688307614.1876965     
   2650010874.4198370     
   2618789758.5711827     
   2863714799.4839506     
   2799782461.3266129     
   2740539312.8100543     
   2686264187.8633084     
   2637269176.2413998     
   2972468940.9737797     
   2897244471.6497321     
   2824969901.2405186     
   2755872188.3406105     
   2690213710.3424010     
   2674275835.9456687     
   2657140833.3814683     
   2652152240.1212621     
   2659636405.3376064     
   2679885403.1327395     
   2632297298.7464056     
   2594354346.8174691     
   2567647499.8898096     
   2552647107.5766449     
   2549790778.2212906     
   2618789758.5711827     
   2559309634.9834313     
   2509897075.2446961     
   2471151646.7558212     
   2443665029.2994294     
   2637269176.2413998     
   2556531178.8604946     
   2484393643.8133001     
   2421519210.1771588     
   2368605132.0008230     
   2690213710.3424010     
   2589627296.6987829     
   2495957274.8977733     
   2409824837.9378281     
   2331925675.9209809     
   3625063637.1039519     
   3719855868.2142472     
   3825900138.3827214     
   3943131729.5534844     
   4071456877.8664432     
   4134173535.9841623     
   4224519846.9986029     
   4320789646.2295294     
   4421326931.3830109     
   4524677831.4385281     
   4643463030.8644085     
   4755635568.6920462     
   4868936530.9715929     
   4980733215.0315886     
   5089101988.7025785     
   5151413772.3720827     
   5311380714.4683294     
   5467985334.3908606     
   5618335092.6197205     
   5760965914.1068993     
   5657762207.4658813     
   5890918501.7623253     
   6116442449.1219330     
   6331878035.9419804     
   6537002968.0521936     
   4071456877.8664432     
   4112971394.1344113     
   4151843264.8025575     
   4187171804.4955955     
   4218222786.5871630     
   4524677831.4385281     
   4539573369.3771706     
   4559145884.5045853     
   4580912613.0303545     
   4603148140.8856573     
   5089101988.7025785     
   5054511992.8889437     
   5030441690.2718267     
   5011682080.7381697     
   4995030705.3655758     
   5760965914.1068993     
   5652465898.9266806     
   5559974637.9734154     
   5474428134.4740133     
   5390285605.6492672     
   6537002968.0521936     
   6328845764.1198521     
   6142883983.8689003     
   5965205822.7260723     
   5786803358.1832371     
   4218222786.5871630     
   4134198450.5621438     
   4056625630.5676837     
   3984649030.3863997     
   3917965861.0529141     
   4603148140.8856573     
   4495103490.6179867     
   4391264244.1698904     
   4291311394.1835361     
   4195151305.2757349     
   4995030705.3655758     
   4868267645.4002066     
   4744699955.2929535     
   4624295236.4994078     
   4507093153.5030432     
   5390285605.6492672     
   5249728805.6132450     
   5112413931.5700808     
   4978382761.1750164     
   4847729587.8651314     
   5786803358.1832371     
   5636822857.9475336     
   5491070937.6039705     
   5349461344.5956106     
   5212042277.3177547     
   3917965861.0529141     
   3835321750.4276958     
   3756228871.8697300     
   3680880252.8258400     
   3609502746.2727351     
   4195151305.2757349     
   4100357988.2423754     
   4008804816.5058193     
   3920704093.8869071     
   3836326497.3652382     
   4507093153.5030432     
   4397963219.5576468     
   4291504546.6067600     
   4187917781.9145350     
   4087495454.4165015     
   4847729587.8651314     
   4722207130.4283037     
   4598602107.2942371     
   4477067159.0917034     
   4357884421.6213360     
   5212042277.3177547     
   5068188180.8253279     
   4925378873.3770866     
   4783680422.7449417     
   4643326076.2654314     
   3609502746.2727351     
   3524785211.0473666     
   3444721277.7087841     
   3369592254.9421806     
   3299763871.9559503     
   3836326497.3652382     
   3738514274.5940928     
   3644443746.9966908     
   3554366491.4279346     
   3468602436.3533959     
   4087495454.4165015     
   3977844809.8742690     
   3871252512.9341550     
   3767928443.7954893     
   3668136883.3973770     
   4357884421.6213360     
   4237703579.8087425     
   4120118104.9933453     
   4005292264.9748993     
   3893434362.4571490     
   4643326076.2654314     
   4513886775.5967894     
   4386782135.6700869     
   4262130822.3280210     
   4140089505.1069846     
   3299763871.9559503     
   3208084514.7193432     
   3122635154.5734987     
   3043907576.5153389     
   2972468940.9737797     
   3468602436.3533959     
   3362153239.7687030     
   3261140467.0808821     
   3166084824.0784655     
   3077607052.8104258     
   3668136883.3973770     
   3546390066.9176674     
   3429192741.9262743     
   3317056928.2058244     
   3210614620.5245028     
   3893434362.4571490     
   3756131752.8920588     
   3622452095.6526175     
   3492866081.7637186     
   3367977076.3607225     
   4140089505.1069846     
   3987145810.0295839     
   3836901510.5362148     
   3689761208.3983016     
   3546267146.1492238     
   2972468940.9737797     
   2897244471.6497321     
   2824969901.2405186     
   2755872188.3406105     
   2690213710.3424010     
   3077607052.8104258     
   2993392199.2489152     
   2912630770.0038772     
   2835583821.6934395     
   2762558288.9540000     
   3210614620.5245028     
   3116247923.6297145     
   3025679850.1457734     
   2939207369.8413897     
   2857190829.1252604     
   3367977076.3607225     
   3262029354.4960427     
   3160071396.6704421     
   3062438617.7255774     
   2969554220.3699598     
   3546267146.1492238     
   3427110401.0910487     
   3311992553.5055695     
   3201290296.9322767     
   3095499010.4059591     
   2690213710.3424010     
   2589627296.6987829     
   2495957274.8977733     
   2409824837.9378281     
   2331925675.9209809     
   2762558288.9540000     
   2653200851.3102007     
   2550206003.7832608     
   2454293057.9415879     
   2366286892.3126340     
   2857190829.1252604     
   2737677998.9708700     
   2623829665.8817449     
   2516434888.2848530     
   2416424647.1627398     
   2969554220.3699598     
   2838865680.5029330     
   2713024389.6014752     
   2592854301.2491965     
   2479358296.4665856     
   3095499010.4059591     
   2952929386.1647158     
   2814298003.9103527     
   2680426561.6033273     
   2552349061.9673815     
   5657762207.4658813     
   5890918501.7623253     
   6116442449.1219330     
   6331878035.9419804     
   6537002968.0521936     
   6491601810.7388229     
   6586830389.4264650     
   6757396206.1397228     
   6961214349.5672598     
   7171624598.5506430     
   7982302496.5753498     
   7734897158.3032417     
   7669068106.1625490     
   7669492057.8166580     
   7666236557.0740719     
   10130311490.242821     
   9321956633.1508465     
   8826269700.1127186     
   8443380805.7850857     
   8035472068.1305294     
   12935715602.686234     
   11340720238.785414     
   10210165577.273649     
   9272654592.3889904     
   8303724236.0393429     
   6537002968.0521936     
   6328845764.1198521     
   6142883983.8689003     
   5965205822.7260723     
   5786803358.1832371     
   7171624598.5506430     
   6910812109.7636070     
   6657916574.4367666     
   6409079768.7400131     
   6161156198.7108784     
   7666236557.0740719     
   7380737942.7165689     
   7100659931.5846558     
   6826080274.7896099     
   6557203948.4539204     
   8035472068.1305294     
   7746283025.6723061     
   7472808135.5957804     
   7213082855.7791643     
   6967116816.9254122     
   8303724236.0393429     
   8020020308.0794296     
   7778493154.1069632     
   7568440708.9730921     
   7384892896.8653030     
   5786803358.1832371     
   5636822857.9475336     
   5491070937.6039705     
   5349461344.5956106     
   5212042277.3177547     
   6161156198.7108784     
   6012690628.7753382     
   5865555375.1413612     
   5719789782.8545275     
   5575450994.6851473     
   6557203948.4539204     
   6407106380.4896126     
   6255333753.3171139     
   6101854121.0342979     
   5946699452.0887270     
   6967116816.9254122     
   6813608206.7431173     
   6655396629.2281036     
   6492195883.3003092     
   6323960541.1364832     
   7384892896.8653030     
   7227193829.8478613     
   7061854851.9588957     
   6888173632.3302221     
   6705972079.7321310     
   5212042277.3177547     
   5068188180.8253279     
   4925378873.3770866     
   4783680422.7449417     
   4643326076.2654314     
   5575450994.6851473     
   5412659501.4311304     
   5250870029.6374483     
   5090136632.5679884     
   4930583970.0160885     
   5946699452.0887270     
   5769226478.7717628     
   5593228785.6768036     
   5418736416.6527538     
   5245816090.5881891     
   6323960541.1364832     
   6135519200.2594862     
   5949475546.1713676     
   5765805931.1806440     
   5584539089.3648977     
   6705972079.7321310     
   6509735901.9610615     
   6317224652.0016708     
   6128313751.6999407     
   5942984471.6230803     
   4643326076.2654314     
   4513886775.5967894     
   4386782135.6700869     
   4262130822.3280210     
   4140089505.1069846     
   4930583970.0160885     
   4792596471.9668760     
   4655886451.0715542     
   4520549648.7108784     
   4386712043.3541508     
   5245816090.5881891     
   5099531250.5036869     
   4953497130.3598833     
   4807770769.4510183     
   4662438221.2721109     
   5584539089.3648977     
   5430373905.8331881     
   5275495240.7941523     
   5119912026.4469261     
   4963667023.2314501     
   5942984471.6230803     
   5781465608.3609400     
   5618354660.6883135     
   5453608265.9022207     
   5287227409.5779629     
   4140089505.1069846     
   3987145810.0295839     
   3836901510.5362148     
   3689761208.3983016     
   3546267146.1492238     
   4386712043.3541508     
   4216432373.9415374     
   4048134390.5080190     
   3882093100.8252497     
   3718697739.4319901     
   4662438221.2721109     
   4476349806.5860214     
   4291719299.6890616     
   4108707751.9043431     
   3927568597.3106556     
   4963667023.2314501     
   4762983770.9116640     
   4563409828.3295193     
   4365014125.7644539     
   4167941278.3013573     
   5287227409.5779629     
   5072849109.7793646     
   4859376041.7873144     
   4646806811.4550180     
   4435205395.3019047     
   3546267146.1492238     
   3427110401.0910487     
   3311992553.5055695     
   3201290296.9322767     
   3095499010.4059591     
   3718697739.4319901     
   3585110866.7261348     
   3453696437.7575541     
   3324660660.9511075     
   3198284708.3362608     
   3927568597.3106556     
   3783537899.5339584     
   3640321298.2983637     
   3497987372.6667552     
   3356637611.5061002     
   4167941278.3013573     
   4017662327.1042738     
   3867366584.4984832     
   3717054253.6881332     
   3566733632.7936687     
   4435205395.3019047     
   4282834308.5232129     
   4130096038.3963475     
   3976998060.8703437     
   3823552785.9503751     
   3095499010.4059591     
   2952929386.1647158     
   2814298003.9103527     
   2680426561.6033273     
   2552349061.9673815     
   3198284708.3362608     
   3034975205.8272729     
   2874129795.6794548     
   2716270050.9848037     
   2562100540.7912898     
   3356637611.5061002     
   3176537878.0491910     
   2997820540.8621912     
   2820699791.8810883     
   2645511589.8646636     
   3566733632.7936687     
   3373364797.6440239     
   3180778019.3848295     
   2988949100.0910630     
   2797919717.3393846     
   3823552785.9503751     
   3619620734.4295464     
   3416290489.2514057     
   3213387362.3212037     
   3010770760.5566158     
 </DataArray>
 <DataArray  type="Float64" Name="strain" NumberOfComponents="3" format="ascii">
  0.20348440961376510        0.0000000000000000       0.12541645447273359     
  0.18665441340945449       -2.7327288990069094E-002   7.4357970719867758E-002
  0.16982441720514388       -4.4678246606828509E-002   3.5133129739320965E-002
  0.15299442100083327       -5.2052872850278223E-002   7.7419315310932393E-003
  0.13616442479652269       -4.9451167720418299E-002  -7.8156239048154247E-003
  0.15985370116916994        0.0000000000000000        9.6456349933549401E-002
  0.15317586572316833       -2.1846480658561790E-002   6.2695975423929989E-002
  0.14649803027716668       -3.6176413830958244E-002   3.7406279658609480E-002
  0.13982019483116506       -4.2989799517189377E-002   2.0587262637587835E-002
  0.13314235938516342       -4.2286637717255209E-002   1.2238924360865100E-002
  0.12645614455209381        0.0000000000000000        7.4206945669444691E-002
  0.12656750583638096       -1.6365672327054475E-002   5.5284896515927377E-002
  0.12667886712066814       -2.7674581055087986E-002   4.1470562078688766E-002
  0.12679022840495535       -3.3926726184100524E-002   3.2763942357728865E-002
  0.12690158968924251       -3.5122107714092105E-002   2.9165037353047762E-002
  0.10329173976253667        0.0000000000000000        5.8668241680419481E-002
  0.10682933374909249       -1.0884863995547167E-002   5.2124733995859852E-002
  0.11036692773564831       -1.9172748279217722E-002   4.7325976999558809E-002
  0.11390452172220417       -2.4863652851011660E-002   4.4271970691516317E-002
  0.11744211570875998       -2.7957577710929004E-002   4.2962715071732410E-002
   9.0360486800498518E-002   0.0000000000000000        4.9840237966473758E-002
   9.3961349461302843E-002  -5.4040556640398557E-003   5.3215487863727484E-002
   9.7562212122107167E-002  -1.0670915503347457E-002   5.4972524421219644E-002
  0.10116307478291149       -1.5800579517922807E-002   5.5111347638950196E-002
  0.10476393744371582       -2.0793047707765903E-002   5.3631957516919147E-002
  0.13616442479652269       -4.9451167720418299E-002  -7.8156239048154247E-003
  0.13295167884111114       -4.2912006638655839E-002  -3.3937474758890390E-003
  0.12973893288569965       -3.8474265026397773E-002  -3.8475201914959720E-004
  0.12652618693028816       -3.6137942883644358E-002   1.2113624654028696E-003
  0.12331344097487665       -3.5903040210395309E-002   1.3945959777681149E-003
  0.13314235938516342       -4.2286637717255209E-002   1.2238924360865100E-002
  0.12890471437611276       -3.8417828451452085E-002   1.2186742411811943E-002
  0.12466706936706215       -3.5734271740076394E-002   1.1497643327667544E-002
  0.12042942435801154       -3.4235967583128142E-002   1.0171627108432058E-002
  0.11619177934896088       -3.3922915980607343E-002   8.2086937541053229E-003
  0.12690158968924251       -3.5122107714092105E-002   2.9165037353047762E-002
  0.12241500946364862       -3.3923650264248394E-002   2.5554963941091961E-002
  0.11792842923805477       -3.2994278453755022E-002   2.2083937231140886E-002
  0.11344184901246093       -3.2333992282612078E-002   1.8751957223194622E-002
  0.10895526878686707       -3.1942791750819405E-002   1.5559023917252932E-002
  0.11744211570875998       -2.7957577710929004E-002   4.2962715071732410E-002
  0.11348256410371876       -2.9429472077044692E-002   3.6710917111951104E-002
  0.10952301249867759       -3.0254285167433656E-002   3.1374129691270430E-002
  0.10556346089363637       -3.0432016982095945E-002   2.6952352809690314E-002
  0.10160390928859520       -2.9962667521031508E-002   2.3445586467210830E-002
  0.10476393744371582       -2.0793047707765903E-002   5.3631957516919147E-002
  0.10210737829632316       -2.4935293889840966E-002   4.5654601924389429E-002
   9.9450819148930517E-002  -2.7514291881112301E-002   3.9368220708056206E-002
   9.6794260001537860E-002  -2.8530041681579785E-002   3.4772813867919417E-002
   9.4137700854145204E-002  -2.7982543291243556E-002   3.1868381403979115E-002
  0.12331344097487665       -3.5903040210395309E-002   1.3945959777681149E-003
  0.12038841144170237       -3.6406529843583058E-002   6.4449873445177053E-004
  0.11746338190852802       -3.6285384620139777E-002   8.8694779763726084E-005
  0.11453835237535373       -3.5539604540065280E-002  -2.7281588629633063E-004
  0.11161332284217940       -3.4169189603359906E-002  -4.4003326372815676E-004
  0.11619177934896088       -3.3922915980607343E-002   8.2086937541053229E-003
  0.11344685745059779       -3.4002436041072198E-002   7.8419339633379048E-003
  0.11070193555223469       -3.3681846873080755E-002   7.6410961535646887E-003
  0.10795701365387159       -3.2961148476633111E-002   7.6061803247856503E-003
  0.10521209175550847       -3.1840340851729099E-002   7.7371864770011400E-003
  0.10895526878686707       -3.1942791750819405E-002   1.5559023917252932E-002
  0.10636208321568137       -3.1598342238561283E-002   1.5351075950859237E-002
  0.10376889764449572       -3.1078309126021789E-002   1.5280678657826147E-002
  0.10117571207331010       -3.0382692413200772E-002   1.5347832038153483E-002
   9.8582526502124401E-002  -2.9511492100098402E-002   1.5552536091841415E-002
  0.10160390928859520       -2.9962667521031508E-002   2.3445586467210830E-002
   9.9134088736953160E-002  -2.9194248436050438E-002   2.3171924697016136E-002
   9.6664268185311111E-002  -2.8474771378962725E-002   2.3007442292548270E-002
   9.4194447633669048E-002  -2.7804236349768488E-002   2.2952139253807194E-002
   9.1724627082027027E-002  -2.7182643348467705E-002   2.3006015580792859E-002
   9.4137700854145204E-002  -2.7982543291243556E-002   3.1868381403979115E-002
   9.1762874014413021E-002  -2.6790154633539544E-002   3.1304480201808697E-002
   8.9388047174680851E-002  -2.5871233631903766E-002   3.0821387057731214E-002
   8.7013220334948668E-002  -2.5225780286336257E-002   3.0419101971746687E-002
   8.4638393495216513E-002  -2.4853794596836926E-002   3.0097624943855178E-002
  0.11161332284217940       -3.4169189603359906E-002  -4.4003326372815676E-004
  0.10847821874167685       -3.2622155881273512E-002  -1.7016369998937297E-004
  0.10534311464117430       -3.1346519445056800E-002   1.2894688402415033E-004
  0.10220801054067177       -3.0342280294709301E-002   4.5729848831259357E-004
   9.9072906440169195E-002  -2.9609438430231394E-002   8.1489111287563754E-004
  0.10521209175550847       -3.1840340851729099E-002   7.7371864770011400E-003
  0.10214237933121550       -3.0601536298204876E-002   7.5971162014187993E-003
   9.9072666906922527E-002  -2.9526847115896843E-002   7.5585882579807112E-003
   9.6002954482629549E-002  -2.8616273304804311E-002   7.6216026466868134E-003
   9.2933242058336585E-002  -2.7869814864928177E-002   7.7861593675374319E-003
   9.8582526502124401E-002  -2.9511492100098402E-002   1.5552536091841415E-002
   9.5650507065910439E-002  -2.8580916715136420E-002   1.5109807891591623E-002
   9.2718487629696575E-002  -2.7707174786736934E-002   1.4840923335355367E-002
   8.9786468193482682E-002  -2.6890266314899651E-002   1.4745882423132971E-002
   8.6854448757268748E-002  -2.6130191299624878E-002   1.4824685154924452E-002
   9.1724627082027027E-002  -2.7182643348467705E-002   2.3006015580792859E-002
   8.9002601945761775E-002  -2.6560297132067930E-002   2.2367911370528820E-002
   8.6280576809496440E-002  -2.5887502457577000E-002   2.1975952116148167E-002
   8.3558551673231174E-002  -2.5164259324994883E-002   2.1830137817650846E-002
   8.0836526536965853E-002  -2.4390567734321619E-002   2.1930468475036959E-002
   8.4638393495216513E-002  -2.4853794596836926E-002   3.0097624943855178E-002
   8.2198663970769345E-002  -2.4539677548999370E-002   2.9371426638230697E-002
   7.9758934446322177E-002  -2.4067830128417088E-002   2.8963674600359091E-002
   7.7319204921874982E-002  -2.3438252335090067E-002   2.8874368830240284E-002
   7.4879475397427842E-002  -2.2650944169018306E-002   2.9103509327874477E-002
   9.9072906440169195E-002  -2.9609438430231394E-002   8.1489111287563754E-004
   9.6347477577312102E-002  -2.8949682784123715E-002   3.5251299610944420E-004
   9.3622048714455008E-002  -2.8164702288887580E-002   4.1196617813710201E-005
   9.0896619851597943E-002  -2.7254496944522647E-002  -1.1905802201163385E-004
   8.8171190988740822E-002  -2.6219066751029030E-002  -1.2825092336687938E-004
   9.2933242058336585E-002  -2.7869814864928177E-002   7.7861593675374319E-003
   9.0355741515281196E-002  -2.7166201699732578E-002   7.4833437483592113E-003
   8.7778240972225891E-002  -2.6384163712682387E-002   7.3253230303143152E-003
   8.5200740429170557E-002  -2.5523700903777927E-002   7.3120972134024451E-003
   8.2623239886115252E-002  -2.4584813273019090E-002   7.4436662976238299E-003
   8.6854448757268748E-002  -2.6130191299624878E-002   1.4824685154924452E-002
   8.4418609696678110E-002  -2.5382720615341095E-002   1.4634632006060008E-002
   8.1982770636087512E-002  -2.4603625136477188E-002   1.4583106920991497E-002
   7.9546931575496943E-002  -2.3792904863033149E-002   1.4670109899719241E-002
   7.7111092514906276E-002  -2.2950559795008985E-002   1.4895640942243188E-002
   8.0836526536965853E-002  -2.4390567734321619E-002   2.1930468475036959E-002
   7.8536082121502898E-002  -2.3599239530949841E-002   2.1806377769211637E-002
   7.6235637706039888E-002  -2.2823086560271991E-002   2.1814548289845574E-002
   7.3935193290576934E-002  -2.2062108822288512E-002   2.1954980036938410E-002
   7.1634748875113924E-002  -2.1316306316999017E-002   2.2227673010490494E-002
   7.4879475397427842E-002  -2.2650944169018306E-002   2.9103509327874477E-002
   7.2708158789755423E-002  -2.1815758446558475E-002   2.8998581037814442E-002
   7.0536842182083004E-002  -2.1042547984066781E-002   2.9019647136876270E-002
   6.8365525574410543E-002  -2.0331312781543789E-002   2.9166707625060004E-002
   6.6194208966738138E-002  -1.9682052838988939E-002   2.9439762502365963E-002
   8.8171190988740822E-002  -2.6219066751029030E-002  -1.2825092336687938E-004
   8.4595701547421909E-002  -2.5156242933410011E-002  -3.9644577867908870E-004
   8.1020212106102996E-002  -2.4163856716668125E-002  -4.3972875388836874E-004
   7.7444722664784110E-002  -2.3241908100804100E-002  -2.5809984899449745E-004
   7.3869233223465169E-002  -2.2390397085817138E-002   1.4844093600185904E-004
   8.2623239886115252E-002  -2.4584813273019090E-002   7.4436662976238299E-003
   7.9273559805289329E-002  -2.3627852381885500E-002   7.1558147031274555E-003
   7.5923879724463433E-002  -2.2713169791857890E-002   7.0946699495137433E-003
   7.2574199643637524E-002  -2.1840765502935622E-002   7.2602320367831791E-003
   6.9224519562811671E-002  -2.1010639515119167E-002   7.6525009649356934E-003
   7.7111092514906276E-002  -2.2950559795008985E-002   1.4895640942243188E-002
   7.3989016755353687E-002  -2.2099461830361600E-002   1.4616291908333717E-002
   7.0866940995801195E-002  -2.1262482867047863E-002   1.4565444676087419E-002
   6.7744865236248647E-002  -2.0439622905067362E-002   1.4743099245504938E-002
   6.4622789476696085E-002  -1.9630881944420697E-002   1.5149255616585866E-002
   7.1634748875113924E-002  -2.1316306316999017E-002   2.2227673010490494E-002
   6.8742072397615026E-002  -2.0571071278837449E-002   2.1984985836940044E-002
   6.5849395920116155E-002  -1.9811795942237510E-002   2.1972595425833578E-002
   6.2956719442617270E-002  -1.9038480307199214E-002   2.2190501777170739E-002
   6.0064042965118379E-002  -1.8251124373722533E-002   2.2638704890952085E-002
   6.6194208966738138E-002  -1.9682052838988939E-002   2.9439762502365963E-002
   6.3532726732073302E-002  -1.9042680727313160E-002   2.9261896488946754E-002
   6.0871244497408453E-002  -1.8361109017427255E-002   2.9316122198751488E-002
   5.8209762262743610E-002  -1.7637337709330732E-002   2.9602439631780497E-002
   5.5548280028078767E-002  -1.6871366803024201E-002   3.0120848788033949E-002
   7.3869233223465169E-002  -2.2390397085817138E-002   1.4844093600185904E-004
   7.1346468628063375E-002  -2.1556778365633134E-002  -3.4230259833645249E-004
   6.8823704032661637E-002  -2.0688506634176484E-002  -8.1109860021622016E-004
   6.6300939437259926E-002  -1.9785581891447482E-002  -1.2579470696368888E-003
   6.3778174841858104E-002  -1.8848004137446028E-002  -1.6828480065995688E-003
   6.9224519562811671E-002  -2.1010639515119167E-002   7.6525009649356934E-003
   6.6749202832124321E-002  -2.0192777972417975E-002   7.2564425484648587E-003
   6.4273886101437000E-002  -1.9357167018842825E-002   6.9333323289640925E-003
   6.1798569370749692E-002  -1.8503806654393218E-002   6.6831703064333531E-003
   5.9323252640062329E-002  -1.7632696879069543E-002   6.5059564808733761E-003
   6.4622789476696085E-002  -1.9630881944420697E-002   1.5149255616585866E-002
   6.2245921275234928E-002  -1.8828777579202843E-002   1.4830978717583626E-002
   5.9869053073773784E-002  -1.8025827403509026E-002   1.4636650680063659E-002
   5.7492184872312620E-002  -1.7222031417339169E-002   1.4566271504025702E-002
   5.5115316670851483E-002  -1.6417389620693112E-002   1.4619841189469712E-002
   6.0064042965118379E-002  -1.8251124373722533E-002   2.2638704890952085E-002
   5.7836623957395174E-002  -1.7464777185987643E-002   2.2381305909020419E-002
   5.5609204949671920E-002  -1.6694487788175186E-002   2.2298856453082841E-002
   5.3381785941948673E-002  -1.5940256180284679E-002   2.2391356523139099E-002
   5.1154366934225405E-002  -1.5202082362316655E-002   2.2658806119188711E-002
   5.5548280028078767E-002  -1.6871366803024201E-002   3.0120848788033949E-002
   5.3521310878605149E-002  -1.6100776792772525E-002   2.9907424122775195E-002
   5.1494341729131476E-002  -1.5363148172841332E-002   2.9919949648021527E-002
   4.9467372579657859E-002  -1.4658480943230631E-002   3.0158425363773514E-002
   4.7440403430184241E-002  -1.3986775103940308E-002   3.0622851270031171E-002
   6.3778174841858104E-002  -1.8848004137446028E-002  -1.6828480065995688E-003
   6.0345078486872761E-002  -1.7911662197377165E-002  -2.5448051150315232E-003
   5.6911982131887473E-002  -1.7012444896445073E-002  -3.1872457877671345E-003
   5.3478885776902269E-002  -1.6150352234650119E-002  -3.6101700248076796E-003
   5.0045789421916842E-002  -1.5325384211993143E-002  -3.8135778261518816E-003
   5.9323252640062329E-002  -1.7632696879069543E-002   6.5059564808733761E-003
   5.6102749608568925E-002  -1.6759500837615238E-002   5.8587117339471972E-003
   5.2882246577075492E-002  -1.5899881674774546E-002   5.4171371983087191E-003
   4.9661743545582213E-002  -1.5053839390547143E-002   5.1812328739579416E-003
   4.6441240514088711E-002  -1.4221373984933283E-002   5.1509987608959751E-003
   5.5115316670851483E-002  -1.6417389620693112E-002   1.4619841189469712E-002
   5.2093560738442013E-002  -1.5607339477853754E-002   1.4210856564572827E-002
   4.9071804806032668E-002  -1.4787318453104117E-002   1.3993695926556235E-002
   4.6050048873623316E-002  -1.3957326546443719E-002   1.3968359275419347E-002
   4.3028292941213853E-002  -1.3117363757873202E-002   1.4134846611162710E-002
   5.1154366934225405E-002  -1.5202082362316655E-002   2.2658806119188711E-002
   4.8317511876492178E-002  -1.4455178118092493E-002   2.2511629376845428E-002
   4.5480656818758972E-002  -1.3674755231433640E-002   2.2542430396974417E-002
   4.2643801761025620E-002  -1.2860813702340742E-002   2.2751209179574954E-002
   3.9806946703292517E-002  -1.2013353530813009E-002   2.3137965724648324E-002
   4.7440403430184241E-002  -1.3986775103940308E-002   3.0622851270031171E-002
   4.4774603022719267E-002  -1.3303016758331010E-002   3.0761030170764980E-002
   4.2108802615254293E-002  -1.2562192009763329E-002   3.1063340609563173E-002
   3.9443002207789207E-002  -1.1764300858237389E-002   3.1529782586425942E-002
   3.6777201800324288E-002  -1.0909343303753039E-002   3.2160356101352594E-002
   9.0360486800498518E-002   0.0000000000000000        4.9840237966473758E-002
   9.3961349461302843E-002  -5.4040556640398557E-003   5.3215487863727484E-002
   9.7562212122107167E-002  -1.0670915503347457E-002   5.4972524421219644E-002
  0.10116307478291149       -1.5800579517922807E-002   5.5111347638950196E-002
  0.10476393744371582       -2.0793047707765903E-002   5.3631957516919147E-002
   8.2423995525869140E-002   0.0000000000000000        4.4789058028488697E-002
   8.4635616708497299E-002  -4.5744192154493768E-003   4.8273536331107252E-002
   8.6847237891125473E-002  -9.0382642626692256E-003   5.0597745017135064E-002
   8.9058859073753660E-002  -1.3391535141659543E-002   5.1761684086572196E-002
   9.1270480256381820E-002  -1.7634231852420336E-002   5.1765353539418593E-002
   7.4243875798538236E-002   0.0000000000000000        4.0580825367345474E-002
   7.5524199226161132E-002  -3.7447827668588996E-003   4.4147910418826118E-002
   7.6804522653784027E-002  -7.4056130219909925E-003   4.7012669576886913E-002
   7.8084846081406922E-002  -1.0982490765396284E-002   4.9175102841527880E-002
   7.9365169509029804E-002  -1.4475415997074765E-002   5.0635210212748992E-002
   6.5820127618505836E-002   0.0000000000000000        3.7215539983044096E-002
   6.6627097014294326E-002  -2.9151463182684216E-003   4.0838610126884112E-002
   6.7434066410082816E-002  -5.7729617813127628E-003   4.4217298100475158E-002
   6.8241035805871292E-002  -8.5734463891330229E-003   4.7351603903817228E-002
   6.9048005201659768E-002  -1.1316600141729192E-002   5.0241527536910344E-002
   5.7152750985771925E-002   0.0000000000000000        3.4693201875584542E-002
   5.7944310072896882E-002  -2.0855098696779435E-003   3.8345635455281218E-002
   5.8735869160021825E-002  -4.1403105406345279E-003   4.2211630587899784E-002
   5.9527428247146782E-002  -6.1644020128697602E-003   4.6291187273440247E-002
   6.0318987334271712E-002  -8.1577842863836316E-003   5.0584305511902600E-002
  0.10476393744371582       -2.0793047707765903E-002   5.3631957516919147E-002
  0.10210737829632316       -2.4935293889840966E-002   4.5654601924389429E-002
   9.9450819148930517E-002  -2.7514291881112301E-002   3.9368220708056206E-002
   9.6794260001537860E-002  -2.8530041681579785E-002   3.4772813867919417E-002
   9.4137700854145204E-002  -2.7982543291243556E-002   3.1868381403979115E-002
   9.1270480256381820E-002  -1.7634231852420336E-002   5.1765353539418593E-002
   9.0066952638096637E-002  -2.1211091487925465E-002   4.6530375626324567E-002
   8.8863425019811482E-002  -2.3566851141148811E-002   4.2510486395248993E-002
   8.7659897401526271E-002  -2.4701510812090377E-002   3.9705685846191947E-002
   8.6456369783241116E-002  -2.4615070500750146E-002   3.8115973979153277E-002
   7.9365169509029804E-002  -1.4475415997074765E-002   5.0635210212748992E-002
   7.9138787725674065E-002  -1.7486889086009941E-002   4.7800461770568736E-002
   7.8912405942318312E-002  -1.9619410401185342E-002   4.5704916316228909E-002
   7.8686024158962545E-002  -2.0872979942600935E-002   4.4348573849729483E-002
   7.8459642375606792E-002  -2.1247597710256749E-002   4.3731434371070466E-002
   6.9048005201659768E-002  -1.1316600141729192E-002   5.0241527536910344E-002
   6.9322883559055429E-002  -1.3762686684094437E-002   4.9464860357121804E-002
   6.9597761916451062E-002  -1.5671969661221859E-002   4.8951510470995739E-002
   6.9872640273846695E-002  -1.7044449073111510E-002   4.8701477878531962E-002
   7.0147518631242356E-002  -1.7880124919763360E-002   4.8714762579730571E-002
   6.0318987334271712E-002  -8.1577842863836316E-003   5.0584305511902600E-002
   6.0619240138240729E-002  -1.0038484282178919E-002   5.1523571385983881E-002
   6.0919492942209719E-002  -1.1724528921258394E-002   5.2250268859549448E-002
   6.1219745746178708E-002  -1.3215918203622072E-002   5.2764397932599426E-002
   6.1519998550147711E-002  -1.4512652129269936E-002   5.3065958605133683E-002
   9.4137700854145204E-002  -2.7982543291243556E-002   3.1868381403979115E-002
   9.1762874014413021E-002  -2.6790154633539544E-002   3.1304480201808697E-002
   8.9388047174680851E-002  -2.5871233631903766E-002   3.0821387057731214E-002
   8.7013220334948668E-002  -2.5225780286336257E-002   3.0419101971746687E-002
   8.4638393495216513E-002  -2.4853794596836926E-002   3.0097624943855178E-002
   8.6456369783241116E-002  -2.4615070500750146E-002   3.8115973979153277E-002
   8.4208461074223001E-002  -2.3972212489550278E-002   3.7091920393558450E-002
   8.1960552365204886E-002  -2.3437619060912851E-002   3.6240895011298777E-002
   7.9712643656186813E-002  -2.3011290214837977E-002   3.5562897832374277E-002
   7.7464734947168684E-002  -2.2693225951325474E-002   3.5057928856784992E-002
   7.8459642375606792E-002  -2.1247597710256749E-002   4.3731434371070466E-002
   7.6430871942544998E-002  -2.1154270345561031E-002   4.2412431475556900E-002
   7.4402101509483190E-002  -2.1004004489921995E-002   4.1358676928620830E-002
   7.2373331076421396E-002  -2.0796800143339702E-002   4.0570170730262173E-002
   7.0344560643359602E-002  -2.0532657305814064E-002   4.0046912880480796E-002
   7.0147518631242356E-002  -1.7880124919763360E-002   4.8714762579730571E-002
   6.8430106619379052E-002  -1.8336328201571772E-002   4.7266013447804144E-002
   6.6712694607515763E-002  -1.8570389918931111E-002   4.6174732809697423E-002
   6.4995282595652473E-002  -1.8582310071841409E-002   4.5440920665410209E-002
   6.3277870583789170E-002  -1.8372088660302661E-002   4.5064577014942743E-002
   6.1519998550147711E-002  -1.4512652129269936E-002   5.3065958605133683E-002
   6.0206165104725151E-002  -1.5518386057582510E-002   5.1652666310300126E-002
   5.8892331659302598E-002  -1.6136775347940238E-002   5.0689062654528494E-002
   5.7578498213880031E-002  -1.6367820000343172E-002   5.0175147637818565E-002
   5.6264664768457470E-002  -1.6211520014791203E-002   5.0110921260170582E-002
   8.4638393495216513E-002  -2.4853794596836926E-002   3.0097624943855178E-002
   8.2198663970769345E-002  -2.4539677548999370E-002   2.9371426638230697E-002
   7.9758934446322177E-002  -2.4067830128417088E-002   2.8963674600359091E-002
   7.7319204921874982E-002  -2.3438252335090067E-002   2.8874368830240284E-002
   7.4879475397427842E-002  -2.2650944169018306E-002   2.9103509327874477E-002
   7.7464734947168684E-002  -2.2693225951325474E-002   3.5057928856784992E-002
   7.5322023399759214E-002  -2.2371356518203926E-002   3.4500589151946655E-002
   7.3179311852349702E-002  -2.1933612163301933E-002   3.4218839133430622E-002
   7.1036600304940217E-002  -2.1379992886619115E-002   3.4212678801237267E-002
   6.8893888757530691E-002  -2.0710498688155776E-002   3.4482108155366148E-002
   7.0344560643359602E-002  -2.0532657305814064E-002   4.0046912880480796E-002
   6.8456010491557320E-002  -2.0203035487408587E-002   3.9616576325464462E-002
   6.6567460339755052E-002  -1.9799394198186614E-002   3.9418972875340116E-002
   6.4678910187952784E-002  -1.9321733438148209E-002   3.9454102530107824E-002
   6.2790360036150517E-002  -1.8770053207293275E-002   3.9721965289767416E-002
   6.3277870583789170E-002  -1.8372088660302661E-002   4.5064577014942743E-002
   6.1600625246163714E-002  -1.8034714456613195E-002   4.4719388158784276E-002
   5.9923379908538160E-002  -1.7665176233071379E-002   4.4564075826087277E-002
   5.8246134570912662E-002  -1.7263473989677251E-002   4.4598640016851952E-002
   5.6568889233287158E-002  -1.6829607726430773E-002   4.4823080731078047E-002
   5.6264664768457470E-002  -1.6211520014791203E-002   5.0110921260170582E-002
   5.4755867663578289E-002  -1.5866393425817818E-002   4.9809024651905828E-002
   5.3247070558699115E-002  -1.5530958267956127E-002   4.9654147985672234E-002
   5.1738273453819927E-002  -1.5205214541206363E-002   4.9646291261469661E-002
   5.0229476348940733E-002  -1.4889162245568244E-002   4.9785454479298302E-002
   7.4879475397427842E-002  -2.2650944169018306E-002   2.9103509327874477E-002
   7.2708158789755423E-002  -2.1815758446558475E-002   2.8998581037814442E-002
   7.0536842182083004E-002  -2.1042547984066781E-002   2.9019647136876270E-002
   6.8365525574410543E-002  -2.0331312781543789E-002   2.9166707625060004E-002
   6.6194208966738138E-002  -1.9682052838988939E-002   2.9439762502365963E-002
   6.8893888757530691E-002  -2.0710498688155776E-002   3.4482108155366148E-002
   6.6860315826669681E-002  -1.9999294102538381E-002   3.4223772367791935E-002
   6.4826742895808614E-002  -1.9320543664393522E-002   3.4114929544718231E-002
   6.2793169964947534E-002  -1.8674247373721118E-002   3.4155579686145306E-002
   6.0759597034086482E-002  -1.8060405230521215E-002   3.4345722792073152E-002
   6.2790360036150517E-002  -1.8770053207293275E-002   3.9721965289767416E-002
   6.0918029357479482E-002  -1.8182829758518454E-002   3.9339743117174683E-002
   5.9045698678808461E-002  -1.7598539344720159E-002   3.9130512484461442E-002
   5.7173368000137469E-002  -1.7017181965898534E-002   3.9094273391627521E-002
   5.5301037321466413E-002  -1.6438757622053490E-002   3.9231025838673078E-002
   5.6568889233287158E-002  -1.6829607726430773E-002   4.4823080731078047E-002
   5.4881299382184896E-002  -1.6366365414498429E-002   4.4346493285963101E-002
   5.3193709531082628E-002  -1.5876535025046930E-002   4.4066395956106112E-002
   5.1506119679980339E-002  -1.5360116558075960E-002   4.3982788741507149E-002
   4.9818529828878091E-002  -1.4817110013585738E-002   4.4095671642166254E-002
   5.0229476348940733E-002  -1.4889162245568244E-002   4.9785454479298302E-002
   4.8750125900785896E-002  -1.4549901070478488E-002   4.9244022874156745E-002
   4.7270775452631017E-002  -1.4154530705373522E-002   4.8922579959651880E-002
   4.5791425004476145E-002  -1.3703051150253300E-002   4.8821125735783788E-002
   4.4312074556321301E-002  -1.3195462405118041E-002   4.8939660202552526E-002
   6.6194208966738138E-002  -1.9682052838988939E-002   2.9439762502365963E-002
   6.3532726732073302E-002  -1.9042680727313160E-002   2.9261896488946754E-002
   6.0871244497408453E-002  -1.8361109017427255E-002   2.9316122198751488E-002
   5.8209762262743610E-002  -1.7637337709330732E-002   2.9602439631780497E-002
   5.5548280028078767E-002  -1.6871366803024201E-002   3.0120848788033949E-002
   6.0759597034086482E-002  -1.8060405230521215E-002   3.4345722792073152E-002
   5.8326442469315634E-002  -1.7449036357824771E-002   3.4174998547692986E-002
   5.5893287904544731E-002  -1.6810159878662953E-002   3.4228837919876812E-002
   5.3460133339773806E-002  -1.6143775793035550E-002   3.4507240908624191E-002
   5.1026978775002924E-002  -1.5449884100942612E-002   3.5010207513935382E-002
   5.5301037321466413E-002  -1.6438757622053490E-002   3.9231025838673078E-002
   5.3088682319929088E-002  -1.5855391988336395E-002   3.9052751371587507E-002
   5.0876327318391701E-002  -1.5259210739898714E-002   3.9091512414405179E-002
   4.8663972316854320E-002  -1.4650213876740257E-002   3.9347308967126363E-002
   4.6451617315316995E-002  -1.4028401398861273E-002   3.9820141029750580E-002
   4.9818529828878091E-002  -1.4817110013585738E-002   4.4095671642166254E-002
   4.7819446283913755E-002  -1.4261747618848096E-002   4.3895154960630275E-002
   4.5820362738949426E-002  -1.3708261601134277E-002   4.3904145682337359E-002
   4.3821279193985076E-002  -1.3156651960445076E-002   4.4122643807286928E-002
   4.1822195649020746E-002  -1.2606918696779865E-002   4.4550649335479614E-002
   4.4312074556321301E-002  -1.3195462405118041E-002   4.8939660202552526E-002
   4.2518734361269586E-002  -1.2668103249359686E-002   4.8702209314821387E-002
   4.0725394166217843E-002  -1.2157312462370118E-002   4.8666737723672748E-002
   3.8932053971166128E-002  -1.1663090044149824E-002   4.8833245429106373E-002
   3.7138713776114385E-002  -1.1185435994698401E-002   4.9201732431122303E-002
   5.5548280028078767E-002  -1.6871366803024201E-002   3.0120848788033949E-002
   5.3521310878605149E-002  -1.6100776792772525E-002   2.9907424122775195E-002
   5.1494341729131476E-002  -1.5363148172841332E-002   2.9919949648021527E-002
   4.9467372579657859E-002  -1.4658480943230631E-002   3.0158425363773514E-002
   4.7440403430184241E-002  -1.3986775103940308E-002   3.0622851270031171E-002
   5.1026978775002924E-002  -1.5449884100942612E-002   3.5010207513935382E-002
   4.9210050896951824E-002  -1.4749866338262946E-002   3.4702705295177272E-002
   4.7393123018900696E-002  -1.4065104040874563E-002   3.4589335428758514E-002
   4.5576195140849554E-002  -1.3395597208777973E-002   3.4670097914679586E-002
   4.3759267262798440E-002  -1.2741345841972895E-002   3.4944992752940163E-002
   4.6451617315316995E-002  -1.4028401398861273E-002   3.9820141029750580E-002
   4.4812912870522338E-002  -1.3398955883753325E-002   3.9436267182522175E-002
   4.3174208425727778E-002  -1.2767059908907967E-002   3.9214707849467255E-002
   4.1535503980933149E-002  -1.2132713474325428E-002   3.9155463030585980E-002
   3.9896799536138561E-002  -1.1495916580005539E-002   3.9258532725878093E-002
   4.1822195649020746E-002  -1.2606918696779865E-002   4.4550649335479614E-002
   4.0329896799316749E-002  -1.2048045429243724E-002   4.4108109784809668E-002
   3.8837597949612709E-002  -1.1469015776941285E-002   4.3796066910147348E-002
   3.7345299099908677E-002  -1.0869829739872938E-002   4.3614520711492584E-002
   3.5853000250204603E-002  -1.0250487318038376E-002   4.3563471188845501E-002
   3.7138713776114385E-002  -1.1185435994698401E-002   4.9201732431122303E-002
   3.5761002683334986E-002  -1.0697134974734179E-002   4.8718233102039654E-002
   3.4383291590555559E-002  -1.0170971644974575E-002   4.8333412610798931E-002
   3.3005580497776105E-002  -9.6069460054202180E-003   4.8047270957399718E-002
   3.1627869404996706E-002  -9.0050580560708249E-003   4.7859808141842042E-002
   4.7440403430184241E-002  -1.3986775103940308E-002   3.0622851270031171E-002
   4.4774603022719267E-002  -1.3303016758331010E-002   3.0761030170764980E-002
   4.2108802615254293E-002  -1.2562192009763329E-002   3.1063340609563173E-002
   3.9443002207789207E-002  -1.1764300858237389E-002   3.1529782586425942E-002
   3.6777201800324288E-002  -1.0909343303753039E-002   3.2160356101352594E-002
   4.3759267262798440E-002  -1.2741345841972895E-002   3.4944992752940163E-002
   4.1255827945319734E-002  -1.2077825563561184E-002   3.4945499492053500E-002
   3.8752388627841042E-002  -1.1380511996644180E-002   3.5106596873074825E-002
   3.6248949310362356E-002  -1.0649405141222295E-002   3.5428284896004816E-002
   3.3745509992883616E-002  -9.8845049972955401E-003   3.5910563560842879E-002
   3.9896799536138561E-002  -1.1495916580005539E-002   3.9258532725878093E-002
   3.7552180412489998E-002  -1.0852634368791247E-002   3.9098094188917812E-002
   3.5207561288841394E-002  -1.0198831983525086E-002   3.9094705397709470E-002
   3.2862942165192845E-002  -9.5345094242074505E-003   3.9248366352253150E-002
   3.0518323041544226E-002  -8.8596666908380417E-003   3.9559077052549074E-002
   3.5853000250204603E-002  -1.0250487318038376E-002   4.3563471188845501E-002
   3.3663660424230031E-002  -9.6274431740213662E-003   4.3218814261358054E-002
   3.1474320598255390E-002  -9.0171519704060760E-003   4.3027666183466318E-002
   2.9284980772280762E-002  -8.4196137071925921E-003   4.2990026955170679E-002
   2.7095640946306121E-002  -7.8348283843805433E-003   4.3105896576470862E-002
   3.1627869404996706E-002  -9.0050580560708249E-003   4.7859808141842042E-002
   2.9590267980539875E-002  -8.4022519792514294E-003   4.7307659709374228E-002
   2.7552666556083058E-002  -7.8354719572867743E-003   4.6905479230346020E-002
   2.5515065131626262E-002  -7.3047179901775498E-003   4.6653266704757848E-002
   2.3477463707169410E-002  -6.8099900779230449E-003   4.6551022132608866E-002
   5.7152750985771925E-002   0.0000000000000000        3.4693201875584542E-002
   5.7944310072896882E-002  -2.0855098696779435E-003   3.8345635455281218E-002
   5.8735869160021825E-002  -4.1403105406345279E-003   4.2211630587899784E-002
   5.9527428247146782E-002  -6.1644020128697602E-003   4.6291187273440247E-002
   6.0318987334271712E-002  -8.1577842863836316E-003   5.0584305511902600E-002
   4.8653507286238726E-002   0.0000000000000000        3.2790762013113900E-002
   4.9593398296570869E-002  -1.7109677833051281E-003   3.6966262354157009E-002
   5.0533289306903005E-002  -3.4358406214151840E-003   4.1224864988692586E-002
   5.1473180317235155E-002  -5.1746185143301694E-003   4.5566569916720652E-002
   5.2413071327567298E-002  -6.9273014620500808E-003   4.9991377138241228E-002
   4.0734157905808449E-002   0.0000000000000000        3.1285171363779216E-002
   4.1691921579918370E-002  -1.3364256969323127E-003   3.5939124212642462E-002
   4.2649685254028298E-002  -2.7313707021958417E-003   4.0545720095568789E-002
   4.3607448928138226E-002  -4.1848350157905820E-003   4.5104959012558191E-002
   4.4565212602248147E-002  -5.6968186377165412E-003   4.9616840963610659E-002
   3.3394702844481094E-002   0.0000000000000000        3.0176429927580493E-002
   3.4239879922939385E-002  -9.6188361055949767E-004   3.5264221030737598E-002
   3.5085057001397683E-002  -2.0269007829764969E-003   4.0174195908528373E-002
   3.5930234079855981E-002  -3.1950515172509963E-003   4.4906354560952814E-002
   3.6775411158314286E-002  -4.4663358133830017E-003   4.9460696988010901E-002
   2.6635142102256669E-002   0.0000000000000000        2.9464537704517724E-002
   2.7237273325633922E-002  -5.8734152418668095E-004   3.4941552808442411E-002
   2.7839404549011178E-002  -1.3224308637571538E-003   4.0110292427571338E-002
   2.8441535772388428E-002  -2.2052680187114038E-003   4.4970756561904530E-002
   2.9043666995765688E-002  -3.2358529890494543E-003   4.9522945211441960E-002
   6.0318987334271712E-002  -8.1577842863836316E-003   5.0584305511902600E-002
   6.0619240138240729E-002  -1.0038484282178919E-002   5.1523571385983881E-002
   6.0919492942209719E-002  -1.1724528921258394E-002   5.2250268859549448E-002
   6.1219745746178708E-002  -1.3215918203622072E-002   5.2764397932599426E-002
   6.1519998550147711E-002  -1.4512652129269936E-002   5.3065958605133683E-002
   5.2413071327567298E-002  -6.9273014620500808E-003   4.9991377138241228E-002
   5.2539714889536432E-002  -8.5926079406973797E-003   5.1219316127056561E-002
   5.2666358451505586E-002  -1.0069256426394521E-002   5.2312605032387868E-002
   5.2793002013474720E-002  -1.1357246919141502E-002   5.3271243854235109E-002
   5.2919645575443867E-002  -1.2456579418938303E-002   5.4095232592598290E-002
   4.4565212602248147E-002  -5.6968186377165412E-003   4.9616840963610659E-002
   4.4596165239249065E-002  -7.1467315992158539E-003   5.1127455703394428E-002
   4.4627117876249976E-002  -8.4139839315306407E-003   5.2581338676725771E-002
   4.4658070513250894E-002  -9.4985756346609163E-003   5.3978489883604687E-002
   4.4689023150251819E-002  -1.0400506708606660E-002   5.5318909324031176E-002
   3.6775411158314286E-002  -4.4663358133830017E-003   4.9460696988010901E-002
   3.6788591187378580E-002  -5.7008552577343177E-003   5.1247990114997470E-002
   3.6801771216442895E-002  -6.7587114366667641E-003   5.3056469792563198E-002
   3.6814951245507183E-002  -7.6399043501803217E-003   5.4886136020708146E-002
   3.6828131274571504E-002  -8.3444339982750287E-003   5.6736988799432307E-002
   2.9043666995765688E-002  -3.2358529890494543E-003   4.9522945211441960E-002
   2.9116992733925005E-002  -4.2549789162527850E-003   5.1580919361865665E-002
   2.9190318472084323E-002  -5.1034389418028936E-003   5.3737998379900169E-002
   2.9263644210243640E-002  -5.7812330656997531E-003   5.5994182265545492E-002
   2.9336969948402958E-002  -6.2883612879433767E-003   5.8349471018801662E-002
   6.1519998550147711E-002  -1.4512652129269936E-002   5.3065958605133683E-002
   6.0206165104725151E-002  -1.5518386057582510E-002   5.1652666310300126E-002
   5.8892331659302598E-002  -1.6136775347940238E-002   5.0689062654528494E-002
   5.7578498213880031E-002  -1.6367820000343172E-002   5.0175147637818565E-002
   5.6264664768457470E-002  -1.6211520014791203E-002   5.0110921260170582E-002
   5.2919645575443867E-002  -1.2456579418938303E-002   5.4095232592598290E-002
   5.2003795213844919E-002  -1.3308210858357282E-002   5.3347009674918462E-002
   5.1087944852245951E-002  -1.3853098169970700E-002   5.2945064285824017E-002
   5.0172094490646989E-002  -1.4091241353778681E-002   5.2889396425314879E-002
   4.9256244129048013E-002  -1.4022640409781059E-002   5.3180006093391088E-002
   4.4689023150251819E-002  -1.0400506708606660E-002   5.5318909324031176E-002
   4.4067744761999927E-002  -1.1098035659132043E-002   5.5155155273355766E-002
   4.3446466373748063E-002  -1.1569420992001235E-002   5.5234267640789154E-002
   4.2825187985496185E-002  -1.1814662707214178E-002   5.5556246426331363E-002
   4.2203909597244307E-002  -1.1833760804770943E-002   5.6121091629982481E-002
   3.6828131274571504E-002  -8.3444339982750287E-003   5.6736988799432307E-002
   3.6398013749190238E-002  -8.8878604599068236E-003   5.7077103105611912E-002
   3.5967896223808964E-002  -9.2857438140317196E-003   5.7556672719423899E-002
   3.5537778698427697E-002  -9.5380840606496872E-003   5.8175697640868267E-002
   3.5107661173046444E-002  -9.6448811997608130E-003   5.8934177869944926E-002
   2.9336969948402958E-002  -6.2883612879433767E-003   5.8349471018801662E-002
   2.8994602175415801E-002  -6.6776852606815762E-003   5.9112853171687067E-002
   2.8652234402428648E-002  -7.0020666360622198E-003   5.9912279521728326E-002
   2.8309866629441481E-002  -7.2615054140852085E-003   6.0747750068925396E-002
   2.7967498856454324E-002  -7.4560015947506691E-003   6.1619264813278438E-002
   5.6264664768457470E-002  -1.6211520014791203E-002   5.0110921260170582E-002
   5.4755867663578289E-002  -1.5866393425817818E-002   4.9809024651905828E-002
   5.3247070558699115E-002  -1.5530958267956127E-002   4.9654147985672234E-002
   5.1738273453819927E-002  -1.5205214541206363E-002   4.9646291261469661E-002
   5.0229476348940733E-002  -1.4889162245568244E-002   4.9785454479298302E-002
   4.9256244129048013E-002  -1.4022640409781059E-002   5.3180006093391088E-002
   4.7906346409269517E-002  -1.3792880703252137E-002   5.2849016018874366E-002
   4.6556448689491020E-002  -1.3547547599466084E-002   5.2688804772527985E-002
   4.5206550969712538E-002  -1.3286641098422813E-002   5.2699372354351903E-002
   4.3856653249934027E-002  -1.3010161200122328E-002   5.2880718764346052E-002
   4.2203909597244307E-002  -1.1833760804770943E-002   5.6121091629982481E-002
   4.1036670148705698E-002  -1.1719367980686547E-002   5.5786272917582883E-002
   3.9869430700167074E-002  -1.1564136930975959E-002   5.5645991919492703E-002
   3.8702191251628472E-002  -1.1368067655639321E-002   5.5700248635711894E-002
   3.7534951803089849E-002  -1.1131160154676495E-002   5.5949043066240767E-002
   3.5107661173046444E-002  -9.6448811997608130E-003   5.8934177869944926E-002
   3.4146838881886875E-002  -9.6458552581209119E-003   5.8620795348031357E-002
   3.3186016590727292E-002  -9.5807262624859023E-003   5.8525709426566278E-002
   3.2225194299567730E-002  -9.4494942128558156E-003   5.8648920105549972E-002
   3.1264372008408148E-002  -9.2521591092306205E-003   5.8990427384982197E-002
   2.7967498856454324E-002  -7.4560015947506691E-003   6.1619264813278438E-002
   2.7236852608812992E-002  -7.5723425355552834E-003   6.1352583310219713E-002
   2.6506206361171656E-002  -7.5973155939957869E-003   6.1327957293748826E-002
   2.5775560113530327E-002  -7.5309207700723210E-003   6.1545386763865784E-002
   2.5044913865888987E-002  -7.3731580637847460E-003   6.2004871720570509E-002
   5.0229476348940733E-002  -1.4889162245568244E-002   4.9785454479298302E-002
   4.8750125900785896E-002  -1.4549901070478488E-002   4.9244022874156745E-002
   4.7270775452631017E-002  -1.4154530705373522E-002   4.8922579959651880E-002
   4.5791425004476145E-002  -1.3703051150253300E-002   4.8821125735783788E-002
   4.4312074556321301E-002  -1.3195462405118041E-002   4.8939660202552526E-002
   4.3856653249934027E-002  -1.3010161200122328E-002   5.2880718764346052E-002
   4.2590380712052636E-002  -1.2704443537233504E-002   5.2433003691971167E-002
   4.1324108174171231E-002  -1.2355823742424957E-002   5.2191455749506427E-002
   4.0057835636289806E-002  -1.1964301815696386E-002   5.2156074936951832E-002
   3.8791563098408408E-002  -1.1529877757048335E-002   5.2326861254307522E-002
   3.7534951803089849E-002  -1.1131160154676495E-002   5.5949043066240767E-002
   3.6467935614755281E-002  -1.0858986003988491E-002   5.5581837468537135E-002
   3.5400919426420721E-002  -1.0557116779476232E-002   5.5406977440016901E-002
   3.4333903238086154E-002  -1.0225552481139611E-002   5.5424462980680350E-002
   3.3266887049751614E-002  -9.8642931089786834E-003   5.5634294090527309E-002
   3.1264372008408148E-002  -9.2521591092306205E-003   5.8990427384982197E-002
   3.0382790608893838E-002  -9.0135284707435342E-003   5.8690524203854358E-002
   2.9501209209379535E-002  -8.7584098165275868E-003   5.8569145031183378E-002
   2.8619627809865215E-002  -8.4868031465826846E-003   5.8626289866969321E-002
   2.7738046410350898E-002  -8.1987084609090322E-003   5.8861958711212331E-002
   2.5044913865888987E-002  -7.3731580637847460E-003   6.2004871720570509E-002
   2.4334945694468313E-002  -7.1680709374984941E-003   6.1759063897922989E-002
   2.3624977523047631E-002  -6.9597028535789141E-003   6.1677958523005838E-002
   2.2915009351626953E-002  -6.7480538120258185E-003   6.1761555595818904E-002
   2.2205041180206275E-002  -6.5331238128393254E-003   6.2009855116362311E-002
   4.4312074556321301E-002  -1.3195462405118041E-002   4.8939660202552526E-002
   4.2518734361269586E-002  -1.2668103249359686E-002   4.8702209314821387E-002
   4.0725394166217843E-002  -1.2157312462370118E-002   4.8666737723672748E-002
   3.8932053971166128E-002  -1.1663090044149824E-002   4.8833245429106373E-002
   3.7138713776114385E-002  -1.1185435994698401E-002   4.9201732431122303E-002
   3.8791563098408408E-002  -1.1529877757048335E-002   5.2326861254307522E-002
   3.7201925377981782E-002  -1.1077687799314950E-002   5.2074999602615968E-002
   3.5612287657555149E-002  -1.0632868175330559E-002   5.2028563603592426E-002
   3.4022649937128502E-002  -1.0195418885095429E-002   5.2187553257236757E-002
   3.2433012216701862E-002  -9.7653399286093956E-003   5.2551968563548712E-002
   3.3266887049751614E-002  -9.8642931089786834E-003   5.5634294090527309E-002
   3.1884398160035507E-002  -9.4872723492702982E-003   5.5377219709895606E-002
   3.0501909270319420E-002  -9.1084238882910007E-003   5.5329017338017150E-002
   2.9119420380603358E-002  -8.7277477260412004E-003   5.5489686974891900E-002
   2.7736931490887226E-002  -8.3452438625203629E-003   5.5859228620520035E-002
   2.7738046410350898E-002  -8.1987084609090322E-003   5.8861958711212331E-002
   2.6566152707430797E-002  -7.8968568992256044E-003   5.8608869636660094E-002
   2.5394259004510693E-002  -7.5839796012514699E-003   5.8568098926946609E-002
   2.4222365301590606E-002  -7.2600765669868332E-003   5.8739646582071828E-002
   2.3050471598670495E-002  -6.9251477964313718E-003   5.9123512602035848E-002
   2.2205041180206275E-002  -6.5331238128393254E-003   6.2009855116362311E-002
   2.1247189020167617E-002  -6.3064414491808829E-003   6.1769949382909528E-002
   2.0289336860128959E-002  -6.0595353142118974E-003   6.1745808370380961E-002
   1.9331484700090301E-002  -5.7924054079325250E-003   6.1937432078776541E-002
   1.8373632540051643E-002  -5.5050517303422697E-003   6.2344820508096310E-002
   3.7138713776114385E-002  -1.1185435994698401E-002   4.9201732431122303E-002
   3.5761002683334986E-002  -1.0697134974734179E-002   4.8718233102039654E-002
   3.4383291590555559E-002  -1.0170971644974575E-002   4.8333412610798931E-002
   3.3005580497776105E-002  -9.6069460054202180E-003   4.8047270957399718E-002
   3.1627869404996706E-002  -9.0050580560708249E-003   4.7859808141842042E-002
   3.2433012216701862E-002  -9.7653399286093956E-003   5.2551968563548712E-002
   3.1173638995830755E-002  -9.3256844200176603E-003   5.2129941976008537E-002
   2.9914265774959634E-002  -8.8595054734656731E-003   5.1845912294443491E-002
   2.8654892554088533E-002  -8.3668030889533437E-003   5.1699879518853312E-002
   2.7395519333217419E-002  -7.8475772664805543E-003   5.1691843649238123E-002
   2.7736931490887226E-002  -8.3452438625203629E-003   5.5859228620520035E-002
   2.6635214210057837E-002  -7.9542338653014466E-003   5.5487335902687396E-002
   2.5533496929228426E-002  -7.5480393019567854E-003   5.5292758158963271E-002
   2.4431779648399019E-002  -7.1266601724864174E-003   5.5275495389347472E-002
   2.3330062367569619E-002  -6.6900964768903670E-003   5.5435547593840132E-002
   2.3050471598670495E-002  -6.9251477964313718E-003   5.9123512602035848E-002
   2.2145728326016200E-002  -6.5827833105851635E-003   5.8790414882076224E-002
   2.1240985053361888E-002  -6.2365731304478908E-003   5.8673950204358241E-002
   2.0336241780707594E-002  -5.8865172560194062E-003   5.8774118568882303E-002
   1.9431498508053285E-002  -5.5326156873001936E-003   5.9090919975648012E-002
   1.8373632540051643E-002  -5.5050517303422697E-003   6.2344820508096310E-002
   1.7705181343705842E-002  -5.2113327558687417E-003   6.2039178914174986E-002
   1.7036730147360041E-002  -4.9251069589388435E-003   6.1989488430628764E-002
   1.6368278951014233E-002  -4.6463743395524955E-003   6.2195749057457825E-002
   1.5699827754668425E-002  -4.3751348977097981E-003   6.2657960794662126E-002
   3.1627869404996706E-002  -9.0050580560708249E-003   4.7859808141842042E-002
   2.9590267980539875E-002  -8.4022519792514294E-003   4.7307659709374228E-002
   2.7552666556083058E-002  -7.8354719572867743E-003   4.6905479230346020E-002
   2.5515065131626262E-002  -7.3047179901775498E-003   4.6653266704757848E-002
   2.3477463707169410E-002  -6.8099900779230449E-003   4.6551022132608866E-002
   2.7395519333217419E-002  -7.8475772664805543E-003   5.1691843649238123E-002
   2.5523556305441245E-002  -7.3241163099998507E-003   5.1295219153743021E-002
   2.3651593277665119E-002  -6.8187085234625022E-003   5.1079903498169876E-002
   2.1779630249888961E-002  -6.3313539068692165E-003   5.1045896682518174E-002
   1.9907667222112790E-002  -5.8620524602197577E-003   5.1193198706788068E-002
   2.3330062367569619E-002  -6.6900964768903670E-003   5.5435547593840132E-002
   2.1655078622955952E-002  -6.2459806407479668E-003   5.5212419920229322E-002
   1.9980094878342302E-002  -5.8019450896381261E-003   5.5201941973022119E-002
   1.8305111133728680E-002  -5.3579898235609682E-003   5.5404113752218112E-002
   1.6630127389115026E-002  -4.9141148425164705E-003   5.5818935257817670E-002
   1.9431498508053285E-002  -5.5326156873001936E-003   5.9090919975648012E-002
   1.7984834933084011E-002  -5.1678449714961244E-003   5.9059262008832672E-002
   1.6538171358114723E-002  -4.7851816558135800E-003   5.9271594654902317E-002
   1.5091507783145459E-002  -4.3846257402526774E-003   5.9727917913857433E-002
   1.3644844208176164E-002  -3.9661772248132388E-003   6.0428231785697964E-002
   1.5699827754668425E-002  -4.3751348977097981E-003   6.2657960794662126E-002
   1.4512825235825380E-002  -4.0897093022445041E-003   6.2835745419552946E-002
   1.3325822716982301E-002  -3.7684182219892837E-003   6.3288861543810970E-002
   1.2138820198139239E-002  -3.4112616569444212E-003   6.4017309167436087E-002
   1.0951817679296205E-002  -3.0182396071098960E-003   6.5021088290428519E-002
   2.6635142102256669E-002   0.0000000000000000        2.9464537704517724E-002
   2.7237273325633922E-002  -5.8734152418668095E-004   3.4941552808442411E-002
   2.7839404549011178E-002  -1.3224308637571538E-003   4.0110292427571338E-002
   2.8441535772388428E-002  -2.2052680187114038E-003   4.4970756561904530E-002
   2.9043666995765688E-002  -3.2358529890494543E-003   4.9522945211441960E-002
   2.0118235533846857E-002   0.0000000000000000        2.9015253540096000E-002
   2.0451526942163657E-002  -4.4050614311911922E-004   3.4307839003819930E-002
   2.0784818350480461E-002  -9.9182314777914241E-004   3.9371020322218717E-002
   2.1118109758797264E-002  -1.6539510139800687E-003   4.4204797495292332E-002
   2.1451401167114064E-002  -2.4268897417218981E-003   4.8809170523040790E-002
   1.3506742993963344E-002   0.0000000000000000        2.8694336279820390E-002
   1.3650065926690288E-002  -2.9367076205155619E-004   3.3839429057186461E-002
   1.3793388859417232E-002  -6.6121543180113190E-004   3.8833989028697967E-002
   1.3936711792144174E-002  -1.1026340092487250E-003   4.3678016194354921E-002
   1.4080034724871120E-002  -1.6179264943943419E-003   4.8371510554157275E-002
   6.8006644826061335E-003   0.0000000000000000        2.8501785923690907E-002
   6.8328902792138095E-003  -1.4683538098399381E-004   3.3536322968541997E-002
   6.8651160758214872E-003  -3.3060771582312182E-004   3.8499198547009117E-002
   6.8973418724291649E-003  -5.5131700451738729E-004   4.3390412659092284E-002
   6.9295676690368409E-003  -8.0896324706678045E-004   4.8209965304791456E-002
  -2.2477679439969478E-013   0.0000000000000000        2.8437602471707537E-002
  -2.6577351430745466E-013   8.3569436093444693E-014   3.3398520737886531E-002
  -3.0676915001304206E-013   1.5488825499954118E-013   3.8366648877152153E-002
  -3.4776489413884670E-013   2.1395732408002743E-013   4.3341986889504386E-002
  -3.8876063826465135E-013   2.6077230652621353E-013   4.8324534774943258E-002
   2.9043666995765688E-002  -3.2358529890494543E-003   4.9522945211441960E-002
   2.9116992733925005E-002  -4.2549789162527850E-003   5.1580919361865665E-002
   2.9190318472084323E-002  -5.1034389418028936E-003   5.3737998379900169E-002
   2.9263644210243640E-002  -5.7812330656997531E-003   5.5994182265545492E-002
   2.9336969948402958E-002  -6.2883612879433767E-003   5.8349471018801662E-002
   2.1451401167114064E-002  -2.4268897417218981E-003   4.8809170523040790E-002
   2.1594472697341809E-002  -3.1912341871125289E-003   5.1208017648279029E-002
   2.1737544227569554E-002  -3.8275792062598757E-003   5.3647251490043284E-002
   2.1880615757797303E-002  -4.3359247991638979E-003   5.6126872048333581E-002
   2.2023687288025048E-002  -4.7162709658246163E-003   5.8646879323149853E-002
   1.4080034724871120E-002  -1.6179264943943419E-003   4.8371510554157275E-002
   1.4234133896082491E-002  -2.1274894579722797E-003   5.1068564178800124E-002
   1.4388233067293862E-002  -2.5517194707168514E-003   5.3747286368884192E-002
   1.4542332238505233E-002  -2.8906165326280540E-003   5.6407677124409472E-002
   1.4696431409716606E-002  -3.1441806437058871E-003   5.9049736445375992E-002
   6.9295676690368409E-003  -8.0896324706678045E-004   4.8209965304791456E-002
   7.0359763301470445E-003  -1.0637447288320305E-003   5.1162558953428951E-002
   7.1423849912572446E-003  -1.2758597351738476E-003   5.4038103016422902E-002
   7.2487936523674482E-003  -1.4453082660922149E-003   5.6836597493773261E-002
   7.3552023134776483E-003  -1.5720903215871423E-003   5.9558042385480056E-002
  -3.8876063826465135E-013   2.6077230652621353E-013   4.8324534774943258E-002
  -4.6452858920575935E-013   3.0822479984982110E-013   5.1490001972165508E-002
  -5.4029545594469486E-013   3.6918428383825308E-013   5.4519701432659398E-002
  -6.1606243110384762E-013   4.4363655544304992E-013   5.7413633156424913E-002
  -6.9183027362473837E-013   5.3160253976614058E-013   6.0171797143462061E-002
   2.9336969948402958E-002  -6.2883612879433767E-003   5.8349471018801662E-002
   2.8994602175415801E-002  -6.6776852606815762E-003   5.9112853171687067E-002
   2.8652234402428648E-002  -7.0020666360622198E-003   5.9912279521728326E-002
   2.8309866629441481E-002  -7.2615054140852085E-003   6.0747750068925396E-002
   2.7967498856454324E-002  -7.4560015947506691E-003   6.1619264813278438E-002
   2.2023687288025048E-002  -4.7162709658246163E-003   5.8646879323149853E-002
   2.1729750648711056E-002  -5.0082639453589567E-003   5.9465499967305588E-002
   2.1435814009397085E-002  -5.2515499768837955E-003   6.0344938681651819E-002
   2.1141877370083096E-002  -5.4461290603991155E-003   6.1285195466188588E-002
   2.0847940730769118E-002  -5.5920011959049026E-003   6.2286270320915778E-002
   1.4696431409716606E-002  -3.1441806437058871E-003   5.9049736445375992E-002
   1.4475699777110433E-002  -3.3388426300363094E-003   5.9907359931453998E-002
   1.4254968144504252E-002  -3.5010333177053566E-003   6.0850575360757102E-002
   1.4034236511898073E-002  -3.6307527067129513E-003   6.1879382733285346E-002
   1.3813504879291895E-002  -3.7280007970591431E-003   6.2993782049038674E-002
   7.3552023134776483E-003  -1.5720903215871423E-003   5.9558042385480056E-002
   7.2324495606139027E-003  -1.6694213147136830E-003   6.0438433064132248E-002
   7.1096968077501614E-003  -1.7505166585268972E-003   6.1429189559044126E-002
   6.9869440548864167E-003  -1.8153763530268019E-003   6.2530311870215780E-002
   6.8641913020226746E-003  -1.8640003982134078E-003   6.3741799997647161E-002
  -6.9183027362473837E-013   5.3160253976614058E-013   6.0171797143462061E-002
  -7.7851440571929942E-013   6.0896773734775422E-013   6.1058719365340311E-002
  -8.6519767045212248E-013   6.5149621808480163E-013   6.2080781276512904E-002
  -9.5187963414233856E-013   6.5933803555795478E-013   6.3237982876979890E-002
  -1.0385650672795066E-012   6.3236915703868135E-013   6.4530324166741218E-002
   2.7967498856454324E-002  -7.4560015947506691E-003   6.1619264813278438E-002
   2.7236852608812992E-002  -7.5723425355552834E-003   6.1352583310219713E-002
   2.6506206361171656E-002  -7.5973155939957869E-003   6.1327957293748826E-002
   2.5775560113530327E-002  -7.5309207700723210E-003   6.1545386763865784E-002
   2.5044913865888987E-002  -7.3731580637847460E-003   6.2004871720570509E-002
   2.0847940730769118E-002  -5.5920011959049026E-003   6.2286270320915778E-002
   2.0344501488528562E-002  -5.6792569015139474E-003   6.2169809507952027E-002
   1.9841062246287997E-002  -5.6979866953389240E-003   6.2265707219202104E-002
   1.9337623004047438E-002  -5.6481905773798731E-003   6.2573963454665871E-002
   1.8834183761806886E-002  -5.5298685476367904E-003   6.3094578214343278E-002
   1.3813504879291895E-002  -3.7280007970591431E-003   6.2993782049038674E-002
   1.3507575680078026E-002  -3.7861712674726079E-003   6.3004699955589966E-002
   1.3201646480864155E-002  -3.7986577966820628E-003   6.3198279423980888E-002
   1.2895717281650282E-002  -3.7654603846874672E-003   6.3574520454211469E-002
   1.2589788082436413E-002  -3.6865790314888347E-003   6.4133423046281612E-002
   6.8641913020226746E-003  -1.8640003982134078E-003   6.3741799997647161E-002
   6.7260751834613943E-003  -1.8930856334313396E-003   6.3857254653133438E-002
   6.5879590649001217E-003  -1.8993288980251868E-003   6.4125673908085226E-002
   6.4498429463388466E-003  -1.8827301919950403E-003   6.4547057762502538E-002
   6.3117268277775697E-003  -1.8432895153408790E-003   6.5121406216385486E-002
  -1.0385650672795066E-012   6.3236915703868135E-013   6.4530324166741218E-002
  -1.3213336674811060E-012   6.1004673534981180E-013   6.4727473600582480E-002
  -1.6041022676827055E-012   6.3170649267085821E-013   6.5047890671515118E-002
  -1.8868717352460429E-012   6.9738399083307812E-013   6.5491575379539299E-002
  -2.1696394680859044E-012   8.0710438332687318E-013   6.6058527724654870E-002
   2.5044913865888987E-002  -7.3731580637847460E-003   6.2004871720570509E-002
   2.4334945694468313E-002  -7.1680709374984941E-003   6.1759063897922989E-002
   2.3624977523047631E-002  -6.9597028535789141E-003   6.1677958523005838E-002
   2.2915009351626953E-002  -6.7480538120258185E-003   6.1761555595818904E-002
   2.2205041180206275E-002  -6.5331238128393254E-003   6.2009855116362311E-002
   1.8834183761806886E-002  -5.5298685476367904E-003   6.3094578214343278E-002
   1.8292115436880467E-002  -5.3760532028812036E-003   6.2821173053108553E-002
   1.7750047111954045E-002  -5.2197771398843282E-003   6.2718865137132040E-002
   1.7207978787027629E-002  -5.0610403586463706E-003   6.2787654466413600E-002
   1.6665910462101211E-002  -4.8998428591674470E-003   6.3027541040953455E-002
   1.2589788082436413E-002  -3.6865790314888347E-003   6.4133423046281612E-002
   1.2222014401532099E-002  -3.5840354682637465E-003   6.3831600307067443E-002
   1.1854240720627787E-002  -3.4798514261898256E-003   6.3707269610639286E-002
   1.1486467039723471E-002  -3.3740269052670059E-003   6.3760430956997155E-002
   1.1118693358819161E-002  -3.2665619054954020E-003   6.3991084346141078E-002
   6.3117268277775697E-003  -1.8432895153408790E-003   6.5121406216385486E-002
   6.1246425884232073E-003  -1.7920177336463311E-003   6.4790345659799589E-002
   5.9375583490688423E-003  -1.7399257124953646E-003   6.4643171943527533E-002
   5.7504741097144782E-003  -1.6870134518876274E-003   6.4679885067569332E-002
   5.5633898703601227E-003  -1.6332809518233848E-003   6.4900485031925054E-002
  -2.1696394680859044E-012   8.0710438332687318E-013   6.6058527724654870E-002
  -2.4462064318608867E-012   9.7101493512496972E-013   6.5697409111305005E-002
  -2.7227751303593450E-012   1.1992420945183824E-012   6.5526572135796782E-002
  -2.9993464309430173E-012   1.4917459628671637E-012   6.5546016798130297E-002
  -3.2759107926327857E-012   1.8485768471521169E-012   6.5755743098305564E-002
   2.2205041180206275E-002  -6.5331238128393254E-003   6.2009855116362311E-002
   2.1247189020167617E-002  -6.3064414491808829E-003   6.1769949382909528E-002
   2.0289336860128959E-002  -6.0595353142118974E-003   6.1745808370380961E-002
   1.9331484700090301E-002  -5.7924054079325250E-003   6.1937432078776541E-002
   1.8373632540051643E-002  -5.5050517303422697E-003   6.2344820508096310E-002
   1.6665910462101211E-002  -4.8998428591674470E-003   6.3027541040953455E-002
   1.5929747602747950E-002  -4.7298310864206522E-003   6.2803169301887410E-002
   1.5193584743394689E-002  -4.5446514853794279E-003   6.2806411443267998E-002
   1.4457421884041421E-002  -4.3443040560438191E-003   6.3037267465095109E-002
   1.3721259024688168E-002  -4.1287887984138294E-003   6.3495737367368882E-002
   1.1118693358819161E-002  -3.2665619054954020E-003   6.3991084346141078E-002
   1.0616068959673753E-002  -3.1532207236601856E-003   6.3777190658445476E-002
   1.0113444560528345E-002  -3.0297676565467849E-003   6.3802760010719051E-002
   9.6108201613829408E-003  -2.8962027041551670E-003   6.4067792402961718E-002
   9.1081957622375365E-003  -2.7525258664853058E-003   6.4572287835173339E-002
   5.5633898703601227E-003  -1.6332809518233848E-003   6.4900485031925054E-002
   5.3061530909450233E-003  -1.5766103608997814E-003   6.4692013452583949E-002
   5.0489163115299291E-003  -1.5148838277142286E-003   6.4734854072734299E-002
   4.7916795321148245E-003  -1.4481013522664602E-003   6.5029006892376243E-002
   4.5344427526997355E-003  -1.3762629345567962E-003   6.5574471911509696E-002
  -3.2759107926327857E-012   1.8485768471521169E-012   6.5755743098305564E-002
  -3.4382323377268875E-012   1.8605117446668373E-012   6.5547637684302523E-002
  -3.6005625564383692E-012   1.1183554082805358E-012   6.5602693629313646E-002
  -3.7628875709794229E-012  -3.7785746753726812E-013   6.5920910933338656E-002
  -3.9252143202439527E-012  -2.6282864773463643E-012   6.6502289596377773E-002
   1.8373632540051643E-002  -5.5050517303422697E-003   6.2344820508096310E-002
   1.7705181343705842E-002  -5.2113327558687417E-003   6.2039178914174986E-002
   1.7036730147360041E-002  -4.9251069589388435E-003   6.1989488430628764E-002
   1.6368278951014233E-002  -4.6463743395524955E-003   6.2195749057457825E-002
   1.5699827754668425E-002  -4.3751348977097981E-003   6.2657960794662126E-002
   1.3721259024688168E-002  -4.1287887984138294E-003   6.3495737367368882E-002
   1.3286549361035863E-002  -3.9084995683392465E-003   6.3200639918204654E-002
   1.2851839697383564E-002  -3.6938302216693308E-003   6.3117074424051831E-002
   1.2417130033731256E-002  -3.4847807584044641E-003   6.3245040884911008E-002
   1.1982420370078947E-002  -3.2813511785443894E-003   6.3584539300781895E-002
   9.1081957622375365E-003  -2.7525258664853058E-003   6.4572287835173339E-002
   8.8628084759153312E-003  -2.6056663808094599E-003   6.4289607824904477E-002
   8.6174211895931468E-003  -2.4625534843998112E-003   6.4174040614284195E-002
   8.3720339032709503E-003  -2.3231871772562643E-003   6.4225586203312091E-002
   8.1266466169487538E-003  -2.1875674593788141E-003   6.4444244591988581E-002
   4.5344427526997355E-003  -1.3762629345567962E-003   6.5574471911509696E-002
   4.4339586883442644E-003  -1.3028331932798190E-003   6.5306082634275286E-002
   4.3334746239887915E-003  -1.2312767471302950E-003   6.5160387001325815E-002
   4.2329905596333222E-003  -1.1615935961079822E-003   6.5137385012661433E-002
   4.1325064952778484E-003  -1.0937837402133221E-003   6.5237076668282018E-002
  -3.9252143202439527E-012  -2.6282864773463643E-012   6.6502289596377773E-002
  -1.6773527011793021E-012  -5.7501503558654576E-012   6.6250064346316362E-002
   5.7050544843839646E-013  -9.8607372267522919E-012   6.6076113585176566E-002
   2.8183653327795710E-012  -1.4959967292726972E-011   6.5980437312958481E-002
   5.0662252171207456E-012  -2.1047719123146180E-011   6.5963035529661984E-002
   1.5699827754668425E-002  -4.3751348977097981E-003   6.2657960794662126E-002
   1.4512825235825380E-002  -4.0897093022445041E-003   6.2835745419552946E-002
   1.3325822716982301E-002  -3.7684182219892837E-003   6.3288861543810970E-002
   1.2138820198139239E-002  -3.4112616569444212E-003   6.4017309167436087E-002
   1.0951817679296205E-002  -3.0182396071098960E-003   6.5021088290428519E-002
   1.1982420370078947E-002  -3.2813511785443894E-003   6.3584539300781895E-002
   1.1076104133779047E-002  -3.0672819822236685E-003   6.3660694640866045E-002
   1.0169787897479132E-002  -2.8263136695769742E-003   6.4022891046669278E-002
   9.2634716611792213E-003  -2.5584462406037234E-003   6.4671128518191678E-002
   8.3571554248793312E-003  -2.2636796953042770E-003   6.5605407055433274E-002
   8.1266466169487538E-003  -2.1875674593788141E-003   6.4444244591988581E-002
   7.5117262295440121E-003  -2.0448546622031660E-003   6.4409804278802441E-002
   6.8968058421392687E-003  -1.8842091171645953E-003   6.4672114597687555E-002
   6.2818854547345331E-003  -1.7056308242631331E-003   6.5231175548643910E-002
   5.6669650673297906E-003  -1.5091197834987691E-003   6.6086987131671271E-002
   4.1325064952778484E-003  -1.0937837402133221E-003   6.5237076668282018E-002
   3.8196915231202919E-003  -1.0224273421824970E-003   6.5083074333362329E-002
   3.5068765509627315E-003  -9.4210456475219556E-004   6.5236532196865954E-002
   3.1940615788051572E-003  -8.5281540792243350E-004   6.5697450258792922E-002
   2.8812466066476007E-003  -7.5455987169315009E-004   6.6465828519142706E-002
   5.0662252171207456E-012  -2.1047719123146180E-011   6.5963035529661984E-002
   1.4507849782630089E-011  -2.2161827928357525E-011   6.5680504804545514E-002
   2.3949477817586384E-011  -1.2340101163132999E-011   6.5716143844204211E-002
   3.3391098913648776E-011   8.4180787340848440E-012   6.6069952648638075E-002
   4.2832737356945927E-011   4.0112357879706906E-011   6.6741931217847217E-002
  -2.2477679439969478E-013   0.0000000000000000        2.8437602471707537E-002
  -2.6577351430745466E-013   8.3569436093444693E-014   3.3398520737886531E-002
  -3.0676915001304206E-013   1.5488825499954118E-013   3.8366648877152153E-002
  -3.4776489413884670E-013   2.1395732408002743E-013   4.3341986889504386E-002
  -3.8876063826465135E-013   2.6077230652621353E-013   4.8324534774943258E-002
  -6.8006644830453655E-003   0.0000000000000000        2.8501785923863786E-002
  -6.8328902797343176E-003   1.4683538113930208E-004   3.3536322968712916E-002
  -6.8651160764232697E-003   3.3060771611160590E-004   3.8499198547179522E-002
  -6.8973418731122218E-003   5.5131700491690104E-004   4.3390412659263571E-002
  -6.9295676698011739E-003   8.0896324755521005E-004   4.8209965304965109E-002
  -1.3506742994371610E-002   0.0000000000000000        2.8694336280153145E-002
  -1.3650065927177676E-002   2.9367076219503603E-004   3.3839429057517662E-002
  -1.3793388859983744E-002   6.6121543206832094E-004   3.8833989029030493E-002
  -1.3936711792789812E-002   1.1026340096198534E-003   4.3678016194691624E-002
  -1.4080034725595880E-002   1.6179264948496365E-003   4.8371510554501063E-002
  -2.0118235534203516E-002   0.0000000000000000        2.9015253540575610E-002
  -2.0451526942595853E-002   4.4050614325077063E-004   3.4307839004300768E-002
  -2.0784818350988193E-002   9.9182314802503729E-004   3.9371020322705064E-002
  -2.1118109759380534E-002   1.6539510143228032E-003   4.4204797495788525E-002
  -2.1451401167772870E-002   2.4268897421440634E-003   4.8809170523551118E-002
  -2.6635142102541077E-002   0.0000000000000000        2.9464537705131185E-002
  -2.7237273325988846E-002   5.8734152430650350E-004   3.4941552809062221E-002
  -2.7839404549436623E-002   1.3224308639817554E-003   4.0110292428203256E-002
  -2.8441535772884389E-002   2.2052680190257530E-003   4.4970756562554282E-002
  -2.9043666996332162E-002   3.2358529894385007E-003   4.9522945212115289E-002
  -3.8876063826465135E-013   2.6077230652621353E-013   4.8324534774943258E-002
  -4.6452858920575935E-013   3.0822479984982110E-013   5.1490001972165508E-002
  -5.4029545594469486E-013   3.6918428383825308E-013   5.4519701432659398E-002
  -6.1606243110384762E-013   4.4363655544304992E-013   5.7413633156424913E-002
  -6.9183027362473837E-013   5.3160253976614058E-013   6.0171797143462061E-002
  -6.9295676698011739E-003   8.0896324755521005E-004   4.8209965304965109E-002
  -7.0359763310578185E-003   1.0637447294067621E-003   5.1162558953656075E-002
  -7.1423849923144631E-003   1.2758597358518095E-003   5.4038103016713648E-002
  -7.2487936535711095E-003   1.4453082668903724E-003   5.6836597494137830E-002
  -7.3552023148277523E-003   1.5720903225224375E-003   5.9558042385928656E-002
  -1.4080034725595880E-002   1.6179264948496365E-003   4.8371510554501063E-002
  -1.4234133896938421E-002   2.1274894585052990E-003   5.1068564179240723E-002
  -1.4388233068280963E-002   2.5517194713344481E-003   5.3747286369441968E-002
  -1.4542332239623505E-002   2.8906165333371084E-003   5.6407677125104839E-002
  -1.4696431410966045E-002   3.1441806445132725E-003   5.9049736446229253E-002
  -2.1451401167772870E-002   2.4268897421440634E-003   4.8809170523551118E-002
  -2.1594472698106337E-002   3.1912341876038329E-003   5.1208017648919482E-002
  -2.1737544228439789E-002   3.8275792068170836E-003   5.3647251490844421E-002
  -2.1880615758773248E-002   4.3359247997838204E-003   5.6126872049325927E-002
  -2.2023687289106701E-002   4.7162709665041005E-003   5.8646879324364028E-002
  -2.9043666996332162E-002   3.2358529894385007E-003   4.9522945212115289E-002
  -2.9116992734561552E-002   4.2549789167023724E-003   5.1580919362692337E-002
  -2.9190318472790945E-002   5.1034389422997227E-003   5.3737998380920970E-002
  -2.9263644211020342E-002   5.7812330662305794E-003   5.5994182266801126E-002
  -2.9336969949249728E-002   6.2883612884949355E-003   5.8349471020332867E-002
  -6.9183027362473837E-013   5.3160253976614058E-013   6.0171797143462061E-002
  -7.7851440571929942E-013   6.0896773734775422E-013   6.1058719365340311E-002
  -8.6519767045212248E-013   6.5149621808480163E-013   6.2080781276512904E-002
  -9.5187963414233856E-013   6.5933803555795478E-013   6.3237982876979890E-002
  -1.0385650672795066E-012   6.3236915703868135E-013   6.4530324166741218E-002
  -7.3552023148277523E-003   1.5720903225224375E-003   5.9558042385928656E-002
  -7.2324495621287239E-003   1.6694213157680202E-003   6.0438433064595211E-002
  -7.1096968094296973E-003   1.7505166596471500E-003   6.1429189559538820E-002
  -6.9869440567306706E-003   1.8153763541597472E-003   6.2530311870759456E-002
  -6.8641913040316388E-003   1.8640003993059262E-003   6.3741799998257215E-002
  -1.4696431410966045E-002   3.1441806445132725E-003   5.9049736446229253E-002
  -1.4475699778498635E-002   3.3388426309271021E-003   5.9907359932352480E-002
  -1.4254968146031216E-002   3.5010333186427326E-003   6.0850575361735430E-002
  -1.4034236513563808E-002   3.6307527076601836E-003   6.1879382734378104E-002
  -1.3813504881096391E-002   3.7280007979794624E-003   6.2993782050280472E-002
  -2.2023687289106701E-002   4.7162709665041005E-003   5.8646879324364028E-002
  -2.1729750649888229E-002   5.0082639460861554E-003   5.9465499968612168E-002
  -2.1435814010669765E-002   5.2515499776383577E-003   6.0344938683102714E-002
  -2.1141877371451293E-002   5.4461290611606339E-003   6.1285195467835687E-002
  -2.0847940732232818E-002   5.5920011966530507E-003   6.2286270322810977E-002
  -2.9336969949249728E-002   6.2883612884949355E-003   5.8349471020332867E-002
  -2.8994602176297526E-002   6.6776852612452434E-003   5.9112853173374239E-002
  -2.8652234403345321E-002   7.0020666366339603E-003   5.9912279523640699E-002
  -2.8309866630393116E-002   7.2615054146610552E-003   6.0747750071132221E-002
  -2.7967498857440917E-002   7.4560015953265835E-003   6.1619264815848812E-002
  -1.0385650672795066E-012   6.3236915703868135E-013   6.4530324166741218E-002
  -1.3213336674811060E-012   6.1004673534981180E-013   6.4727473600582480E-002
  -1.6041022676827055E-012   6.3170649267085821E-013   6.5047890671515118E-002
  -1.8868717352460429E-012   6.9738399083307812E-013   6.5491575379539299E-002
  -2.1696394680859044E-012   8.0710438332687318E-013   6.6058527724654870E-002
  -6.8641913040316388E-003   1.8640003993059262E-003   6.3741799998257215E-002
  -6.7260751860085287E-003   1.8930856344881383E-003   6.3857254653982509E-002
  -6.5879590679854116E-003   1.8993288991089805E-003   6.4125673909228076E-002
  -6.4498429499623006E-003   1.8827301931683259E-003   6.4547057763993984E-002
  -6.3117268319391844E-003   1.8432895166663743E-003   6.5121406218280151E-002
  -1.3813504881096391E-002   3.7280007979794624E-003   6.2993782050280472E-002
  -1.3507575682338541E-002   3.7861712683662681E-003   6.3004699957284388E-002
  -1.3201646483580704E-002   3.7986577975861972E-003   6.3198279426237472E-002
  -1.2895717284822866E-002   3.7654603856393230E-003   6.3574520457139683E-002
  -1.2589788086065021E-002   3.6865790325256304E-003   6.4133423049991062E-002
  -2.0847940732232818E-002   5.5920011966530507E-003   6.2286270322810977E-002
  -2.0344501490311397E-002   5.6792569022443510E-003   6.2169809510488130E-002
  -1.9841062248389978E-002   5.6979866960635258E-003   6.2265707222543251E-002
  -1.9337623006468557E-002   5.6481905781103200E-003   6.2573963458976367E-002
  -1.8834183764547138E-002   5.5298685483849211E-003   6.3094578219787478E-002
  -2.7967498857440917E-002   7.4560015953265835E-003   6.1619264815848812E-002
  -2.7236852609927073E-002   7.5723425361225033E-003   6.1352583313593723E-002
  -2.6506206362413232E-002   7.5973155945407503E-003   6.1327957298145455E-002
  -2.5775560114899398E-002   7.5309207705812637E-003   6.1545386769504058E-002
  -2.5044913867385547E-002   7.3731580642441563E-003   6.2004871727669497E-002
  -2.1696394680859044E-012   8.0710438332687318E-013   6.6058527724654870E-002
  -2.4462064318608867E-012   9.7101493512496972E-013   6.5697409111305005E-002
  -2.7227751303593450E-012   1.1992420945183824E-012   6.5526572135796782E-002
  -2.9993464309430173E-012   1.4917459628671637E-012   6.5546016798130297E-002
  -3.2759107926327857E-012   1.8485768471521169E-012   6.5755743098305564E-002
  -6.3117268319391844E-003   1.8432895166663743E-003   6.5121406218280151E-002
  -6.1246425931198705E-003   1.7920177351831573E-003   6.4790345662159729E-002
  -5.9375583543005636E-003   1.7399257142986929E-003   6.4643171946389300E-002
  -5.7504741154812550E-003   1.6870134540132552E-003   6.4679885070968987E-002
  -5.5633898766619429E-003   1.6332809543265492E-003   6.4900485035898570E-002
  -1.2589788086065021E-002   3.6865790325256304E-003   6.4133423049991062E-002
  -1.2222014405641510E-002   3.5840354693952095E-003   6.3831600311634651E-002
  -1.1854240725218006E-002   3.4798514273982513E-003   6.3707269616136541E-002
  -1.1486467044794510E-002   3.3740269065346802E-003   6.3760430963496789E-002
  -1.1118693364370998E-002   3.2665619068045493E-003   6.3991084353715422E-002
  -1.8834183764547138E-002   5.5298685483849211E-003   6.3094578219787478E-002
  -1.8292115440011126E-002   5.3760532036073068E-003   6.2821173059729604E-002
  -1.7750047115475103E-002   5.2197771404977559E-003   6.2718865145038424E-002
  -1.7207978790939091E-002   5.0610403590560914E-003   6.2787654475713869E-002
  -1.6665910466403071E-002   4.8998428592825077E-003   6.3027541051756036E-002
  -2.5044913867385547E-002   7.3731580642441563E-003   6.2004871727669497E-002
  -2.4334945696228703E-002   7.1680709378194041E-003   6.1759063906444756E-002
  -2.3624977525071856E-002   6.9597028535972327E-003   6.1677958533095018E-002
  -2.2915009353915022E-002   6.7480538115776076E-003   6.1761555607620242E-002
  -2.2205041182758168E-002   6.5331238117604662E-003   6.2009855130020441E-002
  -3.2759107926327857E-012   1.8485768471521169E-012   6.5755743098305564E-002
  -3.4382323377268875E-012   1.8605117446668373E-012   6.5547637684302523E-002
  -3.6005625564383692E-012   1.1183554082805358E-012   6.5602693629313646E-002
  -3.7628875709794229E-012  -3.7785746753726812E-013   6.5920910933338656E-002
  -3.9252143202439527E-012  -2.6282864773463643E-012   6.6502289596377773E-002
  -5.5633898766619429E-003   1.6332809543265492E-003   6.4900485035898570E-002
  -5.3061530975052253E-003   1.5766103632393613E-003   6.4692013455800446E-002
  -5.0489163183484991E-003   1.5148838287519992E-003   6.4734854075326614E-002
  -4.7916795391917807E-003   1.4481013508643916E-003   6.5029006894476771E-002
  -4.5344427600350554E-003   1.3762629295767104E-003   6.5574471913251026E-002
  -1.1118693364370998E-002   3.2665619068045493E-003   6.3991084353715422E-002
  -1.0616068965285136E-002   3.1532207246180999E-003   6.3777190664876277E-002
  -1.0113444566199267E-002   3.0297676563854209E-003   6.3802760016271290E-002
  -9.6108201671134038E-003   2.8962027021066962E-003   6.4067792407900587E-002
  -9.1081957680275386E-003   2.7525258617818460E-003   6.4572287839763917E-002
  -1.6665910466403071E-002   4.8998428592825077E-003   6.3027541051756036E-002
  -1.5929747606777969E-002   4.7298310859967829E-003   6.2803169311529808E-002
  -1.5193584747152867E-002   4.5446514840189814E-003   6.2806411452147881E-002
  -1.4457421887527779E-002   4.3443040533489175E-003   6.3037267473610201E-002
  -1.3721259027902678E-002   4.1287887939868845E-003   6.3495737375916794E-002
  -2.2205041182758168E-002   6.5331238117604662E-003   6.2009855130020441E-002
  -2.1247189021983744E-002   6.3064414473756880E-003   6.1769949395761081E-002
  -2.0289336861209303E-002   6.0595353116524725E-003   6.1745808382956152E-002
  -1.9331484700434883E-002   5.7924054045912741E-003   6.1937432091605557E-002
  -1.8373632539660442E-002   5.5050517261920340E-003   6.2344820521709310E-002
  -3.9252143202439527E-012  -2.6282864773463643E-012   6.6502289596377773E-002
  -1.6773527011793021E-012  -5.7501503558654576E-012   6.6250064346316362E-002
   5.7050544843839646E-013  -9.8607372267522919E-012   6.6076113585176566E-002
   2.8183653327795710E-012  -1.4959967292726972E-011   6.5980437312958481E-002
   5.0662252171207456E-012  -2.1047719123146180E-011   6.5963035529661984E-002
  -4.5344427600350554E-003   1.3762629295767104E-003   6.5574471913251026E-002
  -4.4339586915733680E-003   1.3028331833113138E-003   6.5306082634827095E-002
  -4.3334746231116789E-003   1.2312767304906991E-003   6.5160386999909350E-002
  -4.2329905546499881E-003   1.1615935711145539E-003   6.5137385008497639E-002
  -4.1325064861882956E-003   1.0937837051834265E-003   6.5237076660591808E-002
  -9.1081957680275386E-003   2.7525258617818460E-003   6.4572287839763917E-002
  -8.8628084787676226E-003   2.6056663723729862E-003   6.4289607827411055E-002
  -8.6174211895077152E-003   2.4625534708420313E-003   6.4174040613148603E-002
  -8.3720339002478009E-003   2.3231871571892989E-003   6.4225586196976575E-002
  -8.1266466109878917E-003   2.1875674314145166E-003   6.4444244578894944E-002
  -1.3721259027902678E-002   4.1287887939868845E-003   6.3495737375916794E-002
  -1.3286549363260142E-002   3.9084995614344434E-003   6.3200639924068130E-002
  -1.2851839698617607E-002   3.6938302111934433E-003   6.3117074424894351E-002
  -1.2417130033975087E-002   3.4847807432638765E-003   6.3245040878395414E-002
  -1.1982420369332548E-002   3.2813511576456345E-003   6.3584539284571112E-002
  -1.8373632539660442E-002   5.5050517261920340E-003   6.2344820521709310E-002
  -1.7705181345050891E-002   5.2113327504961504E-003   6.2039178924798377E-002
  -1.7036730150441364E-002   4.9251069515447998E-003   6.1989488435146595E-002
  -1.6368278955831816E-002   4.6463743293384818E-003   6.2195749052754046E-002
  -1.5699827761222286E-002   4.3751348838768078E-003   6.2657960777620703E-002
   5.0662252171207456E-012  -2.1047719123146180E-011   6.5963035529661984E-002
   1.4507849782630089E-011  -2.2161827928357525E-011   6.5680504804545514E-002
   2.3949477817586384E-011  -1.2340101163132999E-011   6.5716143844204211E-002
   3.3391098913648776E-011   8.4180787340848440E-012   6.6069952648638075E-002
   4.2832737356945927E-011   4.0112357879706906E-011   6.6741931217847217E-002
  -4.1325064861882956E-003   1.0937837051834265E-003   6.5237076660591808E-002
  -3.8196914961379502E-003   1.0224273020645602E-003   6.5083074339322061E-002
  -3.5068765060876136E-003   9.4210453112630876E-004   6.5236532214494547E-002
  -3.1940615160372630E-003   8.5281539236847781E-004   6.5697450286109016E-002
  -2.8812465259869316E-003   7.5455988579120614E-004   6.6465828554166162E-002
  -8.1266466109878917E-003   2.1875674314145166E-003   6.4444244578894944E-002
  -7.5117262086618047E-003   2.0448546262912259E-003   6.4409804282716171E-002
  -6.8968058063357167E-003   1.8842090745925383E-003   6.4672114614646753E-002
  -6.2818854040096314E-003   1.7056307763187624E-003   6.5231175574686356E-002
  -5.6669650016835278E-003   1.5091197314698324E-003   6.6086987162835731E-002
  -1.1982420369332548E-002   3.2813511576456345E-003   6.3584539284571112E-002
  -1.1076104123063686E-002   3.0672819505177529E-003   6.3660694634727788E-002
  -1.0169787876794843E-002   2.8263136180589135E-003   6.4022891044660704E-002
  -9.2634716305259757E-003   2.5584461602691042E-003   6.4671128514370124E-002
  -8.3571553842571346E-003   2.2636795771486251E-003   6.5605407043855701E-002
  -1.5699827761222286E-002   4.3751348838768078E-003   6.2657960777620703E-002
  -1.4512825239343635E-002   4.0897092747442243E-003   6.2835745395357190E-002
  -1.3325822717464974E-002   3.7684181615250806E-003   6.3288861504536859E-002
  -1.2138820195586314E-002   3.4112615442193663E-003   6.4017309105159945E-002
  -1.0951817673707662E-002   3.0182394228273068E-003   6.5021088197226184E-002
  -2.6635142102541077E-002   0.0000000000000000        2.9464537705131185E-002
  -2.7237273325988846E-002   5.8734152430650350E-004   3.4941552809062221E-002
  -2.7839404549436623E-002   1.3224308639817554E-003   4.0110292428203256E-002
  -2.8441535772884389E-002   2.2052680190257530E-003   4.4970756562554282E-002
  -2.9043666996332162E-002   3.2358529894385007E-003   4.9522945212115289E-002
  -3.3394702844683280E-002   0.0000000000000000        3.0176429928305895E-002
  -3.4239879923204271E-002   9.6188361065182790E-004   3.5264221031459007E-002
  -3.5085057001725269E-002   2.0269007831527292E-003   4.0174195909255687E-002
  -3.5930234080246259E-002   3.1950515175027047E-003   4.4906354561695908E-002
  -3.6775411158767264E-002   4.4663358137017571E-003   4.9460696988779737E-002
  -4.0734157905929116E-002   0.0000000000000000        3.1285171364585765E-002
  -4.1691921580089761E-002   1.3364256969971527E-003   3.5939124213441274E-002
  -4.2649685254250398E-002   2.7313707023237056E-003   4.0545720096373909E-002
  -4.3607448928411043E-002   4.1848350159796582E-003   4.5104959013383697E-002
  -4.4565212602571666E-002   5.6968186379650169E-003   4.9616840964470624E-002
  -4.8653507286278597E-002   0.0000000000000000        3.2790762013970798E-002
  -4.9593398296645302E-002   1.7109677833424765E-003   3.6966262355009029E-002
  -5.0533289307012001E-002   3.4358406214946820E-003   4.1224864989557970E-002
  -5.1473180317378728E-002   5.1746185144566159E-003   4.5566569917617622E-002
  -5.2413071327745434E-002   6.9273014622282716E-003   4.9991377139187991E-002
  -5.7152750985731693E-002   0.0000000000000000        3.4693201876460994E-002
  -5.7944310072870903E-002   2.0855098696878011E-003   3.8345635456162264E-002
  -5.8735869160010098E-002   4.1403105406656558E-003   4.2211630588807829E-002
  -5.9527428247149301E-002   6.1644020129335651E-003   4.6291187274397690E-002
  -6.0318987334288504E-002   8.1577842864915349E-003   5.0584305512931832E-002
  -2.9043666996332162E-002   3.2358529894385007E-003   4.9522945212115289E-002
  -2.9116992734561552E-002   4.2549789167023724E-003   5.1580919362692337E-002
  -2.9190318472790945E-002   5.1034389422997227E-003   5.3737998380920970E-002
  -2.9263644211020342E-002   5.7812330662305794E-003   5.5994182266801126E-002
  -2.9336969949249728E-002   6.2883612884949355E-003   5.8349471020332867E-002
  -3.6775411158767264E-002   4.4663358137017571E-003   4.9460696988779737E-002
  -3.6788591187867564E-002   5.7008552581062329E-003   5.1247990115912627E-002
  -3.6801771216967871E-002   6.7587114370724665E-003   5.3056469793652125E-002
  -3.6814951246068164E-002   7.6399043506004917E-003   5.4886136021998232E-002
  -3.6828131275168478E-002   8.3444339986902677E-003   5.6736988800950981E-002
  -4.4565212602571666E-002   5.6968186379650169E-003   4.9616840964470624E-002
  -4.4596165239587843E-002   7.1467315995100908E-003   5.1127455704387620E-002
  -4.4627117876603999E-002   8.4139839318452102E-003   5.2581338677866310E-002
  -4.4658070513620148E-002   9.4985756349703666E-003   5.3978489884906652E-002
  -4.4689023150636331E-002   1.0400506708885576E-002   5.5318909325508710E-002
  -5.2413071327745434E-002   6.9273014622282716E-003   4.9991377139187991E-002
  -5.2539714889722380E-002   8.5926079409139496E-003   5.1219316128117379E-002
  -5.2666358451699334E-002   1.0069256426617955E-002   5.2312605033563497E-002
  -5.2793002013676281E-002   1.1357246919340260E-002   5.3271243855526354E-002
  -5.2919645575653221E-002   1.2456579419080889E-002   5.4095232594005963E-002
  -6.0318987334288504E-002   8.1577842864915349E-003   5.0584305512931832E-002
  -6.0619240138271198E-002   1.0038484282317812E-002   5.1523571387101876E-002
  -6.0919492942253864E-002   1.1724528921390694E-002   5.2250268860743715E-002
  -6.1219745746236544E-002   1.3215918203710150E-002   5.2764397933857364E-002
  -6.1519998550219217E-002   1.4512652129276223E-002   5.3065958606442788E-002
  -2.9336969949249728E-002   6.2883612884949355E-003   5.8349471020332867E-002
  -2.8994602176297526E-002   6.6776852612452434E-003   5.9112853173374239E-002
  -2.8652234403345321E-002   7.0020666366339603E-003   5.9912279523640699E-002
  -2.8309866630393116E-002   7.2615054146610552E-003   6.0747750071132221E-002
  -2.7967498857440917E-002   7.4560015953265835E-003   6.1619264815848812E-002
  -3.6828131275168478E-002   8.3444339986902677E-003   5.6736988800950981E-002
  -3.6398013749757971E-002   8.8878604603077616E-003   5.7077103107242594E-002
  -3.5967896224347450E-002   9.2857438144189550E-003   5.7556672721225735E-002
  -3.5537778698936942E-002   9.5380840610239364E-003   5.8175697642900460E-002
  -3.5107661173526428E-002   9.6448812001225237E-003   5.8934177872266721E-002
  -4.4689023150636331E-002   1.0400506708885576E-002   5.5318909325508710E-002
  -4.4067744762300992E-002   1.1098035659370290E-002   5.5155155274905825E-002
  -4.3446466373965688E-002   1.1569420992204021E-002   5.5234267642460970E-002
  -4.2825187985630363E-002   1.1814662707386748E-002   5.5556246428174159E-002
  -4.2203909597295058E-002   1.1833760804918422E-002   5.6121091632045435E-002
  -5.2919645575653221E-002   1.2456579419080889E-002   5.4095232594005963E-002
  -5.2003795213926632E-002   1.3308210858432814E-002   5.3347009676363875E-002
  -5.1087944852200029E-002   1.3853098169989036E-002   5.2945064287346341E-002
  -5.0172094490473447E-002   1.4091241353749555E-002   5.2889396426953277E-002
  -4.9256244128746851E-002   1.4022640409714328E-002   5.3180006095184799E-002
  -6.1519998550219217E-002   1.4512652129276223E-002   5.3065958606442788E-002
  -6.0206165104634869E-002   1.5518386057495344E-002   5.1652666311616843E-002
  -5.8892331659050501E-002   1.6136775347774086E-002   5.0689062655881828E-002
  -5.7578498213466139E-002   1.6367820000112433E-002   5.0175147639237909E-002
  -5.6264664767881778E-002   1.6211520014510233E-002   5.0110921261684926E-002
  -2.7967498857440917E-002   7.4560015953265835E-003   6.1619264815848812E-002
  -2.7236852609927073E-002   7.5723425361225033E-003   6.1352583313593723E-002
  -2.6506206362413232E-002   7.5973155945407503E-003   6.1327957298145455E-002
  -2.5775560114899398E-002   7.5309207705812637E-003   6.1545386769504058E-002
  -2.5044913867385547E-002   7.3731580642441563E-003   6.2004871727669497E-002
  -3.5107661173526428E-002   9.6448812001225237E-003   5.8934177872266721E-002
  -3.4146838882326169E-002   9.6458552584541835E-003   5.8620795351005395E-002
  -3.3186016591125918E-002   9.5807262627582504E-003   5.8525709430310095E-002
  -3.2225194299925659E-002   9.4494942130346083E-003   5.8648920110180761E-002
  -3.1264372008725401E-002   9.2521591092833699E-003   5.8990427390617384E-002
  -4.2203909597295058E-002   1.1833760804918422E-002   5.6121091632045435E-002
  -4.1036670148649250E-002   1.1719367980785829E-002   5.5786272920127923E-002
  -3.9869430700003421E-002   1.1564136930975692E-002   5.5645991922535568E-002
  -3.8702191251357612E-002   1.1368067655487951E-002   5.5700248639268368E-002
  -3.7534951802711776E-002   1.1131160154322667E-002   5.5949043070326304E-002
  -4.9256244128746851E-002   1.4022640409714328E-002   5.3180006095184799E-002
  -4.7906346408896315E-002   1.3792880703117533E-002   5.2849016020961169E-002
  -4.6556448689045786E-002   1.3547547599193148E-002   5.2688804774821865E-002
  -4.5206550969195264E-002   1.3286641097941296E-002   5.2699372356766798E-002
  -4.3856653249344728E-002   1.3010161199361964E-002   5.2880718766796099E-002
  -5.6264664767881778E-002   1.6211520014510233E-002   5.0110921261684926E-002
  -5.4755867663067379E-002   1.5866393425449182E-002   4.9809024653505257E-002
  -5.3247070558253000E-002   1.5530958267410633E-002   4.9654147987169037E-002
  -5.1738273453438621E-002   1.5205214540394668E-002   4.9646291262676251E-002
  -5.0229476348624236E-002   1.4889162244401205E-002   4.9785454480026886E-002
  -2.5044913867385547E-002   7.3731580642441563E-003   6.2004871727669497E-002
  -2.4334945696228703E-002   7.1680709378194041E-003   6.1759063906444756E-002
  -2.3624977525071856E-002   6.9597028535972327E-003   6.1677958533095018E-002
  -2.2915009353915022E-002   6.7480538115776076E-003   6.1761555607620242E-002
  -2.2205041182758168E-002   6.5331238117604662E-003   6.2009855130020441E-002
  -3.1264372008725401E-002   9.2521591092833699E-003   5.8990427390617384E-002
  -3.0382790609309394E-002   9.0135284705534363E-003   5.8690524210266590E-002
  -2.9501209209893416E-002   8.7584098158935766E-003   5.8569145038559089E-002
  -2.8619627810477437E-002   8.4868031453037510E-003   5.8626289875494800E-002
  -2.7738046411061430E-002   8.1987084587840653E-003   5.8861958721073915E-002
  -3.7534951802711776E-002   1.1131160154322667E-002   5.5949043070326304E-002
  -3.6467935614268351E-002   1.0858986003287413E-002   5.5581837472716937E-002
  -3.5400919425824948E-002   1.0557116778189810E-002   5.5406977444519168E-002
  -3.4333903237381523E-002   1.0225552479029894E-002   5.5424462985733010E-002
  -3.3266887048938105E-002   9.8642931058076921E-003   5.5634294096358450E-002
  -4.3856653249344728E-002   1.3010161199361964E-002   5.2880718766796099E-002
  -4.2590380711105547E-002   1.2704443536021445E-002   5.2433003693795818E-002
  -4.1324108172866393E-002   1.2355823740486126E-002   5.2191455750975529E-002
  -4.0057835634627240E-002   1.1964301812756177E-002   5.2156074938334941E-002
  -3.8791563096388086E-002   1.1529877752831277E-002   5.2326861255874393E-002
  -5.0229476348624236E-002   1.4889162244401205E-002   4.9785454480026886E-002
  -4.8750125899821015E-002   1.4549901068755394E-002   4.9244022873503240E-002
  -4.7270775451017821E-002   1.4154530702782379E-002   4.8922579957927745E-002
  -4.5791425002214642E-002   1.3703051146482221E-002   4.8821125733300490E-002
  -4.4312074553411421E-002   1.3195462399854918E-002   4.8939660199621426E-002
  -2.2205041182758168E-002   6.5331238117604662E-003   6.2009855130020441E-002
  -2.1247189021983744E-002   6.3064414473756880E-003   6.1769949395761081E-002
  -2.0289336861209303E-002   6.0595353116524725E-003   6.1745808382956152E-002
  -1.9331484700434883E-002   5.7924054045912741E-003   6.1937432091605557E-002
  -1.8373632539660442E-002   5.5050517261920340E-003   6.2344820521709310E-002
  -2.7738046411061430E-002   8.1987084587840653E-003   5.8861958721073915E-002
  -2.6566152706889036E-002   7.8968568962271002E-003   5.8608869645443429E-002
  -2.5394259002716611E-002   7.5839795975254504E-003   5.8568098935154439E-002
  -2.4222365298544220E-002   7.2600765626790915E-003   5.8739646590206987E-002
  -2.3050471594371787E-002   6.9251477916881243E-003   5.9123512610601364E-002
  -3.3266887048938105E-002   9.8642931058076921E-003   5.5634294096358450E-002
  -3.1884398157480488E-002   9.4872723450787344E-003   5.5377219714550147E-002
  -3.0501909266022885E-002   9.1084238833983797E-003   5.5329017341970772E-002
  -2.9119420374565261E-002   8.7277477207669107E-003   5.5489686978620056E-002
  -2.7736931483107671E-002   8.3452438571840759E-003   5.5859228624498158E-002
  -3.8791563096388086E-002   1.1529877752831277E-002   5.2326861255874393E-002
  -3.7201925373758070E-002   1.1077687793930202E-002   5.2074999603081859E-002
  -3.5612287651128081E-002   1.0632868169271361E-002   5.2028563603405277E-002
  -3.4022649928498079E-002   1.0195418878854619E-002   5.2187553256844620E-002
  -3.2433012205868063E-002   9.7653399226800691E-003   5.2551968563400081E-002
  -4.4312074553411421E-002   1.3195462399854918E-002   4.8939660199621426E-002
  -4.2518734355721829E-002   1.2668103242781809E-002   4.8702209311038025E-002
  -4.0725394158032217E-002   1.2157312455144328E-002   4.8666737719457731E-002
  -3.8932053960342619E-002   1.1663090036942502E-002   4.8833245424880739E-002
  -3.7138713762653014E-002   1.1185435988176118E-002   4.9201732427307021E-002
  -1.8373632539660442E-002   5.5050517261920340E-003   6.2344820521709310E-002
  -1.7705181345050891E-002   5.2113327504961504E-003   6.2039178924798377E-002
  -1.7036730150441364E-002   4.9251069515447998E-003   6.1989488435146595E-002
  -1.6368278955831816E-002   4.6463743293384818E-003   6.2195749052754046E-002
  -1.5699827761222286E-002   4.3751348838768078E-003   6.2657960777620703E-002
  -2.3050471594371787E-002   6.9251477916881243E-003   5.9123512610601364E-002
  -2.2145728325806843E-002   6.5827833057432450E-003   5.8790414887853082E-002
  -2.1240985057241889E-002   6.2365731260358437E-003   5.8673950205756345E-002
  -2.0336241788676955E-002   5.8865172525655526E-003   5.8774118564311410E-002
  -1.9431498520112011E-002   5.5326156853328090E-003   5.9090919963517896E-002
  -2.7736931483107671E-002   8.3452438571840759E-003   5.5859228624498158E-002
  -2.6635214207194894E-002   7.9542338609905477E-003   5.5487335905405208E-002
  -2.5533496931282113E-002   7.5480393005268320E-003   5.5292758160356184E-002
  -2.4431779655369339E-002   7.1266601757928455E-003   5.5275495389351212E-002
  -2.3330062379456555E-002   6.6900964867886714E-003   5.5435547592390236E-002
  -3.2433012205868063E-002   9.7653399226800691E-003   5.2551968563400081E-002
  -3.1173638989215071E-002   9.3256844162377742E-003   5.2129941977454901E-002
  -2.9914265772562051E-002   8.8595054750179036E-003   5.1845912298945918E-002
  -2.8654892555909073E-002   8.3668030990201384E-003   5.1699879527873485E-002
  -2.7395519339256068E-002   7.8475772882446587E-003   5.1691843664237500E-002
  -3.7138713762653014E-002   1.1185435988176118E-002   4.9201732427307021E-002
  -3.5761002671867326E-002   1.0697134971484945E-002   4.8718233104001973E-002
  -3.4383291581081707E-002   1.0170971649508712E-002   4.8333412621525740E-002
  -3.3005580490296040E-002   9.6069460222472820E-003   4.8047270979878390E-002
  -3.1627869399510400E-002   9.0050580897005905E-003   4.7859808179059826E-002
  -1.5699827761222286E-002   4.3751348838768078E-003   6.2657960777620703E-002
  -1.4512825239343635E-002   4.0897092747442243E-003   6.2835745395357190E-002
  -1.3325822717464974E-002   3.7684181615250806E-003   6.3288861504536859E-002
  -1.2138820195586314E-002   3.4112615442193663E-003   6.4017309105159945E-002
  -1.0951817673707662E-002   3.0182394228273068E-003   6.5021088197226184E-002
  -1.9431498520112011E-002   5.5326156853328090E-003   5.9090919963517896E-002
  -1.7984834950392260E-002   5.1678449655073733E-003   5.9059261979442945E-002
  -1.6538171380672588E-002   4.7851816342598802E-003   5.9271594599606514E-002
  -1.5091507810952878E-002   4.3846256915902847E-003   5.9727917824009533E-002
  -1.3644844241233162E-002   3.9661771374984722E-003   6.0428231652650211E-002
  -2.3330062379456555E-002   6.6900964867886714E-003   5.5435547592390236E-002
  -2.1655078649100330E-002   6.2459806562705500E-003   5.5212419899168128E-002
  -1.9980094918744074E-002   5.8019451069947839E-003   5.5201941922980301E-002
  -1.8305111188387832E-002   5.3579898389610348E-003   5.5404113663826679E-002
  -1.6630127458031621E-002   4.9141148521697486E-003   5.5818935121707491E-002
  -2.7395519339256068E-002   7.8475772882446587E-003   5.1691843664237500E-002
  -2.5523556335467747E-002   7.3241163470337683E-003   5.1295219154532723E-002
  -2.3651593331679498E-002   6.8187085797295245E-003   5.1079903474657476E-002
  -2.1779630327891212E-002   6.3313539863319246E-003   5.1045896624612438E-002
  -1.9907667324102932E-002   5.8620525668409695E-003   5.1193198604396806E-002
  -3.1627869399510400E-002   9.0050580897005905E-003   4.7859808179059826E-002
  -2.9590268009494602E-002   8.4022520377968202E-003   4.7307659745536745E-002
  -2.7552666619478805E-002   7.8354720524645566E-003   4.6905479254638865E-002
  -2.5515065229463028E-002   7.3047181337026097E-003   4.6653266706366450E-002
  -2.3477463839447210E-002   6.8099902815121904E-003   4.6551022100719042E-002
  -5.7152750985731693E-002   0.0000000000000000        3.4693201876460994E-002
  -5.7944310072870903E-002   2.0855098696878011E-003   3.8345635456162264E-002
  -5.8735869160010098E-002   4.1403105406656558E-003   4.2211630588807829E-002
  -5.9527428247149301E-002   6.1644020129335651E-003   4.6291187274397690E-002
  -6.0318987334288504E-002   8.1577842864915349E-003   5.0584305512931832E-002
  -6.5820127618385696E-002   0.0000000000000000        3.7215539983912790E-002
  -6.6627097014168926E-002   2.9151463182559931E-003   4.0838610127767773E-002
  -6.7434066409952156E-002   5.7729617813023311E-003   4.4217298101390405E-002
  -6.8241035805735401E-002   8.5734463891390077E-003   4.7351603904780687E-002
  -6.9048005201518631E-002   1.1316600141766031E-002   5.0241527537938618E-002
  -7.4243875798337855E-002   0.0000000000000000        4.0580825368182645E-002
  -7.5524199225941765E-002   3.7447827668241874E-003   4.4147910419691620E-002
  -7.6804522653545648E-002   7.4056130219390037E-003   4.7012669577791613E-002
  -7.8084846081149559E-002   1.0982490765344449E-002   4.9175102842482603E-002
  -7.9365169508753455E-002   1.4475415997040528E-002   5.0635210213764624E-002
  -8.2423995525588184E-002   0.0000000000000000        4.4789058029270530E-002
  -8.4635616708189407E-002   4.5744192153923790E-003   4.8273536331933799E-002
  -8.6847237890790616E-002   9.0382642625756824E-003   5.0597745018011439E-002
  -8.9058859073391825E-002   1.3391535141549902E-002   5.1761684087503430E-002
  -9.1270480255993061E-002   1.7634231852315028E-002   5.1765353540409814E-002
  -9.0360486800136669E-002   0.0000000000000000        4.9840237967176487E-002
  -9.3961349460911850E-002   5.4040556639605736E-003   5.3215487864494329E-002
  -9.7562212121687017E-002   1.0670915503212355E-002   5.4972524422049890E-002
 -0.10116307478246220        1.5800579517755334E-002   5.5111347639843190E-002
 -0.10476393744323738        2.0793047707589531E-002   5.3631957517874196E-002
  -6.0318987334288504E-002   8.1577842864915349E-003   5.0584305512931832E-002
  -6.0619240138271198E-002   1.0038484282317812E-002   5.1523571387101876E-002
  -6.0919492942253864E-002   1.1724528921390694E-002   5.2250268860743715E-002
  -6.1219745746236544E-002   1.3215918203710150E-002   5.2764397933857364E-002
  -6.1519998550219217E-002   1.4512652129276223E-002   5.3065958606442788E-002
  -6.9048005201518631E-002   1.1316600141766031E-002   5.0241527537938618E-002
  -6.9322883558932916E-002   1.3762686684155905E-002   4.9464860358191476E-002
  -6.9597761916347242E-002   1.5671969661281149E-002   4.8951510472109272E-002
  -6.9872640273761555E-002   1.7044449073141767E-002   4.8701477879691951E-002
  -7.0147518631175826E-002   1.7880124919737755E-002   4.8714762580939645E-002
  -7.9365169508753455E-002   1.4475415997040528E-002   5.0635210213764624E-002
  -7.9138787725406279E-002   1.7486889085993988E-002   4.7800461771589052E-002
  -7.8912405942059102E-002   1.9619410401171607E-002   4.5704916317271582E-002
  -7.8686024158711898E-002   2.0872979942573377E-002   4.4348573850812131E-002
  -7.8459642375364694E-002   2.1247597710199299E-002   4.3731434372210783E-002
  -9.1270480255993061E-002   1.7634231852315028E-002   5.1765353540409814E-002
  -9.0066952637691211E-002   2.1211091487832092E-002   4.6530375627294618E-002
  -8.8863425019389389E-002   2.3566851141062061E-002   4.2510486396230625E-002
  -8.7659897401087580E-002   2.4701510812004980E-002   3.9705685847217842E-002
  -8.6456369782785730E-002   2.4615070500660842E-002   3.8115973980256249E-002
 -0.10476393744323738        2.0793047707589531E-002   5.3631957517874196E-002
 -0.10210737829578778        2.4935293889670165E-002   4.5654601925308153E-002
  -9.9450819148338185E-002   2.7514291880952516E-002   3.9368220708986448E-002
  -9.6794260000888574E-002   2.8530041681436604E-002   3.4772813868909090E-002
  -9.4137700853438991E-002   2.7982543291122382E-002   3.1868381405076036E-002
  -6.1519998550219217E-002   1.4512652129276223E-002   5.3065958606442788E-002
  -6.0206165104634869E-002   1.5518386057495344E-002   5.1652666311616843E-002
  -5.8892331659050501E-002   1.6136775347774086E-002   5.0689062655881828E-002
  -5.7578498213466139E-002   1.6367820000112433E-002   5.0175147639237909E-002
  -5.6264664767881778E-002   1.6211520014510233E-002   5.0110921261684926E-002
  -7.0147518631175826E-002   1.7880124919737755E-002   4.8714762580939645E-002
  -6.8430106619140924E-002   1.8336328201480120E-002   4.7266013449049502E-002
  -6.6712694607105966E-002   1.8570389918779816E-002   4.6174732810969482E-002
  -6.4995282595071022E-002   1.8582310071636896E-002   4.5440920666699677E-002
  -6.3277870583036092E-002   1.8372088660051272E-002   4.5064577016240032E-002
  -7.8459642375364694E-002   2.1247597710199299E-002   4.3731434372210783E-002
  -7.6430871942160014E-002   2.1154270345464857E-002   4.2412431476754241E-002
  -7.4402101508955321E-002   2.1004004489785569E-002   4.1358676929827025E-002
  -7.2373331075750627E-002   2.0796800143161369E-002   4.0570170731429121E-002
  -7.0344560642545947E-002   2.0532657305592325E-002   4.0046912881560551E-002
  -8.6456369782785730E-002   2.4615070500660842E-002   3.8115973980256249E-002
  -8.4208461073692162E-002   2.3972212489449633E-002   3.7091920394731123E-002
  -8.1960552364598593E-002   2.3437619060791285E-002   3.6240895012454463E-002
  -7.9712643655505025E-002   2.3011290214685880E-002   3.5562897833426206E-002
  -7.7464734946411443E-002   2.2693225951133371E-002   3.5057928857646470E-002
  -9.4137700853438991E-002   2.7982543291122382E-002   3.1868381405076036E-002
  -9.1762874013737353E-002   2.6790154633434368E-002   3.1304480202980010E-002
  -8.9388047174035729E-002   2.5871233631797053E-002   3.0821387058851731E-002
  -8.7013220334334118E-002   2.5225780286210364E-002   3.0419101972690960E-002
  -8.4638393494632494E-002   2.4853794596674403E-002   3.0097624944497900E-002
  -5.6264664767881778E-002   1.6211520014510233E-002   5.0110921261684926E-002
  -5.4755867663067379E-002   1.5866393425449182E-002   4.9809024653505257E-002
  -5.3247070558253000E-002   1.5530958267410633E-002   4.9654147987169037E-002
  -5.1738273453438621E-002   1.5205214540394668E-002   4.9646291262676251E-002
  -5.0229476348624236E-002   1.4889162244401205E-002   4.9785454480026886E-002
  -6.3277870583036092E-002   1.8372088660051272E-002   4.5064577016240032E-002
  -6.1600625245600407E-002   1.8034714456279556E-002   4.4719388160029093E-002
  -5.9923379908164744E-002   1.7665176232578184E-002   4.4564075827217289E-002
  -5.8246134570729045E-002   1.7263473988947321E-002   4.4598640017804649E-002
  -5.6568889233293403E-002   1.6829607725386692E-002   4.4823080731791115E-002
  -7.0344560642545947E-002   2.0532657305592325E-002   4.0046912881560551E-002
  -6.8456010490933278E-002   2.0203035487109958E-002   3.9616576326366171E-002
  -6.6567460339320622E-002   1.9799394197745818E-002   3.9418972876126640E-002
  -6.4678910187707980E-002   1.9321733437499919E-002   3.9454102530841965E-002
  -6.2790360036095311E-002   1.8770053206372275E-002   3.9721965290512105E-002
  -7.7464734946411443E-002   2.2693225951133371E-002   3.5057928857646470E-002
  -7.5322023399066074E-002   2.2371356517940290E-002   3.4500589152516567E-002
  -7.3179311851720746E-002   2.1933612162913424E-002   3.4218839133897110E-002
  -7.1036600304375405E-002   2.1379992886052517E-002   3.4212678801788354E-002
  -6.8893888757030036E-002   2.0710498687357783E-002   3.4482108156190024E-002
  -8.4638393494632494E-002   2.4853794596674403E-002   3.0097624944497900E-002
  -8.2198663969998753E-002   2.4539677548770747E-002   2.9371426638480219E-002
  -7.9758934445365026E-002   2.4067830128080957E-002   2.8963674600528712E-002
  -7.7319204920731271E-002   2.3438252334605215E-002   2.8874368830643597E-002
  -7.4879475396097545E-002   2.2650944168343345E-002   2.9103509328824634E-002
  -5.0229476348624236E-002   1.4889162244401205E-002   4.9785454480026886E-002
  -4.8750125899821015E-002   1.4549901068755394E-002   4.9244022873503240E-002
  -4.7270775451017821E-002   1.4154530702782379E-002   4.8922579957927745E-002
  -4.5791425002214642E-002   1.3703051146482221E-002   4.8821125733300490E-002
  -4.4312074553411421E-002   1.3195462399854918E-002   4.8939660199621426E-002
  -5.6568889233293403E-002   1.6829607725386692E-002   4.4823080731791115E-002
  -5.4881299381304698E-002   1.6366365412944991E-002   4.4346493285291957E-002
  -5.3193709529315999E-002   1.5876535022670286E-002   4.4066395954215562E-002
  -5.1506119677327322E-002   1.5360116554562793E-002   4.3982788738561950E-002
  -4.9818529825338638E-002   1.4817110008622458E-002   4.4095671638331141E-002
  -6.2790360036095311E-002   1.8770053206372275E-002   3.9721965290512105E-002
  -6.0918029356446572E-002   1.8182829757134492E-002   3.9339743116531802E-002
  -5.9045698676797820E-002   1.7598539342558114E-002   3.9130512482448865E-002
  -5.7173367997149040E-002   1.7017181962643256E-002   3.9094273388263281E-002
  -5.5301037317500329E-002   1.6438757617389887E-002   3.9231025833975017E-002
  -6.8893888757030036E-002   2.0710498687357783E-002   3.4482108156190024E-002
  -6.6860315825246611E-002   1.9999294101323957E-002   3.4223772367222814E-002
  -6.4826742893463199E-002   1.9320543662445941E-002   3.4114929542627660E-002
  -6.2793169961679760E-002   1.8674247370723717E-002   3.4155579682404416E-002
  -6.0759597029896376E-002   1.8060405226157317E-002   3.4345722786553151E-002
  -7.4879475396097545E-002   2.2650944168343345E-002   2.9103509328824634E-002
  -7.2708158787704841E-002   2.1815758445513533E-002   2.8998581037364968E-002
  -7.0536842179312179E-002   2.1042547982333792E-002   2.9019647134751830E-002
  -6.8365525570919489E-002   2.0331312778804178E-002   2.9166707620985347E-002
  -6.6194208962526785E-002   1.9682052834924801E-002   2.9439762496065280E-002
  -4.4312074553411421E-002   1.3195462399854918E-002   4.8939660199621426E-002
  -4.2518734355721829E-002   1.2668103242781809E-002   4.8702209311038025E-002
  -4.0725394158032217E-002   1.2157312455144328E-002   4.8666737719457731E-002
  -3.8932053960342619E-002   1.1663090036942502E-002   4.8833245424880739E-002
  -3.7138713762653014E-002   1.1185435988176118E-002   4.9201732427307021E-002
  -4.9818529825338638E-002   1.4817110008622458E-002   4.4095671638331141E-002
  -4.7819446277553954E-002   1.4261747612564130E-002   4.3895154956121452E-002
  -4.5820362729769235E-002   1.3708261594102683E-002   4.3904145677098758E-002
  -4.3821279181984536E-002   1.3156651953238251E-002   4.4122643801263135E-002
  -4.1822195634199845E-002   1.2606918689970548E-002   4.4550649328614411E-002
  -5.5301037317500329E-002   1.6438757617389887E-002   3.9231025833975017E-002
  -5.3088682313436719E-002   1.5855391982346326E-002   3.9052751366300445E-002
  -5.0876327309373109E-002   1.5259210733061045E-002   3.9091512407996624E-002
  -4.8663972305309527E-002   1.4650213869533890E-002   3.9347308959063493E-002
  -4.6451617301245883E-002   1.4028401391764977E-002   3.9820141019501223E-002
  -6.0759597029896376E-002   1.8060405226157317E-002   3.4345722786553151E-002
  -5.8326442463370057E-002   1.7449036352128640E-002   3.4174998541574783E-002
  -5.5893287896843800E-002   1.6810159872019430E-002   3.4228837912151075E-002
  -5.3460133330317565E-002   1.6143775785829529E-002   3.4507240898281874E-002
  -5.1026978763791288E-002   1.5449884093559463E-002   3.5010207499967347E-002
  -6.6194208962526785E-002   1.9682052834924801E-002   2.9439762496065280E-002
  -6.3532726727354105E-002   1.9042680721910843E-002   2.9261896481944633E-002
  -6.0871244492181370E-002   1.8361109010977733E-002   2.9316122189562310E-002
  -5.8209762257008635E-002   1.7637337702125326E-002   2.9602439618918425E-002
  -5.5548280021835955E-002   1.6871366795353837E-002   3.0120848770012698E-002
  -3.7138713762653014E-002   1.1185435988176118E-002   4.9201732427307021E-002
  -3.5761002671867326E-002   1.0697134971484945E-002   4.8718233104001973E-002
  -3.4383291581081707E-002   1.0170971649508712E-002   4.8333412621525740E-002
  -3.3005580490296040E-002   9.6069460222472820E-003   4.8047270979878390E-002
  -3.1627869399510400E-002   9.0050580897005905E-003   4.7859808179059826E-002
  -4.1822195634199845E-002   1.2606918689970548E-002   4.4550649328614411E-002
  -4.0329896784153815E-002   1.2048045424952109E-002   4.4108109785049671E-002
  -3.8837597934107834E-002   1.1469015778834968E-002   4.3796066919176702E-002
  -3.7345299084061839E-002   1.0869829751619126E-002   4.3614520730995712E-002
  -3.5853000234015830E-002   1.0250487343304859E-002   4.3563471220506467E-002
  -4.6451617301245883E-002   1.4028401391764977E-002   3.9820141019501223E-002
  -4.4812912855076603E-002   1.3398955878419105E-002   3.9436267179863246E-002
  -4.3174208408907261E-002   1.2767059908161217E-002   3.9214707854780297E-002
  -4.1535503962737884E-002   1.2132713480991134E-002   3.9155463044252062E-002
  -3.9896799516568569E-002   1.1495916596909100E-002   3.9258532748278688E-002
  -5.1026978763791288E-002   1.5449884093559463E-002   3.5010207499967347E-002
  -4.9210050884635634E-002   1.4749866331886130E-002   3.4702705288442867E-002
  -4.7393123005479931E-002   1.4065104037487414E-002   3.4589335428336143E-002
  -4.5576195126324291E-002   1.3395597210363059E-002   3.4670097919647341E-002
  -4.3759267247168644E-002   1.2741345850513355E-002   3.4944992762376392E-002
  -5.5548280021835955E-002   1.6871366795353837E-002   3.0120848770012698E-002
  -5.3521310872830963E-002   1.6100776785353266E-002   2.9907424110788283E-002
  -5.1494341723825970E-002   1.5363148166813514E-002   2.9919949639844540E-002
  -4.9467372574820950E-002   1.4658480939734961E-002   3.0158425357181801E-002
  -4.7440403425815930E-002   1.3986775104117555E-002   3.0622851262799788E-002
  -3.1627869399510400E-002   9.0050580897005905E-003   4.7859808179059826E-002
  -2.9590268009494602E-002   8.4022520377968202E-003   4.7307659745536745E-002
  -2.7552666619478805E-002   7.8354720524645566E-003   4.6905479254638865E-002
  -2.5515065229463028E-002   7.3047181337026097E-003   4.6653266706366450E-002
  -2.3477463839447210E-002   6.8099902815121904E-003   4.6551022100719042E-002
  -3.5853000234015830E-002   1.0250487343304859E-002   4.3563471220506467E-002
  -3.3663660447832644E-002   9.6274432188140358E-003   4.3218814300136632E-002
  -3.1474320661649506E-002   9.0171520430693541E-003   4.3027666229476402E-002
  -2.9284980875466337E-002   8.4196138160704953E-003   4.2990027008525653E-002
  -2.7095641089283168E-002   7.8348285378175841E-003   4.3105896637284258E-002
  -3.9896799516568569E-002   1.1495916596909100E-002   3.9258532748278688E-002
  -3.7552180427133819E-002   1.0852634399831279E-002   3.9098094223237123E-002
  -3.5207561337699048E-002   1.0198832033674478E-002   3.9094705454989200E-002
  -3.2862942248264221E-002   9.5345094984384347E-003   3.9248366443534979E-002
  -3.0518323158829588E-002   8.8596667941230889E-003   3.9559077188874692E-002
  -4.3759267247168644E-002   1.2741345850513355E-002   3.4944992762376392E-002
  -4.1255827947398023E-002   1.2077825580848453E-002   3.4945499514837927E-002
  -3.8752388647627437E-002   1.1380512024279438E-002   3.5106596931177382E-002
  -3.6248949347856788E-002   1.0649405180806069E-002   3.5428285011394993E-002
  -3.3745510048086277E-002   9.8845050504285381E-003   3.5910563755490163E-002
  -4.7440403425815930E-002   1.3986775104117555E-002   3.0622851262799788E-002
  -4.4774603008625347E-002   1.3303016761865738E-002   3.0761030174939086E-002
  -4.2108802591434638E-002   1.2562192014884496E-002   3.1063340658040700E-002
  -3.9443002174243992E-002   1.1764300863174117E-002   3.1529782712104645E-002
  -3.6777201757053402E-002   1.0909343306733987E-002   3.2160356337130658E-002
  -9.0360486800136669E-002   0.0000000000000000        4.9840237967176487E-002
  -9.3961349460911850E-002   5.4040556639605736E-003   5.3215487864494329E-002
  -9.7562212121687017E-002   1.0670915503212355E-002   5.4972524422049890E-002
 -0.10116307478246220        1.5800579517755334E-002   5.5111347639843190E-002
 -0.10476393744323738        2.0793047707589531E-002   5.3631957517874196E-002
 -0.10329173976213107        0.0000000000000000        5.8668241681035897E-002
 -0.10682933374865053        1.0884863995473403E-002   5.2124733996493249E-002
 -0.11036692773517001        1.9172748279085897E-002   4.7325977000224277E-002
 -0.11390452172168948        2.4863652850837484E-002   4.4271970692229011E-002
 -0.11744211570820894        2.7957577710728161E-002   4.2962715072507408E-002
 -0.12645614455171908        0.0000000000000000        7.4206945669984203E-002
 -0.12656750583594686        1.6365672326986238E-002   5.5284896516428941E-002
 -0.12667886712017468        2.7674581054959450E-002   4.1470562079183336E-002
 -0.12679022840440246        3.3926726183919627E-002   3.2763942358247373E-002
 -0.12690158968863027        3.5122107713866799E-002   2.9165037353621096E-002
 -0.15985370116890071        0.0000000000000000        9.6456349934021399E-002
 -0.15317586572280090        2.1846480658499076E-002   6.2695975424301401E-002
 -0.14649803027670108        3.6176413830832997E-002   3.7406279658927032E-002
 -0.13982019483060121        4.2989799517001763E-002   2.0587262637898285E-002
 -0.13314235938450136        4.2286637717005422E-002   1.2238924361215212E-002
 -0.20348440961367600        0.0000000000000000       0.12541645447314748     
 -0.18665441340921254        2.7327288990011897E-002   7.4357970720110647E-002
 -0.16982441720474908        4.4678246606706537E-002   3.5133129739455406E-002
 -0.15299442100028562        5.2052872850083934E-002   7.7419315311817449E-003
 -0.13616442479582219        4.9451167720144053E-002  -7.8156239047103143E-003
 -0.10476393744323738        2.0793047707589531E-002   5.3631957517874196E-002
 -0.10210737829578778        2.4935293889670165E-002   4.5654601925308153E-002
  -9.9450819148338185E-002   2.7514291880952516E-002   3.9368220708986448E-002
  -9.6794260000888574E-002   2.8530041681436604E-002   3.4772813868909090E-002
  -9.4137700853438991E-002   2.7982543291122382E-002   3.1868381405076036E-002
 -0.11744211570820894        2.7957577710728161E-002   4.2962715072507408E-002
 -0.11348256410306617        2.9429472076830856E-002   3.6710917112683816E-002
 -0.10952301249792341        3.0254285167218547E-002   3.1374129692002199E-002
 -0.10556346089278064        3.0432016981891203E-002   2.6952352810462581E-002
 -0.10160390928763791        2.9962667520848828E-002   2.3445586468064935E-002
 -0.12690158968863027        3.5122107713866799E-002   2.9165037353621096E-002
 -0.12241500946289667        3.3923650263991571E-002   2.5554963941623165E-002
 -0.11792842923716308        3.2994278453484571E-002   2.2083937231664897E-002
 -0.11344184901142948        3.2333992282345812E-002   1.8751957223746313E-002
 -0.10895526878569586        3.1942791750575336E-002   1.5559023917867303E-002
 -0.13314235938450136        4.2286637717005422E-002   1.2238924361215212E-002
 -0.12890471437527926        3.8417828451152235E-002   1.2186742412126198E-002
 -0.12466706936605716        3.5734271739750571E-002   1.1497643327974564E-002
 -0.12042942435683505        3.4235967582800370E-002   1.0171627108760196E-002
 -0.11619177934761299        3.3922915980301810E-002   8.2086937544831838E-003
 -0.13616442479582219        4.9451167720144053E-002  -7.8156239047103143E-003
 -0.13295167884021392        4.2912006638312947E-002  -3.3937474758070768E-003
 -0.12973893288460570        3.8474265026016620E-002  -3.8475201906887704E-004
 -0.12652618692899745        3.6137942883254996E-002   1.2113624655043986E-003
 -0.12331344097338920        3.5903040210028270E-002   1.3945959779126105E-003
  -9.4137700853438991E-002   2.7982543291122382E-002   3.1868381405076036E-002
  -9.1762874013737353E-002   2.6790154633434368E-002   3.1304480202980010E-002
  -8.9388047174035729E-002   2.5871233631797053E-002   3.0821387058851731E-002
  -8.7013220334334118E-002   2.5225780286210364E-002   3.0419101972690960E-002
  -8.4638393494632494E-002   2.4853794596674403E-002   3.0097624944497900E-002
 -0.10160390928763791        2.9962667520848828E-002   2.3445586468064935E-002
  -9.9134088736120174E-002   2.9194248435885976E-002   2.3171924697920673E-002
  -9.6664268184602428E-002   2.8474771378797059E-002   2.3007442293441011E-002
  -9.4194447633084682E-002   2.7804236349582075E-002   2.2952139254625959E-002
  -9.1724627081566978E-002   2.7182643348241137E-002   2.3006015581475428E-002
 -0.10895526878569586        3.1942791750575336E-002   1.5559023917867303E-002
 -0.10636208321466507        3.1598342238337573E-002   1.5351075951498058E-002
 -0.10376889764363430        3.1078309125797038E-002   1.5280678658490351E-002
 -0.10117571207260349        3.0382692412953743E-002   1.5347832038844249E-002
  -9.8582526501572718E-002   2.9511492099807822E-002   1.5552536092559650E-002
 -0.11619177934761299        3.3922915980301810E-002   8.2086937544831838E-003
 -0.11344685744937215        3.4002436040789161E-002   7.8419339637122495E-003
 -0.11070193555113125        3.3681846872797058E-002   7.6410961539997782E-003
 -0.10795701365289044        3.2961148476325586E-002   7.6061803253459799E-003
 -0.10521209175464956        3.1840340851374480E-002   7.7371864777504426E-003
 -0.12331344097338920        3.5903040210028270E-002   1.3945959779126105E-003
 -0.12038841144024132        3.6406529843240748E-002   6.4449873456309814E-004
 -0.11746338190709346        3.6285384619797051E-002   8.8694779969193671E-005
 -0.11453835237394558        3.5539604539697199E-002  -2.7281588586909773E-004
 -0.11161332284079772        3.4169189602941241E-002  -4.4003326295205536E-004
  -8.4638393494632494E-002   2.4853794596674403E-002   3.0097624944497900E-002
  -8.2198663969998753E-002   2.4539677548770747E-002   2.9371426638480219E-002
  -7.9758934445365026E-002   2.4067830128080957E-002   2.8963674600528712E-002
  -7.7319204920731271E-002   2.3438252334605215E-002   2.8874368830643597E-002
  -7.4879475396097545E-002   2.2650944168343345E-002   2.9103509328824634E-002
  -9.1724627081566978E-002   2.7182643348241137E-002   2.3006015581475428E-002
  -8.9002601944794757E-002   2.6560297131742065E-002   2.2367911370970654E-002
  -8.6280576808022522E-002   2.5887502457052756E-002   2.1975952116676613E-002
  -8.3558551671250314E-002   2.5164259324173439E-002   2.1830137818593286E-002
  -8.0836526534478065E-002   2.4390567733103857E-002   2.1930468476720671E-002
  -9.8582526501572718E-002   2.9511492099807822E-002   1.5552536092559650E-002
  -9.5650507064517470E-002   2.8580916714713307E-002   1.5109807892163714E-002
  -9.2718487627462265E-002   2.7707174786024559E-002   1.4840923336122981E-002
  -8.9786468190407073E-002   2.6890266313741688E-002   1.4745882424437438E-002
  -8.6854448753351826E-002   2.6130191297864425E-002   1.4824685157107123E-002
 -0.10521209175464956        3.1840340851374480E-002   7.7371864777504426E-003
 -0.10214237932916687        3.0601536297684615E-002   7.5971162020591811E-003
  -9.9072666903684284E-002   2.9526847114996386E-002   7.5585882588678054E-003
  -9.6002954478201646E-002   2.8616273303309885E-002   7.6216026481758471E-003
  -9.2933242052718981E-002   2.7869814862624881E-002   7.7861593699837806E-003
 -0.11161332284079772        3.4169189602941241E-002  -4.4003326295205536E-004
 -0.10847821873874314        3.2622155880655923E-002  -1.7016369934255704E-004
 -0.10534311463668852        3.1346519443968143E-002   1.2894688491101036E-004
 -0.10220801053463392        3.0342280292878079E-002   4.5729848980873358E-004
  -9.9072906432579322E-002   2.9609438427385559E-002   8.1489111535071324E-004
  -7.4879475396097545E-002   2.2650944168343345E-002   2.9103509328824634E-002
  -7.2708158787704841E-002   2.1815758445513533E-002   2.8998581037364968E-002
  -7.0536842179312179E-002   2.1042547982333792E-002   2.9019647134751830E-002
  -6.8365525570919489E-002   2.0331312778804178E-002   2.9166707620985347E-002
  -6.6194208962526785E-002   1.9682052834924801E-002   2.9439762496065280E-002
  -8.0836526534478065E-002   2.4390567733103857E-002   2.1930468476720671E-002
  -7.8536082118597611E-002   2.3599239529270691E-002   2.1806377769565580E-002
  -7.6235637702717102E-002   2.2823086558100558E-002   2.1814548288539432E-002
  -7.3935193286836662E-002   2.2062108819593321E-002   2.1954980033642289E-002
  -7.1634748870956139E-002   2.1316306313749117E-002   2.2227673004874299E-002
  -8.6854448753351826E-002   2.6130191297864425E-002   1.4824685157107123E-002
  -8.4418609692701152E-002   2.5382720613027987E-002   1.4634632007269291E-002
  -8.1982770632050422E-002   2.4603625133867296E-002   1.4583106920842942E-002
  -7.9546931571399748E-002   2.3792904860382491E-002   1.4670109897828111E-002
  -7.7111092510748977E-002   2.2950559792573405E-002   1.4895640938224805E-002
  -9.2933242052718981E-002   2.7869814862624881E-002   7.7861593699837806E-003
  -9.0355741510015491E-002   2.7166201696785186E-002   7.4833437504761464E-003
  -8.7778240967312099E-002   2.6384163709634020E-002   7.3253230316623740E-003
  -8.5200740424608609E-002   2.5523700901171537E-002   7.3120972135425621E-003
  -8.2623239881905175E-002   2.4584813271397596E-002   7.4436662961167611E-003
  -9.9072906432579322E-002   2.9609438427385559E-002   8.1489111535071324E-004
  -9.6347477570540685E-002   2.8949682780542552E-002   3.5251299918589996E-004
  -9.3622048708502076E-002   2.8164702285400869E-002   4.1196620997593913E-005
  -9.0896619846463481E-002   2.7254496941960766E-002  -1.1905801921418060E-004
  -8.8171190984424830E-002   2.6219066750222009E-002  -1.2825092144957972E-004
  -6.6194208962526785E-002   1.9682052834924801E-002   2.9439762496065280E-002
  -6.3532726727354105E-002   1.9042680721910843E-002   2.9261896481944633E-002
  -6.0871244492181370E-002   1.8361109010977733E-002   2.9316122189562310E-002
  -5.8209762257008635E-002   1.7637337702125326E-002   2.9602439618918425E-002
  -5.5548280021835955E-002   1.6871366795353837E-002   3.0120848770012698E-002
  -7.1634748870956139E-002   2.1316306313749117E-002   2.2227673004874299E-002
  -6.8742072394682927E-002   2.0571071275109598E-002   2.1984985830665993E-002
  -6.5849395918409673E-002   1.9811795938216560E-002   2.1972595416920510E-002
  -6.2956719442136405E-002   1.9038480303070128E-002   2.2190501763637738E-002
  -6.0064042965863193E-002   1.8251124369670135E-002   2.2638704870817705E-002
  -7.7111092510748977E-002   2.2950559792573405E-002   1.4895640938224805E-002
  -7.3989016754650777E-002   2.2099461828308242E-002   1.4616291903594515E-002
  -7.0866940998552591E-002   2.1262482865455387E-002   1.4565444668151545E-002
  -6.7744865242454433E-002   2.0439622904014822E-002   1.4743099231895714E-002
  -6.4622789486356205E-002   1.9630881943986545E-002   1.5149255594827091E-002
  -8.2623239881905175E-002   2.4584813271397596E-002   7.4436662961167611E-003
  -7.9273559807257657E-002   2.3627852381507108E-002   7.1558147007304580E-003
  -7.5923879732610153E-002   2.2713169792694325E-002   7.0946699432558359E-003
  -7.2574199657962649E-002   2.1840765504959461E-002   7.2602320236926313E-003
  -6.9224519583315117E-002   2.1010639518302954E-002   7.6525009420408824E-003
  -8.8171190984424830E-002   2.6219066750222009E-002  -1.2825092144957972E-004
  -8.4595701552503622E-002   2.5156242934705753E-002  -3.9644577792630198E-004
  -8.1020212120582358E-002   2.4163856719933152E-002  -4.3972875776711329E-004
  -7.7444722688661150E-002   2.3241908105904208E-002  -2.5809986097164242E-004
  -7.3869233256739886E-002   2.2390397092619141E-002   1.4844091245935775E-004
  -5.5548280021835955E-002   1.6871366795353837E-002   3.0120848770012698E-002
  -5.3521310872830963E-002   1.6100776785353266E-002   2.9907424110788283E-002
  -5.1494341723825970E-002   1.5363148166813514E-002   2.9919949639844540E-002
  -4.9467372574820950E-002   1.4658480939734961E-002   3.0158425357181801E-002
  -4.7440403425815930E-002   1.3986775104117555E-002   3.0622851262799788E-002
  -6.0064042965863193E-002   1.8251124369670135E-002   2.2638704870817705E-002
  -5.7836623959878403E-002   1.7464777182080393E-002   2.2381305894493719E-002
  -5.5609204953893522E-002   1.6694487784364817E-002   2.2298856443848825E-002
  -5.3381785947908725E-002   1.5940256176522987E-002   2.2391356518882466E-002
  -5.1154366941923921E-002   1.5202082358555358E-002   2.2658806119595032E-002
  -6.4622789486356205E-002   1.9630881943986545E-002   1.5149255594827091E-002
  -6.2245921285993641E-002   1.8828777578807576E-002   1.4830978699816894E-002
  -5.9869053085631029E-002   1.8025827401915946E-002   1.4636650667883458E-002
  -5.7492184885268471E-002   1.7222031413311009E-002   1.4566271499026787E-002
  -5.5115316684905859E-002   1.6417389612993410E-002   1.4619841193246955E-002
  -6.9224519583315117E-002   2.1010639518302954E-002   7.6525009420408824E-003
  -6.6749202851176803E-002   2.0192777975535064E-002   7.2564425267575734E-003
  -6.4273886119038448E-002   1.9357167019467218E-002   6.9333323119484865E-003
  -6.1798569386900107E-002   1.8503806650099146E-002   6.6831702976145645E-003
  -5.9323252654761786E-002   1.7632696867431560E-002   6.5059564837550952E-003
  -7.3869233256739886E-002   2.2390397092619141E-002   1.4844091245935775E-004
  -7.1346468655427819E-002   2.1556778372261887E-002  -3.4230262468487593E-004
  -6.8823704054115753E-002   2.0688506637018378E-002  -8.1109862395606358E-004
  -6.6300939452803714E-002   1.9785581886887060E-002  -1.2579470853547187E-003
  -6.3778174851491620E-002   1.8848004121869488E-002  -1.6828480088803000E-003
  -4.7440403425815930E-002   1.3986775104117555E-002   3.0622851262799788E-002
  -4.4774603008625347E-002   1.3303016761865738E-002   3.0761030174939086E-002
  -4.2108802591434638E-002   1.2562192014884496E-002   3.1063340658040700E-002
  -3.9443002174243992E-002   1.1764300863174117E-002   3.1529782712104645E-002
  -3.6777201757053402E-002   1.0909343306733987E-002   3.2160356337130658E-002
  -5.1154366941923921E-002   1.5202082358555358E-002   2.2658806119595032E-002
  -4.8317511846854677E-002   1.4455178108114169E-002   2.2511629382001797E-002
  -4.5480656751785385E-002   1.3674755202851621E-002   2.2542430429203508E-002
  -4.2643801656716190E-002   1.2860813642768022E-002   2.2751209261200264E-002
  -3.9806946561646794E-002   1.2013353427863027E-002   2.3137965877992106E-002
  -5.5115316684905859E-002   1.6417389612993410E-002   1.4619841193246955E-002
  -5.2093560698125069E-002   1.5607339454362545E-002   1.4210856555828835E-002
  -4.9071804711344327E-002   1.4787318390818753E-002   1.3993695917038980E-002
  -4.6050048724563621E-002   1.3957326422361955E-002   1.3968359276876671E-002
  -4.3028292737782817E-002   1.3117363548992067E-002   1.4134846635342591E-002
  -5.9323252654761786E-002   1.7632696867431560E-002   6.5059564837550952E-003
  -5.6102749562436646E-002   1.6759500800611060E-002   5.8587116964207674E-003
  -5.2882246470111444E-002   1.5899881578785770E-002   5.4171371215471203E-003
  -4.9661743377786352E-002   1.5053839201955986E-002   5.1812327591341393E-003
  -4.6441240285461136E-002   1.4221373670121107E-002   5.1509986091823196E-003
  -6.3778174851491620E-002   1.8848004121869488E-002  -1.6828480088803000E-003
  -6.0345078439789201E-002   1.7911662146859131E-002  -2.5448051962231877E-003
  -5.6911982028086783E-002   1.7012444766753176E-002  -3.1872459572718503E-003
  -5.3478885616384447E-002   1.6150351981550168E-002  -3.6101702920272385E-003
  -5.0045789204681945E-002   1.5325383791250147E-002  -3.8135782004888874E-003
 </DataArray>
 </PointData>
 </Piece>
 <Piece  NumberOfPoints="          1600 "  NumberOfCells="         1024 ">
 <Points>
 <DataArray  type="Float64" NumberOfComponents="3"  format="ascii" >
  0.50000000000000000        0.0000000000000000        0.0000000000000000     
  0.53125000000000000        0.0000000000000000        0.0000000000000000     
  0.56250000000000000        0.0000000000000000        0.0000000000000000     
  0.59375000000000000        0.0000000000000000        0.0000000000000000     
  0.62500000000000000        0.0000000000000000        0.0000000000000000     
  0.50000000000000000        3.1250000000000000E-002   0.0000000000000000     
  0.53125000000000000        3.1250000000000000E-002   0.0000000000000000     
  0.56250000000000000        3.1250000000000000E-002   0.0000000000000000     
  0.59375000000000000        3.1250000000000000E-002   0.0000000000000000     
  0.62500000000000000        3.1250000000000000E-002   0.0000000000000000     
  0.50000000000000000        6.2500000000000000E-002   0.0000000000000000     
  0.53125000000000000        6.2500000000000000E-002   0.0000000000000000     
  0.56250000000000000        6.2500000000000000E-002   0.0000000000000000     
  0.59375000000000000        6.2500000000000000E-002   0.0000000000000000     
  0.62500000000000000        6.2500000000000000E-002   0.0000000000000000     
  0.50000000000000000        9.3750000000000000E-002   0.0000000000000000     
  0.53125000000000000        9.3750000000000000E-002   0.0000000000000000     
  0.56250000000000000        9.3750000000000000E-002   0.0000000000000000     
  0.59375000000000000        9.3750000000000000E-002   0.0000000000000000     
  0.62500000000000000        9.3750000000000000E-002   0.0000000000000000     
  0.50000000000000000       0.12500000000000000        0.0000000000000000     
  0.53125000000000000       0.12500000000000000        0.0000000000000000     
  0.56250000000000000       0.12500000000000000        0.0000000000000000     
  0.59375000000000000       0.12500000000000000        0.0000000000000000     
  0.62500000000000000       0.12500000000000000        0.0000000000000000     
  0.62500000000000000        0.0000000000000000        0.0000000000000000     
  0.65625000000000000        0.0000000000000000        0.0000000000000000     
  0.68750000000000000        0.0000000000000000        0.0000000000000000     
  0.71875000000000000        0.0000000000000000        0.0000000000000000     
  0.75000000000000000        0.0000000000000000        0.0000000000000000     
  0.62500000000000000        3.1250000000000000E-002   0.0000000000000000     
  0.65625000000000000        3.1250000000000000E-002   0.0000000000000000     
  0.68750000000000000        3.1250000000000000E-002   0.0000000000000000     
  0.71875000000000000        3.1250000000000000E-002   0.0000000000000000     
  0.75000000000000000        3.1250000000000000E-002   0.0000000000000000     
  0.62500000000000000        6.2500000000000000E-002   0.0000000000000000     
  0.65625000000000000        6.2500000000000000E-002   0.0000000000000000     
  0.68750000000000000        6.2500000000000000E-002   0.0000000000000000     
  0.71875000000000000        6.2500000000000000E-002   0.0000000000000000     
  0.75000000000000000        6.2500000000000000E-002   0.0000000000000000     
  0.62500000000000000        9.3750000000000000E-002   0.0000000000000000     
  0.65625000000000000        9.3750000000000000E-002   0.0000000000000000     
  0.68750000000000000        9.3750000000000000E-002   0.0000000000000000     
  0.71875000000000000        9.3750000000000000E-002   0.0000000000000000     
  0.75000000000000000        9.3750000000000000E-002   0.0000000000000000     
  0.62500000000000000       0.12500000000000000        0.0000000000000000     
  0.65625000000000000       0.12500000000000000        0.0000000000000000     
  0.68750000000000000       0.12500000000000000        0.0000000000000000     
  0.71875000000000000       0.12500000000000000        0.0000000000000000     
  0.75000000000000000       0.12500000000000000        0.0000000000000000     
  0.75000000000000000        0.0000000000000000        0.0000000000000000     
  0.78125000000000000        0.0000000000000000        0.0000000000000000     
  0.81250000000000000        0.0000000000000000        0.0000000000000000     
  0.84375000000000000        0.0000000000000000        0.0000000000000000     
  0.87500000000000000        0.0000000000000000        0.0000000000000000     
  0.75000000000000000        3.1250000000000000E-002   0.0000000000000000     
  0.78125000000000000        3.1250000000000000E-002   0.0000000000000000     
  0.81250000000000000        3.1250000000000000E-002   0.0000000000000000     
  0.84375000000000000        3.1250000000000000E-002   0.0000000000000000     
  0.87500000000000000        3.1250000000000000E-002   0.0000000000000000     
  0.75000000000000000        6.2500000000000000E-002   0.0000000000000000     
  0.78125000000000000        6.2500000000000000E-002   0.0000000000000000     
  0.81250000000000000        6.2500000000000000E-002   0.0000000000000000     
  0.84375000000000000        6.2500000000000000E-002   0.0000000000000000     
  0.87500000000000000        6.2500000000000000E-002   0.0000000000000000     
  0.75000000000000000        9.3750000000000000E-002   0.0000000000000000     
  0.78125000000000000        9.3750000000000000E-002   0.0000000000000000     
  0.81250000000000000        9.3750000000000000E-002   0.0000000000000000     
  0.84375000000000000        9.3750000000000000E-002   0.0000000000000000     
  0.87500000000000000        9.3750000000000000E-002   0.0000000000000000     
  0.75000000000000000       0.12500000000000000        0.0000000000000000     
  0.78125000000000000       0.12500000000000000        0.0000000000000000     
  0.81250000000000000       0.12500000000000000        0.0000000000000000     
  0.84375000000000000       0.12500000000000000        0.0000000000000000     
  0.87500000000000000       0.12500000000000000        0.0000000000000000     
  0.87500000000000000        0.0000000000000000        0.0000000000000000     
  0.90625000000000000        0.0000000000000000        0.0000000000000000     
  0.93750000000000000        0.0000000000000000        0.0000000000000000     
  0.96875000000000000        0.0000000000000000        0.0000000000000000     
   1.0000000000000000        0.0000000000000000        0.0000000000000000     
  0.87500000000000000        3.1250000000000000E-002   0.0000000000000000     
  0.90625000000000000        3.1250000000000000E-002   0.0000000000000000     
  0.93750000000000000        3.1250000000000000E-002   0.0000000000000000     
  0.96875000000000000        3.1250000000000000E-002   0.0000000000000000     
   1.0000000000000000        3.1250000000000000E-002   0.0000000000000000     
  0.87500000000000000        6.2500000000000000E-002   0.0000000000000000     
  0.90625000000000000        6.2500000000000000E-002   0.0000000000000000     
  0.93750000000000000        6.2500000000000000E-002   0.0000000000000000     
  0.96875000000000000        6.2500000000000000E-002   0.0000000000000000     
   1.0000000000000000        6.2500000000000000E-002   0.0000000000000000     
  0.87500000000000000        9.3750000000000000E-002   0.0000000000000000     
  0.90625000000000000        9.3750000000000000E-002   0.0000000000000000     
  0.93750000000000000        9.3750000000000000E-002   0.0000000000000000     
  0.96875000000000000        9.3750000000000000E-002   0.0000000000000000     
   1.0000000000000000        9.3750000000000000E-002   0.0000000000000000     
  0.87500000000000000       0.12500000000000000        0.0000000000000000     
  0.90625000000000000       0.12500000000000000        0.0000000000000000     
  0.93750000000000000       0.12500000000000000        0.0000000000000000     
  0.96875000000000000       0.12500000000000000        0.0000000000000000     
   1.0000000000000000       0.12500000000000000        0.0000000000000000     
   1.0000000000000000        0.0000000000000000        0.0000000000000000     
   1.0312500000000000        0.0000000000000000        0.0000000000000000     
   1.0625000000000000        0.0000000000000000        0.0000000000000000     
   1.0937500000000000        0.0000000000000000        0.0000000000000000     
   1.1250000000000000        0.0000000000000000        0.0000000000000000     
   1.0000000000000000        3.1250000000000000E-002   0.0000000000000000     
   1.0312500000000000        3.1250000000000000E-002   0.0000000000000000     
   1.0625000000000000        3.1250000000000000E-002   0.0000000000000000     
   1.0937500000000000        3.1250000000000000E-002   0.0000000000000000     
   1.1250000000000000        3.1250000000000000E-002   0.0000000000000000     
   1.0000000000000000        6.2500000000000000E-002   0.0000000000000000     
   1.0312500000000000        6.2500000000000000E-002   0.0000000000000000     
   1.0625000000000000        6.2500000000000000E-002   0.0000000000000000     
   1.0937500000000000        6.2500000000000000E-002   0.0000000000000000     
   1.1250000000000000        6.2500000000000000E-002   0.0000000000000000     
   1.0000000000000000        9.3750000000000000E-002   0.0000000000000000     
   1.0312500000000000        9.3750000000000000E-002   0.0000000000000000     
   1.0625000000000000        9.3750000000000000E-002   0.0000000000000000     
   1.0937500000000000        9.3750000000000000E-002   0.0000000000000000     
   1.1250000000000000        9.3750000000000000E-002   0.0000000000000000     
   1.0000000000000000       0.12500000000000000        0.0000000000000000     
   1.0312500000000000       0.12500000000000000        0.0000000000000000     
   1.0625000000000000       0.12500000000000000        0.0000000000000000     
   1.0937500000000000       0.12500000000000000        0.0000000000000000     
   1.1250000000000000       0.12500000000000000        0.0000000000000000     
   1.1250000000000000        0.0000000000000000        0.0000000000000000     
   1.1562500000000000        0.0000000000000000        0.0000000000000000     
   1.1875000000000000        0.0000000000000000        0.0000000000000000     
   1.2187500000000000        0.0000000000000000        0.0000000000000000     
   1.2500000000000000        0.0000000000000000        0.0000000000000000     
   1.1250000000000000        3.1250000000000000E-002   0.0000000000000000     
   1.1562500000000000        3.1250000000000000E-002   0.0000000000000000     
   1.1875000000000000        3.1250000000000000E-002   0.0000000000000000     
   1.2187500000000000        3.1250000000000000E-002   0.0000000000000000     
   1.2500000000000000        3.1250000000000000E-002   0.0000000000000000     
   1.1250000000000000        6.2500000000000000E-002   0.0000000000000000     
   1.1562500000000000        6.2500000000000000E-002   0.0000000000000000     
   1.1875000000000000        6.2500000000000000E-002   0.0000000000000000     
   1.2187500000000000        6.2500000000000000E-002   0.0000000000000000     
   1.2500000000000000        6.2500000000000000E-002   0.0000000000000000     
   1.1250000000000000        9.3750000000000000E-002   0.0000000000000000     
   1.1562500000000000        9.3750000000000000E-002   0.0000000000000000     
   1.1875000000000000        9.3750000000000000E-002   0.0000000000000000     
   1.2187500000000000        9.3750000000000000E-002   0.0000000000000000     
   1.2500000000000000        9.3750000000000000E-002   0.0000000000000000     
   1.1250000000000000       0.12500000000000000        0.0000000000000000     
   1.1562500000000000       0.12500000000000000        0.0000000000000000     
   1.1875000000000000       0.12500000000000000        0.0000000000000000     
   1.2187500000000000       0.12500000000000000        0.0000000000000000     
   1.2500000000000000       0.12500000000000000        0.0000000000000000     
   1.2500000000000000        0.0000000000000000        0.0000000000000000     
   1.2812500000000000        0.0000000000000000        0.0000000000000000     
   1.3125000000000000        0.0000000000000000        0.0000000000000000     
   1.3437500000000000        0.0000000000000000        0.0000000000000000     
   1.3750000000000000        0.0000000000000000        0.0000000000000000     
   1.2500000000000000        3.1250000000000000E-002   0.0000000000000000     
   1.2812500000000000        3.1250000000000000E-002   0.0000000000000000     
   1.3125000000000000        3.1250000000000000E-002   0.0000000000000000     
   1.3437500000000000        3.1250000000000000E-002   0.0000000000000000     
   1.3750000000000000        3.1250000000000000E-002   0.0000000000000000     
   1.2500000000000000        6.2500000000000000E-002   0.0000000000000000     
   1.2812500000000000        6.2500000000000000E-002   0.0000000000000000     
   1.3125000000000000        6.2500000000000000E-002   0.0000000000000000     
   1.3437500000000000        6.2500000000000000E-002   0.0000000000000000     
   1.3750000000000000        6.2500000000000000E-002   0.0000000000000000     
   1.2500000000000000        9.3750000000000000E-002   0.0000000000000000     
   1.2812500000000000        9.3750000000000000E-002   0.0000000000000000     
   1.3125000000000000        9.3750000000000000E-002   0.0000000000000000     
   1.3437500000000000        9.3750000000000000E-002   0.0000000000000000     
   1.3750000000000000        9.3750000000000000E-002   0.0000000000000000     
   1.2500000000000000       0.12500000000000000        0.0000000000000000     
   1.2812500000000000       0.12500000000000000        0.0000000000000000     
   1.3125000000000000       0.12500000000000000        0.0000000000000000     
   1.3437500000000000       0.12500000000000000        0.0000000000000000     
   1.3750000000000000       0.12500000000000000        0.0000000000000000     
   1.3750000000000000        0.0000000000000000        0.0000000000000000     
   1.4062500000000000        0.0000000000000000        0.0000000000000000     
   1.4375000000000000        0.0000000000000000        0.0000000000000000     
   1.4687500000000000        0.0000000000000000        0.0000000000000000     
   1.5000000000000000        0.0000000000000000        0.0000000000000000     
   1.3750000000000000        3.1250000000000000E-002   0.0000000000000000     
   1.4062500000000000        3.1250000000000000E-002   0.0000000000000000     
   1.4375000000000000        3.1250000000000000E-002   0.0000000000000000     
   1.4687500000000000        3.1250000000000000E-002   0.0000000000000000     
   1.5000000000000000        3.1250000000000000E-002   0.0000000000000000     
   1.3750000000000000        6.2500000000000000E-002   0.0000000000000000     
   1.4062500000000000        6.2500000000000000E-002   0.0000000000000000     
   1.4375000000000000        6.2500000000000000E-002   0.0000000000000000     
   1.4687500000000000        6.2500000000000000E-002   0.0000000000000000     
   1.5000000000000000        6.2500000000000000E-002   0.0000000000000000     
   1.3750000000000000        9.3750000000000000E-002   0.0000000000000000     
   1.4062500000000000        9.3750000000000000E-002   0.0000000000000000     
   1.4375000000000000        9.3750000000000000E-002   0.0000000000000000     
   1.4687500000000000        9.3750000000000000E-002   0.0000000000000000     
   1.5000000000000000        9.3750000000000000E-002   0.0000000000000000     
   1.3750000000000000       0.12500000000000000        0.0000000000000000     
   1.4062500000000000       0.12500000000000000        0.0000000000000000     
   1.4375000000000000       0.12500000000000000        0.0000000000000000     
   1.4687500000000000       0.12500000000000000        0.0000000000000000     
   1.5000000000000000       0.12500000000000000        0.0000000000000000     
  0.50000000000000000       0.12500000000000000        0.0000000000000000     
  0.53125000000000000       0.12500000000000000        0.0000000000000000     
  0.56250000000000000       0.12500000000000000        0.0000000000000000     
  0.59375000000000000       0.12500000000000000        0.0000000000000000     
  0.62500000000000000       0.12500000000000000        0.0000000000000000     
  0.50000000000000000       0.15625000000000000        0.0000000000000000     
  0.53125000000000000       0.15625000000000000        0.0000000000000000     
  0.56250000000000000       0.15625000000000000        0.0000000000000000     
  0.59375000000000000       0.15625000000000000        0.0000000000000000     
  0.62500000000000000       0.15625000000000000        0.0000000000000000     
  0.50000000000000000       0.18750000000000000        0.0000000000000000     
  0.53125000000000000       0.18750000000000000        0.0000000000000000     
  0.56250000000000000       0.18750000000000000        0.0000000000000000     
  0.59375000000000000       0.18750000000000000        0.0000000000000000     
  0.62500000000000000       0.18750000000000000        0.0000000000000000     
  0.50000000000000000       0.21875000000000000        0.0000000000000000     
  0.53125000000000000       0.21875000000000000        0.0000000000000000     
  0.56250000000000000       0.21875000000000000        0.0000000000000000     
  0.59375000000000000       0.21875000000000000        0.0000000000000000     
  0.62500000000000000       0.21875000000000000        0.0000000000000000     
  0.50000000000000000       0.25000000000000000        0.0000000000000000     
  0.53125000000000000       0.25000000000000000        0.0000000000000000     
  0.56250000000000000       0.25000000000000000        0.0000000000000000     
  0.59375000000000000       0.25000000000000000        0.0000000000000000     
  0.62500000000000000       0.25000000000000000        0.0000000000000000     
  0.62500000000000000       0.12500000000000000        0.0000000000000000     
  0.65625000000000000       0.12500000000000000        0.0000000000000000     
  0.68750000000000000       0.12500000000000000        0.0000000000000000     
  0.71875000000000000       0.12500000000000000        0.0000000000000000     
  0.75000000000000000       0.12500000000000000        0.0000000000000000     
  0.62500000000000000       0.15625000000000000        0.0000000000000000     
  0.65625000000000000       0.15625000000000000        0.0000000000000000     
  0.68750000000000000       0.15625000000000000        0.0000000000000000     
  0.71875000000000000       0.15625000000000000        0.0000000000000000     
  0.75000000000000000       0.15625000000000000        0.0000000000000000     
  0.62500000000000000       0.18750000000000000        0.0000000000000000     
  0.65625000000000000       0.18750000000000000        0.0000000000000000     
  0.68750000000000000       0.18750000000000000        0.0000000000000000     
  0.71875000000000000       0.18750000000000000        0.0000000000000000     
  0.75000000000000000       0.18750000000000000        0.0000000000000000     
  0.62500000000000000       0.21875000000000000        0.0000000000000000     
  0.65625000000000000       0.21875000000000000        0.0000000000000000     
  0.68750000000000000       0.21875000000000000        0.0000000000000000     
  0.71875000000000000       0.21875000000000000        0.0000000000000000     
  0.75000000000000000       0.21875000000000000        0.0000000000000000     
  0.62500000000000000       0.25000000000000000        0.0000000000000000     
  0.65625000000000000       0.25000000000000000        0.0000000000000000     
  0.68750000000000000       0.25000000000000000        0.0000000000000000     
  0.71875000000000000       0.25000000000000000        0.0000000000000000     
  0.75000000000000000       0.25000000000000000        0.0000000000000000     
  0.75000000000000000       0.12500000000000000        0.0000000000000000     
  0.78125000000000000       0.12500000000000000        0.0000000000000000     
  0.81250000000000000       0.12500000000000000        0.0000000000000000     
  0.84375000000000000       0.12500000000000000        0.0000000000000000     
  0.87500000000000000       0.12500000000000000        0.0000000000000000     
  0.75000000000000000       0.15625000000000000        0.0000000000000000     
  0.78125000000000000       0.15625000000000000        0.0000000000000000     
  0.81250000000000000       0.15625000000000000        0.0000000000000000     
  0.84375000000000000       0.15625000000000000        0.0000000000000000     
  0.87500000000000000       0.15625000000000000        0.0000000000000000     
  0.75000000000000000       0.18750000000000000        0.0000000000000000     
  0.78125000000000000       0.18750000000000000        0.0000000000000000     
  0.81250000000000000       0.18750000000000000        0.0000000000000000     
  0.84375000000000000       0.18750000000000000        0.0000000000000000     
  0.87500000000000000       0.18750000000000000        0.0000000000000000     
  0.75000000000000000       0.21875000000000000        0.0000000000000000     
  0.78125000000000000       0.21875000000000000        0.0000000000000000     
  0.81250000000000000       0.21875000000000000        0.0000000000000000     
  0.84375000000000000       0.21875000000000000        0.0000000000000000     
  0.87500000000000000       0.21875000000000000        0.0000000000000000     
  0.75000000000000000       0.25000000000000000        0.0000000000000000     
  0.78125000000000000       0.25000000000000000        0.0000000000000000     
  0.81250000000000000       0.25000000000000000        0.0000000000000000     
  0.84375000000000000       0.25000000000000000        0.0000000000000000     
  0.87500000000000000       0.25000000000000000        0.0000000000000000     
  0.87500000000000000       0.12500000000000000        0.0000000000000000     
  0.90625000000000000       0.12500000000000000        0.0000000000000000     
  0.93750000000000000       0.12500000000000000        0.0000000000000000     
  0.96875000000000000       0.12500000000000000        0.0000000000000000     
   1.0000000000000000       0.12500000000000000        0.0000000000000000     
  0.87500000000000000       0.15625000000000000        0.0000000000000000     
  0.90625000000000000       0.15625000000000000        0.0000000000000000     
  0.93750000000000000       0.15625000000000000        0.0000000000000000     
  0.96875000000000000       0.15625000000000000        0.0000000000000000     
   1.0000000000000000       0.15625000000000000        0.0000000000000000     
  0.87500000000000000       0.18750000000000000        0.0000000000000000     
  0.90625000000000000       0.18750000000000000        0.0000000000000000     
  0.93750000000000000       0.18750000000000000        0.0000000000000000     
  0.96875000000000000       0.18750000000000000        0.0000000000000000     
   1.0000000000000000       0.18750000000000000        0.0000000000000000     
  0.87500000000000000       0.21875000000000000        0.0000000000000000     
  0.90625000000000000       0.21875000000000000        0.0000000000000000     
  0.93750000000000000       0.21875000000000000        0.0000000000000000     
  0.96875000000000000       0.21875000000000000        0.0000000000000000     
   1.0000000000000000       0.21875000000000000        0.0000000000000000     
  0.87500000000000000       0.25000000000000000        0.0000000000000000     
  0.90625000000000000       0.25000000000000000        0.0000000000000000     
  0.93750000000000000       0.25000000000000000        0.0000000000000000     
  0.96875000000000000       0.25000000000000000        0.0000000000000000     
   1.0000000000000000       0.25000000000000000        0.0000000000000000     
   1.0000000000000000       0.12500000000000000        0.0000000000000000     
   1.0312500000000000       0.12500000000000000        0.0000000000000000     
   1.0625000000000000       0.12500000000000000        0.0000000000000000     
   1.0937500000000000       0.12500000000000000        0.0000000000000000     
   1.1250000000000000       0.12500000000000000        0.0000000000000000     
   1.0000000000000000       0.15625000000000000        0.0000000000000000     
   1.0312500000000000       0.15625000000000000        0.0000000000000000     
   1.0625000000000000       0.15625000000000000        0.0000000000000000     
   1.0937500000000000       0.15625000000000000        0.0000000000000000     
   1.1250000000000000       0.15625000000000000        0.0000000000000000     
   1.0000000000000000       0.18750000000000000        0.0000000000000000     
   1.0312500000000000       0.18750000000000000        0.0000000000000000     
   1.0625000000000000       0.18750000000000000        0.0000000000000000     
   1.0937500000000000       0.18750000000000000        0.0000000000000000     
   1.1250000000000000       0.18750000000000000        0.0000000000000000     
   1.0000000000000000       0.21875000000000000        0.0000000000000000     
   1.0312500000000000       0.21875000000000000        0.0000000000000000     
   1.0625000000000000       0.21875000000000000        0.0000000000000000     
   1.0937500000000000       0.21875000000000000        0.0000000000000000     
   1.1250000000000000       0.21875000000000000        0.0000000000000000     
   1.0000000000000000       0.25000000000000000        0.0000000000000000     
   1.0312500000000000       0.25000000000000000        0.0000000000000000     
   1.0625000000000000       0.25000000000000000        0.0000000000000000     
   1.0937500000000000       0.25000000000000000        0.0000000000000000     
   1.1250000000000000       0.25000000000000000        0.0000000000000000     
   1.1250000000000000       0.12500000000000000        0.0000000000000000     
   1.1562500000000000       0.12500000000000000        0.0000000000000000     
   1.1875000000000000       0.12500000000000000        0.0000000000000000     
   1.2187500000000000       0.12500000000000000        0.0000000000000000     
   1.2500000000000000       0.12500000000000000        0.0000000000000000     
   1.1250000000000000       0.15625000000000000        0.0000000000000000     
   1.1562500000000000       0.15625000000000000        0.0000000000000000     
   1.1875000000000000       0.15625000000000000        0.0000000000000000     
   1.2187500000000000       0.15625000000000000        0.0000000000000000     
   1.2500000000000000       0.15625000000000000        0.0000000000000000     
   1.1250000000000000       0.18750000000000000        0.0000000000000000     
   1.1562500000000000       0.18750000000000000        0.0000000000000000     
   1.1875000000000000       0.18750000000000000        0.0000000000000000     
   1.2187500000000000       0.18750000000000000        0.0000000000000000     
   1.2500000000000000       0.18750000000000000        0.0000000000000000     
   1.1250000000000000       0.21875000000000000        0.0000000000000000     
   1.1562500000000000       0.21875000000000000        0.0000000000000000     
   1.1875000000000000       0.21875000000000000        0.0000000000000000     
   1.2187500000000000       0.21875000000000000        0.0000000000000000     
   1.2500000000000000       0.21875000000000000        0.0000000000000000     
   1.1250000000000000       0.25000000000000000        0.0000000000000000     
   1.1562500000000000       0.25000000000000000        0.0000000000000000     
   1.1875000000000000       0.25000000000000000        0.0000000000000000     
   1.2187500000000000       0.25000000000000000        0.0000000000000000     
   1.2500000000000000       0.25000000000000000        0.0000000000000000     
   1.2500000000000000       0.12500000000000000        0.0000000000000000     
   1.2812500000000000       0.12500000000000000        0.0000000000000000     
   1.3125000000000000       0.12500000000000000        0.0000000000000000     
   1.3437500000000000       0.12500000000000000        0.0000000000000000     
   1.3750000000000000       0.12500000000000000        0.0000000000000000     
   1.2500000000000000       0.15625000000000000        0.0000000000000000     
   1.2812500000000000       0.15625000000000000        0.0000000000000000     
   1.3125000000000000       0.15625000000000000        0.0000000000000000     
   1.3437500000000000       0.15625000000000000        0.0000000000000000     
   1.3750000000000000       0.15625000000000000        0.0000000000000000     
   1.2500000000000000       0.18750000000000000        0.0000000000000000     
   1.2812500000000000       0.18750000000000000        0.0000000000000000     
   1.3125000000000000       0.18750000000000000        0.0000000000000000     
   1.3437500000000000       0.18750000000000000        0.0000000000000000     
   1.3750000000000000       0.18750000000000000        0.0000000000000000     
   1.2500000000000000       0.21875000000000000        0.0000000000000000     
   1.2812500000000000       0.21875000000000000        0.0000000000000000     
   1.3125000000000000       0.21875000000000000        0.0000000000000000     
   1.3437500000000000       0.21875000000000000        0.0000000000000000     
   1.3750000000000000       0.21875000000000000        0.0000000000000000     
   1.2500000000000000       0.25000000000000000        0.0000000000000000     
   1.2812500000000000       0.25000000000000000        0.0000000000000000     
   1.3125000000000000       0.25000000000000000        0.0000000000000000     
   1.3437500000000000       0.25000000000000000        0.0000000000000000     
   1.3750000000000000       0.25000000000000000        0.0000000000000000     
   1.3750000000000000       0.12500000000000000        0.0000000000000000     
   1.4062500000000000       0.12500000000000000        0.0000000000000000     
   1.4375000000000000       0.12500000000000000        0.0000000000000000     
   1.4687500000000000       0.12500000000000000        0.0000000000000000     
   1.5000000000000000       0.12500000000000000        0.0000000000000000     
   1.3750000000000000       0.15625000000000000        0.0000000000000000     
   1.4062500000000000       0.15625000000000000        0.0000000000000000     
   1.4375000000000000       0.15625000000000000        0.0000000000000000     
   1.4687500000000000       0.15625000000000000        0.0000000000000000     
   1.5000000000000000       0.15625000000000000        0.0000000000000000     
   1.3750000000000000       0.18750000000000000        0.0000000000000000     
   1.4062500000000000       0.18750000000000000        0.0000000000000000     
   1.4375000000000000       0.18750000000000000        0.0000000000000000     
   1.4687500000000000       0.18750000000000000        0.0000000000000000     
   1.5000000000000000       0.18750000000000000        0.0000000000000000     
   1.3750000000000000       0.21875000000000000        0.0000000000000000     
   1.4062500000000000       0.21875000000000000        0.0000000000000000     
   1.4375000000000000       0.21875000000000000        0.0000000000000000     
   1.4687500000000000       0.21875000000000000        0.0000000000000000     
   1.5000000000000000       0.21875000000000000        0.0000000000000000     
   1.3750000000000000       0.25000000000000000        0.0000000000000000     
   1.4062500000000000       0.25000000000000000        0.0000000000000000     
   1.4375000000000000       0.25000000000000000        0.0000000000000000     
   1.4687500000000000       0.25000000000000000        0.0000000000000000     
   1.5000000000000000       0.25000000000000000        0.0000000000000000     
  0.50000000000000000       0.25000000000000000        0.0000000000000000     
  0.53125000000000000       0.25000000000000000        0.0000000000000000     
  0.56250000000000000       0.25000000000000000        0.0000000000000000     
  0.59375000000000000       0.25000000000000000        0.0000000000000000     
  0.62500000000000000       0.25000000000000000        0.0000000000000000     
  0.50000000000000000       0.28125000000000000        0.0000000000000000     
  0.53125000000000000       0.28125000000000000        0.0000000000000000     
  0.56250000000000000       0.28125000000000000        0.0000000000000000     
  0.59375000000000000       0.28125000000000000        0.0000000000000000     
  0.62500000000000000       0.28125000000000000        0.0000000000000000     
  0.50000000000000000       0.31250000000000000        0.0000000000000000     
  0.53125000000000000       0.31250000000000000        0.0000000000000000     
  0.56250000000000000       0.31250000000000000        0.0000000000000000     
  0.59375000000000000       0.31250000000000000        0.0000000000000000     
  0.62500000000000000       0.31250000000000000        0.0000000000000000     
  0.50000000000000000       0.34375000000000000        0.0000000000000000     
  0.53125000000000000       0.34375000000000000        0.0000000000000000     
  0.56250000000000000       0.34375000000000000        0.0000000000000000     
  0.59375000000000000       0.34375000000000000        0.0000000000000000     
  0.62500000000000000       0.34375000000000000        0.0000000000000000     
  0.50000000000000000       0.37500000000000000        0.0000000000000000     
  0.53125000000000000       0.37500000000000000        0.0000000000000000     
  0.56250000000000000       0.37500000000000000        0.0000000000000000     
  0.59375000000000000       0.37500000000000000        0.0000000000000000     
  0.62500000000000000       0.37500000000000000        0.0000000000000000     
  0.62500000000000000       0.25000000000000000        0.0000000000000000     
  0.65625000000000000       0.25000000000000000        0.0000000000000000     
  0.68750000000000000       0.25000000000000000        0.0000000000000000     
  0.71875000000000000       0.25000000000000000        0.0000000000000000     
  0.75000000000000000       0.25000000000000000        0.0000000000000000     
  0.62500000000000000       0.28125000000000000        0.0000000000000000     
  0.65625000000000000       0.28125000000000000        0.0000000000000000     
  0.68750000000000000       0.28125000000000000        0.0000000000000000     
  0.71875000000000000       0.28125000000000000        0.0000000000000000     
  0.75000000000000000       0.28125000000000000        0.0000000000000000     
  0.62500000000000000       0.31250000000000000        0.0000000000000000     
  0.65625000000000000       0.31250000000000000        0.0000000000000000     
  0.68750000000000000       0.31250000000000000        0.0000000000000000     
  0.71875000000000000       0.31250000000000000        0.0000000000000000     
  0.75000000000000000       0.31250000000000000        0.0000000000000000     
  0.62500000000000000       0.34375000000000000        0.0000000000000000     
  0.65625000000000000       0.34375000000000000        0.0000000000000000     
  0.68750000000000000       0.34375000000000000        0.0000000000000000     
  0.71875000000000000       0.34375000000000000        0.0000000000000000     
  0.75000000000000000       0.34375000000000000        0.0000000000000000     
  0.62500000000000000       0.37500000000000000        0.0000000000000000     
  0.65625000000000000       0.37500000000000000        0.0000000000000000     
  0.68750000000000000       0.37500000000000000        0.0000000000000000     
  0.71875000000000000       0.37500000000000000        0.0000000000000000     
  0.75000000000000000       0.37500000000000000        0.0000000000000000     
  0.75000000000000000       0.25000000000000000        0.0000000000000000     
  0.78125000000000000       0.25000000000000000        0.0000000000000000     
  0.81250000000000000       0.25000000000000000        0.0000000000000000     
  0.84375000000000000       0.25000000000000000        0.0000000000000000     
  0.87500000000000000       0.25000000000000000        0.0000000000000000     
  0.75000000000000000       0.28125000000000000        0.0000000000000000     
  0.78125000000000000       0.28125000000000000        0.0000000000000000     
  0.81250000000000000       0.28125000000000000        0.0000000000000000     
  0.84375000000000000       0.28125000000000000        0.0000000000000000     
  0.87500000000000000       0.28125000000000000        0.0000000000000000     
  0.75000000000000000       0.31250000000000000        0.0000000000000000     
  0.78125000000000000       0.31250000000000000        0.0000000000000000     
  0.81250000000000000       0.31250000000000000        0.0000000000000000     
  0.84375000000000000       0.31250000000000000        0.0000000000000000     
  0.87500000000000000       0.31250000000000000        0.0000000000000000     
  0.75000000000000000       0.34375000000000000        0.0000000000000000     
  0.78125000000000000       0.34375000000000000        0.0000000000000000     
  0.81250000000000000       0.34375000000000000        0.0000000000000000     
  0.84375000000000000       0.34375000000000000        0.0000000000000000     
  0.87500000000000000       0.34375000000000000        0.0000000000000000     
  0.75000000000000000       0.37500000000000000        0.0000000000000000     
  0.78125000000000000       0.37500000000000000        0.0000000000000000     
  0.81250000000000000       0.37500000000000000        0.0000000000000000     
  0.84375000000000000       0.37500000000000000        0.0000000000000000     
  0.87500000000000000       0.37500000000000000        0.0000000000000000     
  0.87500000000000000       0.25000000000000000        0.0000000000000000     
  0.90625000000000000       0.25000000000000000        0.0000000000000000     
  0.93750000000000000       0.25000000000000000        0.0000000000000000     
  0.96875000000000000       0.25000000000000000        0.0000000000000000     
   1.0000000000000000       0.25000000000000000        0.0000000000000000     
  0.87500000000000000       0.28125000000000000        0.0000000000000000     
  0.90625000000000000       0.28125000000000000        0.0000000000000000     
  0.93750000000000000       0.28125000000000000        0.0000000000000000     
  0.96875000000000000       0.28125000000000000        0.0000000000000000     
   1.0000000000000000       0.28125000000000000        0.0000000000000000     
  0.87500000000000000       0.31250000000000000        0.0000000000000000     
  0.90625000000000000       0.31250000000000000        0.0000000000000000     
  0.93750000000000000       0.31250000000000000        0.0000000000000000     
  0.96875000000000000       0.31250000000000000        0.0000000000000000     
   1.0000000000000000       0.31250000000000000        0.0000000000000000     
  0.87500000000000000       0.34375000000000000        0.0000000000000000     
  0.90625000000000000       0.34375000000000000        0.0000000000000000     
  0.93750000000000000       0.34375000000000000        0.0000000000000000     
  0.96875000000000000       0.34375000000000000        0.0000000000000000     
   1.0000000000000000       0.34375000000000000        0.0000000000000000     
  0.87500000000000000       0.37500000000000000        0.0000000000000000     
  0.90625000000000000       0.37500000000000000        0.0000000000000000     
  0.93750000000000000       0.37500000000000000        0.0000000000000000     
  0.96875000000000000       0.37500000000000000        0.0000000000000000     
   1.0000000000000000       0.37500000000000000        0.0000000000000000     
   1.0000000000000000       0.25000000000000000        0.0000000000000000     
   1.0312500000000000       0.25000000000000000        0.0000000000000000     
   1.0625000000000000       0.25000000000000000        0.0000000000000000     
   1.0937500000000000       0.25000000000000000        0.0000000000000000     
   1.1250000000000000       0.25000000000000000        0.0000000000000000     
   1.0000000000000000       0.28125000000000000        0.0000000000000000     
   1.0312500000000000       0.28125000000000000        0.0000000000000000     
   1.0625000000000000       0.28125000000000000        0.0000000000000000     
   1.0937500000000000       0.28125000000000000        0.0000000000000000     
   1.1250000000000000       0.28125000000000000        0.0000000000000000     
   1.0000000000000000       0.31250000000000000        0.0000000000000000     
   1.0312500000000000       0.31250000000000000        0.0000000000000000     
   1.0625000000000000       0.31250000000000000        0.0000000000000000     
   1.0937500000000000       0.31250000000000000        0.0000000000000000     
   1.1250000000000000       0.31250000000000000        0.0000000000000000     
   1.0000000000000000       0.34375000000000000        0.0000000000000000     
   1.0312500000000000       0.34375000000000000        0.0000000000000000     
   1.0625000000000000       0.34375000000000000        0.0000000000000000     
   1.0937500000000000       0.34375000000000000        0.0000000000000000     
   1.1250000000000000       0.34375000000000000        0.0000000000000000     
   1.0000000000000000       0.37500000000000000        0.0000000000000000     
   1.0312500000000000       0.37500000000000000        0.0000000000000000     
   1.0625000000000000       0.37500000000000000        0.0000000000000000     
   1.0937500000000000       0.37500000000000000        0.0000000000000000     
   1.1250000000000000       0.37500000000000000        0.0000000000000000     
   1.1250000000000000       0.25000000000000000        0.0000000000000000     
   1.1562500000000000       0.25000000000000000        0.0000000000000000     
   1.1875000000000000       0.25000000000000000        0.0000000000000000     
   1.2187500000000000       0.25000000000000000        0.0000000000000000     
   1.2500000000000000       0.25000000000000000        0.0000000000000000     
   1.1250000000000000       0.28125000000000000        0.0000000000000000     
   1.1562500000000000       0.28125000000000000        0.0000000000000000     
   1.1875000000000000       0.28125000000000000        0.0000000000000000     
   1.2187500000000000       0.28125000000000000        0.0000000000000000     
   1.2500000000000000       0.28125000000000000        0.0000000000000000     
   1.1250000000000000       0.31250000000000000        0.0000000000000000     
   1.1562500000000000       0.31250000000000000        0.0000000000000000     
   1.1875000000000000       0.31250000000000000        0.0000000000000000     
   1.2187500000000000       0.31250000000000000        0.0000000000000000     
   1.2500000000000000       0.31250000000000000        0.0000000000000000     
   1.1250000000000000       0.34375000000000000        0.0000000000000000     
   1.1562500000000000       0.34375000000000000        0.0000000000000000     
   1.1875000000000000       0.34375000000000000        0.0000000000000000     
   1.2187500000000000       0.34375000000000000        0.0000000000000000     
   1.2500000000000000       0.34375000000000000        0.0000000000000000     
   1.1250000000000000       0.37500000000000000        0.0000000000000000     
   1.1562500000000000       0.37500000000000000        0.0000000000000000     
   1.1875000000000000       0.37500000000000000        0.0000000000000000     
   1.2187500000000000       0.37500000000000000        0.0000000000000000     
   1.2500000000000000       0.37500000000000000        0.0000000000000000     
   1.2500000000000000       0.25000000000000000        0.0000000000000000     
   1.2812500000000000       0.25000000000000000        0.0000000000000000     
   1.3125000000000000       0.25000000000000000        0.0000000000000000     
   1.3437500000000000       0.25000000000000000        0.0000000000000000     
   1.3750000000000000       0.25000000000000000        0.0000000000000000     
   1.2500000000000000       0.28125000000000000        0.0000000000000000     
   1.2812500000000000       0.28125000000000000        0.0000000000000000     
   1.3125000000000000       0.28125000000000000        0.0000000000000000     
   1.3437500000000000       0.28125000000000000        0.0000000000000000     
   1.3750000000000000       0.28125000000000000        0.0000000000000000     
   1.2500000000000000       0.31250000000000000        0.0000000000000000     
   1.2812500000000000       0.31250000000000000        0.0000000000000000     
   1.3125000000000000       0.31250000000000000        0.0000000000000000     
   1.3437500000000000       0.31250000000000000        0.0000000000000000     
   1.3750000000000000       0.31250000000000000        0.0000000000000000     
   1.2500000000000000       0.34375000000000000        0.0000000000000000     
   1.2812500000000000       0.34375000000000000        0.0000000000000000     
   1.3125000000000000       0.34375000000000000        0.0000000000000000     
   1.3437500000000000       0.34375000000000000        0.0000000000000000     
   1.3750000000000000       0.34375000000000000        0.0000000000000000     
   1.2500000000000000       0.37500000000000000        0.0000000000000000     
   1.2812500000000000       0.37500000000000000        0.0000000000000000     
   1.3125000000000000       0.37500000000000000        0.0000000000000000     
   1.3437500000000000       0.37500000000000000        0.0000000000000000     
   1.3750000000000000       0.37500000000000000        0.0000000000000000     
   1.3750000000000000       0.25000000000000000        0.0000000000000000     
   1.4062500000000000       0.25000000000000000        0.0000000000000000     
   1.4375000000000000       0.25000000000000000        0.0000000000000000     
   1.4687500000000000       0.25000000000000000        0.0000000000000000     
   1.5000000000000000       0.25000000000000000        0.0000000000000000     
   1.3750000000000000       0.28125000000000000        0.0000000000000000     
   1.4062500000000000       0.28125000000000000        0.0000000000000000     
   1.4375000000000000       0.28125000000000000        0.0000000000000000     
   1.4687500000000000       0.28125000000000000        0.0000000000000000     
   1.5000000000000000       0.28125000000000000        0.0000000000000000     
   1.3750000000000000       0.31250000000000000        0.0000000000000000     
   1.4062500000000000       0.31250000000000000        0.0000000000000000     
   1.4375000000000000       0.31250000000000000        0.0000000000000000     
   1.4687500000000000       0.31250000000000000        0.0000000000000000     
   1.5000000000000000       0.31250000000000000        0.0000000000000000     
   1.3750000000000000       0.34375000000000000        0.0000000000000000     
   1.4062500000000000       0.34375000000000000        0.0000000000000000     
   1.4375000000000000       0.34375000000000000        0.0000000000000000     
   1.4687500000000000       0.34375000000000000        0.0000000000000000     
   1.5000000000000000       0.34375000000000000        0.0000000000000000     
   1.3750000000000000       0.37500000000000000        0.0000000000000000     
   1.4062500000000000       0.37500000000000000        0.0000000000000000     
   1.4375000000000000       0.37500000000000000        0.0000000000000000     
   1.4687500000000000       0.37500000000000000        0.0000000000000000     
   1.5000000000000000       0.37500000000000000        0.0000000000000000     
  0.50000000000000000       0.37500000000000000        0.0000000000000000     
  0.53125000000000000       0.37500000000000000        0.0000000000000000     
  0.56250000000000000       0.37500000000000000        0.0000000000000000     
  0.59375000000000000       0.37500000000000000        0.0000000000000000     
  0.62500000000000000       0.37500000000000000        0.0000000000000000     
  0.50000000000000000       0.40625000000000000        0.0000000000000000     
  0.53125000000000000       0.40625000000000000        0.0000000000000000     
  0.56250000000000000       0.40625000000000000        0.0000000000000000     
  0.59375000000000000       0.40625000000000000        0.0000000000000000     
  0.62500000000000000       0.40625000000000000        0.0000000000000000     
  0.50000000000000000       0.43750000000000000        0.0000000000000000     
  0.53125000000000000       0.43750000000000000        0.0000000000000000     
  0.56250000000000000       0.43750000000000000        0.0000000000000000     
  0.59375000000000000       0.43750000000000000        0.0000000000000000     
  0.62500000000000000       0.43750000000000000        0.0000000000000000     
  0.50000000000000000       0.46875000000000000        0.0000000000000000     
  0.53125000000000000       0.46875000000000000        0.0000000000000000     
  0.56250000000000000       0.46875000000000000        0.0000000000000000     
  0.59375000000000000       0.46875000000000000        0.0000000000000000     
  0.62500000000000000       0.46875000000000000        0.0000000000000000     
  0.50000000000000000       0.50000000000000000        0.0000000000000000     
  0.53125000000000000       0.50000000000000000        0.0000000000000000     
  0.56250000000000000       0.50000000000000000        0.0000000000000000     
  0.59375000000000000       0.50000000000000000        0.0000000000000000     
  0.62500000000000000       0.50000000000000000        0.0000000000000000     
  0.62500000000000000       0.37500000000000000        0.0000000000000000     
  0.65625000000000000       0.37500000000000000        0.0000000000000000     
  0.68750000000000000       0.37500000000000000        0.0000000000000000     
  0.71875000000000000       0.37500000000000000        0.0000000000000000     
  0.75000000000000000       0.37500000000000000        0.0000000000000000     
  0.62500000000000000       0.40625000000000000        0.0000000000000000     
  0.65625000000000000       0.40625000000000000        0.0000000000000000     
  0.68750000000000000       0.40625000000000000        0.0000000000000000     
  0.71875000000000000       0.40625000000000000        0.0000000000000000     
  0.75000000000000000       0.40625000000000000        0.0000000000000000     
  0.62500000000000000       0.43750000000000000        0.0000000000000000     
  0.65625000000000000       0.43750000000000000        0.0000000000000000     
  0.68750000000000000       0.43750000000000000        0.0000000000000000     
  0.71875000000000000       0.43750000000000000        0.0000000000000000     
  0.75000000000000000       0.43750000000000000        0.0000000000000000     
  0.62500000000000000       0.46875000000000000        0.0000000000000000     
  0.65625000000000000       0.46875000000000000        0.0000000000000000     
  0.68750000000000000       0.46875000000000000        0.0000000000000000     
  0.71875000000000000       0.46875000000000000        0.0000000000000000     
  0.75000000000000000       0.46875000000000000        0.0000000000000000     
  0.62500000000000000       0.50000000000000000        0.0000000000000000     
  0.65625000000000000       0.50000000000000000        0.0000000000000000     
  0.68750000000000000       0.50000000000000000        0.0000000000000000     
  0.71875000000000000       0.50000000000000000        0.0000000000000000     
  0.75000000000000000       0.50000000000000000        0.0000000000000000     
  0.75000000000000000       0.37500000000000000        0.0000000000000000     
  0.78125000000000000       0.37500000000000000        0.0000000000000000     
  0.81250000000000000       0.37500000000000000        0.0000000000000000     
  0.84375000000000000       0.37500000000000000        0.0000000000000000     
  0.87500000000000000       0.37500000000000000        0.0000000000000000     
  0.75000000000000000       0.40625000000000000        0.0000000000000000     
  0.78125000000000000       0.40625000000000000        0.0000000000000000     
  0.81250000000000000       0.40625000000000000        0.0000000000000000     
  0.84375000000000000       0.40625000000000000        0.0000000000000000     
  0.87500000000000000       0.40625000000000000        0.0000000000000000     
  0.75000000000000000       0.43750000000000000        0.0000000000000000     
  0.78125000000000000       0.43750000000000000        0.0000000000000000     
  0.81250000000000000       0.43750000000000000        0.0000000000000000     
  0.84375000000000000       0.43750000000000000        0.0000000000000000     
  0.87500000000000000       0.43750000000000000        0.0000000000000000     
  0.75000000000000000       0.46875000000000000        0.0000000000000000     
  0.78125000000000000       0.46875000000000000        0.0000000000000000     
  0.81250000000000000       0.46875000000000000        0.0000000000000000     
  0.84375000000000000       0.46875000000000000        0.0000000000000000     
  0.87500000000000000       0.46875000000000000        0.0000000000000000     
  0.75000000000000000       0.50000000000000000        0.0000000000000000     
  0.78125000000000000       0.50000000000000000        0.0000000000000000     
  0.81250000000000000       0.50000000000000000        0.0000000000000000     
  0.84375000000000000       0.50000000000000000        0.0000000000000000     
  0.87500000000000000       0.50000000000000000        0.0000000000000000     
  0.87500000000000000       0.37500000000000000        0.0000000000000000     
  0.90625000000000000       0.37500000000000000        0.0000000000000000     
  0.93750000000000000       0.37500000000000000        0.0000000000000000     
  0.96875000000000000       0.37500000000000000        0.0000000000000000     
   1.0000000000000000       0.37500000000000000        0.0000000000000000     
  0.87500000000000000       0.40625000000000000        0.0000000000000000     
  0.90625000000000000       0.40625000000000000        0.0000000000000000     
  0.93750000000000000       0.40625000000000000        0.0000000000000000     
  0.96875000000000000       0.40625000000000000        0.0000000000000000     
   1.0000000000000000       0.40625000000000000        0.0000000000000000     
  0.87500000000000000       0.43750000000000000        0.0000000000000000     
  0.90625000000000000       0.43750000000000000        0.0000000000000000     
  0.93750000000000000       0.43750000000000000        0.0000000000000000     
  0.96875000000000000       0.43750000000000000        0.0000000000000000     
   1.0000000000000000       0.43750000000000000        0.0000000000000000     
  0.87500000000000000       0.46875000000000000        0.0000000000000000     
  0.90625000000000000       0.46875000000000000        0.0000000000000000     
  0.93750000000000000       0.46875000000000000        0.0000000000000000     
  0.96875000000000000       0.46875000000000000        0.0000000000000000     
   1.0000000000000000       0.46875000000000000        0.0000000000000000     
  0.87500000000000000       0.50000000000000000        0.0000000000000000     
  0.90625000000000000       0.50000000000000000        0.0000000000000000     
  0.93750000000000000       0.50000000000000000        0.0000000000000000     
  0.96875000000000000       0.50000000000000000        0.0000000000000000     
   1.0000000000000000       0.50000000000000000        0.0000000000000000     
   1.0000000000000000       0.37500000000000000        0.0000000000000000     
   1.0312500000000000       0.37500000000000000        0.0000000000000000     
   1.0625000000000000       0.37500000000000000        0.0000000000000000     
   1.0937500000000000       0.37500000000000000        0.0000000000000000     
   1.1250000000000000       0.37500000000000000        0.0000000000000000     
   1.0000000000000000       0.40625000000000000        0.0000000000000000     
   1.0312500000000000       0.40625000000000000        0.0000000000000000     
   1.0625000000000000       0.40625000000000000        0.0000000000000000     
   1.0937500000000000       0.40625000000000000        0.0000000000000000     
   1.1250000000000000       0.40625000000000000        0.0000000000000000     
   1.0000000000000000       0.43750000000000000        0.0000000000000000     
   1.0312500000000000       0.43750000000000000        0.0000000000000000     
   1.0625000000000000       0.43750000000000000        0.0000000000000000     
   1.0937500000000000       0.43750000000000000        0.0000000000000000     
   1.1250000000000000       0.43750000000000000        0.0000000000000000     
   1.0000000000000000       0.46875000000000000        0.0000000000000000     
   1.0312500000000000       0.46875000000000000        0.0000000000000000     
   1.0625000000000000       0.46875000000000000        0.0000000000000000     
   1.0937500000000000       0.46875000000000000        0.0000000000000000     
   1.1250000000000000       0.46875000000000000        0.0000000000000000     
   1.0000000000000000       0.50000000000000000        0.0000000000000000     
   1.0312500000000000       0.50000000000000000        0.0000000000000000     
   1.0625000000000000       0.50000000000000000        0.0000000000000000     
   1.0937500000000000       0.50000000000000000        0.0000000000000000     
   1.1250000000000000       0.50000000000000000        0.0000000000000000     
   1.1250000000000000       0.37500000000000000        0.0000000000000000     
   1.1562500000000000       0.37500000000000000        0.0000000000000000     
   1.1875000000000000       0.37500000000000000        0.0000000000000000     
   1.2187500000000000       0.37500000000000000        0.0000000000000000     
   1.2500000000000000       0.37500000000000000        0.0000000000000000     
   1.1250000000000000       0.40625000000000000        0.0000000000000000     
   1.1562500000000000       0.40625000000000000        0.0000000000000000     
   1.1875000000000000       0.40625000000000000        0.0000000000000000     
   1.2187500000000000       0.40625000000000000        0.0000000000000000     
   1.2500000000000000       0.40625000000000000        0.0000000000000000     
   1.1250000000000000       0.43750000000000000        0.0000000000000000     
   1.1562500000000000       0.43750000000000000        0.0000000000000000     
   1.1875000000000000       0.43750000000000000        0.0000000000000000     
   1.2187500000000000       0.43750000000000000        0.0000000000000000     
   1.2500000000000000       0.43750000000000000        0.0000000000000000     
   1.1250000000000000       0.46875000000000000        0.0000000000000000     
   1.1562500000000000       0.46875000000000000        0.0000000000000000     
   1.1875000000000000       0.46875000000000000        0.0000000000000000     
   1.2187500000000000       0.46875000000000000        0.0000000000000000     
   1.2500000000000000       0.46875000000000000        0.0000000000000000     
   1.1250000000000000       0.50000000000000000        0.0000000000000000     
   1.1562500000000000       0.50000000000000000        0.0000000000000000     
   1.1875000000000000       0.50000000000000000        0.0000000000000000     
   1.2187500000000000       0.50000000000000000        0.0000000000000000     
   1.2500000000000000       0.50000000000000000        0.0000000000000000     
   1.2500000000000000       0.37500000000000000        0.0000000000000000     
   1.2812500000000000       0.37500000000000000        0.0000000000000000     
   1.3125000000000000       0.37500000000000000        0.0000000000000000     
   1.3437500000000000       0.37500000000000000        0.0000000000000000     
   1.3750000000000000       0.37500000000000000        0.0000000000000000     
   1.2500000000000000       0.40625000000000000        0.0000000000000000     
   1.2812500000000000       0.40625000000000000        0.0000000000000000     
   1.3125000000000000       0.40625000000000000        0.0000000000000000     
   1.3437500000000000       0.40625000000000000        0.0000000000000000     
   1.3750000000000000       0.40625000000000000        0.0000000000000000     
   1.2500000000000000       0.43750000000000000        0.0000000000000000     
   1.2812500000000000       0.43750000000000000        0.0000000000000000     
   1.3125000000000000       0.43750000000000000        0.0000000000000000     
   1.3437500000000000       0.43750000000000000        0.0000000000000000     
   1.3750000000000000       0.43750000000000000        0.0000000000000000     
   1.2500000000000000       0.46875000000000000        0.0000000000000000     
   1.2812500000000000       0.46875000000000000        0.0000000000000000     
   1.3125000000000000       0.46875000000000000        0.0000000000000000     
   1.3437500000000000       0.46875000000000000        0.0000000000000000     
   1.3750000000000000       0.46875000000000000        0.0000000000000000     
   1.2500000000000000       0.50000000000000000        0.0000000000000000     
   1.2812500000000000       0.50000000000000000        0.0000000000000000     
   1.3125000000000000       0.50000000000000000        0.0000000000000000     
   1.3437500000000000       0.50000000000000000        0.0000000000000000     
   1.3750000000000000       0.50000000000000000        0.0000000000000000     
   1.3750000000000000       0.37500000000000000        0.0000000000000000     
   1.4062500000000000       0.37500000000000000        0.0000000000000000     
   1.4375000000000000       0.37500000000000000        0.0000000000000000     
   1.4687500000000000       0.37500000000000000        0.0000000000000000     
   1.5000000000000000       0.37500000000000000        0.0000000000000000     
   1.3750000000000000       0.40625000000000000        0.0000000000000000     
   1.4062500000000000       0.40625000000000000        0.0000000000000000     
   1.4375000000000000       0.40625000000000000        0.0000000000000000     
   1.4687500000000000       0.40625000000000000        0.0000000000000000     
   1.5000000000000000       0.40625000000000000        0.0000000000000000     
   1.3750000000000000       0.43750000000000000        0.0000000000000000     
   1.4062500000000000       0.43750000000000000        0.0000000000000000     
   1.4375000000000000       0.43750000000000000        0.0000000000000000     
   1.4687500000000000       0.43750000000000000        0.0000000000000000     
   1.5000000000000000       0.43750000000000000        0.0000000000000000     
   1.3750000000000000       0.46875000000000000        0.0000000000000000     
   1.4062500000000000       0.46875000000000000        0.0000000000000000     
   1.4375000000000000       0.46875000000000000        0.0000000000000000     
   1.4687500000000000       0.46875000000000000        0.0000000000000000     
   1.5000000000000000       0.46875000000000000        0.0000000000000000     
   1.3750000000000000       0.50000000000000000        0.0000000000000000     
   1.4062500000000000       0.50000000000000000        0.0000000000000000     
   1.4375000000000000       0.50000000000000000        0.0000000000000000     
   1.4687500000000000       0.50000000000000000        0.0000000000000000     
   1.5000000000000000       0.50000000000000000        0.0000000000000000     
  0.50000000000000000       0.50000000000000000        0.0000000000000000     
  0.53125000000000000       0.50000000000000000        0.0000000000000000     
  0.56250000000000000       0.50000000000000000        0.0000000000000000     
  0.59375000000000000       0.50000000000000000        0.0000000000000000     
  0.62500000000000000       0.50000000000000000        0.0000000000000000     
  0.50000000000000000       0.53125000000000000        0.0000000000000000     
  0.53125000000000000       0.53125000000000000        0.0000000000000000     
  0.56250000000000000       0.53125000000000000        0.0000000000000000     
  0.59375000000000000       0.53125000000000000        0.0000000000000000     
  0.62500000000000000       0.53125000000000000        0.0000000000000000     
  0.50000000000000000       0.56250000000000000        0.0000000000000000     
  0.53125000000000000       0.56250000000000000        0.0000000000000000     
  0.56250000000000000       0.56250000000000000        0.0000000000000000     
  0.59375000000000000       0.56250000000000000        0.0000000000000000     
  0.62500000000000000       0.56250000000000000        0.0000000000000000     
  0.50000000000000000       0.59375000000000000        0.0000000000000000     
  0.53125000000000000       0.59375000000000000        0.0000000000000000     
  0.56250000000000000       0.59375000000000000        0.0000000000000000     
  0.59375000000000000       0.59375000000000000        0.0000000000000000     
  0.62500000000000000       0.59375000000000000        0.0000000000000000     
  0.50000000000000000       0.62500000000000000        0.0000000000000000     
  0.53125000000000000       0.62500000000000000        0.0000000000000000     
  0.56250000000000000       0.62500000000000000        0.0000000000000000     
  0.59375000000000000       0.62500000000000000        0.0000000000000000     
  0.62500000000000000       0.62500000000000000        0.0000000000000000     
  0.62500000000000000       0.50000000000000000        0.0000000000000000     
  0.65625000000000000       0.50000000000000000        0.0000000000000000     
  0.68750000000000000       0.50000000000000000        0.0000000000000000     
  0.71875000000000000       0.50000000000000000        0.0000000000000000     
  0.75000000000000000       0.50000000000000000        0.0000000000000000     
  0.62500000000000000       0.53125000000000000        0.0000000000000000     
  0.65625000000000000       0.53125000000000000        0.0000000000000000     
  0.68750000000000000       0.53125000000000000        0.0000000000000000     
  0.71875000000000000       0.53125000000000000        0.0000000000000000     
  0.75000000000000000       0.53125000000000000        0.0000000000000000     
  0.62500000000000000       0.56250000000000000        0.0000000000000000     
  0.65625000000000000       0.56250000000000000        0.0000000000000000     
  0.68750000000000000       0.56250000000000000        0.0000000000000000     
  0.71875000000000000       0.56250000000000000        0.0000000000000000     
  0.75000000000000000       0.56250000000000000        0.0000000000000000     
  0.62500000000000000       0.59375000000000000        0.0000000000000000     
  0.65625000000000000       0.59375000000000000        0.0000000000000000     
  0.68750000000000000       0.59375000000000000        0.0000000000000000     
  0.71875000000000000       0.59375000000000000        0.0000000000000000     
  0.75000000000000000       0.59375000000000000        0.0000000000000000     
  0.62500000000000000       0.62500000000000000        0.0000000000000000     
  0.65625000000000000       0.62500000000000000        0.0000000000000000     
  0.68750000000000000       0.62500000000000000        0.0000000000000000     
  0.71875000000000000       0.62500000000000000        0.0000000000000000     
  0.75000000000000000       0.62500000000000000        0.0000000000000000     
  0.75000000000000000       0.50000000000000000        0.0000000000000000     
  0.78125000000000000       0.50000000000000000        0.0000000000000000     
  0.81250000000000000       0.50000000000000000        0.0000000000000000     
  0.84375000000000000       0.50000000000000000        0.0000000000000000     
  0.87500000000000000       0.50000000000000000        0.0000000000000000     
  0.75000000000000000       0.53125000000000000        0.0000000000000000     
  0.78125000000000000       0.53125000000000000        0.0000000000000000     
  0.81250000000000000       0.53125000000000000        0.0000000000000000     
  0.84375000000000000       0.53125000000000000        0.0000000000000000     
  0.87500000000000000       0.53125000000000000        0.0000000000000000     
  0.75000000000000000       0.56250000000000000        0.0000000000000000     
  0.78125000000000000       0.56250000000000000        0.0000000000000000     
  0.81250000000000000       0.56250000000000000        0.0000000000000000     
  0.84375000000000000       0.56250000000000000        0.0000000000000000     
  0.87500000000000000       0.56250000000000000        0.0000000000000000     
  0.75000000000000000       0.59375000000000000        0.0000000000000000     
  0.78125000000000000       0.59375000000000000        0.0000000000000000     
  0.81250000000000000       0.59375000000000000        0.0000000000000000     
  0.84375000000000000       0.59375000000000000        0.0000000000000000     
  0.87500000000000000       0.59375000000000000        0.0000000000000000     
  0.75000000000000000       0.62500000000000000        0.0000000000000000     
  0.78125000000000000       0.62500000000000000        0.0000000000000000     
  0.81250000000000000       0.62500000000000000        0.0000000000000000     
  0.84375000000000000       0.62500000000000000        0.0000000000000000     
  0.87500000000000000       0.62500000000000000        0.0000000000000000     
  0.87500000000000000       0.50000000000000000        0.0000000000000000     
  0.90625000000000000       0.50000000000000000        0.0000000000000000     
  0.93750000000000000       0.50000000000000000        0.0000000000000000     
  0.96875000000000000       0.50000000000000000        0.0000000000000000     
   1.0000000000000000       0.50000000000000000        0.0000000000000000     
  0.87500000000000000       0.53125000000000000        0.0000000000000000     
  0.90625000000000000       0.53125000000000000        0.0000000000000000     
  0.93750000000000000       0.53125000000000000        0.0000000000000000     
  0.96875000000000000       0.53125000000000000        0.0000000000000000     
   1.0000000000000000       0.53125000000000000        0.0000000000000000     
  0.87500000000000000       0.56250000000000000        0.0000000000000000     
  0.90625000000000000       0.56250000000000000        0.0000000000000000     
  0.93750000000000000       0.56250000000000000        0.0000000000000000     
  0.96875000000000000       0.56250000000000000        0.0000000000000000     
   1.0000000000000000       0.56250000000000000        0.0000000000000000     
  0.87500000000000000       0.59375000000000000        0.0000000000000000     
  0.90625000000000000       0.59375000000000000        0.0000000000000000     
  0.93750000000000000       0.59375000000000000        0.0000000000000000     
  0.96875000000000000       0.59375000000000000        0.0000000000000000     
   1.0000000000000000       0.59375000000000000        0.0000000000000000     
  0.87500000000000000       0.62500000000000000        0.0000000000000000     
  0.90625000000000000       0.62500000000000000        0.0000000000000000     
  0.93750000000000000       0.62500000000000000        0.0000000000000000     
  0.96875000000000000       0.62500000000000000        0.0000000000000000     
   1.0000000000000000       0.62500000000000000        0.0000000000000000     
   1.0000000000000000       0.50000000000000000        0.0000000000000000     
   1.0312500000000000       0.50000000000000000        0.0000000000000000     
   1.0625000000000000       0.50000000000000000        0.0000000000000000     
   1.0937500000000000       0.50000000000000000        0.0000000000000000     
   1.1250000000000000       0.50000000000000000        0.0000000000000000     
   1.0000000000000000       0.53125000000000000        0.0000000000000000     
   1.0312500000000000       0.53125000000000000        0.0000000000000000     
   1.0625000000000000       0.53125000000000000        0.0000000000000000     
   1.0937500000000000       0.53125000000000000        0.0000000000000000     
   1.1250000000000000       0.53125000000000000        0.0000000000000000     
   1.0000000000000000       0.56250000000000000        0.0000000000000000     
   1.0312500000000000       0.56250000000000000        0.0000000000000000     
   1.0625000000000000       0.56250000000000000        0.0000000000000000     
   1.0937500000000000       0.56250000000000000        0.0000000000000000     
   1.1250000000000000       0.56250000000000000        0.0000000000000000     
   1.0000000000000000       0.59375000000000000        0.0000000000000000     
   1.0312500000000000       0.59375000000000000        0.0000000000000000     
   1.0625000000000000       0.59375000000000000        0.0000000000000000     
   1.0937500000000000       0.59375000000000000        0.0000000000000000     
   1.1250000000000000       0.59375000000000000        0.0000000000000000     
   1.0000000000000000       0.62500000000000000        0.0000000000000000     
   1.0312500000000000       0.62500000000000000        0.0000000000000000     
   1.0625000000000000       0.62500000000000000        0.0000000000000000     
   1.0937500000000000       0.62500000000000000        0.0000000000000000     
   1.1250000000000000       0.62500000000000000        0.0000000000000000     
   1.1250000000000000       0.50000000000000000        0.0000000000000000     
   1.1562500000000000       0.50000000000000000        0.0000000000000000     
   1.1875000000000000       0.50000000000000000        0.0000000000000000     
   1.2187500000000000       0.50000000000000000        0.0000000000000000     
   1.2500000000000000       0.50000000000000000        0.0000000000000000     
   1.1250000000000000       0.53125000000000000        0.0000000000000000     
   1.1562500000000000       0.53125000000000000        0.0000000000000000     
   1.1875000000000000       0.53125000000000000        0.0000000000000000     
   1.2187500000000000       0.53125000000000000        0.0000000000000000     
   1.2500000000000000       0.53125000000000000        0.0000000000000000     
   1.1250000000000000       0.56250000000000000        0.0000000000000000     
   1.1562500000000000       0.56250000000000000        0.0000000000000000     
   1.1875000000000000       0.56250000000000000        0.0000000000000000     
   1.2187500000000000       0.56250000000000000        0.0000000000000000     
   1.2500000000000000       0.56250000000000000        0.0000000000000000     
   1.1250000000000000       0.59375000000000000        0.0000000000000000     
   1.1562500000000000       0.59375000000000000        0.0000000000000000     
   1.1875000000000000       0.59375000000000000        0.0000000000000000     
   1.2187500000000000       0.59375000000000000        0.0000000000000000     
   1.2500000000000000       0.59375000000000000        0.0000000000000000     
   1.1250000000000000       0.62500000000000000        0.0000000000000000     
   1.1562500000000000       0.62500000000000000        0.0000000000000000     
   1.1875000000000000       0.62500000000000000        0.0000000000000000     
   1.2187500000000000       0.62500000000000000        0.0000000000000000     
   1.2500000000000000       0.62500000000000000        0.0000000000000000     
   1.2500000000000000       0.50000000000000000        0.0000000000000000     
   1.2812500000000000       0.50000000000000000        0.0000000000000000     
   1.3125000000000000       0.50000000000000000        0.0000000000000000     
   1.3437500000000000       0.50000000000000000        0.0000000000000000     
   1.3750000000000000       0.50000000000000000        0.0000000000000000     
   1.2500000000000000       0.53125000000000000        0.0000000000000000     
   1.2812500000000000       0.53125000000000000        0.0000000000000000     
   1.3125000000000000       0.53125000000000000        0.0000000000000000     
   1.3437500000000000       0.53125000000000000        0.0000000000000000     
   1.3750000000000000       0.53125000000000000        0.0000000000000000     
   1.2500000000000000       0.56250000000000000        0.0000000000000000     
   1.2812500000000000       0.56250000000000000        0.0000000000000000     
   1.3125000000000000       0.56250000000000000        0.0000000000000000     
   1.3437500000000000       0.56250000000000000        0.0000000000000000     
   1.3750000000000000       0.56250000000000000        0.0000000000000000     
   1.2500000000000000       0.59375000000000000        0.0000000000000000     
   1.2812500000000000       0.59375000000000000        0.0000000000000000     
   1.3125000000000000       0.59375000000000000        0.0000000000000000     
   1.3437500000000000       0.59375000000000000        0.0000000000000000     
   1.3750000000000000       0.59375000000000000        0.0000000000000000     
   1.2500000000000000       0.62500000000000000        0.0000000000000000     
   1.2812500000000000       0.62500000000000000        0.0000000000000000     
   1.3125000000000000       0.62500000000000000        0.0000000000000000     
   1.3437500000000000       0.62500000000000000        0.0000000000000000     
   1.3750000000000000       0.62500000000000000        0.0000000000000000     
   1.3750000000000000       0.50000000000000000        0.0000000000000000     
   1.4062500000000000       0.50000000000000000        0.0000000000000000     
   1.4375000000000000       0.50000000000000000        0.0000000000000000     
   1.4687500000000000       0.50000000000000000        0.0000000000000000     
   1.5000000000000000       0.50000000000000000        0.0000000000000000     
   1.3750000000000000       0.53125000000000000        0.0000000000000000     
   1.4062500000000000       0.53125000000000000        0.0000000000000000     
   1.4375000000000000       0.53125000000000000        0.0000000000000000     
   1.4687500000000000       0.53125000000000000        0.0000000000000000     
   1.5000000000000000       0.53125000000000000        0.0000000000000000     
   1.3750000000000000       0.56250000000000000        0.0000000000000000     
   1.4062500000000000       0.56250000000000000        0.0000000000000000     
   1.4375000000000000       0.56250000000000000        0.0000000000000000     
   1.4687500000000000       0.56250000000000000        0.0000000000000000     
   1.5000000000000000       0.56250000000000000        0.0000000000000000     
   1.3750000000000000       0.59375000000000000        0.0000000000000000     
   1.4062500000000000       0.59375000000000000        0.0000000000000000     
   1.4375000000000000       0.59375000000000000        0.0000000000000000     
   1.4687500000000000       0.59375000000000000        0.0000000000000000     
   1.5000000000000000       0.59375000000000000        0.0000000000000000     
   1.3750000000000000       0.62500000000000000        0.0000000000000000     
   1.4062500000000000       0.62500000000000000        0.0000000000000000     
   1.4375000000000000       0.62500000000000000        0.0000000000000000     
   1.4687500000000000       0.62500000000000000        0.0000000000000000     
   1.5000000000000000       0.62500000000000000        0.0000000000000000     
  0.50000000000000000       0.62500000000000000        0.0000000000000000     
  0.53125000000000000       0.62500000000000000        0.0000000000000000     
  0.56250000000000000       0.62500000000000000        0.0000000000000000     
  0.59375000000000000       0.62500000000000000        0.0000000000000000     
  0.62500000000000000       0.62500000000000000        0.0000000000000000     
  0.50000000000000000       0.65625000000000000        0.0000000000000000     
  0.53125000000000000       0.65625000000000000        0.0000000000000000     
  0.56250000000000000       0.65625000000000000        0.0000000000000000     
  0.59375000000000000       0.65625000000000000        0.0000000000000000     
  0.62500000000000000       0.65625000000000000        0.0000000000000000     
  0.50000000000000000       0.68750000000000000        0.0000000000000000     
  0.53125000000000000       0.68750000000000000        0.0000000000000000     
  0.56250000000000000       0.68750000000000000        0.0000000000000000     
  0.59375000000000000       0.68750000000000000        0.0000000000000000     
  0.62500000000000000       0.68750000000000000        0.0000000000000000     
  0.50000000000000000       0.71875000000000000        0.0000000000000000     
  0.53125000000000000       0.71875000000000000        0.0000000000000000     
  0.56250000000000000       0.71875000000000000        0.0000000000000000     
  0.59375000000000000       0.71875000000000000        0.0000000000000000     
  0.62500000000000000       0.71875000000000000        0.0000000000000000     
  0.50000000000000000       0.75000000000000000        0.0000000000000000     
  0.53125000000000000       0.75000000000000000        0.0000000000000000     
  0.56250000000000000       0.75000000000000000        0.0000000000000000     
  0.59375000000000000       0.75000000000000000        0.0000000000000000     
  0.62500000000000000       0.75000000000000000        0.0000000000000000     
  0.62500000000000000       0.62500000000000000        0.0000000000000000     
  0.65625000000000000       0.62500000000000000        0.0000000000000000     
  0.68750000000000000       0.62500000000000000        0.0000000000000000     
  0.71875000000000000       0.62500000000000000        0.0000000000000000     
  0.75000000000000000       0.62500000000000000        0.0000000000000000     
  0.62500000000000000       0.65625000000000000        0.0000000000000000     
  0.65625000000000000       0.65625000000000000        0.0000000000000000     
  0.68750000000000000       0.65625000000000000        0.0000000000000000     
  0.71875000000000000       0.65625000000000000        0.0000000000000000     
  0.75000000000000000       0.65625000000000000        0.0000000000000000     
  0.62500000000000000       0.68750000000000000        0.0000000000000000     
  0.65625000000000000       0.68750000000000000        0.0000000000000000     
  0.68750000000000000       0.68750000000000000        0.0000000000000000     
  0.71875000000000000       0.68750000000000000        0.0000000000000000     
  0.75000000000000000       0.68750000000000000        0.0000000000000000     
  0.62500000000000000       0.71875000000000000        0.0000000000000000     
  0.65625000000000000       0.71875000000000000        0.0000000000000000     
  0.68750000000000000       0.71875000000000000        0.0000000000000000     
  0.71875000000000000       0.71875000000000000        0.0000000000000000     
  0.75000000000000000       0.71875000000000000        0.0000000000000000     
  0.62500000000000000       0.75000000000000000        0.0000000000000000     
  0.65625000000000000       0.75000000000000000        0.0000000000000000     
  0.68750000000000000       0.75000000000000000        0.0000000000000000     
  0.71875000000000000       0.75000000000000000        0.0000000000000000     
  0.75000000000000000       0.75000000000000000        0.0000000000000000     
  0.75000000000000000       0.62500000000000000        0.0000000000000000     
  0.78125000000000000       0.62500000000000000        0.0000000000000000     
  0.81250000000000000       0.62500000000000000        0.0000000000000000     
  0.84375000000000000       0.62500000000000000        0.0000000000000000     
  0.87500000000000000       0.62500000000000000        0.0000000000000000     
  0.75000000000000000       0.65625000000000000        0.0000000000000000     
  0.78125000000000000       0.65625000000000000        0.0000000000000000     
  0.81250000000000000       0.65625000000000000        0.0000000000000000     
  0.84375000000000000       0.65625000000000000        0.0000000000000000     
  0.87500000000000000       0.65625000000000000        0.0000000000000000     
  0.75000000000000000       0.68750000000000000        0.0000000000000000     
  0.78125000000000000       0.68750000000000000        0.0000000000000000     
  0.81250000000000000       0.68750000000000000        0.0000000000000000     
  0.84375000000000000       0.68750000000000000        0.0000000000000000     
  0.87500000000000000       0.68750000000000000        0.0000000000000000     
  0.75000000000000000       0.71875000000000000        0.0000000000000000     
  0.78125000000000000       0.71875000000000000        0.0000000000000000     
  0.81250000000000000       0.71875000000000000        0.0000000000000000     
  0.84375000000000000       0.71875000000000000        0.0000000000000000     
  0.87500000000000000       0.71875000000000000        0.0000000000000000     
  0.75000000000000000       0.75000000000000000        0.0000000000000000     
  0.78125000000000000       0.75000000000000000        0.0000000000000000     
  0.81250000000000000       0.75000000000000000        0.0000000000000000     
  0.84375000000000000       0.75000000000000000        0.0000000000000000     
  0.87500000000000000       0.75000000000000000        0.0000000000000000     
  0.87500000000000000       0.62500000000000000        0.0000000000000000     
  0.90625000000000000       0.62500000000000000        0.0000000000000000     
  0.93750000000000000       0.62500000000000000        0.0000000000000000     
  0.96875000000000000       0.62500000000000000        0.0000000000000000     
   1.0000000000000000       0.62500000000000000        0.0000000000000000     
  0.87500000000000000       0.65625000000000000        0.0000000000000000     
  0.90625000000000000       0.65625000000000000        0.0000000000000000     
  0.93750000000000000       0.65625000000000000        0.0000000000000000     
  0.96875000000000000       0.65625000000000000        0.0000000000000000     
   1.0000000000000000       0.65625000000000000        0.0000000000000000     
  0.87500000000000000       0.68750000000000000        0.0000000000000000     
  0.90625000000000000       0.68750000000000000        0.0000000000000000     
  0.93750000000000000       0.68750000000000000        0.0000000000000000     
  0.96875000000000000       0.68750000000000000        0.0000000000000000     
   1.0000000000000000       0.68750000000000000        0.0000000000000000     
  0.87500000000000000       0.71875000000000000        0.0000000000000000     
  0.90625000000000000       0.71875000000000000        0.0000000000000000     
  0.93750000000000000       0.71875000000000000        0.0000000000000000     
  0.96875000000000000       0.71875000000000000        0.0000000000000000     
   1.0000000000000000       0.71875000000000000        0.0000000000000000     
  0.87500000000000000       0.75000000000000000        0.0000000000000000     
  0.90625000000000000       0.75000000000000000        0.0000000000000000     
  0.93750000000000000       0.75000000000000000        0.0000000000000000     
  0.96875000000000000       0.75000000000000000        0.0000000000000000     
   1.0000000000000000       0.75000000000000000        0.0000000000000000     
   1.0000000000000000       0.62500000000000000        0.0000000000000000     
   1.0312500000000000       0.62500000000000000        0.0000000000000000     
   1.0625000000000000       0.62500000000000000        0.0000000000000000     
   1.0937500000000000       0.62500000000000000        0.0000000000000000     
   1.1250000000000000       0.62500000000000000        0.0000000000000000     
   1.0000000000000000       0.65625000000000000        0.0000000000000000     
   1.0312500000000000       0.65625000000000000        0.0000000000000000     
   1.0625000000000000       0.65625000000000000        0.0000000000000000     
   1.0937500000000000       0.65625000000000000        0.0000000000000000     
   1.1250000000000000       0.65625000000000000        0.0000000000000000     
   1.0000000000000000       0.68750000000000000        0.0000000000000000     
   1.0312500000000000       0.68750000000000000        0.0000000000000000     
   1.0625000000000000       0.68750000000000000        0.0000000000000000     
   1.0937500000000000       0.68750000000000000        0.0000000000000000     
   1.1250000000000000       0.68750000000000000        0.0000000000000000     
   1.0000000000000000       0.71875000000000000        0.0000000000000000     
   1.0312500000000000       0.71875000000000000        0.0000000000000000     
   1.0625000000000000       0.71875000000000000        0.0000000000000000     
   1.0937500000000000       0.71875000000000000        0.0000000000000000     
   1.1250000000000000       0.71875000000000000        0.0000000000000000     
   1.0000000000000000       0.75000000000000000        0.0000000000000000     
   1.0312500000000000       0.75000000000000000        0.0000000000000000     
   1.0625000000000000       0.75000000000000000        0.0000000000000000     
   1.0937500000000000       0.75000000000000000        0.0000000000000000     
   1.1250000000000000       0.75000000000000000        0.0000000000000000     
   1.1250000000000000       0.62500000000000000        0.0000000000000000     
   1.1562500000000000       0.62500000000000000        0.0000000000000000     
   1.1875000000000000       0.62500000000000000        0.0000000000000000     
   1.2187500000000000       0.62500000000000000        0.0000000000000000     
   1.2500000000000000       0.62500000000000000        0.0000000000000000     
   1.1250000000000000       0.65625000000000000        0.0000000000000000     
   1.1562500000000000       0.65625000000000000        0.0000000000000000     
   1.1875000000000000       0.65625000000000000        0.0000000000000000     
   1.2187500000000000       0.65625000000000000        0.0000000000000000     
   1.2500000000000000       0.65625000000000000        0.0000000000000000     
   1.1250000000000000       0.68750000000000000        0.0000000000000000     
   1.1562500000000000       0.68750000000000000        0.0000000000000000     
   1.1875000000000000       0.68750000000000000        0.0000000000000000     
   1.2187500000000000       0.68750000000000000        0.0000000000000000     
   1.2500000000000000       0.68750000000000000        0.0000000000000000     
   1.1250000000000000       0.71875000000000000        0.0000000000000000     
   1.1562500000000000       0.71875000000000000        0.0000000000000000     
   1.1875000000000000       0.71875000000000000        0.0000000000000000     
   1.2187500000000000       0.71875000000000000        0.0000000000000000     
   1.2500000000000000       0.71875000000000000        0.0000000000000000     
   1.1250000000000000       0.75000000000000000        0.0000000000000000     
   1.1562500000000000       0.75000000000000000        0.0000000000000000     
   1.1875000000000000       0.75000000000000000        0.0000000000000000     
   1.2187500000000000       0.75000000000000000        0.0000000000000000     
   1.2500000000000000       0.75000000000000000        0.0000000000000000     
   1.2500000000000000       0.62500000000000000        0.0000000000000000     
   1.2812500000000000       0.62500000000000000        0.0000000000000000     
   1.3125000000000000       0.62500000000000000        0.0000000000000000     
   1.3437500000000000       0.62500000000000000        0.0000000000000000     
   1.3750000000000000       0.62500000000000000        0.0000000000000000     
   1.2500000000000000       0.65625000000000000        0.0000000000000000     
   1.2812500000000000       0.65625000000000000        0.0000000000000000     
   1.3125000000000000       0.65625000000000000        0.0000000000000000     
   1.3437500000000000       0.65625000000000000        0.0000000000000000     
   1.3750000000000000       0.65625000000000000        0.0000000000000000     
   1.2500000000000000       0.68750000000000000        0.0000000000000000     
   1.2812500000000000       0.68750000000000000        0.0000000000000000     
   1.3125000000000000       0.68750000000000000        0.0000000000000000     
   1.3437500000000000       0.68750000000000000        0.0000000000000000     
   1.3750000000000000       0.68750000000000000        0.0000000000000000     
   1.2500000000000000       0.71875000000000000        0.0000000000000000     
   1.2812500000000000       0.71875000000000000        0.0000000000000000     
   1.3125000000000000       0.71875000000000000        0.0000000000000000     
   1.3437500000000000       0.71875000000000000        0.0000000000000000     
   1.3750000000000000       0.71875000000000000        0.0000000000000000     
   1.2500000000000000       0.75000000000000000        0.0000000000000000     
   1.2812500000000000       0.75000000000000000        0.0000000000000000     
   1.3125000000000000       0.75000000000000000        0.0000000000000000     
   1.3437500000000000       0.75000000000000000        0.0000000000000000     
   1.3750000000000000       0.75000000000000000        0.0000000000000000     
   1.3750000000000000       0.62500000000000000        0.0000000000000000     
   1.4062500000000000       0.62500000000000000        0.0000000000000000     
   1.4375000000000000       0.62500000000000000        0.0000000000000000     
   1.4687500000000000       0.62500000000000000        0.0000000000000000     
   1.5000000000000000       0.62500000000000000        0.0000000000000000     
   1.3750000000000000       0.65625000000000000        0.0000000000000000     
   1.4062500000000000       0.65625000000000000        0.0000000000000000     
   1.4375000000000000       0.65625000000000000        0.0000000000000000     
   1.4687500000000000       0.65625000000000000        0.0000000000000000     
   1.5000000000000000       0.65625000000000000        0.0000000000000000     
   1.3750000000000000       0.68750000000000000        0.0000000000000000     
   1.4062500000000000       0.68750000000000000        0.0000000000000000     
   1.4375000000000000       0.68750000000000000        0.0000000000000000     
   1.4687500000000000       0.68750000000000000        0.0000000000000000     
   1.5000000000000000       0.68750000000000000        0.0000000000000000     
   1.3750000000000000       0.71875000000000000        0.0000000000000000     
   1.4062500000000000       0.71875000000000000        0.0000000000000000     
   1.4375000000000000       0.71875000000000000        0.0000000000000000     
   1.4687500000000000       0.71875000000000000        0.0000000000000000     
   1.5000000000000000       0.71875000000000000        0.0000000000000000     
   1.3750000000000000       0.75000000000000000        0.0000000000000000     
   1.4062500000000000       0.75000000000000000        0.0000000000000000     
   1.4375000000000000       0.75000000000000000        0.0000000000000000     
   1.4687500000000000       0.75000000000000000        0.0000000000000000     
   1.5000000000000000       0.75000000000000000        0.0000000000000000     
  0.50000000000000000       0.75000000000000000        0.0000000000000000     
  0.53125000000000000       0.75000000000000000        0.0000000000000000     
  0.56250000000000000       0.75000000000000000        0.0000000000000000     
  0.59375000000000000       0.75000000000000000        0.0000000000000000     
  0.62500000000000000       0.75000000000000000        0.0000000000000000     
  0.50000000000000000       0.78125000000000000        0.0000000000000000     
  0.53125000000000000       0.78125000000000000        0.0000000000000000     
  0.56250000000000000       0.78125000000000000        0.0000000000000000     
  0.59375000000000000       0.78125000000000000        0.0000000000000000     
  0.62500000000000000       0.78125000000000000        0.0000000000000000     
  0.50000000000000000       0.81250000000000000        0.0000000000000000     
  0.53125000000000000       0.81250000000000000        0.0000000000000000     
  0.56250000000000000       0.81250000000000000        0.0000000000000000     
  0.59375000000000000       0.81250000000000000        0.0000000000000000     
  0.62500000000000000       0.81250000000000000        0.0000000000000000     
  0.50000000000000000       0.84375000000000000        0.0000000000000000     
  0.53125000000000000       0.84375000000000000        0.0000000000000000     
  0.56250000000000000       0.84375000000000000        0.0000000000000000     
  0.59375000000000000       0.84375000000000000        0.0000000000000000     
  0.62500000000000000       0.84375000000000000        0.0000000000000000     
  0.50000000000000000       0.87500000000000000        0.0000000000000000     
  0.53125000000000000       0.87500000000000000        0.0000000000000000     
  0.56250000000000000       0.87500000000000000        0.0000000000000000     
  0.59375000000000000       0.87500000000000000        0.0000000000000000     
  0.62500000000000000       0.87500000000000000        0.0000000000000000     
  0.62500000000000000       0.75000000000000000        0.0000000000000000     
  0.65625000000000000       0.75000000000000000        0.0000000000000000     
  0.68750000000000000       0.75000000000000000        0.0000000000000000     
  0.71875000000000000       0.75000000000000000        0.0000000000000000     
  0.75000000000000000       0.75000000000000000        0.0000000000000000     
  0.62500000000000000       0.78125000000000000        0.0000000000000000     
  0.65625000000000000       0.78125000000000000        0.0000000000000000     
  0.68750000000000000       0.78125000000000000        0.0000000000000000     
  0.71875000000000000       0.78125000000000000        0.0000000000000000     
  0.75000000000000000       0.78125000000000000        0.0000000000000000     
  0.62500000000000000       0.81250000000000000        0.0000000000000000     
  0.65625000000000000       0.81250000000000000        0.0000000000000000     
  0.68750000000000000       0.81250000000000000        0.0000000000000000     
  0.71875000000000000       0.81250000000000000        0.0000000000000000     
  0.75000000000000000       0.81250000000000000        0.0000000000000000     
  0.62500000000000000       0.84375000000000000        0.0000000000000000     
  0.65625000000000000       0.84375000000000000        0.0000000000000000     
  0.68750000000000000       0.84375000000000000        0.0000000000000000     
  0.71875000000000000       0.84375000000000000        0.0000000000000000     
  0.75000000000000000       0.84375000000000000        0.0000000000000000     
  0.62500000000000000       0.87500000000000000        0.0000000000000000     
  0.65625000000000000       0.87500000000000000        0.0000000000000000     
  0.68750000000000000       0.87500000000000000        0.0000000000000000     
  0.71875000000000000       0.87500000000000000        0.0000000000000000     
  0.75000000000000000       0.87500000000000000        0.0000000000000000     
  0.75000000000000000       0.75000000000000000        0.0000000000000000     
  0.78125000000000000       0.75000000000000000        0.0000000000000000     
  0.81250000000000000       0.75000000000000000        0.0000000000000000     
  0.84375000000000000       0.75000000000000000        0.0000000000000000     
  0.87500000000000000       0.75000000000000000        0.0000000000000000     
  0.75000000000000000       0.78125000000000000        0.0000000000000000     
  0.78125000000000000       0.78125000000000000        0.0000000000000000     
  0.81250000000000000       0.78125000000000000        0.0000000000000000     
  0.84375000000000000       0.78125000000000000        0.0000000000000000     
  0.87500000000000000       0.78125000000000000        0.0000000000000000     
  0.75000000000000000       0.81250000000000000        0.0000000000000000     
  0.78125000000000000       0.81250000000000000        0.0000000000000000     
  0.81250000000000000       0.81250000000000000        0.0000000000000000     
  0.84375000000000000       0.81250000000000000        0.0000000000000000     
  0.87500000000000000       0.81250000000000000        0.0000000000000000     
  0.75000000000000000       0.84375000000000000        0.0000000000000000     
  0.78125000000000000       0.84375000000000000        0.0000000000000000     
  0.81250000000000000       0.84375000000000000        0.0000000000000000     
  0.84375000000000000       0.84375000000000000        0.0000000000000000     
  0.87500000000000000       0.84375000000000000        0.0000000000000000     
  0.75000000000000000       0.87500000000000000        0.0000000000000000     
  0.78125000000000000       0.87500000000000000        0.0000000000000000     
  0.81250000000000000       0.87500000000000000        0.0000000000000000     
  0.84375000000000000       0.87500000000000000        0.0000000000000000     
  0.87500000000000000       0.87500000000000000        0.0000000000000000     
  0.87500000000000000       0.75000000000000000        0.0000000000000000     
  0.90625000000000000       0.75000000000000000        0.0000000000000000     
  0.93750000000000000       0.75000000000000000        0.0000000000000000     
  0.96875000000000000       0.75000000000000000        0.0000000000000000     
   1.0000000000000000       0.75000000000000000        0.0000000000000000     
  0.87500000000000000       0.78125000000000000        0.0000000000000000     
  0.90625000000000000       0.78125000000000000        0.0000000000000000     
  0.93750000000000000       0.78125000000000000        0.0000000000000000     
  0.96875000000000000       0.78125000000000000        0.0000000000000000     
   1.0000000000000000       0.78125000000000000        0.0000000000000000     
  0.87500000000000000       0.81250000000000000        0.0000000000000000     
  0.90625000000000000       0.81250000000000000        0.0000000000000000     
  0.93750000000000000       0.81250000000000000        0.0000000000000000     
  0.96875000000000000       0.81250000000000000        0.0000000000000000     
   1.0000000000000000       0.81250000000000000        0.0000000000000000     
  0.87500000000000000       0.84375000000000000        0.0000000000000000     
  0.90625000000000000       0.84375000000000000        0.0000000000000000     
  0.93750000000000000       0.84375000000000000        0.0000000000000000     
  0.96875000000000000       0.84375000000000000        0.0000000000000000     
   1.0000000000000000       0.84375000000000000        0.0000000000000000     
  0.87500000000000000       0.87500000000000000        0.0000000000000000     
  0.90625000000000000       0.87500000000000000        0.0000000000000000     
  0.93750000000000000       0.87500000000000000        0.0000000000000000     
  0.96875000000000000       0.87500000000000000        0.0000000000000000     
   1.0000000000000000       0.87500000000000000        0.0000000000000000     
   1.0000000000000000       0.75000000000000000        0.0000000000000000     
   1.0312500000000000       0.75000000000000000        0.0000000000000000     
   1.0625000000000000       0.75000000000000000        0.0000000000000000     
   1.0937500000000000       0.75000000000000000        0.0000000000000000     
   1.1250000000000000       0.75000000000000000        0.0000000000000000     
   1.0000000000000000       0.78125000000000000        0.0000000000000000     
   1.0312500000000000       0.78125000000000000        0.0000000000000000     
   1.0625000000000000       0.78125000000000000        0.0000000000000000     
   1.0937500000000000       0.78125000000000000        0.0000000000000000     
   1.1250000000000000       0.78125000000000000        0.0000000000000000     
   1.0000000000000000       0.81250000000000000        0.0000000000000000     
   1.0312500000000000       0.81250000000000000        0.0000000000000000     
   1.0625000000000000       0.81250000000000000        0.0000000000000000     
   1.0937500000000000       0.81250000000000000        0.0000000000000000     
   1.1250000000000000       0.81250000000000000        0.0000000000000000     
   1.0000000000000000       0.84375000000000000        0.0000000000000000     
   1.0312500000000000       0.84375000000000000        0.0000000000000000     
   1.0625000000000000       0.84375000000000000        0.0000000000000000     
   1.0937500000000000       0.84375000000000000        0.0000000000000000     
   1.1250000000000000       0.84375000000000000        0.0000000000000000     
   1.0000000000000000       0.87500000000000000        0.0000000000000000     
   1.0312500000000000       0.87500000000000000        0.0000000000000000     
   1.0625000000000000       0.87500000000000000        0.0000000000000000     
   1.0937500000000000       0.87500000000000000        0.0000000000000000     
   1.1250000000000000       0.87500000000000000        0.0000000000000000     
   1.1250000000000000       0.75000000000000000        0.0000000000000000     
   1.1562500000000000       0.75000000000000000        0.0000000000000000     
   1.1875000000000000       0.75000000000000000        0.0000000000000000     
   1.2187500000000000       0.75000000000000000        0.0000000000000000     
   1.2500000000000000       0.75000000000000000        0.0000000000000000     
   1.1250000000000000       0.78125000000000000        0.0000000000000000     
   1.1562500000000000       0.78125000000000000        0.0000000000000000     
   1.1875000000000000       0.78125000000000000        0.0000000000000000     
   1.2187500000000000       0.78125000000000000        0.0000000000000000     
   1.2500000000000000       0.78125000000000000        0.0000000000000000     
   1.1250000000000000       0.81250000000000000        0.0000000000000000     
   1.1562500000000000       0.81250000000000000        0.0000000000000000     
   1.1875000000000000       0.81250000000000000        0.0000000000000000     
   1.2187500000000000       0.81250000000000000        0.0000000000000000     
   1.2500000000000000       0.81250000000000000        0.0000000000000000     
   1.1250000000000000       0.84375000000000000        0.0000000000000000     
   1.1562500000000000       0.84375000000000000        0.0000000000000000     
   1.1875000000000000       0.84375000000000000        0.0000000000000000     
   1.2187500000000000       0.84375000000000000        0.0000000000000000     
   1.2500000000000000       0.84375000000000000        0.0000000000000000     
   1.1250000000000000       0.87500000000000000        0.0000000000000000     
   1.1562500000000000       0.87500000000000000        0.0000000000000000     
   1.1875000000000000       0.87500000000000000        0.0000000000000000     
   1.2187500000000000       0.87500000000000000        0.0000000000000000     
   1.2500000000000000       0.87500000000000000        0.0000000000000000     
   1.2500000000000000       0.75000000000000000        0.0000000000000000     
   1.2812500000000000       0.75000000000000000        0.0000000000000000     
   1.3125000000000000       0.75000000000000000        0.0000000000000000     
   1.3437500000000000       0.75000000000000000        0.0000000000000000     
   1.3750000000000000       0.75000000000000000        0.0000000000000000     
   1.2500000000000000       0.78125000000000000        0.0000000000000000     
   1.2812500000000000       0.78125000000000000        0.0000000000000000     
   1.3125000000000000       0.78125000000000000        0.0000000000000000     
   1.3437500000000000       0.78125000000000000        0.0000000000000000     
   1.3750000000000000       0.78125000000000000        0.0000000000000000     
   1.2500000000000000       0.81250000000000000        0.0000000000000000     
   1.2812500000000000       0.81250000000000000        0.0000000000000000     
   1.3125000000000000       0.81250000000000000        0.0000000000000000     
   1.3437500000000000       0.81250000000000000        0.0000000000000000     
   1.3750000000000000       0.81250000000000000        0.0000000000000000     
   1.2500000000000000       0.84375000000000000        0.0000000000000000     
   1.2812500000000000       0.84375000000000000        0.0000000000000000     
   1.3125000000000000       0.84375000000000000        0.0000000000000000     
   1.3437500000000000       0.84375000000000000        0.0000000000000000     
   1.3750000000000000       0.84375000000000000        0.0000000000000000     
   1.2500000000000000       0.87500000000000000        0.0000000000000000     
   1.2812500000000000       0.87500000000000000        0.0000000000000000     
   1.3125000000000000       0.87500000000000000        0.0000000000000000     
   1.3437500000000000       0.87500000000000000        0.0000000000000000     
   1.3750000000000000       0.87500000000000000        0.0000000000000000     
   1.3750000000000000       0.75000000000000000        0.0000000000000000     
   1.4062500000000000       0.75000000000000000        0.0000000000000000     
   1.4375000000000000       0.75000000000000000        0.0000000000000000     
   1.4687500000000000       0.75000000000000000        0.0000000000000000     
   1.5000000000000000       0.75000000000000000        0.0000000000000000     
   1.3750000000000000       0.78125000000000000        0.0000000000000000     
   1.4062500000000000       0.78125000000000000        0.0000000000000000     
   1.4375000000000000       0.78125000000000000        0.0000000000000000     
   1.4687500000000000       0.78125000000000000        0.0000000000000000     
   1.5000000000000000       0.78125000000000000        0.0000000000000000     
   1.3750000000000000       0.81250000000000000        0.0000000000000000     
   1.4062500000000000       0.81250000000000000        0.0000000000000000     
   1.4375000000000000       0.81250000000000000        0.0000000000000000     
   1.4687500000000000       0.81250000000000000        0.0000000000000000     
   1.5000000000000000       0.81250000000000000        0.0000000000000000     
   1.3750000000000000       0.84375000000000000        0.0000000000000000     
   1.4062500000000000       0.84375000000000000        0.0000000000000000     
   1.4375000000000000       0.84375000000000000        0.0000000000000000     
   1.4687500000000000       0.84375000000000000        0.0000000000000000     
   1.5000000000000000       0.84375000000000000        0.0000000000000000     
   1.3750000000000000       0.87500000000000000        0.0000000000000000     
   1.4062500000000000       0.87500000000000000        0.0000000000000000     
   1.4375000000000000       0.87500000000000000        0.0000000000000000     
   1.4687500000000000       0.87500000000000000        0.0000000000000000     
   1.5000000000000000       0.87500000000000000        0.0000000000000000     
  0.50000000000000000       0.87500000000000000        0.0000000000000000     
  0.53125000000000000       0.87500000000000000        0.0000000000000000     
  0.56250000000000000       0.87500000000000000        0.0000000000000000     
  0.59375000000000000       0.87500000000000000        0.0000000000000000     
  0.62500000000000000       0.87500000000000000        0.0000000000000000     
  0.50000000000000000       0.90625000000000000        0.0000000000000000     
  0.53125000000000000       0.90625000000000000        0.0000000000000000     
  0.56250000000000000       0.90625000000000000        0.0000000000000000     
  0.59375000000000000       0.90625000000000000        0.0000000000000000     
  0.62500000000000000       0.90625000000000000        0.0000000000000000     
  0.50000000000000000       0.93750000000000000        0.0000000000000000     
  0.53125000000000000       0.93750000000000000        0.0000000000000000     
  0.56250000000000000       0.93750000000000000        0.0000000000000000     
  0.59375000000000000       0.93750000000000000        0.0000000000000000     
  0.62500000000000000       0.93750000000000000        0.0000000000000000     
  0.50000000000000000       0.96875000000000000        0.0000000000000000     
  0.53125000000000000       0.96875000000000000        0.0000000000000000     
  0.56250000000000000       0.96875000000000000        0.0000000000000000     
  0.59375000000000000       0.96875000000000000        0.0000000000000000     
  0.62500000000000000       0.96875000000000000        0.0000000000000000     
  0.50000000000000000        1.0000000000000000        0.0000000000000000     
  0.53125000000000000        1.0000000000000000        0.0000000000000000     
  0.56250000000000000        1.0000000000000000        0.0000000000000000     
  0.59375000000000000        1.0000000000000000        0.0000000000000000     
  0.62500000000000000        1.0000000000000000        0.0000000000000000     
  0.62500000000000000       0.87500000000000000        0.0000000000000000     
  0.65625000000000000       0.87500000000000000        0.0000000000000000     
  0.68750000000000000       0.87500000000000000        0.0000000000000000     
  0.71875000000000000       0.87500000000000000        0.0000000000000000     
  0.75000000000000000       0.87500000000000000        0.0000000000000000     
  0.62500000000000000       0.90625000000000000        0.0000000000000000     
  0.65625000000000000       0.90625000000000000        0.0000000000000000     
  0.68750000000000000       0.90625000000000000        0.0000000000000000     
  0.71875000000000000       0.90625000000000000        0.0000000000000000     
  0.75000000000000000       0.90625000000000000        0.0000000000000000     
  0.62500000000000000       0.93750000000000000        0.0000000000000000     
  0.65625000000000000       0.93750000000000000        0.0000000000000000     
  0.68750000000000000       0.93750000000000000        0.0000000000000000     
  0.71875000000000000       0.93750000000000000        0.0000000000000000     
  0.75000000000000000       0.93750000000000000        0.0000000000000000     
  0.62500000000000000       0.96875000000000000        0.0000000000000000     
  0.65625000000000000       0.96875000000000000        0.0000000000000000     
  0.68750000000000000       0.96875000000000000        0.0000000000000000     
  0.71875000000000000       0.96875000000000000        0.0000000000000000     
  0.75000000000000000       0.96875000000000000        0.0000000000000000     
  0.62500000000000000        1.0000000000000000        0.0000000000000000     
  0.65625000000000000        1.0000000000000000        0.0000000000000000     
  0.68750000000000000        1.0000000000000000        0.0000000000000000     
  0.71875000000000000        1.0000000000000000        0.0000000000000000     
  0.75000000000000000        1.0000000000000000        0.0000000000000000     
  0.75000000000000000       0.87500000000000000        0.0000000000000000     
  0.78125000000000000       0.87500000000000000        0.0000000000000000     
  0.81250000000000000       0.87500000000000000        0.0000000000000000     
  0.84375000000000000       0.87500000000000000        0.0000000000000000     
  0.87500000000000000       0.87500000000000000        0.0000000000000000     
  0.75000000000000000       0.90625000000000000        0.0000000000000000     
  0.78125000000000000       0.90625000000000000        0.0000000000000000     
  0.81250000000000000       0.90625000000000000        0.0000000000000000     
  0.84375000000000000       0.90625000000000000        0.0000000000000000     
  0.87500000000000000       0.90625000000000000        0.0000000000000000     
  0.75000000000000000       0.93750000000000000        0.0000000000000000     
  0.78125000000000000       0.93750000000000000        0.0000000000000000     
  0.81250000000000000       0.93750000000000000        0.0000000000000000     
  0.84375000000000000       0.93750000000000000        0.0000000000000000     
  0.87500000000000000       0.93750000000000000        0.0000000000000000     
  0.75000000000000000       0.96875000000000000        0.0000000000000000     
  0.78125000000000000       0.96875000000000000        0.0000000000000000     
  0.81250000000000000       0.96875000000000000        0.0000000000000000     
  0.84375000000000000       0.96875000000000000        0.0000000000000000     
  0.87500000000000000       0.96875000000000000        0.0000000000000000     
  0.75000000000000000        1.0000000000000000        0.0000000000000000     
  0.78125000000000000        1.0000000000000000        0.0000000000000000     
  0.81250000000000000        1.0000000000000000        0.0000000000000000     
  0.84375000000000000        1.0000000000000000        0.0000000000000000     
  0.87500000000000000        1.0000000000000000        0.0000000000000000     
  0.87500000000000000       0.87500000000000000        0.0000000000000000     
  0.90625000000000000       0.87500000000000000        0.0000000000000000     
  0.93750000000000000       0.87500000000000000        0.0000000000000000     
  0.96875000000000000       0.87500000000000000        0.0000000000000000     
   1.0000000000000000       0.87500000000000000        0.0000000000000000     
  0.87500000000000000       0.90625000000000000        0.0000000000000000     
  0.90625000000000000       0.90625000000000000        0.0000000000000000     
  0.93750000000000000       0.90625000000000000        0.0000000000000000     
  0.96875000000000000       0.90625000000000000        0.0000000000000000     
   1.0000000000000000       0.90625000000000000        0.0000000000000000     
  0.87500000000000000       0.93750000000000000        0.0000000000000000     
  0.90625000000000000       0.93750000000000000        0.0000000000000000     
  0.93750000000000000       0.93750000000000000        0.0000000000000000     
  0.96875000000000000       0.93750000000000000        0.0000000000000000     
   1.0000000000000000       0.93750000000000000        0.0000000000000000     
  0.87500000000000000       0.96875000000000000        0.0000000000000000     
  0.90625000000000000       0.96875000000000000        0.0000000000000000     
  0.93750000000000000       0.96875000000000000        0.0000000000000000     
  0.96875000000000000       0.96875000000000000        0.0000000000000000     
   1.0000000000000000       0.96875000000000000        0.0000000000000000     
  0.87500000000000000        1.0000000000000000        0.0000000000000000     
  0.90625000000000000        1.0000000000000000        0.0000000000000000     
  0.93750000000000000        1.0000000000000000        0.0000000000000000     
  0.96875000000000000        1.0000000000000000        0.0000000000000000     
   1.0000000000000000        1.0000000000000000        0.0000000000000000     
   1.0000000000000000       0.87500000000000000        0.0000000000000000     
   1.0312500000000000       0.87500000000000000        0.0000000000000000     
   1.0625000000000000       0.87500000000000000        0.0000000000000000     
   1.0937500000000000       0.87500000000000000        0.0000000000000000     
   1.1250000000000000       0.87500000000000000        0.0000000000000000     
   1.0000000000000000       0.90625000000000000        0.0000000000000000     
   1.0312500000000000       0.90625000000000000        0.0000000000000000     
   1.0625000000000000       0.90625000000000000        0.0000000000000000     
   1.0937500000000000       0.90625000000000000        0.0000000000000000     
   1.1250000000000000       0.90625000000000000        0.0000000000000000     
   1.0000000000000000       0.93750000000000000        0.0000000000000000     
   1.0312500000000000       0.93750000000000000        0.0000000000000000     
   1.0625000000000000       0.93750000000000000        0.0000000000000000     
   1.0937500000000000       0.93750000000000000        0.0000000000000000     
   1.1250000000000000       0.93750000000000000        0.0000000000000000     
   1.0000000000000000       0.96875000000000000        0.0000000000000000     
   1.0312500000000000       0.96875000000000000        0.0000000000000000     
   1.0625000000000000       0.96875000000000000        0.0000000000000000     
   1.0937500000000000       0.96875000000000000        0.0000000000000000     
   1.1250000000000000       0.96875000000000000        0.0000000000000000     
   1.0000000000000000        1.0000000000000000        0.0000000000000000     
   1.0312500000000000        1.0000000000000000        0.0000000000000000     
   1.0625000000000000        1.0000000000000000        0.0000000000000000     
   1.0937500000000000        1.0000000000000000        0.0000000000000000     
   1.1250000000000000        1.0000000000000000        0.0000000000000000     
   1.1250000000000000       0.87500000000000000        0.0000000000000000     
   1.1562500000000000       0.87500000000000000        0.0000000000000000     
   1.1875000000000000       0.87500000000000000        0.0000000000000000     
   1.2187500000000000       0.87500000000000000        0.0000000000000000     
   1.2500000000000000       0.87500000000000000        0.0000000000000000     
   1.1250000000000000       0.90625000000000000        0.0000000000000000     
   1.1562500000000000       0.90625000000000000        0.0000000000000000     
   1.1875000000000000       0.90625000000000000        0.0000000000000000     
   1.2187500000000000       0.90625000000000000        0.0000000000000000     
   1.2500000000000000       0.90625000000000000        0.0000000000000000     
   1.1250000000000000       0.93750000000000000        0.0000000000000000     
   1.1562500000000000       0.93750000000000000        0.0000000000000000     
   1.1875000000000000       0.93750000000000000        0.0000000000000000     
   1.2187500000000000       0.93750000000000000        0.0000000000000000     
   1.2500000000000000       0.93750000000000000        0.0000000000000000     
   1.1250000000000000       0.96875000000000000        0.0000000000000000     
   1.1562500000000000       0.96875000000000000        0.0000000000000000     
   1.1875000000000000       0.96875000000000000        0.0000000000000000     
   1.2187500000000000       0.96875000000000000        0.0000000000000000     
   1.2500000000000000       0.96875000000000000        0.0000000000000000     
   1.1250000000000000        1.0000000000000000        0.0000000000000000     
   1.1562500000000000        1.0000000000000000        0.0000000000000000     
   1.1875000000000000        1.0000000000000000        0.0000000000000000     
   1.2187500000000000        1.0000000000000000        0.0000000000000000     
   1.2500000000000000        1.0000000000000000        0.0000000000000000     
   1.2500000000000000       0.87500000000000000        0.0000000000000000     
   1.2812500000000000       0.87500000000000000        0.0000000000000000     
   1.3125000000000000       0.87500000000000000        0.0000000000000000     
   1.3437500000000000       0.87500000000000000        0.0000000000000000     
   1.3750000000000000       0.87500000000000000        0.0000000000000000     
   1.2500000000000000       0.90625000000000000        0.0000000000000000     
   1.2812500000000000       0.90625000000000000        0.0000000000000000     
   1.3125000000000000       0.90625000000000000        0.0000000000000000     
   1.3437500000000000       0.90625000000000000        0.0000000000000000     
   1.3750000000000000       0.90625000000000000        0.0000000000000000     
   1.2500000000000000       0.93750000000000000        0.0000000000000000     
   1.2812500000000000       0.93750000000000000        0.0000000000000000     
   1.3125000000000000       0.93750000000000000        0.0000000000000000     
   1.3437500000000000       0.93750000000000000        0.0000000000000000     
   1.3750000000000000       0.93750000000000000        0.0000000000000000     
   1.2500000000000000       0.96875000000000000        0.0000000000000000     
   1.2812500000000000       0.96875000000000000        0.0000000000000000     
   1.3125000000000000       0.96875000000000000        0.0000000000000000     
   1.3437500000000000       0.96875000000000000        0.0000000000000000     
   1.3750000000000000       0.96875000000000000        0.0000000000000000     
   1.2500000000000000        1.0000000000000000        0.0000000000000000     
   1.2812500000000000        1.0000000000000000        0.0000000000000000     
   1.3125000000000000        1.0000000000000000        0.0000000000000000     
   1.3437500000000000        1.0000000000000000        0.0000000000000000     
   1.3750000000000000        1.0000000000000000        0.0000000000000000     
   1.3750000000000000       0.87500000000000000        0.0000000000000000     
   1.4062500000000000       0.87500000000000000        0.0000000000000000     
   1.4375000000000000       0.87500000000000000        0.0000000000000000     
   1.4687500000000000       0.87500000000000000        0.0000000000000000     
   1.5000000000000000       0.87500000000000000        0.0000000000000000     
   1.3750000000000000       0.90625000000000000        0.0000000000000000     
   1.4062500000000000       0.90625000000000000        0.0000000000000000     
   1.4375000000000000       0.90625000000000000        0.0000000000000000     
   1.4687500000000000       0.90625000000000000        0.0000000000000000     
   1.5000000000000000       0.90625000000000000        0.0000000000000000     
   1.3750000000000000       0.93750000000000000        0.0000000000000000     
   1.4062500000000000       0.93750000000000000        0.0000000000000000     
   1.4375000000000000       0.93750000000000000        0.0000000000000000     
   1.4687500000000000       0.93750000000000000        0.0000000000000000     
   1.5000000000000000       0.93750000000000000        0.0000000000000000     
   1.3750000000000000       0.96875000000000000        0.0000000000000000     
   1.4062500000000000       0.96875000000000000        0.0000000000000000     
   1.4375000000000000       0.96875000000000000        0.0000000000000000     
   1.4687500000000000       0.96875000000000000        0.0000000000000000     
   1.5000000000000000       0.96875000000000000        0.0000000000000000     
   1.3750000000000000        1.0000000000000000        0.0000000000000000     
   1.4062500000000000        1.0000000000000000        0.0000000000000000     
   1.4375000000000000        1.0000000000000000        0.0000000000000000     
   1.4687500000000000        1.0000000000000000        0.0000000000000000     
   1.5000000000000000        1.0000000000000000        0.0000000000000000     
 </DataArray>
 </Points>
 <Cells>
 <DataArray  type="Int32"  Name="connectivity"  format="ascii">
           0           1           6           5
           1           2           7           6
           2           3           8           7
           3           4           9           8
           5           6          11          10
           6           7          12          11
           7           8          13          12
           8           9          14          13
          10          11          16          15
          11          12          17          16
          12          13          18          17
          13          14          19          18
          15          16          21          20
          16          17          22          21
          17          18          23          22
          18          19          24          23
          25          26          31          30
          26          27          32          31
          27          28          33          32
          28          29          34          33
          30          31          36          35
          31          32          37          36
          32          33          38          37
          33          34          39          38
          35          36          41          40
          36          37          42          41
          37          38          43          42
          38          39          44          43
          40          41          46          45
          41          42          47          46
          42          43          48          47
          43          44          49          48
          50          51          56          55
          51          52          57          56
          52          53          58          57
          53          54          59          58
          55          56          61          60
          56          57          62          61
          57          58          63          62
          58          59          64          63
          60          61          66          65
          61          62          67          66
          62          63          68          67
          63          64          69          68
          65          66          71          70
          66          67          72          71
          67          68          73          72
          68          69          74          73
          75          76          81          80
          76          77          82          81
          77          78          83          82
          78          79          84          83
          80          81          86          85
          81          82          87          86
          82          83          88          87
          83          84          89          88
          85          86          91          90
          86          87          92          91
          87          88          93          92
          88          89          94          93
          90          91          96          95
          91          92          97          96
          92          93          98          97
          93          94          99          98
         100         101         106         105
         101         102         107         106
         102         103         108         107
         103         104         109         108
         105         106         111         110
         106         107         112         111
         107         108         113         112
         108         109         114         113
         110         111         116         115
         111         112         117         116
         112         113         118         117
         113         114         119         118
         115         116         121         120
         116         117         122         121
         117         118         123         122
         118         119         124         123
         125         126         131         130
         126         127         132         131
         127         128         133         132
         128         129         134         133
         130         131         136         135
         131         132         137         136
         132         133         138         137
         133         134         139         138
         135         136         141         140
         136         137         142         141
         137         138         143         142
         138         139         144         143
         140         141         146         145
         141         142         147         146
         142         143         148         147
         143         144         149         148
         150         151         156         155
         151         152         157         156
         152         153         158         157
         153         154         159         158
         155         156         161         160
         156         157         162         161
         157         158         163         162
         158         159         164         163
         160         161         166         165
         161         162         167         166
         162         163         168         167
         163         164         169         168
         165         166         171         170
         166         167         172         171
         167         168         173         172
         168         169         174         173
         175         176         181         180
         176         177         182         181
         177         178         183         182
         178         179         184         183
         180         181         186         185
         181         182         187         186
         182         183         188         187
         183         184         189         188
         185         186         191         190
         186         187         192         191
         187         188         193         192
         188         189         194         193
         190         191         196         195
         191         192         197         196
         192         193         198         197
         193         194         199         198
         200         201         206         205
         201         202         207         206
         202         203         208         207
         203         204         209         208
         205         206         211         210
         206         207         212         211
         207         208         213         212
         208         209         214         213
         210         211         216         215
         211         212         217         216
         212         213         218         217
         213         214         219         218
         215         216         221         220
         216         217         222         221
         217         218         223         222
         218         219         224         223
         225         226         231         230
         226         227         232         231
         227         228         233         232
         228         229         234         233
         230         231         236         235
         231         232         237         236
         232         233         238         237
         233         234         239         238
         235         236         241         240
         236         237         242         241
         237         238         243         242
         238         239         244         243
         240         241         246         245
         241         242         247         246
         242         243         248         247
         243         244         249         248
         250         251         256         255
         251         252         257         256
         252         253         258         257
         253         254         259         258
         255         256         261         260
         256         257         262         261
         257         258         263         262
         258         259         264         263
         260         261         266         265
         261         262         267         266
         262         263         268         267
         263         264         269         268
         265         266         271         270
         266         267         272         271
         267         268         273         272
         268         269         274         273
         275         276         281         280
         276         277         282         281
         277         278         283         282
         278         279         284         283
         280         281         286         285
         281         282         287         286
         282         283         288         287
         283         284         289         288
         285         286         291         290
         286         287         292         291
         287         288         293         292
         288         289         294         293
         290         291         296         295
         291         292         297         296
         292         293         298         297
         293         294         299         298
         300         301         306         305
         301         302         307         306
         302         303         308         307
         303         304         309         308
         305         306         311         310
         306         307         312         311
         307         308         313         312
         308         309         314         313
         310         311         316         315
         311         312         317         316
         312         313         318         317
         313         314         319         318
         315         316         321         320
         316         317         322         321
         317         318         323         322
         318         319         324         323
         325         326         331         330
         326         327         332         331
         327         328         333         332
         328         329         334         333
         330         331         336         335
         331         332         337         336
         332         333         338         337
         333         334         339         338
         335         336         341         340
         336         337         342         341
         337         338         343         342
         338         339         344         343
         340         341         346         345
         341         342         347         346
         342         343         348         347
         343         344         349         348
         350         351         356         355
         351         352         357         356
         352         353         358         357
         353         354         359         358
         355         356         361         360
         356         357         362         361
         357         358         363         362
         358         359         364         363
         360         361         366         365
         361         362         367         366
         362         363         368         367
         363         364         369         368
         365         366         371         370
         366         367         372         371
         367         368         373         372
         368         369         374         373
         375         376         381         380
         376         377         382         381
         377         378         383         382
         378         379         384         383
         380         381         386         385
         381         382         387         386
         382         383         388         387
         383         384         389         388
         385         386         391         390
         386         387         392         391
         387         388         393         392
         388         389         394         393
         390         391         396         395
         391         392         397         396
         392         393         398         397
         393         394         399         398
         400         401         406         405
         401         402         407         406
         402         403         408         407
         403         404         409         408
         405         406         411         410
         406         407         412         411
         407         408         413         412
         408         409         414         413
         410         411         416         415
         411         412         417         416
         412         413         418         417
         413         414         419         418
         415         416         421         420
         416         417         422         421
         417         418         423         422
         418         419         424         423
         425         426         431         430
         426         427         432         431
         427         428         433         432
         428         429         434         433
         430         431         436         435
         431         432         437         436
         432         433         438         437
         433         434         439         438
         435         436         441         440
         436         437         442         441
         437         438         443         442
         438         439         444         443
         440         441         446         445
         441         442         447         446
         442         443         448         447
         443         444         449         448
         450         451         456         455
         451         452         457         456
         452         453         458         457
         453         454         459         458
         455         456         461         460
         456         457         462         461
         457         458         463         462
         458         459         464         463
         460         461         466         465
         461         462         467         466
         462         463         468         467
         463         464         469         468
         465         466         471         470
         466         467         472         471
         467         468         473         472
         468         469         474         473
         475         476         481         480
         476         477         482         481
         477         478         483         482
         478         479         484         483
         480         481         486         485
         481         482         487         486
         482         483         488         487
         483         484         489         488
         485         486         491         490
         486         487         492         491
         487         488         493         492
         488         489         494         493
         490         491         496         495
         491         492         497         496
         492         493         498         497
         493         494         499         498
         500         501         506         505
         501         502         507         506
         502         503         508         507
         503         504         509         508
         505         506         511         510
         506         507         512         511
         507         508         513         512
         508         509         514         513
         510         511         516         515
         511         512         517         516
         512         513         518         517
         513         514         519         518
         515         516         521         520
         516         517         522         521
         517         518         523         522
         518         519         524         523
         525         526         531         530
         526         527         532         531
         527         528         533         532
         528         529         534         533
         530         531         536         535
         531         532         537         536
         532         533         538         537
         533         534         539         538
         535         536         541         540
         536         537         542         541
         537         538         543         542
         538         539         544         543
         540         541         546         545
         541         542         547         546
         542         543         548         547
         543         544         549         548
         550         551         556         555
         551         552         557         556
         552         553         558         557
         553         554         559         558
         555         556         561         560
         556         557         562         561
         557         558         563         562
         558         559         564         563
         560         561         566         565
         561         562         567         566
         562         563         568         567
         563         564         569         568
         565         566         571         570
         566         567         572         571
         567         568         573         572
         568         569         574         573
         575         576         581         580
         576         577         582         581
         577         578         583         582
         578         579         584         583
         580         581         586         585
         581         582         587         586
         582         583         588         587
         583         584         589         588
         585         586         591         590
         586         587         592         591
         587         588         593         592
         588         589         594         593
         590         591         596         595
         591         592         597         596
         592         593         598         597
         593         594         599         598
         600         601         606         605
         601         602         607         606
         602         603         608         607
         603         604         609         608
         605         606         611         610
         606         607         612         611
         607         608         613         612
         608         609         614         613
         610         611         616         615
         611         612         617         616
         612         613         618         617
         613         614         619         618
         615         616         621         620
         616         617         622         621
         617         618         623         622
         618         619         624         623
         625         626         631         630
         626         627         632         631
         627         628         633         632
         628         629         634         633
         630         631         636         635
         631         632         637         636
         632         633         638         637
         633         634         639         638
         635         636         641         640
         636         637         642         641
         637         638         643         642
         638         639         644         643
         640         641         646         645
         641         642         647         646
         642         643         648         647
         643         644         649         648
         650         651         656         655
         651         652         657         656
         652         653         658         657
         653         654         659         658
         655         656         661         660
         656         657         662         661
         657         658         663         662
         658         659         664         663
         660         661         666         665
         661         662         667         666
         662         663         668         667
         663         664         669         668
         665         666         671         670
         666         667         672         671
         667         668         673         672
         668         669         674         673
         675         676         681         680
         676         677         682         681
         677         678         683         682
         678         679         684         683
         680         681         686         685
         681         682         687         686
         682         683         688         687
         683         684         689         688
         685         686         691         690
         686         687         692         691
         687         688         693         692
         688         689         694         693
         690         691         696         695
         691         692         697         696
         692         693         698         697
         693         694         699         698
         700         701         706         705
         701         702         707         706
         702         703         708         707
         703         704         709         708
         705         706         711         710
         706         707         712         711
         707         708         713         712
         708         709         714         713
         710         711         716         715
         711         712         717         716
         712         713         718         717
         713         714         719         718
         715         716         721         720
         716         717         722         721
         717         718         723         722
         718         719         724         723
         725         726         731         730
         726         727         732         731
         727         728         733         732
         728         729         734         733
         730         731         736         735
         731         732         737         736
         732         733         738         737
         733         734         739         738
         735         736         741         740
         736         737         742         741
         737         738         743         742
         738         739         744         743
         740         741         746         745
         741         742         747         746
         742         743         748         747
         743         744         749         748
         750         751         756         755
         751         752         757         756
         752         753         758         757
         753         754         759         758
         755         756         761         760
         756         757         762         761
         757         758         763         762
         758         759         764         763
         760         761         766         765
         761         762         767         766
         762         763         768         767
         763         764         769         768
         765         766         771         770
         766         767         772         771
         767         768         773         772
         768         769         774         773
         775         776         781         780
         776         777         782         781
         777         778         783         782
         778         779         784         783
         780         781         786         785
         781         782         787         786
         782         783         788         787
         783         784         789         788
         785         786         791         790
         786         787         792         791
         787         788         793         792
         788         789         794         793
         790         791         796         795
         791         792         797         796
         792         793         798         797
         793         794         799         798
         800         801         806         805
         801         802         807         806
         802         803         808         807
         803         804         809         808
         805         806         811         810
         806         807         812         811
         807         808         813         812
         808         809         814         813
         810         811         816         815
         811         812         817         816
         812         813         818         817
         813         814         819         818
         815         816         821         820
         816         817         822         821
         817         818         823         822
         818         819         824         823
         825         826         831         830
         826         827         832         831
         827         828         833         832
         828         829         834         833
         830         831         836         835
         831         832         837         836
         832         833         838         837
         833         834         839         838
         835         836         841         840
         836         837         842         841
         837         838         843         842
         838         839         844         843
         840         841         846         845
         841         842         847         846
         842         843         848         847
         843         844         849         848
         850         851         856         855
         851         852         857         856
         852         853         858         857
         853         854         859         858
         855         856         861         860
         856         857         862         861
         857         858         863         862
         858         859         864         863
         860         861         866         865
         861         862         867         866
         862         863         868         867
         863         864         869         868
         865         866         871         870
         866         867         872         871
         867         868         873         872
         868         869         874         873
         875         876         881         880
         876         877         882         881
         877         878         883         882
         878         879         884         883
         880         881         886         885
         881         882         887         886
         882         883         888         887
         883         884         889         888
         885         886         891         890
         886         887         892         891
         887         888         893         892
         888         889         894         893
         890         891         896         895
         891         892         897         896
         892         893         898         897
         893         894         899         898
         900         901         906         905
         901         902         907         906
         902         903         908         907
         903         904         909         908
         905         906         911         910
         906         907         912         911
         907         908         913         912
         908         909         914         913
         910         911         916         915
         911         912         917         916
         912         913         918         917
         913         914         919         918
         915         916         921         920
         916         917         922         921
         917         918         923         922
         918         919         924         923
         925         926         931         930
         926         927         932         931
         927         928         933         932
         928         929         934         933
         930         931         936         935
         931         932         937         936
         932         933         938         937
         933         934         939         938
         935         936         941         940
         936         937         942         941
         937         938         943         942
         938         939         944         943
         940         941         946         945
         941         942         947         946
         942         943         948         947
         943         944         949         948
         950         951         956         955
         951         952         957         956
         952         953         958         957
         953         954         959         958
         955         956         961         960
         956         957         962         961
         957         958         963         962
         958         959         964         963
         960         961         966         965
         961         962         967         966
         962         963         968         967
         963         964         969         968
         965         966         971         970
         966         967         972         971
         967         968         973         972
         968         969         974         973
         975         976         981         980
         976         977         982         981
         977         978         983         982
         978         979         984         983
         980         981         986         985
         981         982         987         986
         982         983         988         987
         983         984         989         988
         985         986         991         990
         986         987         992         991
         987         988         993         992
         988         989         994         993
         990         991         996         995
         991         992         997         996
         992         993         998         997
         993         994         999         998
        1000        1001        1006        1005
        1001        1002        1007        1006
        1002        1003        1008        1007
        1003        1004        1009        1008
        1005        1006        1011        1010
        1006        1007        1012        1011
        1007        1008        1013        1012
        1008        1009        1014        1013
        1010        1011        1016        1015
        1011        1012        1017        1016
        1012        1013        1018        1017
        1013        1014        1019        1018
        1015        1016        1021        1020
        1016        1017        1022        1021
        1017        1018        1023        1022
        1018        1019        1024        1023
        1025        1026        1031        1030
        1026        1027        1032        1031
        1027        1028        1033        1032
        1028        1029        1034        1033
        1030        1031        1036        1035
        1031        1032        1037        1036
        1032        1033        1038        1037
        1033        1034        1039        1038
        1035        1036        1041        1040
        1036        1037        1042        1041
        1037        1038        1043        1042
        1038        1039        1044        1043
        1040        1041        1046        1045
        1041        1042        1047        1046
        1042        1043        1048        1047
        1043        1044        1049        1048
        1050        1051        1056        1055
        1051        1052        1057        1056
        1052        1053        1058        1057
        1053        1054        1059        1058
        1055        1056        1061        1060
        1056        1057        1062        1061
        1057        1058        1063        1062
        1058        1059        1064        1063
        1060        1061        1066        1065
        1061        1062        1067        1066
        1062        1063        1068        1067
        1063        1064        1069        1068
        1065        1066        1071        1070
        1066        1067        1072        1071
        1067        1068        1073        1072
        1068        1069        1074        1073
        1075        1076        1081        1080
        1076        1077        1082        1081
        1077        1078        1083        1082
        1078        1079        1084        1083
        1080        1081        1086        1085
        1081        1082        1087        1086
        1082        1083        1088        1087
        1083        1084        1089        1088
        1085        1086        1091        1090
        1086        1087        1092        1091
        1087        1088        1093        1092
        1088        1089        1094        1093
        1090        1091        1096        1095
        1091        1092        1097        1096
        1092        1093        1098        1097
        1093        1094        1099        1098
        1100        1101        1106        1105
        1101        1102        1107        1106
        1102        1103        1108        1107
        1103        1104        1109        1108
        1105        1106        1111        1110
        1106        1107        1112        1111
        1107        1108        1113        1112
        1108        1109        1114        1113
        1110        1111        1116        1115
        1111        1112        1117        1116
        1112        1113        1118        1117
        1113        1114        1119        1118
        1115        1116        1121        1120
        1116        1117        1122        1121
        1117        1118        1123        1122
        1118        1119        1124        1123
        1125        1126        1131        1130
        1126        1127        1132        1131
        1127        1128        1133        1132
        1128        1129        1134        1133
        1130        1131        1136        1135
        1131        1132        1137        1136
        1132        1133        1138        1137
        1133        1134        1139        1138
        1135        1136        1141        1140
        1136        1137        1142        1141
        1137        1138        1143        1142
        1138        1139        1144        1143
        1140        1141        1146        1145
        1141        1142        1147        1146
        1142        1143        1148        1147
        1143        1144        1149        1148
        1150        1151        1156        1155
        1151        1152        1157        1156
        1152        1153        1158        1157
        1153        1154        1159        1158
        1155        1156        1161        1160
        1156        1157        1162        1161
        1157        1158        1163        1162
        1158        1159        1164        1163
        1160        1161        1166        1165
        1161        1162        1167        1166
        1162        1163        1168        1167
        1163        1164        1169        1168
        1165        1166        1171        1170
        1166        1167        1172        1171
        1167        1168        1173        1172
        1168        1169        1174        1173
        1175        1176        1181        1180
        1176        1177        1182        1181
        1177        1178        1183        1182
        1178        1179        1184        1183
        1180        1181        1186        1185
        1181        1182        1187        1186
        1182        1183        1188        1187
        1183        1184        1189        1188
        1185        1186        1191        1190
        1186        1187        1192        1191
        1187        1188        1193        1192
        1188        1189        1194        1193
        1190        1191        1196        1195
        1191        1192        1197        1196
        1192        1193        1198        1197
        1193        1194        1199        1198
        1200        1201        1206        1205
        1201        1202        1207        1206
        1202        1203        1208        1207
        1203        1204        1209        1208
        1205        1206        1211        1210
        1206        1207        1212        1211
        1207        1208        1213        1212
        1208        1209        1214        1213
        1210        1211        1216        1215
        1211        1212        1217        1216
        1212        1213        1218        1217
        1213        1214        1219        1218
        1215        1216        1221        1220
        1216        1217        1222        1221
        1217        1218        1223        1222
        1218        1219        1224        1223
        1225        1226        1231        1230
        1226        1227        1232        1231
        1227        1228        1233        1232
        1228        1229        1234        1233
        1230        1231        1236        1235
        1231        1232        1237        1236
        1232        1233        1238        1237
        1233        1234        1239        1238
        1235        1236        1241        1240
        1236        1237        1242        1241
        1237        1238        1243        1242
        1238        1239        1244        1243
        1240        1241        1246        1245
        1241        1242        1247        1246
        1242        1243        1248        1247
        1243        1244        1249        1248
        1250        1251        1256        1255
        1251        1252        1257        1256
        1252        1253        1258        1257
        1253        1254        1259        1258
        1255        1256        1261        1260
        1256        1257        1262        1261
        1257        1258        1263        1262
        1258        1259        1264        1263
        1260        1261        1266        1265
        1261        1262        1267        1266
        1262        1263        1268        1267
        1263        1264        1269        1268
        1265        1266        1271        1270
        1266        1267        1272        1271
        1267        1268        1273        1272
        1268        1269        1274        1273
        1275        1276        1281        1280
        1276        1277        1282        1281
        1277        1278        1283        1282
        1278        1279        1284        1283
        1280        1281        1286        1285
        1281        1282        1287        1286
        1282        1283        1288        1287
        1283        1284        1289        1288
        1285        1286        1291        1290
        1286        1287        1292        1291
        1287        1288        1293        1292
        1288        1289        1294        1293
        1290        1291        1296        1295
        1291        1292        1297        1296
        1292        1293        1298        1297
        1293        1294        1299        1298
        1300        1301        1306        1305
        1301        1302        1307        1306
        1302        1303        1308        1307
        1303        1304        1309        1308
        1305        1306        1311        1310
        1306        1307        1312        1311
        1307        1308        1313        1312
        1308        1309        1314        1313
        1310        1311        1316        1315
        1311        1312        1317        1316
        1312        1313        1318        1317
        1313        1314        1319        1318
        1315        1316        1321        1320
        1316        1317        1322        1321
        1317        1318        1323        1322
        1318        1319        1324        1323
        1325        1326        1331        1330
        1326        1327        1332        1331
        1327        1328        1333        1332
        1328        1329        1334        1333
        1330        1331        1336        1335
        1331        1332        1337        1336
        1332        1333        1338        1337
        1333        1334        1339        1338
        1335        1336        1341        1340
        1336        1337        1342        1341
        1337        1338        1343        1342
        1338        1339        1344        1343
        1340        1341        1346        1345
        1341        1342        1347        1346
        1342        1343        1348        1347
        1343        1344        1349        1348
        1350        1351        1356        1355
        1351        1352        1357        1356
        1352        1353        1358        1357
        1353        1354        1359        1358
        1355        1356        1361        1360
        1356        1357        1362        1361
        1357        1358        1363        1362
        1358        1359        1364        1363
        1360        1361        1366        1365
        1361        1362        1367        1366
        1362        1363        1368        1367
        1363        1364        1369        1368
        1365        1366        1371        1370
        1366        1367        1372        1371
        1367        1368        1373        1372
        1368        1369        1374        1373
        1375        1376        1381        1380
        1376        1377        1382        1381
        1377        1378        1383        1382
        1378        1379        1384        1383
        1380        1381        1386        1385
        1381        1382        1387        1386
        1382        1383        1388        1387
        1383        1384        1389        1388
        1385        1386        1391        1390
        1386        1387        1392        1391
        1387        1388        1393        1392
        1388        1389        1394        1393
        1390        1391        1396        1395
        1391        1392        1397        1396
        1392        1393        1398        1397
        1393        1394        1399        1398
        1400        1401        1406        1405
        1401        1402        1407        1406
        1402        1403        1408        1407
        1403        1404        1409        1408
        1405        1406        1411        1410
        1406        1407        1412        1411
        1407        1408        1413        1412
        1408        1409        1414        1413
        1410        1411        1416        1415
        1411        1412        1417        1416
        1412        1413        1418        1417
        1413        1414        1419        1418
        1415        1416        1421        1420
        1416        1417        1422        1421
        1417        1418        1423        1422
        1418        1419        1424        1423
        1425        1426        1431        1430
        1426        1427        1432        1431
        1427        1428        1433        1432
        1428        1429        1434        1433
        1430        1431        1436        1435
        1431        1432        1437        1436
        1432        1433        1438        1437
        1433        1434        1439        1438
        1435        1436        1441        1440
        1436        1437        1442        1441
        1437        1438        1443        1442
        1438        1439        1444        1443
        1440        1441        1446        1445
        1441        1442        1447        1446
        1442        1443        1448        1447
        1443        1444        1449        1448
        1450        1451        1456        1455
        1451        1452        1457        1456
        1452        1453        1458        1457
        1453        1454        1459        1458
        1455        1456        1461        1460
        1456        1457        1462        1461
        1457        1458        1463        1462
        1458        1459        1464        1463
        1460        1461        1466        1465
        1461        1462        1467        1466
        1462        1463        1468        1467
        1463        1464        1469        1468
        1465        1466        1471        1470
        1466        1467        1472        1471
        1467        1468        1473        1472
        1468        1469        1474        1473
        1475        1476        1481        1480
        1476        1477        1482        1481
        1477        1478        1483        1482
        1478        1479        1484        1483
        1480        1481        1486        1485
        1481        1482        1487        1486
        1482        1483        1488        1487
        1483        1484        1489        1488
        1485        1486        1491        1490
        1486        1487        1492        1491
        1487        1488        1493        1492
        1488        1489        1494        1493
        1490        1491        1496        1495
        1491        1492        1497        1496
        1492        1493        1498        1497
        1493        1494        1499        1498
        1500        1501        1506        1505
        1501        1502        1507        1506
        1502        1503        1508        1507
        1503        1504        1509        1508
        1505        1506        1511        1510
        1506        1507        1512        1511
        1507        1508        1513        1512
        1508        1509        1514        1513
        1510        1511        1516        1515
        1511        1512        1517        1516
        1512        1513        1518        1517
        1513        1514        1519        1518
        1515        1516        1521        1520
        1516        1517        1522        1521
        1517        1518        1523        1522
        1518        1519        1524        1523
        1525        1526        1531        1530
        1526        1527        1532        1531
        1527        1528        1533        1532
        1528        1529        1534        1533
        1530        1531        1536        1535
        1531        1532        1537        1536
        1532        1533        1538        1537
        1533        1534        1539        1538
        1535        1536        1541        1540
        1536        1537        1542        1541
        1537        1538        1543        1542
        1538        1539        1544        1543
        1540        1541        1546        1545
        1541        1542        1547        1546
        1542        1543        1548        1547
        1543        1544        1549        1548
        1550        1551        1556        1555
        1551        1552        1557        1556
        1552        1553        1558        1557
        1553        1554        1559        1558
        1555        1556        1561        1560
        1556        1557        1562        1561
        1557        1558        1563        1562
        1558        1559        1564        1563
        1560        1561        1566        1565
        1561        1562        1567        1566
        1562        1563        1568        1567
        1563        1564        1569        1568
        1565        1566        1571        1570
        1566        1567        1572        1571
        1567        1568        1573        1572
        1568        1569        1574        1573
        1575        1576        1581        1580
        1576        1577        1582        1581
        1577        1578        1583        1582
        1578        1579        1584        1583
        1580        1581        1586        1585
        1581        1582        1587        1586
        1582        1583        1588        1587
        1583        1584        1589        1588
        1585        1586        1591        1590
        1586        1587        1592        1591
        1587        1588        1593        1592
        1588        1589        1594        1593
        1590        1591        1596        1595
        1591        1592        1597        1596
        1592        1593        1598        1597
        1593        1594        1599        1598
 </DataArray>
 <DataArray  type="Int32"  Name="offsets"  format="ascii"> 
           4
           8
          12
          16
          20
          24
          28
          32
          36
          40
          44
          48
          52
          56
          60
          64
          68
          72
          76
          80
          84
          88
          92
          96
         100
         104
         108
         112
         116
         120
         124
         128
         132
         136
         140
         144
         148
         152
         156
         160
         164
         168
         172
         176
         180
         184
         188
         192
         196
         200
         204
         208
         212
         216
         220
         224
         228
         232
         236
         240
         244
         248
         252
         256
         260
         264
         268
         272
         276
         280
         284
         288
         292
         296
         300
         304
         308
         312
         316
         320
         324
         328
         332
         336
         340
         344
         348
         352
         356
         360
         364
         368
         372
         376
         380
         384
         388
         392
         396
         400
         404
         408
         412
         416
         420
         424
         428
         432
         436
         440
         444
         448
         452
         456
         460
         464
         468
         472
         476
         480
         484
         488
         492
         496
         500
         504
         508
         512
         516
         520
         524
         528
         532
         536
         540
         544
         548
         552
         556
         560
         564
         568
         572
         576
         580
         584
         588
         592
         596
         600
         604
         608
         612
         616
         620
         624
         628
         632
         636
         640
         644
         648
         652
         656
         660
         664
         668
         672
         676
         680
         684
         688
         692
         696
         700
         704
         708
         712
         716
         720
         724
         728
         732
         736
         740
         744
         748
         752
         756
         760
         764
         768
         772
         776
         780
         784
         788
         792
         796
         800
         804
         808
         812
         816
         820
         824
         828
         832
         836
         840
         844
         848
         852
         856
         860
         864
         868
         872
         876
         880
         884
         888
         892
         896
         900
         904
         908
         912
         916
         920
         924
         928
         932
         936
         940
         944
         948
         952
         956
         960
         964
         968
         972
         976
         980
         984
         988
         992
         996
        1000
        1004
        1008
        1012
        1016
        1020
        1024
        1028
        1032
        1036
        1040
        1044
        1048
        1052
        1056
        1060
        1064
        1068
        1072
        1076
        1080
        1084
        1088
        1092
        1096
        1100
        1104
        1108
        1112
        1116
        1120
        1124
        1128
        1132
        1136
        1140
        1144
        1148
        1152
        1156
        1160
        1164
        1168
        1172
        1176
        1180
        1184
        1188
        1192
        1196
        1200
        1204
        1208
        1212
        1216
        1220
        1224
        1228
        1232
        1236
        1240
        1244
        1248
        1252
        1256
        1260
        1264
        1268
        1272
        1276
        1280
        1284
        1288
        1292
        1296
        1300
        1304
        1308
        1312
        1316
        1320
        1324
        1328
        1332
        1336
        1340
        1344
        1348
        1352
        1356
        1360
        1364
        1368
        1372
        1376
        1380
        1384
        1388
        1392
        1396
        1400
        1404
        1408
        1412
        1416
        1420
        1424
        1428
        1432
        1436
        1440
        1444
        1448
        1452
        1456
        1460
        1464
        1468
        1472
        1476
        1480
        1484
        1488
        1492
        1496
        1500
        1504
        1508
        1512
        1516
        1520
        1524
        1528
        1532
        1536
        1540
        1544
        1548
        1552
        1556
        1560
        1564
        1568
        1572
        1576
        1580
        1584
        1588
        1592
        1596
        1600
        1604
        1608
        1612
        1616
        1620
        1624
        1628
        1632
        1636
        1640
        1644
        1648
        1652
        1656
        1660
        1664
        1668
        1672
        1676
        1680
        1684
        1688
        1692
        1696
        1700
        1704
        1708
        1712
        1716
        1720
        1724
        1728
        1732
        1736
        1740
        1744
        1748
        1752
        1756
        1760
        1764
        1768
        1772
        1776
        1780
        1784
        1788
        1792
        1796
        1800
        1804
        1808
        1812
        1816
        1820
        1824
        1828
        1832
        1836
        1840
        1844
        1848
        1852
        1856
        1860
        1864
        1868
        1872
        1876
        1880
        1884
        1888
        1892
        1896
        1900
        1904
        1908
        1912
        1916
        1920
        1924
        1928
        1932
        1936
        1940
        1944
        1948
        1952
        1956
        1960
        1964
        1968
        1972
        1976
        1980
        1984
        1988
        1992
        1996
        2000
        2004
        2008
        2012
        2016
        2020
        2024
        2028
        2032
        2036
        2040
        2044
        2048
        2052
        2056
        2060
        2064
        2068
        2072
        2076
        2080
        2084
        2088
        2092
        2096
        2100
        2104
        2108
        2112
        2116
        2120
        2124
        2128
        2132
        2136
        2140
        2144
        2148
        2152
        2156
        2160
        2164
        2168
        2172
        2176
        2180
        2184
        2188
        2192
        2196
        2200
        2204
        2208
        2212
        2216
        2220
        2224
        2228
        2232
        2236
        2240
        2244
        2248
        2252
        2256
        2260
        2264
        2268
        2272
        2276
        2280
        2284
        2288
        2292
        2296
        2300
        2304
        2308
        2312
        2316
        2320
        2324
        2328
        2332
        2336
        2340
        2344
        2348
        2352
        2356
        2360
        2364
        2368
        2372
        2376
        2380
        2384
        2388
        2392
        2396
        2400
        2404
        2408
        2412
        2416
        2420
        2424
        2428
        2432
        2436
        2440
        2444
        2448
        2452
        2456
        2460
        2464
        2468
        2472
        2476
        2480
        2484
        2488
        2492
        2496
        2500
        2504
        2508
        2512
        2516
        2520
        2524
        2528
        2532
        2536
        2540
        2544
        2548
        2552
        2556
        2560
        2564
        2568
        2572
        2576
        2580
        2584
        2588
        2592
        2596
        2600
        2604
        2608
        2612
        2616
        2620
        2624
        2628
        2632
        2636
        2640
        2644
        2648
        2652
        2656
        2660
        2664
        2668
        2672
        2676
        2680
        2684
        2688
        2692
        2696
        2700
        2704
        2708
        2712
        2716
        2720
        2724
        2728
        2732
        2736
        2740
        2744
        2748
        2752
        2756
        2760
        2764
        2768
        2772
        2776
        2780
        2784
        2788
        2792
        2796
        2800
        2804
        2808
        2812
        2816
        2820
        2824
        2828
        2832
        2836
        2840
        2844
        2848
        2852
        2856
        2860
        2864
        2868
        2872
        2876
        2880
        2884
        2888
        2892
        2896
        2900
        2904
        2908
        2912
        2916
        2920
        2924
        2928
        2932
        2936
        2940
        2944
        2948
        2952
        2956
        2960
        2964
        2968
        2972
        2976
        2980
        2984
        2988
        2992
        2996
        3000
        3004
        3008
        3012
        3016
        3020
        3024
        3028
        3032
        3036
        3040
        3044
        3048
        3052
        3056
        3060
        3064
        3068
        3072
        3076
        3080
        3084
        3088
        3092
        3096
        3100
        3104
        3108
        3112
        3116
        3120
        3124
        3128
        3132
        3136
        3140
        3144
        3148
        3152
        3156
        3160
        3164
        3168
        3172
        3176
        3180
        3184
        3188
        3192
        3196
        3200
        3204
        3208
        3212
        3216
        3220
        3224
        3228
        3232
        3236
        3240
        3244
        3248
        3252
        3256
        3260
        3264
        3268
        3272
        3276
        3280
        3284
        3288
        3292
        3296
        3300
        3304
        3308
        3312
        3316
        3320
        3324
        3328
        3332
        3336
        3340
        3344
        3348
        3352
        3356
        3360
        3364
        3368
        3372
        3376
        3380
        3384
        3388
        3392
        3396
        3400
        3404
        3408
        3412
        3416
        3420
        3424
        3428
        3432
        3436
        3440
        3444
        3448
        3452
        3456
        3460
        3464
        3468
        3472
        3476
        3480
        3484
        3488
        3492
        3496
        3500
        3504
        3508
        3512
        3516
        3520
        3524
        3528
        3532
        3536
        3540
        3544
        3548
        3552
        3556
        3560
        3564
        3568
        3572
        3576
        3580
        3584
        3588
        3592
        3596
        3600
        3604
        3608
        3612
        3616
        3620
        3624
        3628
        3632
        3636
        3640
        3644
        3648
        3652
        3656
        3660
        3664
        3668
        3672
        3676
        3680
        3684
        3688
        3692
        3696
        3700
        3704
        3708
        3712
        3716
        3720
        3724
        3728
        3732
        3736
        3740
        3744
        3748
        3752
        3756
        3760
        3764
        3768
        3772
        3776
        3780
        3784
        3788
        3792
        3796
        3800
        3804
        3808
        3812
        3816
        3820
        3824
        3828
        3832
        3836
        3840
        3844
        3848
        3852
        3856
        3860
        3864
        3868
        3872
        3876
        3880
        3884
        3888
        3892
        3896
        3900
        3904
        3908
        3912
        3916
        3920
        3924
        3928
        3932
        3936
        3940
        3944
        3948
        3952
        3956
        3960
        3964
        3968
        3972
        3976
        3980
        3984
        3988
        3992
        3996
        4000
        4004
        4008
        4012
        4016
        4020
        4024
        4028
        4032
        4036
        4040
        4044
        4048
        4052
        4056
        4060
        4064
        4068
        4072
        4076
        4080
        4084
        4088
        4092
        4096
 </DataArray>
 <DataArray  type="UInt8"  Name="types"  format="ascii">
 9
 9
 9
 9
 9
 9
 9
 9
 9
 9
 9
 9
 9
 9
 9
 9
 9
 9
 9
 9
 9
 9
 9
 9
 9
 9
 9
 9
 9
 9
 9
 9
 9
 9
 9
 9
 9
 9
 9
 9
 9
 9
 9
 9
 9
 9
 9
 9
 9
 9
 9
 9
 9
 9
 9
 9
 9
 9
 9
 9
 9
 9
 9
 9
 9
 9
 9
 9
 9
 9
 9
 9
 9
 9
 9
 9
 9
 9
 9
 9
 9
 9
 9
 9
 9
 9
 9
 9
 9
 9
 9
 9
 9
 9
 9
 9
 9
 9
 9
 9
 9
 9
 9
 9
 9
 9
 9
 9
 9
 9
 9
 9
 9
 9
 9
 9
 9
 9
 9
 9
 9
 9
 9
 9
 9
 9
 9
 9
 9
 9
 9
 9
 9
 9
 9
 9
 9
 9
 9
 9
 9
 9
 9
 9
 9
 9
 9
 9
 9
 9
 9
 9
 9
 9
 9
 9
 9
 9
 9
 9
 9
 9
 9
 9
 9
 9
 9
 9
 9
 9
 9
 9
 9
 9
 9
 9
 9
 9
 9
 9
 9
 9
 9
 9
 9
 9
 9
 9
 9
 9
 9
 9
 9
 9
 9
 9
 9
 9
 9
 9
 9
 9
 9
 9
 9
 9
 9
 9
 9
 9
 9
 9
 9
 9
 9
 9
 9
 9
 9
 9
 9
 9
 9
 9
 9
 9
 9
 9
 9
 9
 9
 9
 9
 9
 9
 9
 9
 9
 9
 9
 9
 9
 9
 9
 9
 9
 9
 9
 9
 9
 9
 9
 9
 9
 9
 9
 9
 9
 9
 9
 9
 9
 9
 9
 9
 9
 9
 9
 9
 9
 9
 9
 9
 9
 9
 9
 9
 9
 9
 9
 9
 9
 9
 9
 9
 9
 9
 9
 9
 9
 9
 9
 9
 9
 9
 9
 9
 9
 9
 9
 9
 9
 9
 9
 9
 9
 9
 9
 9
 9
 9
 9
 9
 9
 9
 9
 9
 9
 9
 9
 9
 9
 9
 9
 9
 9
 9
 9
 9
 9
 9
 9
 9
 9
 9
 9
 9
 9
 9
 9
 9
 9
 9
 9
 9
 9
 9
 9
 9
 9
 9
 9
 9
 9
 9
 9
 9
 9
 9
 9
 9
 9
 9
 9
 9
 9
 9
 9
 9
 9
 9
 9
 9
 9
 9
 9
 9
 9
 9
 9
 9
 9
 9
 9
 9
 9
 9
 9
 9
 9
 9
 9
 9
 9
 9
 9
 9
 9
 9
 9
 9
 9
 9
 9
 9
 9
 9
 9
 9
 9
 9
 9
 9
 9
 9
 9
 9
 9
 9
 9
 9
 9
 9
 9
 9
 9
 9
 9
 9
 9
 9
 9
 9
 9
 9
 9
 9
 9
 9
 9
 9
 9
 9
 9
 9
 9
 9
 9
 9
 9
 9
 9
 9
 9
 9
 9
 9
 9
 9
 9
 9
 9
 9
 9
 9
 9
 9
 9
 9
 9
 9
 9
 9
 9
 9
 9
 9
 9
 9
 9
 9
 9
 9
 9
 9
 9
 9
 9
 9
 9
 9
 9
 9
 9
 9
 9
 9
 9
 9
 9
 9
 9
 9
 9
 9
 9
 9
 9
 9
 9
 9
 9
 9
 9
 9
 9
 9
 9
 9
 9
 9
 9
 9
 9
 9
 9
 9
 9
 9
 9
 9
 9
 9
 9
 9
 9
 9
 9
 9
 9
 9
 9
 9
 9
 9
 9
 9
 9
 9
 9
 9
 9
 9
 9
 9
 9
 9
 9
 9
 9
 9
 9
 9
 9
 9
 9
 9
 9
 9
 9
 9
 9
 9
 9
 9
 9
 9
 9
 9
 9
 9
 9
 9
 9
 9
 9
 9
 9
 9
 9
 9
 9
 9
 9
 9
 9
 9
 9
 9
 9
 9
 9
 9
 9
 9
 9
 9
 9
 9
 9
 9
 9
 9
 9
 9
 9
 9
 9
 9
 9
 9
 9
 9
 9
 9
 9
 9
 9
 9
 9
 9
 9
 9
 9
 9
 9
 9
 9
 9
 9
 9
 9
 9
 9
 9
 9
 9
 9
 9
 9
 9
 9
 9
 9
 9
 9
 9
 9
 9
 9
 9
 9
 9
 9
 9
 9
 9
 9
 9
 9
 9
 9
 9
 9
 9
 9
 9
 9
 9
 9
 9
 9
 9
 9
 9
 9
 9
 9
 9
 9
 9
 9
 9
 9
 9
 9
 9
 9
 9
 9
 9
 9
 9
 9
 9
 9
 9
 9
 9
 9
 9
 9
 9
 9
 9
 9
 9
 9
 9
 9
 9
 9
 9
 9
 9
 9
 9
 9
 9
 9
 9
 9
 9
 9
 9
 9
 9
 9
 9
 9
 9
 9
 9
 9
 9
 9
 9
 9
 9
 9
 9
 9
 9
 9
 9
 9
 9
 9
 9
 9
 9
 9
 9
 9
 9
 9
 9
 9
 9
 9
 9
 9
 9
 9
 9
 9
 9
 9
 9
 9
 9
 9
 9
 9
 9
 9
 9
 9
 9
 9
 9
 9
 9
 9
 9
 9
 9
 9
 9
 9
 9
 9
 9
 9
 9
 9
 9
 9
 9
 9
 9
 9
 9
 9
 9
 9
 9
 9
 9
 9
 9
 9
 9
 9
 9
 9
 9
 9
 9
 9
 9
 9
 9
 9
 9
 9
 9
 9
 9
 9
 9
 9
 9
 9
 9
 9
 9
 9
 9
 9
 9
 9
 9
 9
 9
 9
 9
 9
 9
 9
 9
 9
 9
 9
 9
 9
 9
 9
 9
 9
 9
 9
 9
 9
 9
 9
 9
 9
 9
 9
 9
 9
 9
 9
 9
 9
 9
 9
 9
 9
 9
 9
 9
 9
 9
 9
 9
 9
 9
 9
 9
 9
 9
 9
 9
 9
 9
 9
 9
 9
 9
 9
 9
 9
 9
 9
 9
 9
 9
 9
 9
 9
 9
 9
 9
 9
 9
 9
 9
 9
 9
 9
 9
 9
 9
 9
 9
 9
 9
 9
 9
 9
 9
 9
 9
 9
 9
 9
 9
 9
 9
 9
 9
 9
 9
 9
 9
 9
 9
 9
 9
 9
 9
 9
 9
 9
 9
 9
 9
 9
 9
 9
 9
 9
 9
 9
 9
 9
 9
 9
 9
 9
 9
 9
 9
 9
 9
 9
 9
 9
 9
 9
 9
 9
 9
 9
 9
 9
 9
 9
 9
 9
 9
 9
 9
 9
 9
 9
 9
 9
 9
 9
 9
 9
 9
 9
 9
 9
 9
 9
 9
 9
 9
 9
 </DataArray>
 </Cells> 
 <PointData>
 <DataArray  type="Float64" Name="disp" NumberOfComponents="3" format="ascii">
   6.5224046169933436E-002   6.2786162877341095E-002   0.0000000000000000     
   6.8400163115339474E-002   6.8161535404907381E-002   0.0000000000000000     
   7.1426953008331864E-002   7.3722529929569972E-002   0.0000000000000000     
   7.4304415848910635E-002   7.9469146451328868E-002   0.0000000000000000     
   7.7032551637075758E-002   8.5401384970184069E-002   0.0000000000000000     
   6.0164301186310304E-002   6.1888634146745752E-002   0.0000000000000000     
   6.3125606353753888E-002   6.7286403083588062E-002   0.0000000000000000     
   6.5949060092176881E-002   7.2872209245729971E-002   0.0000000000000000     
   6.8634662401579297E-002   7.8646052633171468E-002   0.0000000000000000     
   7.1182413281961149E-002   8.4607933245912578E-002   0.0000000000000000     
   5.5233973141992583E-002   6.1045927153770677E-002   0.0000000000000000     
   5.7990633452071408E-002   6.6465370745638727E-002   0.0000000000000000     
   6.0619817629879502E-002   7.2075050465945853E-002   0.0000000000000000     
   6.3121525675416845E-002   7.7874966314692096E-002   0.0000000000000000     
   6.5495757588683451E-002   8.3865118291877400E-002   0.0000000000000000     
   5.0433062036980267E-002   6.0258041898415847E-002   0.0000000000000000     
   5.2995244410292047E-002   6.5698438391059363E-002   0.0000000000000000     
   5.5439225621439707E-002   7.1331053590217644E-002   0.0000000000000000     
   5.7765005670423260E-002   7.7155887495890710E-002   0.0000000000000000     
   5.9972584557242692E-002   8.3172940108078561E-002   0.0000000000000000     
   4.5761567871273355E-002   5.9524978380681284E-002   0.0000000000000000     
   4.8139439228415785E-002   6.4985606019849956E-002   0.0000000000000000     
   5.0407284066857523E-002   7.0640218618545331E-002   0.0000000000000000     
   5.2565102386598540E-002   7.6488816176767366E-002   0.0000000000000000     
   5.4612894187638851E-002   8.2531398694516062E-002   0.0000000000000000     
   7.7032551637075758E-002   8.5401384970184069E-002   0.0000000000000000     
   7.9651587066987273E-002   9.1503873062370483E-002   0.0000000000000000     
   8.2201748832805219E-002   9.7761238304123060E-002   0.0000000000000000     
   8.4683036934529596E-002  0.10417348069544174        0.0000000000000000     
   8.7095451372160376E-002  0.11074060023632659        0.0000000000000000     
   7.1182413281961149E-002   8.4607933245912578E-002   0.0000000000000000     
   7.3629856153979739E-002   9.0740684889004566E-002   0.0000000000000000     
   7.6014534438292480E-002   9.7027141367498765E-002   0.0000000000000000     
   7.8336448134899345E-002  0.10346730268139522        0.0000000000000000     
   8.0595597243800332E-002  0.11006116883069383        0.0000000000000000     
   6.5495757588683451E-002   8.3865118291877400E-002   0.0000000000000000     
   6.7777274827655692E-002   9.0026630475891586E-002   0.0000000000000000     
   7.0000838850309999E-002   9.6340626945124477E-002   0.0000000000000000     
   7.2166449656646342E-002  0.10280710769957604        0.0000000000000000     
   7.4274107246664708E-002  0.10942607273924630        0.0000000000000000     
   5.9972584557242692E-002   8.3172940108078561E-002   0.0000000000000000     
   6.2093843088015140E-002   8.9361709823031571E-002   0.0000000000000000     
   6.4160662068857760E-002   9.5701695037000142E-002   0.0000000000000000     
   6.6173041499770560E-002  0.10219289574998426        0.0000000000000000     
   6.8130981380753533E-002  0.10883531196198394        0.0000000000000000     
   5.4612894187638851E-002   8.2531398694516062E-002   0.0000000000000000     
   5.6579560935058060E-002   8.8745922930424506E-002   0.0000000000000000     
   5.8494004093935785E-002   9.5110345643125774E-002   0.0000000000000000     
   6.0356223664272006E-002  0.10162466683261989        0.0000000000000000     
   6.2166219646066750E-002  0.10828888649890681        0.0000000000000000     
   8.7095451372160376E-002  0.11074060023632659        0.0000000000000000     
   8.9419759728103440E-002  0.11745227029186595        0.0000000000000000     
   9.1636729584764556E-002  0.12429816422714818        0.0000000000000000     
   9.3746360942143808E-002  0.13127828204217329        0.0000000000000000     
   9.5748653800241112E-002  0.13839262373694125        0.0000000000000000     
   8.0595597243800332E-002  0.11006116883069383        0.0000000000000000     
   8.2773099470017347E-002  0.11679931560341114        0.0000000000000000     
   8.4850072518572336E-002  0.12367231878756355        0.0000000000000000     
   8.6826516389465216E-002  0.13068017838315105        0.0000000000000000     
   8.8702431082696043E-002  0.13782289439017373        0.0000000000000000     
   7.4274107246664708E-002  0.10942607273924630        0.0000000000000000     
   7.6305802426460415E-002  0.11618903467198091        0.0000000000000000     
   7.8243526002128638E-002  0.12308750610562559        0.0000000000000000     
   8.0087277973669435E-002  0.13012148704018039        0.0000000000000000     
   8.1837058341082777E-002  0.13729097747564523        0.0000000000000000     
   6.8130981380753533E-002  0.10883531196198394        0.0000000000000000     
   7.0017868597432545E-002  0.11562142749757527        0.0000000000000000     
   7.1817090035433503E-002  0.12254372618133436        0.0000000000000000     
   7.3528645694756423E-002  0.12960220801326122        0.0000000000000000     
   7.5152535575401316E-002  0.13679687299335583        0.0000000000000000     
   6.2166219646066750E-002  0.10828888649890681        0.0000000000000000     
   6.3909297982933794E-002  0.11509649408019423        0.0000000000000000     
   6.5570764618486960E-002  0.12204097901468980        0.0000000000000000     
   6.7150619552726248E-002  0.12912234130239353        0.0000000000000000     
   6.8648862785651618E-002  0.13634058094330542        0.0000000000000000     
   9.5748653800241112E-002  0.13839262373694125        0.0000000000000000     
   9.7652686795659471E-002  0.14562910210050353        0.0000000000000000     
   9.9467538565001803E-002  0.15297562992191152        0.0000000000000000     
  0.10119320910826816       0.16043220720116522        0.0000000000000000     
  0.10282969842545850       0.16799883393826465        0.0000000000000000     
   8.8702431082696043E-002  0.13782289439017373        0.0000000000000000     
   9.0485865197580534E-002  0.14508758998481941        0.0000000000000000     
   9.2184867333434423E-002  0.15246138834327602        0.0000000000000000     
   9.3799437490257695E-002  0.15994428946554359        0.0000000000000000     
   9.5329575668050393E-002  0.16753629335162212        0.0000000000000000     
   8.1837058341082777E-002  0.13729097747564523        0.0000000000000000     
   8.3499984789245030E-002  0.14458247834536289        0.0000000000000000     
   8.5083175003032585E-002  0.15198249058267604        0.0000000000000000     
   8.6586628982445374E-002  0.15949101418758477        0.0000000000000000     
   8.8010346727483452E-002  0.16710804916008895        0.0000000000000000     
   7.5152535575401316E-002  0.13679687299335583        0.0000000000000000     
   7.6695045570652959E-002  0.14411376718213398        0.0000000000000000     
   7.8162461573796235E-002  0.15153893664011164        0.0000000000000000     
   7.9554783584831160E-002  0.15907238136728871        0.0000000000000000     
   8.0872011603757704E-002  0.16671410136366524        0.0000000000000000     
   6.8648862785651618E-002  0.13634058094330542        0.0000000000000000     
   7.0071047541804293E-002  0.14368145649513275        0.0000000000000000     
   7.1422727045725443E-002  0.15113072651558274        0.0000000000000000     
   7.2703901297415052E-002  0.15868839100465545        0.0000000000000000     
   7.3914570296873122E-002  0.16635444996235083        0.0000000000000000     
  0.10282969842545850       0.16799883393826465        0.0000000000000000     
  0.10437803863627759       0.17566526397948423        0.0000000000000000     
  0.10583926186043024       0.18342125117109831        0.0000000000000000     
  0.10721336809791640       0.19126679551310694        0.0000000000000000     
  0.10850035734873609       0.19920189700551008        0.0000000000000000     
   9.5329575668050393E-002  0.16753629335162212        0.0000000000000000     
   9.6775553895597666E-002  0.17522794010189222        0.0000000000000000     
   9.8137644201684790E-002  0.18300976981673445        0.0000000000000000     
   9.9415846586311710E-002  0.19088178249614882        0.0000000000000000     
  0.10061016104947848       0.19884397814013541        0.0000000000000000     
   8.8010346727483452E-002  0.16710804916008895        0.0000000000000000     
   8.9353830168262580E-002  0.17482454856797697        0.0000000000000000     
   9.0616581234898602E-002  0.18263146547903700        0.0000000000000000     
   9.1798599927391436E-002  0.19052879989326912        0.0000000000000000     
   9.2899886245741164E-002  0.19851655181067321        0.0000000000000000     
   8.0872011603757704E-002  0.16671410136366524        0.0000000000000000     
   8.2112867454272362E-002  0.17445508937773849        0.0000000000000000     
   8.3276072960071668E-002  0.18228633815800602        0.0000000000000000     
   8.4361628121155580E-002  0.19020784770446764        0.0000000000000000     
   8.5369532937524167E-002  0.19821961801712351        0.0000000000000000     
   7.3914570296873122E-002  0.16635444996235083        0.0000000000000000     
   7.5052665753626985E-002  0.17411956253117680        0.0000000000000000     
   7.6116119377204000E-002  0.18197438785364140        0.0000000000000000     
   7.7104931167604154E-002  0.18991892592974455        0.0000000000000000     
   7.8019101124827461E-002  0.19795317675948626        0.0000000000000000     
  0.10850035734873609       0.19920189700551008        0.0000000000000000     
  0.10970635734070898       0.20722241711283071        0.0000000000000000     
  0.11083749580165475       0.21532421729959172        0.0000000000000000     
  0.11189377273157343       0.22350729756579316        0.0000000000000000     
  0.11287518813046499       0.23177165791143495        0.0000000000000000     
  0.10061016104947848       0.19884397814013541        0.0000000000000000     
  0.10172605830222714       0.20688984487256029        0.0000000000000000     
  0.10276900905559985       0.21501287081728956        0.0000000000000000     
  0.10373901330959658       0.22321305597432331        0.0000000000000000     
  0.10463607106421732       0.23149040034366145        0.0000000000000000     
   9.2899886245741164E-002  0.19851655181067321        0.0000000000000000     
   9.3924783210167187E-002  0.20658689165765817        0.0000000000000000     
   9.4877633840889000E-002  0.21473198986063269        0.0000000000000000     
   9.5758438137906535E-002  0.22295184641959681        0.0000000000000000     
   9.6567196101219901E-002  0.23124646133455054        0.0000000000000000     
   8.5369532937524167E-002  0.19821961801712351        0.0000000000000000     
   8.6302532064529119E-002  0.20631355746812441        0.0000000000000000     
   8.7163370157522166E-002  0.21448157442962112        0.0000000000000000     
   8.7952047216503418E-002  0.22272366890161369        0.0000000000000000     
   8.8668563241472750E-002  0.23103984088410218        0.0000000000000000     
   7.8019101124827461E-002  0.19795317675948626        0.0000000000000000     
   7.8859304865312868E-002  0.20606984230395889        0.0000000000000000     
   7.9626218005499433E-002  0.21426162452425479        0.0000000000000000     
   8.0319840545387086E-002  0.22252852342037394        0.0000000000000000     
   8.0940172484975856E-002  0.23087053899231633        0.0000000000000000     
  0.11287518813046499       0.23177165791143495        0.0000000000000000     
  0.11380967731354075       0.24013418144449036        0.0000000000000000     
  0.11472517559601199       0.24861175127293264        0.0000000000000000     
  0.11562168297787875       0.25720436739676183        0.0000000000000000     
  0.11649919945914101       0.26591202981597784        0.0000000000000000     
  0.10463607106421732       0.23149040034366145        0.0000000000000000     
  0.10546512630474639       0.23986864837943306        0.0000000000000000     
  0.10623112301646813       0.24837154453576701        0.0000000000000000     
  0.10693406119938256       0.25699908881266331        0.0000000000000000     
  0.10757394085348966       0.26575128121012204        0.0000000000000000     
   9.6567196101219901E-002  0.23124646133455054        0.0000000000000000     
   9.7294766083087250E-002  0.23964250839893558        0.0000000000000000     
   9.7932006435766925E-002  0.24816666140619373        0.0000000000000000     
   9.8478917159258855E-002  0.25681892035632498        0.0000000000000000     
   9.8935498253563056E-002  0.26559928524932924        0.0000000000000000     
   8.8668563241472750E-002  0.23103984088410218        0.0000000000000000     
   8.9298596648563322E-002  0.23945576150299802        0.0000000000000000     
   8.9827825853908277E-002  0.24799710188421287        0.0000000000000000     
   9.0256250857507575E-002  0.25666386202774666        0.0000000000000000     
   9.0583871659361229E-002  0.26545604193359945        0.0000000000000000     
   8.0940172484975856E-002  0.23087053899231633        0.0000000000000000     
   8.1476618001174630E-002  0.23930840769162037        0.0000000000000000     
   8.1918581270892257E-002  0.24786286596982443        0.0000000000000000     
   8.2266062294128792E-002  0.25653391382692853        0.0000000000000000     
   8.2519061070884192E-002  0.26532155126293250        0.0000000000000000     
  0.11649919945914101       0.26591202981597784        0.0000000000000000     
  0.11729807375288409       0.27489921521151162        0.0000000000000000     
  0.11795865457219325       0.28433040026429407        0.0000000000000000     
  0.11848094191706852       0.29420558497432536        0.0000000000000000     
  0.11886493578750991       0.30452476934160527        0.0000000000000000     
  0.10757394085348966       0.26575128121012204        0.0000000000000000     
  0.10813175971423812       0.27476018283504039        0.0000000000000000     
  0.10858851551707668       0.28415785479431571        0.0000000000000000     
  0.10894420826200536       0.29394429708794789        0.0000000000000000     
  0.10919883794902412       0.30411950971593693        0.0000000000000000     
   9.8935498253563056E-002  0.26559928524932924        0.0000000000000000     
   9.9312738270819503E-002  0.27460599970827565        0.0000000000000000     
   9.9621625763168145E-002  0.28393730735623302        0.0000000000000000     
   9.9862160730608940E-002  0.29359320819320134        0.0000000000000000     
  0.10003434317314192       0.30357370221918073        0.0000000000000000     
   9.0583871659361229E-002  0.26545604193359945        0.0000000000000000     
   9.0841009422628224E-002  0.27443666583121717        0.0000000000000000     
   9.1057985310467562E-002  0.28366875795004592        0.0000000000000000     
   9.1234799322879270E-002  0.29315231829008576        0.0000000000000000     
   9.1371451459863307E-002  0.30288734685133667        0.0000000000000000     
   8.2519061070884192E-002  0.26532155126293250        0.0000000000000000     
   8.2716573169664298E-002  0.27425218120386508        0.0000000000000000     
   8.2897594158975033E-002  0.28335220657575466        0.0000000000000000     
   8.3062124038816354E-002  0.29262162737860115        0.0000000000000000     
   8.3210162809188290E-002  0.30206044361240469        0.0000000000000000     
   4.5761567871273355E-002   5.9524978380681284E-002   0.0000000000000000     
   4.8139439228415785E-002   6.4985606019849956E-002   0.0000000000000000     
   5.0407284066857523E-002   7.0640218618545331E-002   0.0000000000000000     
   5.2565102386598540E-002   7.6488816176767366E-002   0.0000000000000000     
   5.4612894187638851E-002   8.2531398694516062E-002   0.0000000000000000     
   4.1252805826107082E-002   5.8849029488397119E-002   0.0000000000000000     
   4.3446569150164704E-002   6.4328801164592136E-002   0.0000000000000000     
   4.5538614069355221E-002   7.0004004278421850E-002   0.0000000000000000     
   4.7528940583678646E-002   7.5874638829886265E-002   0.0000000000000000     
   4.9417548693134986E-002   8.1940704818985410E-002   0.0000000000000000     
   3.6940091082716675E-002   5.8232488109393500E-002   0.0000000000000000     
   3.8939985419260838E-002   6.3729951357867395E-002   0.0000000000000000     
   4.0847836732155127E-002   6.9423869297340152E-002   0.0000000000000000     
   4.2663645021399542E-002   7.5314241927811693E-002   0.0000000000000000     
   4.4387410286994097E-002   8.1401069249282115E-002   0.0000000000000000     
   3.2823423641102120E-002   5.7675354243670408E-002   0.0000000000000000     
   3.4619688035704199E-002   6.3189056599675775E-002   0.0000000000000000     
   3.6334952055257233E-002   6.8899813675300195E-002   0.0000000000000000     
   3.7969215699761236E-002   7.4807625470543676E-002   0.0000000000000000     
   3.9522478969216200E-002   8.0912491985406204E-002   0.0000000000000000     
   2.8902803501263438E-002   5.7177627891227850E-002   0.0000000000000000     
   3.0485676999494782E-002   6.2706116890017274E-002   0.0000000000000000     
   3.1999960038661533E-002   6.8431837412302035E-002   0.0000000000000000     
   3.3445652618763706E-002   7.4354789458082146E-002   0.0000000000000000     
   3.4822754739801301E-002   8.0474973027357635E-002   0.0000000000000000     
   5.4612894187638851E-002   8.2531398694516062E-002   0.0000000000000000     
   5.6579560935058060E-002   8.8745922930424506E-002   0.0000000000000000     
   5.8494004093935785E-002   9.5110345643125774E-002   0.0000000000000000     
   6.0356223664272006E-002  0.10162466683261989        0.0000000000000000     
   6.2166219646066750E-002  0.10828888649890681        0.0000000000000000     
   4.9417548693134986E-002   8.1940704818985410E-002   0.0000000000000000     
   5.1230206652085677E-002   8.8178897507741730E-002   0.0000000000000000     
   5.2992682714892200E-002   9.4565912158177681E-002   0.0000000000000000     
   5.4704976881554568E-002  0.10110174877029331        0.0000000000000000     
   5.6367089152072766E-002  0.10778640734408859        0.0000000000000000     
   4.4387410286994097E-002   8.1401069249282115E-002   0.0000000000000000     
   4.6041558522399169E-002   8.7660261264654538E-002   0.0000000000000000     
   4.7648515721075160E-002   9.4067727976832161E-002   0.0000000000000000     
   4.9208281883022086E-002  0.10062346938581494        0.0000000000000000     
   5.0720857008239924E-002  0.10732748549160295        0.0000000000000000     
   3.9522478969216200E-002   8.0912491985406204E-002   0.0000000000000000     
   4.1013616545998548E-002   8.7190014201162971E-002   0.0000000000000000     
   4.2461503112484672E-002   9.3615793099089156E-002   0.0000000000000000     
   4.3866138668674559E-002  0.10018982867918481        0.0000000000000000     
   4.5227523214568237E-002  0.10691212094144989        0.0000000000000000     
   3.4822754739801301E-002   8.0474973027357635E-002   0.0000000000000000     
   3.6146380722883800E-002   8.6768156317267003E-002   0.0000000000000000     
   3.7431644889120701E-002   9.3210107524948738E-002   0.0000000000000000     
   3.8678547238512002E-002   9.9800826650402880E-002   0.0000000000000000     
   3.9887087771057698E-002  0.10654031369362943        0.0000000000000000     
   6.2166219646066750E-002  0.10828888649890681        0.0000000000000000     
   6.3909297982933794E-002  0.11509649408019423        0.0000000000000000     
   6.5570764618486960E-002  0.12204097901468980        0.0000000000000000     
   6.7150619552726248E-002  0.12912234130239353        0.0000000000000000     
   6.8648862785651618E-002  0.13634058094330542        0.0000000000000000     
   5.6367089152072766E-002  0.10778640734408859        0.0000000000000000     
   5.7966320941192799E-002  0.11461422636559893        0.0000000000000000     
   5.9489973663660684E-002  0.12157954432085977        0.0000000000000000     
   6.0938047319476399E-002  0.12868236120987109        0.0000000000000000     
   6.2310541908639945E-002  0.13592267703263289        0.0000000000000000     
   5.0720857008239924E-002  0.10732748549160295        0.0000000000000000     
   5.2175167830438199E-002  0.11417461629955050        0.0000000000000000     
   5.3560141083326379E-002  0.12115970181501204        0.0000000000000000     
   5.4875776766904479E-002  0.12828274203798748        0.0000000000000000     
   5.6122074881172476E-002  0.13554373696847691        0.0000000000000000     
   4.5227523214568237E-002  0.10691212094144989        0.0000000000000000     
   4.6535838650669986E-002  0.11377766388204896        0.0000000000000000     
   4.7781266877484067E-002  0.12078145149714660        0.0000000000000000     
   4.8963807895010487E-002  0.12792348378674279        0.0000000000000000     
   5.0083461703249239E-002  0.13520376075083751        0.0000000000000000     
   3.9887087771057698E-002  0.10654031369362943        0.0000000000000000     
   4.1048333401888154E-002  0.11342336911309429        0.0000000000000000     
   4.2153351046133714E-002  0.12044479336726348        0.0000000000000000     
   4.3202140703794405E-002  0.12760458645613695        0.0000000000000000     
   4.4194702374870207E-002  0.13490274837971472        0.0000000000000000     
   6.8648862785651618E-002  0.13634058094330542        0.0000000000000000     
   7.0071047541804293E-002  0.14368145649513275        0.0000000000000000     
   7.1422727045725443E-002  0.15113072651558274        0.0000000000000000     
   7.2703901297415052E-002  0.15868839100465545        0.0000000000000000     
   7.3914570296873122E-002  0.16635444996235083        0.0000000000000000     
   6.2310541908639945E-002  0.13592267703263289        0.0000000000000000     
   6.3612313617317340E-002  0.14328608894607170        0.0000000000000000     
   6.4848218631674587E-002  0.15075819410711408        0.0000000000000000     
   6.6018256951711665E-002  0.15833899251576000        0.0000000000000000     
   6.7122428577428603E-002  0.16602848417200944        0.0000000000000000     
   5.6122074881172476E-002  0.13554373696847691        0.0000000000000000     
   5.7303166711810370E-002  0.14292820719666346        0.0000000000000000     
   5.8423183544498082E-002  0.15042167331273026        0.0000000000000000     
   5.9482125379235640E-002  0.15802413531667736        0.0000000000000000     
   6.0479992216023029E-002  0.16573559320850473        0.0000000000000000     
   5.0083461703249239E-002  0.13520376075083751        0.0000000000000000     
   5.1143606825283378E-002  0.14260781124690797        0.0000000000000000     
   5.2147621784195949E-002  0.15012116413243132        0.0000000000000000     
   5.3095506579986955E-002  0.15774381940740750        0.0000000000000000     
   5.3987261212656380E-002  0.16547577707183661        0.0000000000000000     
   4.4194702374870207E-002  0.13490274837971472        0.0000000000000000     
   4.5133633957736376E-002  0.14232490109680529        0.0000000000000000     
   4.6021533350768175E-002  0.14985666656621724        0.0000000000000000     
   4.6858400553965618E-002  0.15749804478795054        0.0000000000000000     
   4.7644235567328684E-002  0.16524903576200517        0.0000000000000000     
   7.3914570296873122E-002  0.16635444996235083        0.0000000000000000     
   7.5052665753626985E-002  0.17411956253117680        0.0000000000000000     
   7.6116119377204000E-002  0.18197438785364140        0.0000000000000000     
   7.7104931167604154E-002  0.18991892592974455        0.0000000000000000     
   7.8019101124827461E-002  0.19795317675948626        0.0000000000000000     
   6.7122428577428603E-002  0.16602848417200944        0.0000000000000000     
   6.8158021996292645E-002  0.17381687168091700        0.0000000000000000     
   6.9122325695771064E-002  0.18169435764753714        0.0000000000000000     
   7.0015339675863847E-002  0.18966094207186990        0.0000000000000000     
   7.0837063936570993E-002  0.19771662495391523        0.0000000000000000     
   6.0479992216023029E-002  0.16573559320850473        0.0000000000000000     
   6.1413733112235483E-002  0.17354592047958409        0.0000000000000000     
   6.2280297125248255E-002  0.18144499062128711        0.0000000000000000     
   6.3079684255061316E-002  0.18943280363361384        0.0000000000000000     
   6.3811894501674710E-002  0.19750935951656423        0.0000000000000000     
   5.3987261212656380E-002  0.16547577707183661        0.0000000000000000     
   5.4819799101455513E-002  0.17330670892717809        0.0000000000000000     
   5.5590033665635578E-002  0.18122628677489130        0.0000000000000000     
   5.6297964905196604E-002  0.18923451061497634        0.0000000000000000     
   5.6943592820138590E-002  0.19733138044743317        0.0000000000000000     
   4.7644235567328684E-002  0.16524903576200517        0.0000000000000000     
   4.8376219963952721E-002  0.17309923702369895        0.0000000000000000     
   4.9051535316933056E-002  0.18103824610834970        0.0000000000000000     
   4.9670181626269704E-002  0.18906606301595744        0.0000000000000000     
   5.0232158891962635E-002  0.19718268774652209        0.0000000000000000     
   7.8019101124827461E-002  0.19795317675948626        0.0000000000000000     
   7.8859304865312868E-002  0.20606984230395889        0.0000000000000000     
   7.9626218005499433E-002  0.21426162452425479        0.0000000000000000     
   8.0319840545387086E-002  0.22252852342037394        0.0000000000000000     
   8.0940172484975856E-002  0.23087053899231633        0.0000000000000000     
   7.0837063936570993E-002  0.19771662495391523        0.0000000000000000     
   7.1586277785344904E-002  0.20585501559446343        0.0000000000000000     
   7.2261760529637953E-002  0.21406972329430440        0.0000000000000000     
   7.2863512169450126E-002  0.22236074805343833        0.0000000000000000     
   7.3391532704781423E-002  0.23072808987186516        0.0000000000000000     
   6.3811894501674710E-002  0.19750935951656423        0.0000000000000000     
   6.4474626997451545E-002  0.20566834676893944        0.0000000000000000     
   6.5065580874754989E-002  0.21390345388954063        0.0000000000000000     
   6.5584756133585012E-002  0.22221468087836774        0.0000000000000000     
   6.6032152773941630E-002  0.23060202773542079        0.0000000000000000     
   5.6943592820138590E-002  0.19733138044743317        0.0000000000000000     
   5.7524352501632799E-002  0.20550983582738708        0.0000000000000000     
   5.8037679040850505E-002  0.21376281630996341        0.0000000000000000     
   5.8483572437791731E-002  0.22209032189516212        0.0000000000000000     
   5.8862032692456455E-002  0.23049235258298317        0.0000000000000000     
   5.0232158891962635E-002  0.19718268774652209        0.0000000000000000     
   5.0735454297888657E-002  0.20537948276980639        0.0000000000000000     
   5.1178055027924552E-002  0.21364781055557280        0.0000000000000000     
   5.1559961082070310E-002  0.22198767110382150        0.0000000000000000     
   5.1881172460325919E-002  0.23039906441455232        0.0000000000000000     
   8.0940172484975856E-002  0.23087053899231633        0.0000000000000000     
   8.1476618001174630E-002  0.23930840769162037        0.0000000000000000     
   8.1918581270892257E-002  0.24786286596982443        0.0000000000000000     
   8.2266062294128792E-002  0.25653391382692853        0.0000000000000000     
   8.2519061070884192E-002  0.26532155126293250        0.0000000000000000     
   7.3391532704781423E-002  0.23072808987186516        0.0000000000000000     
   7.3842527603964661E-002  0.23918549327370725        0.0000000000000000     
   7.4213202335332712E-002  0.24774670278308686        0.0000000000000000     
   7.4503556898885520E-002  0.25641171840000404        0.0000000000000000     
   7.4713591294623100E-002  0.26518054012445874        0.0000000000000000     
   6.6032152773941630E-002  0.23060202773542079        0.0000000000000000     
   6.6410022919977024E-002  0.23907206455816327        0.0000000000000000     
   6.6720618695843434E-002  0.24763136144405870        0.0000000000000000     
   6.6963940101540817E-002  0.25627991839310699        0.0000000000000000     
   6.7139987137069188E-002  0.26501773540530821        0.0000000000000000     
   5.8862032692456455E-002  0.23049235258298317        0.0000000000000000     
   5.9179103949211678E-002  0.23896812154498848        0.0000000000000000     
   5.9440830352424430E-002  0.24751684195273985        0.0000000000000000     
   5.9647211902094703E-002  0.25613851380623731        0.0000000000000000     
   5.9798248598222477E-002  0.26483313710548084        0.0000000000000000     
   5.1881172460325919E-002  0.23039906441455232        0.0000000000000000     
   5.2149770691668651E-002  0.23887366423418283        0.0000000000000000     
   5.2373837305075735E-002  0.24740314430913041        0.0000000000000000     
   5.2553372300547158E-002  0.25598750463939507        0.0000000000000000     
   5.2688375678082933E-002  0.26462674522497681        0.0000000000000000     
   8.2519061070884192E-002  0.26532155126293250        0.0000000000000000     
   8.2716573169664298E-002  0.27425218120386508        0.0000000000000000     
   8.2897594158975033E-002  0.28335220657575466        0.0000000000000000     
   8.3062124038816354E-002  0.29262162737860115        0.0000000000000000     
   8.3210162809188290E-002  0.30206044361240469        0.0000000000000000     
   7.4713591294623100E-002  0.26518054012445874        0.0000000000000000     
   7.4884302443501166E-002  0.27404685384903099        0.0000000000000000     
   7.5056687266475478E-002  0.28300434546630082        0.0000000000000000     
   7.5230745763545978E-002  0.29205301497626818        0.0000000000000000     
   7.5406477934712723E-002  0.30119286237893300        0.0000000000000000     
   6.7139987137069188E-002  0.26501773540530821        0.0000000000000000     
   6.7289070175712312E-002  0.27381499178952656        0.0000000000000000     
   6.7451499590753874E-002  0.28264186685462628        0.0000000000000000     
   6.7627275382193930E-002  0.29149836060060735        0.0000000000000000     
   6.7816397550032437E-002  0.30038447302746973        0.0000000000000000     
   5.9798248598222477E-002  0.26483313710548084        0.0000000000000000     
   5.9930876366297681E-002  0.27355659502535173        0.0000000000000000     
   6.0082031131810251E-002  0.28226477074073097        0.0000000000000000     
   6.0251712894760182E-002  0.29095766425161879        0.0000000000000000     
   6.0439921655147451E-002  0.29963527555801495        0.0000000000000000     
   5.2688375678082933E-002  0.26462674522497681        0.0000000000000000     
   5.2809721015257327E-002  0.27327166355650651        0.0000000000000000     
   5.2948281889644601E-002  0.28187305712461508        0.0000000000000000     
   5.3104058301244747E-002  0.29043092592930236        0.0000000000000000     
   5.3277050250057766E-002  0.29894526997056858        0.0000000000000000     
   2.8902803501263438E-002   5.7177627891227850E-002   0.0000000000000000     
   3.0485676999494782E-002   6.2706116890017274E-002   0.0000000000000000     
   3.1999960038661533E-002   6.8431837412302035E-002   0.0000000000000000     
   3.3445652618763706E-002   7.4354789458082146E-002   0.0000000000000000     
   3.4822754739801301E-002   8.0474973027357635E-002   0.0000000000000000     
   2.5105078438658640E-002   5.6739570464566944E-002   0.0000000000000000     
   2.6474809665707387E-002   6.2280890085009186E-002   0.0000000000000000     
   2.7787808693118622E-002   6.8019558206788094E-002   0.0000000000000000     
   2.9044075520892335E-002   7.3955574829903684E-002   0.0000000000000000     
   3.0243610149028523E-002   8.0088939954355953E-002   0.0000000000000000     
   2.1357096228745737E-002   5.6361443376188786E-002   0.0000000000000000     
   2.2523943389416830E-002   6.1913134040768827E-002   0.0000000000000000     
   2.3643446029379071E-002   6.7662593757200823E-002   0.0000000000000000     
   2.4715604148632452E-002   7.3609822525484786E-002   0.0000000000000000     
   2.5740417747176978E-002   7.9754820345620675E-002   0.0000000000000000     
   1.7658856871524735E-002   5.6043246626093370E-002   0.0000000000000000     
   1.8633078170623103E-002   6.1602848757296207E-002   0.0000000000000000     
   1.9566872047442882E-002   6.7360944063540221E-002   0.0000000000000000     
   2.0460238501984078E-002   7.3317532544825412E-002   0.0000000000000000     
   2.1313177534246684E-002   7.9472614201151787E-002   0.0000000000000000     
   1.4010360366995631E-002   5.5784980214280702E-002   0.0000000000000000     
   1.4802214009326204E-002   6.1350034234591316E-002   0.0000000000000000     
   1.5558086747310062E-002   6.7114609125806288E-002   0.0000000000000000     
   1.6277978580947206E-002   7.3078704887925616E-002   0.0000000000000000     
   1.6961889510237631E-002   7.9242321520949288E-002   0.0000000000000000     
   3.4822754739801301E-002   8.0474973027357635E-002   0.0000000000000000     
   3.6146380722883800E-002   8.6768156317267003E-002   0.0000000000000000     
   3.7431644889120701E-002   9.3210107524948738E-002   0.0000000000000000     
   3.8678547238512002E-002   9.9800826650402880E-002   0.0000000000000000     
   3.9887087771057698E-002  0.10654031369362943        0.0000000000000000     
   3.0243610149028523E-002   8.0088939954355953E-002   0.0000000000000000     
   3.1398261058703913E-002   8.6395694148752034E-002   0.0000000000000000     
   3.2519876731095236E-002   9.2851877981699013E-002   0.0000000000000000     
   3.3608457166202491E-002   9.9457491453196933E-002   0.0000000000000000     
   3.4664002364025684E-002  0.10621253456324577        0.0000000000000000     
   2.5740417747176978E-002   7.9754820345620675E-002   0.0000000000000000     
   2.6727667559107840E-002   8.6073634231403476E-002   0.0000000000000000     
   2.7687134318520233E-002   9.2542311196628174E-002   0.0000000000000000     
   2.8618818025414144E-002   9.9160851241294715E-002   0.0000000000000000     
   2.9522718679789589E-002  0.10592925436540312        0.0000000000000000     
   2.1313177534246684E-002   7.9472614201151787E-002   0.0000000000000000     
   2.2134600224095587E-002   8.5801976565221358E-002   0.0000000000000000     
   2.2933417651395671E-002   9.2281407169736165E-002   0.0000000000000000     
   2.3709629816146941E-002   9.8910906014696209E-002   0.0000000000000000     
   2.4463236718349400E-002  0.10569047310010149        0.0000000000000000     
   1.6961889510237631E-002   7.9242321520949288E-002   0.0000000000000000     
   1.7619059053667147E-002   8.5580721150205652E-002   0.0000000000000000     
   1.8258726729721571E-002   9.2069165901023042E-002   0.0000000000000000     
   1.8880892538400893E-002   9.8707655773401459E-002   0.0000000000000000     
   1.9485556479705120E-002  0.10549619076734090        0.0000000000000000     
   3.9887087771057698E-002  0.10654031369362943        0.0000000000000000     
   4.1048333401888154E-002  0.11342336911309429        0.0000000000000000     
   4.2153351046133714E-002  0.12044479336726348        0.0000000000000000     
   4.3202140703794405E-002  0.12760458645613695        0.0000000000000000     
   4.4194702374870207E-002  0.13490274837971472        0.0000000000000000     
   3.4664002364025684E-002  0.10621253456324577        0.0000000000000000     
   3.5678261518669999E-002  0.11311152840289851        0.0000000000000000     
   3.6642983824240631E-002  0.12014899406320824        0.0000000000000000     
   3.7558169280737588E-002  0.12732493154417490        0.0000000000000000     
   3.8423817888160863E-002  0.13463934084579854        0.0000000000000000     
   2.9522718679789589E-002  0.10592925436540312        0.0000000000000000     
   3.0391232435592806E-002  0.11284193816167361        0.0000000000000000     
   3.1216755446770064E-002  0.11989332022282642        0.0000000000000000     
   3.1999287713321362E-002  0.12708340054886155        0.0000000000000000     
   3.2738829235246687E-002  0.13441217913977901        0.0000000000000000     
   2.4463236718349400E-002  0.10569047310010149        0.0000000000000000     
   2.5187246152656575E-002  0.11261459838941960        0.0000000000000000     
   2.5874665913722016E-002  0.11967777184611808        0.0000000000000000     
   2.6525496001545721E-002  0.12687999347019691        0.0000000000000000     
   2.7139736416127692E-002  0.13422126326165620        0.0000000000000000     
   1.9485556479705120E-002  0.10549619076734090        0.0000000000000000     
   2.0066302669861300E-002  0.11242950908613643        0.0000000000000000     
   2.0616715225096487E-002  0.11950234893308312        0.0000000000000000     
   2.1136794145410674E-002  0.12671471030818096        0.0000000000000000     
   2.1626539430803865E-002  0.13406659321143000        0.0000000000000000     
   4.4194702374870207E-002  0.13490274837971472        0.0000000000000000     
   4.5133633957736376E-002  0.14232490109680529        0.0000000000000000     
   4.6021533350768175E-002  0.14985666656621724        0.0000000000000000     
   4.6858400553965618E-002  0.15749804478795054        0.0000000000000000     
   4.7644235567328684E-002  0.16524903576200517        0.0000000000000000     
   3.8423817888160863E-002  0.13463934084579854        0.0000000000000000     
   3.9241892788515489E-002  0.14207793180259454        0.0000000000000000     
   4.0014357123806493E-002  0.14962641424907833        0.0000000000000000     
   4.0741210894033889E-002  0.15728478818524988        0.0000000000000000     
   4.1422454099197661E-002  0.16505305361110920        0.0000000000000000     
   3.2738829235246687E-002  0.13441217913977901        0.0000000000000000     
   3.3437027996966850E-002  0.14186535842051479        0.0000000000000000     
   3.4095531982902633E-002  0.14942864081600477        0.0000000000000000     
   3.4714341193054034E-002  0.15710202632624906        0.0000000000000000     
   3.5293455627421068E-002  0.16488551495124759        0.0000000000000000     
   2.7139736416127692E-002  0.13422126326165620        0.0000000000000000     
   2.7719039583090469E-002  0.14168718095056604        0.0000000000000000     
   2.8265057928056593E-002  0.14926334626699667        0.0000000000000000     
   2.8777791451026068E-002  0.15694975921094811        0.0000000000000000     
   2.9257240151998889E-002  0.16474641978242036        0.0000000000000000     
   2.1626539430803865E-002  0.13406659321143000        0.0000000000000000     
   2.2087927546886335E-002  0.14154339939274829        0.0000000000000000     
   2.2522934959268371E-002  0.14913053060205400        0.0000000000000000     
   2.2931561667949973E-002  0.15682798683934707        0.0000000000000000     
   2.3313807672931133E-002  0.16463576810462746        0.0000000000000000     
   4.7644235567328684E-002  0.16524903576200517        0.0000000000000000     
   4.8376219963952721E-002  0.17309923702369895        0.0000000000000000     
   4.9051535316933056E-002  0.18103824610834970        0.0000000000000000     
   4.9670181626269704E-002  0.18906606301595744        0.0000000000000000     
   5.0232158891962635E-002  0.19718268774652209        0.0000000000000000     
   4.1422454099197661E-002  0.16505305361110920        0.0000000000000000     
   4.2055629347885176E-002  0.17292076861712052        0.0000000000000000     
   4.2638279248683769E-002  0.18087749129374803        0.0000000000000000     
   4.3170403801593440E-002  0.18892322164099179        0.0000000000000000     
   4.3652003006614204E-002  0.19705795965885176        0.0000000000000000     
   3.5293455627421068E-002  0.16488551495124759        0.0000000000000000     
   3.5830660901410918E-002  0.17276856755541653        0.0000000000000000     
   3.6323742630430790E-002  0.18074064500317211        0.0000000000000000     
   3.6772700814480697E-002  0.18880174729451418        0.0000000000000000     
   3.7177535453560631E-002  0.19695187442944290        0.0000000000000000     
   2.9257240151998889E-002  0.16474641978242036        0.0000000000000000     
   2.9701314624529948E-002  0.17264263383858702        0.0000000000000000     
   3.0107925462174136E-002  0.18062770723662178        0.0000000000000000     
   3.0477072664931455E-002  0.18870163997652459        0.0000000000000000     
   3.0808756232801902E-002  0.19686443205829551        0.0000000000000000     
   2.3313807672931133E-002  0.16463576810462746        0.0000000000000000     
   2.3667590517242272E-002  0.17254296746663192        0.0000000000000000     
   2.3990827743913801E-002  0.18053867799409712        0.0000000000000000     
   2.4283519352945721E-002  0.18862289968702303        0.0000000000000000     
   2.4545665344338038E-002  0.19679563254540963        0.0000000000000000     
   5.0232158891962635E-002  0.19718268774652209        0.0000000000000000     
   5.0735454297888657E-002  0.20537948276980639        0.0000000000000000     
   5.1178055027924552E-002  0.21364781055557280        0.0000000000000000     
   5.1559961082070310E-002  0.22198767110382150        0.0000000000000000     
   5.1881172460325919E-002  0.23039906441455232        0.0000000000000000     
   4.3652003006614204E-002  0.19705795965885176        0.0000000000000000     
   4.4081953822262043E-002  0.20527113695478416        0.0000000000000000     
   4.4459133207052921E-002  0.21355218513624524        0.0000000000000000     
   4.4783541160986873E-002  0.22190110420323508        0.0000000000000000     
   4.5055177684063877E-002  0.23031789415575354        0.0000000000000000     
   3.7177535453560631E-002  0.19695187442944290        0.0000000000000000     
   3.7537872510795801E-002  0.20517864774090744        0.0000000000000000     
   3.7853337949311450E-002  0.21346968856185722        0.0000000000000000     
   3.8123931769107569E-002  0.22182499689229207        0.0000000000000000     
   3.8349653970184167E-002  0.23024457273221219        0.0000000000000000     
   3.0808756232801902E-002  0.19686443205829551        0.0000000000000000     
   3.1103210363489970E-002  0.20510201512817627        0.0000000000000000     
   3.1360669254700130E-002  0.21340032083240862        0.0000000000000000     
   3.1581132906432399E-002  0.22175934917099263        0.0000000000000000     
   3.1764601318686768E-002  0.23017910014392814        0.0000000000000000     
   2.4545665344338038E-002  0.19679563254540963        0.0000000000000000     
   2.4777967380344525E-002  0.20504123911659064        0.0000000000000000     
   2.4981127123218962E-002  0.21334408194789961        0.0000000000000000     
   2.5155144572961356E-002  0.22170416103933654        0.0000000000000000     
   2.5300019729571698E-002  0.23012147639090152        0.0000000000000000     
   5.1881172460325919E-002  0.23039906441455232        0.0000000000000000     
   5.2149770691668651E-002  0.23887366423418283        0.0000000000000000     
   5.2373837305075735E-002  0.24740314430913041        0.0000000000000000     
   5.2553372300547158E-002  0.25598750463939507        0.0000000000000000     
   5.2688375678082933E-002  0.26462674522497681        0.0000000000000000     
   4.5055177684063877E-002  0.23031789415575354        0.0000000000000000     
   4.5282880064512497E-002  0.23878731338415440        0.0000000000000000     
   4.5475485590561290E-002  0.24729412027879125        0.0000000000000000     
   4.5632994262210243E-002  0.25583831483966407        0.0000000000000000     
   4.5755406079459368E-002  0.26441989706677294        0.0000000000000000     
   3.8349653970184167E-002  0.23024457273221219        0.0000000000000000     
   3.8539288984907799E-002  0.23870768975331130        0.0000000000000000     
   3.8701621245645086E-002  0.24719362162728334        0.0000000000000000     
   3.8836650752396007E-002  0.25570236835412830        0.0000000000000000     
   3.8944377505160568E-002  0.26423392993384620        0.0000000000000000     
   3.1764601318686768E-002  0.23017910014392814        0.0000000000000000     
   3.1918997452854564E-002  0.23863479334165347        0.0000000000000000     
   3.2052244270327129E-002  0.24710164835460663        0.0000000000000000     
   3.2164341771104443E-002  0.25557966518278769        0.0000000000000000     
   3.2255289955186527E-002  0.26406884382619672        0.0000000000000000     
   2.5300019729571698E-002  0.23012147639090152        0.0000000000000000     
   2.5422005468352785E-002  0.23856862414918095        0.0000000000000000     
   2.5527354664607406E-002  0.24701820046076123        0.0000000000000000     
   2.5616067318335562E-002  0.25547020532564235        0.0000000000000000     
   2.5688143429537250E-002  0.26392463874382438        0.0000000000000000     
   5.2688375678082933E-002  0.26462674522497681        0.0000000000000000     
   5.2809721015257327E-002  0.27327166355650651        0.0000000000000000     
   5.2948281889644601E-002  0.28187305712461508        0.0000000000000000     
   5.3104058301244747E-002  0.29043092592930236        0.0000000000000000     
   5.3277050250057766E-002  0.29894526997056858        0.0000000000000000     
   4.5755406079459368E-002  0.26441989706677294        0.0000000000000000     
   4.5866873766311503E-002  0.27298893061792917        0.0000000000000000     
   4.5991550046769504E-002  0.28149547915094419        0.0000000000000000     
   4.6129434920833351E-002  0.28993954266581795        0.0000000000000000     
   4.6280528388503051E-002  0.29832112116255055        0.0000000000000000     
   3.8944377505160568E-002  0.26423392993384620        0.0000000000000000     
   3.9043604263180501E-002  0.27273712944455791        0.0000000000000000     
   3.9153133785697541E-002  0.28116078996438432        0.0000000000000000     
   3.9272966072711711E-002  0.28950491149332530        0.0000000000000000     
   3.9403101124222975E-002  0.29776949403138092        0.0000000000000000     
   3.2255289955186527E-002  0.26406884382619672        0.0000000000000000     
   3.2339912505864314E-002  0.27251626003639284        0.0000000000000000     
   3.2433033106428748E-002  0.28086898956493539        0.0000000000000000     
   3.2534651756879827E-002  0.28912703241182436        0.0000000000000000     
   3.2644768457217560E-002  0.29729038857705964        0.0000000000000000     
   2.5688143429537250E-002  0.26392463874382438        0.0000000000000000     
   2.5755798494362939E-002  0.27232632239343385        0.0000000000000000     
   2.5831248008963095E-002  0.28062007795259741        0.0000000000000000     
   2.5914491973337707E-002  0.28880590542131501        0.0000000000000000     
   2.6005530387486785E-002  0.29688380479958670        0.0000000000000000     
   1.4010360366995631E-002   5.5784980214280702E-002   0.0000000000000000     
   1.4802214009326204E-002   6.1350034234591316E-002   0.0000000000000000     
   1.5558086747310062E-002   6.7114609125806288E-002   0.0000000000000000     
   1.6277978580947206E-002   7.3078704887925616E-002   0.0000000000000000     
   1.6961889510237631E-002   7.9242321520949288E-002   0.0000000000000000     
   1.0416994035508699E-002   5.5585216627050252E-002   0.0000000000000000     
   1.1026427909418768E-002   6.1153964985096759E-002   0.0000000000000000     
   1.1604538106265491E-002   6.6923266260996664E-002   0.0000000000000000     
   1.2151324626048867E-002   7.2893120454750007E-002   0.0000000000000000     
   1.2666787468768897E-002   7.9063527566356748E-002   0.0000000000000000     
   6.8841451974142164E-003   5.5442528350701487E-002   0.0000000000000000     
   7.3007968747934278E-003   6.1013915521255110E-002   0.0000000000000000     
   7.6936741015940554E-003   6.6786592786109031E-002   0.0000000000000000     
   8.0627768778161000E-003   7.2760560145263234E-002   0.0000000000000000     
   8.4081052034595608E-003   7.8935817598717720E-002   0.0000000000000000     
   3.4118138527121761E-003   5.5356915385234386E-002   0.0000000000000000     
   3.6253209054501801E-003   6.0929885843066391E-002   0.0000000000000000     
   3.8254947332957553E-003   6.6704588701143361E-002   0.0000000000000000     
   4.0123353362489034E-003   7.2681023959465310E-002   0.0000000000000000     
   4.1858427143096223E-003   7.8859191618032190E-002   0.0000000000000000     
   1.4025829109254317E-012   5.5328377730648970E-002   0.0000000000000000     
   1.3890266974819765E-012   6.0901875950530586E-002   0.0000000000000000     
   1.3705913574219020E-012   6.6677254006099668E-002   0.0000000000000000     
   1.3472769449553168E-012   7.2654511897356194E-002   0.0000000000000000     
   1.3190832974518951E-012   7.8833649624300214E-002   0.0000000000000000     
   1.6961889510237631E-002   7.9242321520949288E-002   0.0000000000000000     
   1.7619059053667147E-002   8.5580721150205652E-002   0.0000000000000000     
   1.8258726729721571E-002   9.2069165901023042E-002   0.0000000000000000     
   1.8880892538400893E-002   9.8707655773401459E-002   0.0000000000000000     
   1.9485556479705120E-002  0.10549619076734090        0.0000000000000000     
   1.2666787468768897E-002   7.9063527566356748E-002   0.0000000000000000     
   1.3160284296790470E-002   8.5409173646932790E-002   0.0000000000000000     
   1.3641172772478477E-002   9.1904744747593942E-002   0.0000000000000000     
   1.4109452895832920E-002   9.8550240868340300E-002   0.0000000000000000     
   1.4565124666853800E-002  0.10534566200917177        0.0000000000000000     
   8.4081052034595608E-003   7.8935817598717720E-002   0.0000000000000000     
   8.7375162024334926E-003   8.5286639715979135E-002   0.0000000000000000     
   9.0588669986469608E-003   9.1787301066554070E-002   0.0000000000000000     
   9.3721575920999566E-003   9.8437801650442538E-002   0.0000000000000000     
   9.6773879827924819E-003  0.10523814146764456        0.0000000000000000     
   4.1858427143096223E-003   7.8859191618032190E-002   0.0000000000000000     
   4.3507547705962241E-003   8.5213119357344699E-002   0.0000000000000000     
   4.5118094082270159E-003   9.1716834857903357E-002   0.0000000000000000     
   4.6690066272019959E-003   9.8370338119708217E-002   0.0000000000000000     
   4.8223464275211686E-003  0.10517362914275925        0.0000000000000000     
   1.3190832974518951E-012   7.8833649624300214E-002   0.0000000000000000     
   1.2786564342059936E-012   8.5188612571029498E-002   0.0000000000000000     
   1.2186429166130552E-012   9.1693346121641872E-002   0.0000000000000000     
   1.1390435307196550E-012   9.8347850276137322E-002   0.0000000000000000     
   1.0398570025882403E-012  0.10515212503451589        0.0000000000000000     
   1.9485556479705120E-002  0.10549619076734090        0.0000000000000000     
   2.0066302669861300E-002  0.11242950908613643        0.0000000000000000     
   2.0616715225096487E-002  0.11950234893308312        0.0000000000000000     
   2.1136794145410674E-002  0.12671471030818096        0.0000000000000000     
   2.1626539430803865E-002  0.13406659321143000        0.0000000000000000     
   1.4565124666853800E-002  0.10534566200917177        0.0000000000000000     
   1.5002592191009063E-002  0.11228604052595446        0.0000000000000000     
   1.5416259573766663E-002  0.11936640877455448        0.0000000000000000     
   1.5806126815126598E-002  0.12658676675497177        0.0000000000000000     
   1.6172193915088867E-002  0.13394711446720639        0.0000000000000000     
   9.6773879827924819E-003  0.10523814146764456        0.0000000000000000     
   9.9703049199019456E-003  0.11218356298300405        0.0000000000000000     
   1.0246655152605746E-002  0.11926930866136502        0.0000000000000000     
   1.0506438680903892E-002  0.12649537850272741        0.0000000000000000     
   1.0749655504796375E-002  0.13386177250709128        0.0000000000000000     
   4.8223464275211686E-003  0.10517362914275925        0.0000000000000000     
   4.9694408565399443E-003  0.11212207645728518        0.0000000000000000     
   5.1079019616137389E-003  0.11921104859351474        0.0000000000000000     
   5.2377297427425489E-003  0.12644054555144782        0.0000000000000000     
   5.3589241999263786E-003  0.13381056733108457        0.0000000000000000     
   1.0398570025882403E-012  0.10515212503451589        0.0000000000000000     
   9.2306154039767385E-013  0.11210158094879785        0.0000000000000000     
   7.9063275024160440E-013  0.11919162857100359        0.0000000000000000     
   6.4257529418937365E-013  0.12642226790113306        0.0000000000000000     
   4.7888385965033642E-013  0.13379349893918632        0.0000000000000000     
   2.1626539430803865E-002  0.13406659321143000        0.0000000000000000     
   2.2087927546886335E-002  0.14154339939274829        0.0000000000000000     
   2.2522934959268371E-002  0.14913053060205400        0.0000000000000000     
   2.2931561667949973E-002  0.15682798683934707        0.0000000000000000     
   2.3313807672931133E-002  0.16463576810462746        0.0000000000000000     
   1.6172193915088867E-002  0.13394711446720639        0.0000000000000000     
   1.6516676689700124E-002  0.14143263874123180        0.0000000000000000     
   1.6841790955007010E-002  0.14902852640702158        0.0000000000000000     
   1.7147536711009527E-002  0.15673477746457562        0.0000000000000000     
   1.7433913957707672E-002  0.16455139191389398        0.0000000000000000     
   1.0749655504796375E-002  0.13386177250709128        0.0000000000000000     
   1.0978271812877491E-002  0.14135352399018680        0.0000000000000000     
   1.1194253793741530E-002  0.14895566626774426        0.0000000000000000     
   1.1397601447388493E-002  0.15666819933976367        0.0000000000000000     
   1.1588314773818378E-002  0.16449112320624498        0.0000000000000000     
   5.3589241999263786E-003  0.13381056733108457        0.0000000000000000     
   5.4727129164184396E-003  0.14130605513961322        0.0000000000000000     
   5.5803234754719369E-003  0.14891195018422204        0.0000000000000000     
   5.6817558770868755E-003  0.15662825246491113        0.0000000000000000     
   5.7770101212632529E-003  0.16445496198168047        0.0000000000000000     
   4.7888385965033642E-013  0.13379349893918632        0.0000000000000000     
   3.2296604626780301E-013  0.14129023218951106        0.0000000000000000     
   1.9823064630747345E-013  0.14889737815645496        0.0000000000000000     
   1.0467134429169300E-013  0.15661493684001809        0.0000000000000000     
   4.2294293067790534E-014  0.16444290824020039        0.0000000000000000     
   2.3313807672931133E-002  0.16463576810462746        0.0000000000000000     
   2.3667590517242272E-002  0.17254296746663192        0.0000000000000000     
   2.3990827743913801E-002  0.18053867799409712        0.0000000000000000     
   2.4283519352945721E-002  0.18862289968702303        0.0000000000000000     
   2.4545665344338038E-002  0.19679563254540963        0.0000000000000000     
   1.7433913957707672E-002  0.16455139191389398        0.0000000000000000     
   1.7698931343046554E-002  0.17246725135455881        0.0000000000000000     
   1.7940597514971273E-002  0.18047123738615220        0.0000000000000000     
   1.8158912473481829E-002  0.18856335000867427        0.0000000000000000     
   1.8353876218578230E-002  0.19674358922212487        0.0000000000000000     
   1.1588314773818378E-002  0.16449112320624498        0.0000000000000000     
   1.1764779865441471E-002  0.17241316841737520        0.0000000000000000     
   1.1925382814668052E-002  0.18042306552334123        0.0000000000000000     
   1.2070123621498121E-002  0.18852081452414310        0.0000000000000000     
   1.2199002285931675E-002  0.19670641541978082        0.0000000000000000     
   5.7770101212632529E-003  0.16445496198168047        0.0000000000000000     
   5.8651360844270209E-003  0.17238071865508106        0.0000000000000000     
   5.9451836430041332E-003  0.18039416240566411        0.0000000000000000     
   6.0171527969945862E-003  0.18849529323342956        0.0000000000000000     
   6.0810435463983835E-003  0.19668411113837742        0.0000000000000000     
   4.2294293067790534E-014  0.16444290824020039        0.0000000000000000     
   3.2070700262121221E-015  0.17236990206767644        0.0000000000000000     
  -2.0482313761727156E-014  0.18038452803312088        0.0000000000000000     
  -2.8766594141471646E-014  0.18848678613653364        0.0000000000000000     
  -2.1653252108011500E-014  0.19667667637791475        0.0000000000000000     
   2.4545665344338038E-002  0.19679563254540963        0.0000000000000000     
   2.4777967380344525E-002  0.20504123911659064        0.0000000000000000     
   2.4981127123218962E-002  0.21334408194789961        0.0000000000000000     
   2.5155144572961356E-002  0.22170416103933654        0.0000000000000000     
   2.5300019729571698E-002  0.23012147639090152        0.0000000000000000     
   1.8353876218578230E-002  0.19674358922212487        0.0000000000000000     
   1.8526444368273505E-002  0.20499499736945503        0.0000000000000000     
   1.8677572540580705E-002  0.21330061679361575        0.0000000000000000     
   1.8807260735499827E-002  0.22166044749460695        0.0000000000000000     
   1.8915508953030871E-002  0.23007448947242873        0.0000000000000000     
   1.2199002285931675E-002  0.19670641541978082        0.0000000000000000     
   1.2312942134190935E-002  0.20496196755007409        0.0000000000000000     
   1.2412866492498105E-002  0.21326957025484272        0.0000000000000000     
   1.2498775360853188E-002  0.22162922353408673        0.0000000000000000     
   1.2570668739256188E-002  0.23004092738780618        0.0000000000000000     
   6.0810435463983835E-003  0.19668411113837742        0.0000000000000000     
   6.1374606780968130E-003  0.20494214965844773        0.0000000000000000     
   6.1870089789711679E-003  0.21325094233158060        0.0000000000000000     
   6.2296884490214491E-003  0.22161048915777598        0.0000000000000000     
   6.2654990882476530E-003  0.23002079013703389        0.0000000000000000     
  -2.1653252108011500E-014  0.19667667637791475        0.0000000000000000     
  -8.8579317492065712E-015  0.20493554369457606        0.0000000000000000     
  -1.0863705768304754E-016  0.21324473302382932        0.0000000000000000     
   4.6004324481818681E-015  0.22160424436567461        0.0000000000000000     
   5.2666204730655863E-015  0.23001407772011181        0.0000000000000000     
   2.5300019729571698E-002  0.23012147639090152        0.0000000000000000     
   2.5422005468352785E-002  0.23856862414918095        0.0000000000000000     
   2.5527354664607406E-002  0.24701820046076123        0.0000000000000000     
   2.5616067318335562E-002  0.25547020532564235        0.0000000000000000     
   2.5688143429537250E-002  0.26392463874382438        0.0000000000000000     
   1.8915508953030871E-002  0.23007448947242873        0.0000000000000000     
   1.9006623468536456E-002  0.23851366926416145        0.0000000000000000     
   1.9084910557379195E-002  0.24694891340688549        0.0000000000000000     
   1.9150370219559093E-002  0.25538022190060095        0.0000000000000000     
   1.9203002455076154E-002  0.26380759474530779        0.0000000000000000     
   1.2570668739256188E-002  0.23004092738780618        0.0000000000000000     
   1.2631161890539559E-002  0.23847441577486270        0.0000000000000000     
   1.2682870077535758E-002  0.24689942265411813        0.0000000000000000     
   1.2725793300244788E-002  0.25531594802557245        0.0000000000000000     
   1.2759931558666650E-002  0.26372399188922563        0.0000000000000000     
   6.2654990882476530E-003  0.23002079013703389        0.0000000000000000     
   6.2956207343620963E-003  0.23845086368128474        0.0000000000000000     
   6.3212332250770940E-003  0.24686972820245898        0.0000000000000000     
   6.3423365603926408E-003  0.25527738370055675        0.0000000000000000     
   6.3589307403087436E-003  0.26367383017557777        0.0000000000000000     
   5.2666204730655863E-015  0.23001407772011181        0.0000000000000000     
   4.0733475620280402E-015  0.23844301298342754        0.0000000000000000     
   3.2032753186084229E-015  0.24685983005190823        0.0000000000000000     
   2.6541540232988270E-015  0.25526452892555385        0.0000000000000000     
   2.4299139089745125E-015  0.26365710960436439        0.0000000000000000     
   2.5688143429537250E-002  0.26392463874382438        0.0000000000000000     
   2.5755798494362939E-002  0.27232632239343385        0.0000000000000000     
   2.5831248008963095E-002  0.28062007795259741        0.0000000000000000     
   2.5914491973337707E-002  0.28880590542131501        0.0000000000000000     
   2.6005530387486785E-002  0.29688380479958670        0.0000000000000000     
   1.9203002455076154E-002  0.26380759474530779        0.0000000000000000     
   1.9252817234519919E-002  0.27217365960312295        0.0000000000000000     
   1.9309824528479937E-002  0.28042104413616326        0.0000000000000000     
   1.9374024336956210E-002  0.28854974834442870        0.0000000000000000     
   1.9445416659948735E-002  0.29655977222791946        0.0000000000000000     
   1.2759931558666650E-002  0.26372399188922563        0.0000000000000000     
   1.2792523732178786E-002  0.27206461475290200        0.0000000000000000     
   1.2830808700158635E-002  0.28027887712442567        0.0000000000000000     
   1.2874786462606199E-002  0.28836677900379681        0.0000000000000000     
   1.2924457019521478E-002  0.29632832039101537        0.0000000000000000     
   6.3589307403087436E-003  0.26367383017557777        0.0000000000000000     
   6.3749179873395434E-003  0.27199918784277100        0.0000000000000000     
   6.3942005239991887E-003  0.28019357691738467        0.0000000000000000     
   6.4167783502876805E-003  0.28825699739941918        0.0000000000000000     
   6.4426514662050179E-003  0.29618944928887425        0.0000000000000000     
   2.4299139089745125E-015  0.26365710960436439        0.0000000000000000     
   2.1894378671172277E-015  0.27197737887272988        0.0000000000000000     
   1.5962708585504082E-015  0.28016514351504040        0.0000000000000000     
   6.4973525691625067E-016  0.28822040353129580        0.0000000000000000     
  -6.4878658001532585E-016  0.29614315892149623        0.0000000000000000     
   1.4025829109254317E-012   5.5328377730648970E-002   0.0000000000000000     
   1.3890266974819765E-012   6.0901875950530586E-002   0.0000000000000000     
   1.3705913574219020E-012   6.6677254006099668E-002   0.0000000000000000     
   1.3472769449553168E-012   7.2654511897356194E-002   0.0000000000000000     
   1.3190832974518951E-012   7.8833649624300214E-002   0.0000000000000000     
  -3.4118138501058265E-003   5.5356915386561990E-002   0.0000000000000000     
  -3.6253209028351795E-003   6.0929885843487623E-002   0.0000000000000000     
  -3.8254947306905511E-003   6.6704588700967765E-002   0.0000000000000000     
  -4.0123353336719405E-003   7.2681023959002403E-002   0.0000000000000000     
  -4.1858427117793494E-003   7.8859191617591501E-002   0.0000000000000000     
  -6.8841451954043138E-003   5.5442528352590205E-002   0.0000000000000000     
  -7.3007968726675867E-003   6.1013915521777456E-002   0.0000000000000000     
  -7.6936740993967826E-003   6.6786592785737495E-002   0.0000000000000000     
  -8.0627768755919104E-003   7.2760560144470299E-002   0.0000000000000000     
  -8.4081052012529613E-003   7.8935817597975910E-002   0.0000000000000000     
  -1.0416994034492878E-002   5.5585216628733600E-002   0.0000000000000000     
  -1.1026427908108191E-002   6.1153964985400072E-002   0.0000000000000000     
  -1.1604538104748107E-002   6.6923266260408870E-002   0.0000000000000000     
  -1.2151324624412633E-002   7.2893120453759980E-002   0.0000000000000000     
  -1.2666787467101759E-002   7.9063527565453401E-002   0.0000000000000000     
  -1.4010360367371522E-002   5.5784980214992202E-002   0.0000000000000000     
  -1.4802214009156994E-002   6.1350034234355477E-002   0.0000000000000000     
  -1.5558086746744523E-002   6.7114609124981878E-002   0.0000000000000000     
  -1.6277978580134102E-002   7.3078704886871362E-002   0.0000000000000000     
  -1.6961889509325739E-002   7.9242321520023973E-002   0.0000000000000000     
   1.3190832974518951E-012   7.8833649624300214E-002   0.0000000000000000     
   1.2786564342059936E-012   8.5188612571029498E-002   0.0000000000000000     
   1.2186429166130552E-012   9.1693346121641872E-002   0.0000000000000000     
   1.1390435307196550E-012   9.8347850276137322E-002   0.0000000000000000     
   1.0398570025882403E-012  0.10515212503451589        0.0000000000000000     
  -4.1858427117793494E-003   7.8859191617591501E-002   0.0000000000000000     
  -4.3507547681411740E-003   8.5213119357073069E-002   0.0000000000000000     
  -4.5118094058858192E-003   9.1716834857784924E-002   0.0000000000000000     
  -4.6690066250132814E-003   9.8370338119727105E-002   0.0000000000000000     
  -4.8223464255235616E-003  0.10517362914289960        0.0000000000000000     
  -8.4081052012529613E-003   7.8935817597975910E-002   0.0000000000000000     
  -8.7375162002852405E-003   8.5286639715514895E-002   0.0000000000000000     
  -9.0588669965940369E-003   9.1787301066347846E-002   0.0000000000000000     
  -9.3721575901793575E-003   9.8437801650474749E-002   0.0000000000000000     
  -9.6773879810411953E-003  0.10523814146789560        0.0000000000000000     
  -1.2666787467101759E-002   7.9063527565453401E-002   0.0000000000000000     
  -1.3160284295153538E-002   8.5409173646355002E-002   0.0000000000000000     
  -1.3641172770906014E-002   9.1904744747330624E-002   0.0000000000000000     
  -1.4109452894359182E-002   9.8550240868380254E-002   0.0000000000000000     
  -1.4565124665513048E-002  0.10534566200950389        0.0000000000000000     
  -1.6961889509325739E-002   7.9242321520023973E-002   0.0000000000000000     
  -1.7619059052746067E-002   8.5580721149593378E-002   0.0000000000000000     
  -1.8258726728821745E-002   9.2069165900733260E-002   0.0000000000000000     
  -1.8880892537552756E-002   9.8707655773443606E-002   0.0000000000000000     
  -1.9485556478939115E-002  0.10549619076772444        0.0000000000000000     
   1.0398570025882403E-012  0.10515212503451589        0.0000000000000000     
   9.2306154039767385E-013  0.11210158094879785        0.0000000000000000     
   7.9063275024160440E-013  0.11919162857100359        0.0000000000000000     
   6.4257529418937365E-013  0.12642226790113306        0.0000000000000000     
   4.7888385965033642E-013  0.13379349893918632        0.0000000000000000     
  -4.8223464255235616E-003  0.10517362914289960        0.0000000000000000     
  -4.9694408547671515E-003  0.11212207645752054        0.0000000000000000     
  -5.1079019600945462E-003  0.11921104859380803        0.0000000000000000     
  -5.2377297415057431E-003  0.12644054555176210        0.0000000000000000     
  -5.3589241990007457E-003  0.13381056733138266        0.0000000000000000     
  -9.6773879810411953E-003  0.10523814146789560        0.0000000000000000     
  -9.9703049183491425E-003  0.11218356298343175        0.0000000000000000     
  -1.0246655151272783E-002  0.11926930866190448        0.0000000000000000     
  -1.0506438679812116E-002  0.12649537850331380        0.0000000000000000     
  -1.0749655503967141E-002  0.13386177250765968        0.0000000000000000     
  -1.4565124665513048E-002  0.10534566200950389        0.0000000000000000     
  -1.5002592189822913E-002  0.11228604052653149        0.0000000000000000     
  -1.5416259572744076E-002  0.11936640877529292        0.0000000000000000     
  -1.5806126814276535E-002  0.12658676675578823        0.0000000000000000     
  -1.6172193914420305E-002  0.13394711446801738        0.0000000000000000     
  -1.9485556478939115E-002  0.10549619076772444        0.0000000000000000     
  -2.0066302669188456E-002  0.11242950908681970        0.0000000000000000     
  -2.0616715224508423E-002  0.11950234893397335        0.0000000000000000     
  -2.1136794144899017E-002  0.12671471030918535        0.0000000000000000     
  -2.1626539430360234E-002  0.13406659321245576        0.0000000000000000     
   4.7888385965033642E-013  0.13379349893918632        0.0000000000000000     
   3.2296604626780301E-013  0.14129023218951106        0.0000000000000000     
   1.9823064630747345E-013  0.14889737815645496        0.0000000000000000     
   1.0467134429169300E-013  0.15661493684001809        0.0000000000000000     
   4.2294293067790534E-014  0.16444290824020039        0.0000000000000000     
  -5.3589241990007457E-003  0.13381056733138266        0.0000000000000000     
  -5.4727129157890837E-003  0.14130605513987465        0.0000000000000000     
  -5.5803234750802970E-003  0.14891195018444284        0.0000000000000000     
  -5.6817558768743771E-003  0.15662825246508721        0.0000000000000000     
  -5.7770101211713307E-003  0.16445496198180781        0.0000000000000000     
  -1.0749655503967141E-002  0.13386177250765968        0.0000000000000000     
  -1.0978271812297878E-002  0.14135352399069820        0.0000000000000000     
  -1.1194253793364344E-002  0.14895566626818538        0.0000000000000000     
  -1.1397601447166537E-002  0.15666819934012122        0.0000000000000000     
  -1.1588314773704455E-002  0.16449112320650575        0.0000000000000000     
  -1.6172193914420305E-002  0.13394711446801738        0.0000000000000000     
  -1.6516676689203414E-002  0.14143263874198175        0.0000000000000000     
  -1.6841790954653914E-002  0.14902852640768263        0.0000000000000000     
  -1.7147536710771800E-002  0.15673477746512016        0.0000000000000000     
  -1.7433913957557081E-002  0.16455139191429421        0.0000000000000000     
  -2.1626539430360234E-002  0.13406659321245576        0.0000000000000000     
  -2.2087927546505695E-002  0.14154339939372532        0.0000000000000000     
  -2.2522934958949012E-002  0.14913053060293471        0.0000000000000000     
  -2.2931561667690177E-002  0.15682798684008400        0.0000000000000000     
  -2.3313807672729205E-002  0.16463576810517316        0.0000000000000000     
   4.2294293067790534E-014  0.16444290824020039        0.0000000000000000     
   3.2070700262121221E-015  0.17236990206767644        0.0000000000000000     
  -2.0482313761727156E-014  0.18038452803312088        0.0000000000000000     
  -2.8766594141471646E-014  0.18848678613653364        0.0000000000000000     
  -2.1653252108011500E-014  0.19667667637791475        0.0000000000000000     
  -5.7770101211713307E-003  0.16445496198180781        0.0000000000000000     
  -5.8651360844115827E-003  0.17238071865516344        0.0000000000000000     
  -5.9451836430355594E-003  0.18039416240571296        0.0000000000000000     
  -6.0171527970432617E-003  0.18849529323345637        0.0000000000000000     
  -6.0810435464346887E-003  0.19668411113839365        0.0000000000000000     
  -1.1588314773704455E-002  0.16449112320650575        0.0000000000000000     
  -1.1764779865398953E-002  0.17241316841754423        0.0000000000000000     
  -1.1925382814670869E-002  0.18042306552344184        0.0000000000000000     
  -1.2070123621520216E-002  0.18852081452419875        0.0000000000000000     
  -1.2199002285946980E-002  0.19670641541981485        0.0000000000000000     
  -1.7433913957557081E-002  0.16455139191429421        0.0000000000000000     
  -1.7698931342958905E-002  0.17246725135481869        0.0000000000000000     
  -1.7940597514926417E-002  0.18047123738630758        0.0000000000000000     
  -1.8158912473459625E-002  0.18856335000876079        0.0000000000000000     
  -1.8353876218558527E-002  0.19674358922217841        0.0000000000000000     
  -2.3313807672729205E-002  0.16463576810517316        0.0000000000000000     
  -2.3667590517091434E-002  0.17254296746698691        0.0000000000000000     
  -2.3990827743802193E-002  0.18053867799431006        0.0000000000000000     
  -2.4283519352861500E-002  0.18862289968714249        0.0000000000000000     
  -2.4545665344269333E-002  0.19679563254548432        0.0000000000000000     
  -2.1653252108011500E-014  0.19667667637791475        0.0000000000000000     
  -8.8579317492065712E-015  0.20493554369457606        0.0000000000000000     
  -1.0863705768304754E-016  0.21324473302382932        0.0000000000000000     
   4.6004324481818681E-015  0.22160424436567461        0.0000000000000000     
   5.2666204730655863E-015  0.23001407772011181        0.0000000000000000     
  -6.0810435464346887E-003  0.19668411113839365        0.0000000000000000     
  -6.1374606781097168E-003  0.20494214965845972        0.0000000000000000     
  -6.1870089789682189E-003  0.21325094233158962        0.0000000000000000     
  -6.2296884490101959E-003  0.22161048915778328        0.0000000000000000     
  -6.2654990882356496E-003  0.23002079013704077        0.0000000000000000     
  -1.2199002285946980E-002  0.19670641541981485        0.0000000000000000     
  -1.2312942134189391E-002  0.20496196755009952        0.0000000000000000     
  -1.2412866492485660E-002  0.21326957025486221        0.0000000000000000     
  -1.2498775360835788E-002  0.22162922353410278        0.0000000000000000     
  -1.2570668739239779E-002  0.23004092738782136        0.0000000000000000     
  -1.8353876218558527E-002  0.19674358922217841        0.0000000000000000     
  -1.8526444368247880E-002  0.20499499736949545        0.0000000000000000     
  -1.8677572540552426E-002  0.21330061679364698        0.0000000000000000     
  -1.8807260735472175E-002  0.22166044749463307        0.0000000000000000     
  -1.8915508953007115E-002  0.23007448947245362        0.0000000000000000     
  -2.4545665344269333E-002  0.19679563254548432        0.0000000000000000     
  -2.4777967380285187E-002  0.20504123911664748        0.0000000000000000     
  -2.4981127123168526E-002  0.21334408194794408        0.0000000000000000     
  -2.5155144572919348E-002  0.22170416103937413        0.0000000000000000     
  -2.5300019729537670E-002  0.23012147639093758        0.0000000000000000     
   5.2666204730655863E-015  0.23001407772011181        0.0000000000000000     
   4.0733475620280402E-015  0.23844301298342754        0.0000000000000000     
   3.2032753186084229E-015  0.24685983005190823        0.0000000000000000     
   2.6541540232988270E-015  0.25526452892555385        0.0000000000000000     
   2.4299139089745125E-015  0.26365710960436439        0.0000000000000000     
  -6.2654990882356496E-003  0.23002079013704077        0.0000000000000000     
  -6.2956207343527791E-003  0.23845086368129187        0.0000000000000000     
  -6.3212332250697743E-003  0.24686972820246633        0.0000000000000000     
  -6.3423365603866464E-003  0.25527738370056430        0.0000000000000000     
  -6.3589307403033859E-003  0.26367383017558566        0.0000000000000000     
  -1.2570668739239779E-002  0.23004092738782136        0.0000000000000000     
  -1.2631161890526722E-002  0.23847441577487827        0.0000000000000000     
  -1.2682870077525705E-002  0.24689942265413403        0.0000000000000000     
  -1.2725793300236732E-002  0.25531594802558855        0.0000000000000000     
  -1.2759931558659799E-002  0.26372399188924184        0.0000000000000000     
  -1.8915508953007115E-002  0.23007448947245362        0.0000000000000000     
  -1.9006623468517756E-002  0.23851366926418693        0.0000000000000000     
  -1.9084910557364585E-002  0.24694891340691127        0.0000000000000000     
  -1.9150370219547606E-002  0.25538022190062665        0.0000000000000000     
  -1.9203002455066814E-002  0.26380759474533294        0.0000000000000000     
  -2.5300019729537670E-002  0.23012147639093758        0.0000000000000000     
  -2.5422005468325889E-002  0.23856862414921776        0.0000000000000000     
  -2.5527354664586416E-002  0.24701820046079812        0.0000000000000000     
  -2.5616067318319263E-002  0.25547020532567849        0.0000000000000000     
  -2.5688143429524427E-002  0.26392463874385907        0.0000000000000000     
   2.4299139089745125E-015  0.26365710960436439        0.0000000000000000     
   2.1894378671172277E-015  0.27197737887272988        0.0000000000000000     
   1.5962708585504082E-015  0.28016514351504040        0.0000000000000000     
   6.4973525691625067E-016  0.28822040353129580        0.0000000000000000     
  -6.4878658001532585E-016  0.29614315892149623        0.0000000000000000     
  -6.3589307403033859E-003  0.26367383017558566        0.0000000000000000     
  -6.3749179873348154E-003  0.27199918784277899        0.0000000000000000     
  -6.3942005239957522E-003  0.28019357691739272        0.0000000000000000     
  -6.4167783502861991E-003  0.28825699739942701        0.0000000000000000     
  -6.4426514662061542E-003  0.29618944928888175        0.0000000000000000     
  -1.2759931558659799E-002  0.26372399188924184        0.0000000000000000     
  -1.2792523732173012E-002  0.27206461475291815        0.0000000000000000     
  -1.2830808700154472E-002  0.28027887712444183        0.0000000000000000     
  -1.2874786462604176E-002  0.28836677900381280        0.0000000000000000     
  -1.2924457019522131E-002  0.29632832039103113        0.0000000000000000     
  -1.9203002455066814E-002  0.26380759474533294        0.0000000000000000     
  -1.9252817234512398E-002  0.27217365960314766        0.0000000000000000     
  -1.9309824528474556E-002  0.28042104413618762        0.0000000000000000     
  -1.9374024336953285E-002  0.28854974834445329        0.0000000000000000     
  -1.9445416659948579E-002  0.29655977222794455        0.0000000000000000     
  -2.5688143429524427E-002  0.26392463874385907        0.0000000000000000     
  -2.5755798494352979E-002  0.27232632239346716        0.0000000000000000     
  -2.5831248008956007E-002  0.28062007795263039        0.0000000000000000     
  -2.5914491973333516E-002  0.28880590542134849        0.0000000000000000     
  -2.6005530387485494E-002  0.29688380479962173        0.0000000000000000     
  -1.4010360367371522E-002   5.5784980214992202E-002   0.0000000000000000     
  -1.4802214009156994E-002   6.1350034234355477E-002   0.0000000000000000     
  -1.5558086746744523E-002   6.7114609124981878E-002   0.0000000000000000     
  -1.6277978580134102E-002   7.3078704886871362E-002   0.0000000000000000     
  -1.6961889509325739E-002   7.9242321520023973E-002   0.0000000000000000     
  -1.7658856873234006E-002   5.6043246625636679E-002   0.0000000000000000     
  -1.8633078171532799E-002   6.1602848756456767E-002   0.0000000000000000     
  -1.9566872047767629E-002   6.7360944062505035E-002   0.0000000000000000     
  -2.0460238501938500E-002   7.3317532543781511E-002   0.0000000000000000     
  -2.1313177534045408E-002   7.9472614200286118E-002   0.0000000000000000     
  -2.1357096231274096E-002   5.6361443374937745E-002   0.0000000000000000     
  -2.2523943390954398E-002   6.1913134039517058E-002   0.0000000000000000     
  -2.3643446030199033E-002   6.7662593756026929E-002   0.0000000000000000     
  -2.4715604149007996E-002   7.3609822524467364E-002   0.0000000000000000     
  -2.5740417747381287E-002   7.9754820344838356E-002   0.0000000000000000     
  -2.5105078441491787E-002   5.6739570462895392E-002   0.0000000000000000     
  -2.6474809667421797E-002   6.2280890083536329E-002   0.0000000000000000     
  -2.7787808694038726E-002   6.8019558205547531E-002   0.0000000000000000     
  -2.9044075521342586E-002   7.3955574828928949E-002   0.0000000000000000     
  -3.0243610149333366E-002   8.0088939953680618E-002   0.0000000000000000     
  -2.8902803503887090E-002   5.7177627889509627E-002   0.0000000000000000     
  -3.0485677000934991E-002   6.2706116888514601E-002   0.0000000000000000     
  -3.1999960039286714E-002   6.8431837411066829E-002   0.0000000000000000     
  -3.3445652618942272E-002   7.4354789457166268E-002   0.0000000000000000     
  -3.4822754739901651E-002   8.0474973026812974E-002   0.0000000000000000     
  -1.6961889509325739E-002   7.9242321520023973E-002   0.0000000000000000     
  -1.7619059052746067E-002   8.5580721149593378E-002   0.0000000000000000     
  -1.8258726728821745E-002   9.2069165900733260E-002   0.0000000000000000     
  -1.8880892537552756E-002   9.8707655773443606E-002   0.0000000000000000     
  -1.9485556478939115E-002  0.10549619076772444        0.0000000000000000     
  -2.1313177534045408E-002   7.9472614200286118E-002   0.0000000000000000     
  -2.2134600223859092E-002   8.5801976564640656E-002   0.0000000000000000     
  -2.2933417651150277E-002   9.2281407169466756E-002   0.0000000000000000     
  -2.3709629815918960E-002   9.8910906014764446E-002   0.0000000000000000     
  -2.4463236718165155E-002  0.10569047310053374        0.0000000000000000     
  -2.5740417747381287E-002   7.9754820344838356E-002   0.0000000000000000     
  -2.6727667559288858E-002   8.6073634230907414E-002   0.0000000000000000     
  -2.7687134318700651E-002   9.2542311196442087E-002   0.0000000000000000     
  -2.8618818025616676E-002   9.9160851241442374E-002   0.0000000000000000     
  -2.9522718680036919E-002  0.10592925436590822        0.0000000000000000     
  -3.0243610149333366E-002   8.0088939953680618E-002   0.0000000000000000     
  -3.1398261059035378E-002   8.6395694148393667E-002   0.0000000000000000     
  -3.2519876731472872E-002   9.2851877981659267E-002   0.0000000000000000     
  -3.3608457166645886E-002   9.9457491453477334E-002   0.0000000000000000     
  -3.4664002364554407E-002  0.10621253456384791        0.0000000000000000     
  -3.4822754739901651E-002   8.0474973026812974E-002   0.0000000000000000     
  -3.6146380723098621E-002   8.6768156317099443E-002   0.0000000000000000     
  -3.7431644889466945E-002   9.3210107525118255E-002   0.0000000000000000     
  -3.8678547239006614E-002   9.9800826650869354E-002   0.0000000000000000     
  -3.9887087771717622E-002  0.10654031369435277        0.0000000000000000     
  -1.9485556478939115E-002  0.10549619076772444        0.0000000000000000     
  -2.0066302669188456E-002  0.11242950908681970        0.0000000000000000     
  -2.0616715224508423E-002  0.11950234893397335        0.0000000000000000     
  -2.1136794144899017E-002  0.12671471030918535        0.0000000000000000     
  -2.1626539430360234E-002  0.13406659321245576        0.0000000000000000     
  -2.4463236718165155E-002  0.10569047310053374        0.0000000000000000     
  -2.5187246152514779E-002  0.11261459839018077        0.0000000000000000     
  -2.5874665913593779E-002  0.11967777184711165        0.0000000000000000     
  -2.6525496001402134E-002  0.12687999347132642        0.0000000000000000     
  -2.7139736415939864E-002  0.13422126326282505        0.0000000000000000     
  -2.9522718680036919E-002  0.10592925436590822        0.0000000000000000     
  -3.0391232435870892E-002  0.11284193816249893        0.0000000000000000     
  -3.1216755447028083E-002  0.11989332022387368        0.0000000000000000     
  -3.1999287713508490E-002  0.12708340055003250        0.0000000000000000     
  -3.2738829235312135E-002  0.13441217914097539        0.0000000000000000     
  -3.4664002364554407E-002  0.10621253456384791        0.0000000000000000     
  -3.5678261519256772E-002  0.11311152840377423        0.0000000000000000     
  -3.6642983824811334E-002  0.12014899406425948        0.0000000000000000     
  -3.7558169281218086E-002  0.12732493154530369        0.0000000000000000     
  -3.8423817888477034E-002  0.13463934084690682        0.0000000000000000     
  -3.9887087771717622E-002  0.10654031369435277        0.0000000000000000     
  -4.1048333402672436E-002  0.11342336911400663        0.0000000000000000     
  -4.2153351046943545E-002  0.12044479336826902        0.0000000000000000     
  -4.3202140704530920E-002  0.12760458645713993        0.0000000000000000     
  -4.4194702375434575E-002  0.13490274838061936        0.0000000000000000     
  -2.1626539430360234E-002  0.13406659321245576        0.0000000000000000     
  -2.2087927546505695E-002  0.14154339939372532        0.0000000000000000     
  -2.2522934958949012E-002  0.14913053060293471        0.0000000000000000     
  -2.2931561667690177E-002  0.15682798684008400        0.0000000000000000     
  -2.3313807672729205E-002  0.16463576810517316        0.0000000000000000     
  -2.7139736415939864E-002  0.13422126326282505        0.0000000000000000     
  -2.7719039582855456E-002  0.14168718095169569        0.0000000000000000     
  -2.8265057927797398E-002  0.14926334626802656        0.0000000000000000     
  -2.8777791450765700E-002  0.15694975921181759        0.0000000000000000     
  -2.9257240151760358E-002  0.16474641978306881        0.0000000000000000     
  -3.2738829235312135E-002  0.13441217914097539        0.0000000000000000     
  -3.3437027996903436E-002  0.14186535842165982        0.0000000000000000     
  -3.4095531982746861E-002  0.14942864081704332        0.0000000000000000     
  -3.4714341192842398E-002  0.15710202632712580        0.0000000000000000     
  -3.5293455627190058E-002  0.16488551495190737        0.0000000000000000     
  -3.8423817888477034E-002  0.13463934084690682        0.0000000000000000     
  -3.9241892788649646E-002  0.14207793180361766        0.0000000000000000     
  -4.0014357123797396E-002  0.14962641424998493        0.0000000000000000     
  -4.0741210893920271E-002  0.15728478818600869        0.0000000000000000     
  -4.1422454099018298E-002  0.16505305361168882        0.0000000000000000     
  -4.4194702375434575E-002  0.13490274838061936        0.0000000000000000     
  -4.5133633958094076E-002  0.14232490109756923        0.0000000000000000     
  -4.6021533350948989E-002  0.14985666656685151        0.0000000000000000     
  -4.6858400553999334E-002  0.15749804478846613        0.0000000000000000     
  -4.7644235567245091E-002  0.16524903576241312        0.0000000000000000     
  -2.3313807672729205E-002  0.16463576810517316        0.0000000000000000     
  -2.3667590517091434E-002  0.17254296746698691        0.0000000000000000     
  -2.3990827743802193E-002  0.18053867799431006        0.0000000000000000     
  -2.4283519352861500E-002  0.18862289968714249        0.0000000000000000     
  -2.4545665344269333E-002  0.19679563254548432        0.0000000000000000     
  -2.9257240151760358E-002  0.16474641978306881        0.0000000000000000     
  -2.9701314624324040E-002  0.17264263383901246        0.0000000000000000     
  -3.0107925461999425E-002  0.18062770723688085        0.0000000000000000     
  -3.0477072664786505E-002  0.18870163997667389        0.0000000000000000     
  -3.0808756232685291E-002  0.19686443205839160        0.0000000000000000     
  -3.5293455627190058E-002  0.16488551495190737        0.0000000000000000     
  -3.5830660901184225E-002  0.17276856755585895        0.0000000000000000     
  -3.6323742630219327E-002  0.18074064500345149        0.0000000000000000     
  -3.6772700814295338E-002  0.18880174729468496        0.0000000000000000     
  -3.7177535453412291E-002  0.19695187442955944        0.0000000000000000     
  -4.1422454099018298E-002  0.16505305361168882        0.0000000000000000     
  -4.2055629347671986E-002  0.17292076861752623        0.0000000000000000     
  -4.2638279248461884E-002  0.18087749129402192        0.0000000000000000     
  -4.3170403801388001E-002  0.18892322164117567        0.0000000000000000     
  -4.3652003006450314E-002  0.19705795965898773        0.0000000000000000     
  -4.7644235567245091E-002  0.16524903576241312        0.0000000000000000     
  -4.8376219963787340E-002  0.17309923702401450        0.0000000000000000     
  -4.9051535316727138E-002  0.18103824610859218        0.0000000000000000     
  -4.9670181626064486E-002  0.18906606301614617        0.0000000000000000     
  -5.0232158891799397E-002  0.19718268774667649        0.0000000000000000     
  -2.4545665344269333E-002  0.19679563254548432        0.0000000000000000     
  -2.4777967380285187E-002  0.20504123911664748        0.0000000000000000     
  -2.4981127123168526E-002  0.21334408194794408        0.0000000000000000     
  -2.5155144572919348E-002  0.22170416103937413        0.0000000000000000     
  -2.5300019729537670E-002  0.23012147639093758        0.0000000000000000     
  -3.0808756232685291E-002  0.19686443205839160        0.0000000000000000     
  -3.1103210363398682E-002  0.20510201512825074        0.0000000000000000     
  -3.1360669254629617E-002  0.21340032083246790        0.0000000000000000     
  -3.1581132906378068E-002  0.22175934917104317        0.0000000000000000     
  -3.1764601318644066E-002  0.23017910014397652        0.0000000000000000     
  -3.7177535453412291E-002  0.19695187442955944        0.0000000000000000     
  -3.7537872510685757E-002  0.20517864774100031        0.0000000000000000     
  -3.7853337949231347E-002  0.21346968856193296        0.0000000000000000     
  -3.8123931769049081E-002  0.22182499689235743        0.0000000000000000     
  -3.8349653970138946E-002  0.23024457273227378        0.0000000000000000     
  -4.3652003006450314E-002  0.19705795965898773        0.0000000000000000     
  -4.4081953822146372E-002  0.20527113695489616        0.0000000000000000     
  -4.4459133206973735E-002  0.21355218513633922        0.0000000000000000     
  -4.4783541160932375E-002  0.22190110420331699        0.0000000000000000     
  -4.5055177684022306E-002  0.23031789415582937        0.0000000000000000     
  -5.0232158891799397E-002  0.19718268774667649        0.0000000000000000     
  -5.0735454297780584E-002  0.20537948276993828        0.0000000000000000     
  -5.1178055027856773E-002  0.21364781055568671        0.0000000000000000     
  -5.1559961082027962E-002  0.22198767110392170        0.0000000000000000     
  -5.1881172460294153E-002  0.23039906441464333        0.0000000000000000     
  -2.5300019729537670E-002  0.23012147639093758        0.0000000000000000     
  -2.5422005468325889E-002  0.23856862414921776        0.0000000000000000     
  -2.5527354664586416E-002  0.24701820046079812        0.0000000000000000     
  -2.5616067318319263E-002  0.25547020532567849        0.0000000000000000     
  -2.5688143429524427E-002  0.26392463874385907        0.0000000000000000     
  -3.1764601318644066E-002  0.23017910014397652        0.0000000000000000     
  -3.1918997452820556E-002  0.23863479334170234        0.0000000000000000     
  -3.2052244270300512E-002  0.24710164835465503        0.0000000000000000     
  -3.2164341771083925E-002  0.25557966518283470        0.0000000000000000     
  -3.2255289955170810E-002  0.26406884382624107        0.0000000000000000     
  -3.8349653970138946E-002  0.23024457273227378        0.0000000000000000     
  -3.8539288984871224E-002  0.23870768975337209        0.0000000000000000     
  -3.8701621245616165E-002  0.24719362162734260        0.0000000000000000     
  -3.8836650752373816E-002  0.25570236835418525        0.0000000000000000     
  -3.8944377505144144E-002  0.26423392993390010        0.0000000000000000     
  -4.5055177684022306E-002  0.23031789415582937        0.0000000000000000     
  -4.5282880064477872E-002  0.23878731338422712        0.0000000000000000     
  -4.5475485590533417E-002  0.24729412027886077        0.0000000000000000     
  -4.5632994262188933E-002  0.25583831483973041        0.0000000000000000     
  -4.5755406079444429E-002  0.26441989706683600        0.0000000000000000     
  -5.1881172460294153E-002  0.23039906441464333        0.0000000000000000     
  -5.2149770691640521E-002  0.23887366423426737        0.0000000000000000     
  -5.2373837305052240E-002  0.24740314430920965        0.0000000000000000     
  -5.2553372300529276E-002  0.25598750463947006        0.0000000000000000     
  -5.2688375678071664E-002  0.26462674522504886        0.0000000000000000     
  -2.5688143429524427E-002  0.26392463874385907        0.0000000000000000     
  -2.5755798494352979E-002  0.27232632239346716        0.0000000000000000     
  -2.5831248008956007E-002  0.28062007795263039        0.0000000000000000     
  -2.5914491973333516E-002  0.28880590542134849        0.0000000000000000     
  -2.6005530387485494E-002  0.29688380479962173        0.0000000000000000     
  -3.2255289955170810E-002  0.26406884382624107        0.0000000000000000     
  -3.2339912505852580E-002  0.27251626003643503        0.0000000000000000     
  -3.2433033106420657E-002  0.28086898956497702        0.0000000000000000     
  -3.2534651756875047E-002  0.28912703241186705        0.0000000000000000     
  -3.2644768457215749E-002  0.29729038857710505        0.0000000000000000     
  -3.8944377505144144E-002  0.26423392993390010        0.0000000000000000     
  -3.9043604263169024E-002  0.27273712944460932        0.0000000000000000     
  -3.9153133785690325E-002  0.28116078996443511        0.0000000000000000     
  -3.9272966072708061E-002  0.28950491149337748        0.0000000000000000     
  -3.9403101124222205E-002  0.29776949403143649        0.0000000000000000     
  -4.5755406079444429E-002  0.26441989706683600        0.0000000000000000     
  -4.5866873766302323E-002  0.27298893061798990        0.0000000000000000     
  -4.5991550046765035E-002  0.28149547915100454        0.0000000000000000     
  -4.6129434920832546E-002  0.28993954266587990        0.0000000000000000     
  -4.6280528388504868E-002  0.29832112116261594        0.0000000000000000     
  -5.2688375678071664E-002  0.26462674522504886        0.0000000000000000     
  -5.2809721015252463E-002  0.27327166355657689        0.0000000000000000     
  -5.2948281889644747E-002  0.28187305712468536        0.0000000000000000     
  -5.3104058301248501E-002  0.29043092592937431        0.0000000000000000     
  -5.3277050250063740E-002  0.29894526997064363        0.0000000000000000     
  -2.8902803503887090E-002   5.7177627889509627E-002   0.0000000000000000     
  -3.0485677000934991E-002   6.2706116888514601E-002   0.0000000000000000     
  -3.1999960039286714E-002   6.8431837411066829E-002   0.0000000000000000     
  -3.3445652618942272E-002   7.4354789457166268E-002   0.0000000000000000     
  -3.4822754739901651E-002   8.0474973026812974E-002   0.0000000000000000     
  -3.2823423643059832E-002   5.7675354242136406E-002   0.0000000000000000     
  -3.4619688036599580E-002   6.3189056598269955E-002   0.0000000000000000     
  -3.6334952055446394E-002   6.8899813674126120E-002   0.0000000000000000     
  -3.7969215699600288E-002   7.4807625469704889E-002   0.0000000000000000     
  -3.9522478969061255E-002   8.0912491985006316E-002   0.0000000000000000     
  -3.6940091083609863E-002   5.8232488108131697E-002   0.0000000000000000     
  -3.8939985419521171E-002   6.3729951356620462E-002   0.0000000000000000     
  -4.0847836732021171E-002   6.9423869296266677E-002   0.0000000000000000     
  -4.2663645021109871E-002   7.5314241927070383E-002   0.0000000000000000     
  -4.4387410286787263E-002   8.1401069249031552E-002   0.0000000000000000     
  -4.1252805825537184E-002   5.8849029487495493E-002   0.0000000000000000     
  -4.3446569149699750E-002   6.4328801163566110E-002   0.0000000000000000     
  -4.5538614069011038E-002   7.0004004277488541E-002   0.0000000000000000     
  -4.7528940583471006E-002   7.5874638829262736E-002   0.0000000000000000     
  -4.9417548693079683E-002   8.1940704818888710E-002   0.0000000000000000     
  -4.5761567868841793E-002   5.9524978380227800E-002   0.0000000000000000     
  -4.8139439227135344E-002   6.4985606019106940E-002   0.0000000000000000     
  -5.0407284066415980E-002   7.0640218617791656E-002   0.0000000000000000     
  -5.2565102386683701E-002   7.6488816176281921E-002   0.0000000000000000     
  -5.4612894187938507E-002   8.2531398694577762E-002   0.0000000000000000     
  -3.4822754739901651E-002   8.0474973026812974E-002   0.0000000000000000     
  -3.6146380723098621E-002   8.6768156317099443E-002   0.0000000000000000     
  -3.7431644889466945E-002   9.3210107525118255E-002   0.0000000000000000     
  -3.8678547239006614E-002   9.9800826650869354E-002   0.0000000000000000     
  -3.9887087771717622E-002  0.10654031369435277        0.0000000000000000     
  -3.9522478969061255E-002   8.0912491985006316E-002   0.0000000000000000     
  -4.1013616546034276E-002   8.7190014201210253E-002   0.0000000000000000     
  -4.2461503112724362E-002   9.3615793099496566E-002   0.0000000000000000     
  -4.3866138669131499E-002  0.10018982867986531        0.0000000000000000     
  -4.5227523215255708E-002  0.10691212094231647        0.0000000000000000     
  -4.4387410286787263E-002   8.1401069249031552E-002   0.0000000000000000     
  -4.6041558522397975E-002   8.7660261264911540E-002   0.0000000000000000     
  -4.7648515721286644E-002   9.4067727977471732E-002   0.0000000000000000     
  -4.9208281883453261E-002  0.10062346938671209        0.0000000000000000     
  -5.0720857008897828E-002  0.10732748549263263        0.0000000000000000     
  -4.9417548693079683E-002   8.1940704818888710E-002   0.0000000000000000     
  -5.1230206652189705E-002   8.8178897508203388E-002   0.0000000000000000     
  -5.2992682715153783E-002   9.4565912159043697E-002   0.0000000000000000     
  -5.4704976881971866E-002  0.10110174877140966        0.0000000000000000     
  -5.6367089152643969E-002  0.10778640734530123        0.0000000000000000     
  -5.4612894187938507E-002   8.2531398694577762E-002   0.0000000000000000     
  -5.6579560935409501E-002   8.8745922931085769E-002   0.0000000000000000     
  -5.8494004094325772E-002   9.5110345644212529E-002   0.0000000000000000     
  -6.0356223664687313E-002  0.10162466683395803        0.0000000000000000     
  -6.2166219646494145E-002  0.10828888650032231        0.0000000000000000     
  -3.9887087771717622E-002  0.10654031369435277        0.0000000000000000     
  -4.1048333402672436E-002  0.11342336911400663        0.0000000000000000     
  -4.2153351046943545E-002  0.12044479336826902        0.0000000000000000     
  -4.3202140704530920E-002  0.12760458645713993        0.0000000000000000     
  -4.4194702375434575E-002  0.13490274838061936        0.0000000000000000     
  -4.5227523215255708E-002  0.10691212094231647        0.0000000000000000     
  -4.6535838651538680E-002  0.11377766388301098        0.0000000000000000     
  -4.7781266878422095E-002  0.12078145149810972        0.0000000000000000     
  -4.8963807895905993E-002  0.12792348378761270        0.0000000000000000     
  -5.0083461703990341E-002  0.13520376075151991        0.0000000000000000     
  -5.0720857008897828E-002  0.10732748549263263        0.0000000000000000     
  -5.2175167831276244E-002  0.11417461630060204        0.0000000000000000     
  -5.3560141084244395E-002  0.12115970181598899        0.0000000000000000     
  -5.4875776767802302E-002  0.12828274203879347        0.0000000000000000     
  -5.6122074881949945E-002  0.13554373696901553        0.0000000000000000     
  -5.6367089152643969E-002  0.10778640734530123        0.0000000000000000     
  -5.7966320941885155E-002  0.11461422636677986        0.0000000000000000     
  -5.9489973664410445E-002  0.12157954432190685        0.0000000000000000     
  -6.0938047320219846E-002  0.12868236121068227        0.0000000000000000     
  -6.2310541909313365E-002  0.13592267703310612        0.0000000000000000     
  -6.2166219646494145E-002  0.10828888650032231        0.0000000000000000     
  -6.3909297983365407E-002  0.11509649408154438        0.0000000000000000     
  -6.5570764618920238E-002  0.12204097901586329        0.0000000000000000     
  -6.7150619553158639E-002  0.12912234130327907        0.0000000000000000     
  -6.8648862786080622E-002  0.13634058094379170        0.0000000000000000     
  -4.4194702375434575E-002  0.13490274838061936        0.0000000000000000     
  -4.5133633958094076E-002  0.14232490109756923        0.0000000000000000     
  -4.6021533350948989E-002  0.14985666656685151        0.0000000000000000     
  -4.6858400553999334E-002  0.15749804478846613        0.0000000000000000     
  -4.7644235567245091E-002  0.16524903576241312        0.0000000000000000     
  -5.0083461703990341E-002  0.13520376075151991        0.0000000000000000     
  -5.1143606825822065E-002  0.14260781124738484        0.0000000000000000     
  -5.2147621784548084E-002  0.15012116413276075        0.0000000000000000     
  -5.3095506580168393E-002  0.15774381940764778        0.0000000000000000     
  -5.3987261212682991E-002  0.16547577707204578        0.0000000000000000     
  -5.6122074881949945E-002  0.13554373696901553        0.0000000000000000     
  -5.7303166712418988E-002  0.14292820719693466        0.0000000000000000     
  -5.8423183544941103E-002  0.15042167331283052        0.0000000000000000     
  -5.9482125379516297E-002  0.15802413531670303        0.0000000000000000     
  -6.0479992216144557E-002  0.16573559320855225        0.0000000000000000     
  -6.2310541909313365E-002  0.13592267703310612        0.0000000000000000     
  -6.3612313617884830E-002  0.14328608894621878        0.0000000000000000     
  -6.4848218632128043E-002  0.15075819410706071        0.0000000000000000     
  -6.6018256952043039E-002  0.15833899251563197        0.0000000000000000     
  -6.7122428577629775E-002  0.16602848417193239        0.0000000000000000     
  -6.8648862786080622E-002  0.13634058094379170        0.0000000000000000     
  -7.0071047542219572E-002  0.14368145649523714        0.0000000000000000     
  -7.1422727046108900E-002  0.15113072651545142        0.0000000000000000     
  -7.2703901297748591E-002  0.15868839100443449        0.0000000000000000     
  -7.3914570297138674E-002  0.16635444996218640        0.0000000000000000     
  -4.7644235567245091E-002  0.16524903576241312        0.0000000000000000     
  -4.8376219963787340E-002  0.17309923702401450        0.0000000000000000     
  -4.9051535316727138E-002  0.18103824610859218        0.0000000000000000     
  -4.9670181626064486E-002  0.18906606301614617        0.0000000000000000     
  -5.0232158891799397E-002  0.19718268774667649        0.0000000000000000     
  -5.3987261212682991E-002  0.16547577707204578        0.0000000000000000     
  -5.4819799101361359E-002  0.17330670892738306        0.0000000000000000     
  -5.5590033665473007E-002  0.18122628677508779        0.0000000000000000     
  -5.6297964905017907E-002  0.18923451061515992        0.0000000000000000     
  -5.6943592819996093E-002  0.19733138044759940        0.0000000000000000     
  -6.0479992216144557E-002  0.16573559320855225        0.0000000000000000     
  -6.1413733112225172E-002  0.17354592047969150        0.0000000000000000     
  -6.2280297125157452E-002  0.18144499062143427        0.0000000000000000     
  -6.3079684254941398E-002  0.18943280363378048        0.0000000000000000     
  -6.3811894501576982E-002  0.19750935951673018        0.0000000000000000     
  -6.7122428577629775E-002  0.16602848417193239        0.0000000000000000     
  -6.8158021996378770E-002  0.17381687168093979        0.0000000000000000     
  -6.9122325695780501E-002  0.18169435764763162        0.0000000000000000     
  -7.0015339675834912E-002  0.18966094207200795        0.0000000000000000     
  -7.0837063936542086E-002  0.19771662495406872        0.0000000000000000     
  -7.3914570297138674E-002  0.16635444996218640        0.0000000000000000     
  -7.5052665753822162E-002  0.17411956253112790        0.0000000000000000     
  -7.6116119377342112E-002  0.18197438785367989        0.0000000000000000     
  -7.7104931167698509E-002  0.18991892592984225        0.0000000000000000     
  -7.8019101124891382E-002  0.19795317675961513        0.0000000000000000     
  -5.0232158891799397E-002  0.19718268774667649        0.0000000000000000     
  -5.0735454297780584E-002  0.20537948276993828        0.0000000000000000     
  -5.1178055027856773E-002  0.21364781055568671        0.0000000000000000     
  -5.1559961082027962E-002  0.22198767110392170        0.0000000000000000     
  -5.1881172460294153E-002  0.23039906441464333        0.0000000000000000     
  -5.6943592819996093E-002  0.19733138044759940        0.0000000000000000     
  -5.7524352501544807E-002  0.20550983582753493        0.0000000000000000     
  -5.8037679040801350E-002  0.21376281631009494        0.0000000000000000     
  -5.8483572437765682E-002  0.22209032189527944        0.0000000000000000     
  -5.8862032692437845E-002  0.23049235258308837        0.0000000000000000     
  -6.3811894501576982E-002  0.19750935951673018        0.0000000000000000     
  -6.4474626997395548E-002  0.20566834676909421        0.0000000000000000     
  -6.5065580874728343E-002  0.21390345388968335        0.0000000000000000     
  -6.5584756133575423E-002  0.22221468087849772        0.0000000000000000     
  -6.6032152773936745E-002  0.23060202773553723        0.0000000000000000     
  -7.0837063936542086E-002  0.19771662495406872        0.0000000000000000     
  -7.1586277785332775E-002  0.20585501559461608        0.0000000000000000     
  -7.2261760529637786E-002  0.21406972329445206        0.0000000000000000     
  -7.2863512169457134E-002  0.22236074805357667        0.0000000000000000     
  -7.3391532704790818E-002  0.23072808987198989        0.0000000000000000     
  -7.8019101124891382E-002  0.19795317675961513        0.0000000000000000     
  -7.8859304865356500E-002  0.20606984230410061        0.0000000000000000     
  -7.9626218005529645E-002  0.21426162452440101        0.0000000000000000     
  -8.0319840545410859E-002  0.22252852342051629        0.0000000000000000     
  -8.0940172485000100E-002  0.23087053899244642        0.0000000000000000     
  -5.1881172460294153E-002  0.23039906441464333        0.0000000000000000     
  -5.2149770691640521E-002  0.23887366423426737        0.0000000000000000     
  -5.2373837305052240E-002  0.24740314430920965        0.0000000000000000     
  -5.2553372300529276E-002  0.25598750463947006        0.0000000000000000     
  -5.2688375678071664E-002  0.26462674522504886        0.0000000000000000     
  -5.8862032692437845E-002  0.23049235258308837        0.0000000000000000     
  -5.9179103949193609E-002  0.23896812154508382        0.0000000000000000     
  -5.9440830352408769E-002  0.24751684195282778        0.0000000000000000     
  -5.9647211902083330E-002  0.25613851380632019        0.0000000000000000     
  -5.9798248598217273E-002  0.26483313710556111        0.0000000000000000     
  -6.6032152773936745E-002  0.23060202773553723        0.0000000000000000     
  -6.6410022919971570E-002  0.23907206455826743        0.0000000000000000     
  -6.6720618695839173E-002  0.24763136144415379        0.0000000000000000     
  -6.6963940101539554E-002  0.25627991839319642        0.0000000000000000     
  -6.7139987137072699E-002  0.26501773540539519        0.0000000000000000     
  -7.3391532704790818E-002  0.23072808987198989        0.0000000000000000     
  -7.3842527603974389E-002  0.23918549327381816        0.0000000000000000     
  -7.4213202335343439E-002  0.24774670278318775        0.0000000000000000     
  -7.4503556898897955E-002  0.25641171840009880        0.0000000000000000     
  -7.4713591294637893E-002  0.26518054012455117        0.0000000000000000     
  -8.0940172485000100E-002  0.23087053899244642        0.0000000000000000     
  -8.1476618001202109E-002  0.23930840769173606        0.0000000000000000     
  -8.1918581270921595E-002  0.24786286596992965        0.0000000000000000     
  -8.2266062294158504E-002  0.25653391382702728        0.0000000000000000     
  -8.2519061070912919E-002  0.26532155126302898        0.0000000000000000     
  -5.2688375678071664E-002  0.26462674522504886        0.0000000000000000     
  -5.2809721015252463E-002  0.27327166355657689        0.0000000000000000     
  -5.2948281889644747E-002  0.28187305712468536        0.0000000000000000     
  -5.3104058301248501E-002  0.29043092592937431        0.0000000000000000     
  -5.3277050250063740E-002  0.29894526997064363        0.0000000000000000     
  -5.9798248598217273E-002  0.26483313710556111        0.0000000000000000     
  -5.9930876366298846E-002  0.27355659502543106        0.0000000000000000     
  -6.0082031131816239E-002  0.28226477074081063        0.0000000000000000     
  -6.0251712894769466E-002  0.29095766425169989        0.0000000000000000     
  -6.0439921655158525E-002  0.29963527555809877        0.0000000000000000     
  -6.7139987137072699E-002  0.26501773540539519        0.0000000000000000     
  -6.7289070175720847E-002  0.27381499178961322        0.0000000000000000     
  -6.7451499590766295E-002  0.28264186685471343        0.0000000000000000     
  -6.7627275382209001E-002  0.29149836060069589        0.0000000000000000     
  -6.7816397550048951E-002  0.30038447302756066        0.0000000000000000     
  -7.4713591294637893E-002  0.26518054012455117        0.0000000000000000     
  -7.4884302443518472E-002  0.27404685384912336        0.0000000000000000     
  -7.5056687266494865E-002  0.28300434546639386        0.0000000000000000     
  -7.5230745763567045E-002  0.29205301497636249        0.0000000000000000     
  -7.5406477934735039E-002  0.30119286237902942        0.0000000000000000     
  -8.2519061070912919E-002  0.26532155126302898        0.0000000000000000     
  -8.2716573169691748E-002  0.27425218120396150        0.0000000000000000     
  -8.2897594159001997E-002  0.28335220657585164        0.0000000000000000     
  -8.3062124038843665E-002  0.29262162737869946        0.0000000000000000     
  -8.3210162809216739E-002  0.30206044361250500        0.0000000000000000     
  -4.5761567868841793E-002   5.9524978380227800E-002   0.0000000000000000     
  -4.8139439227135344E-002   6.4985606019106940E-002   0.0000000000000000     
  -5.0407284066415980E-002   7.0640218617791656E-002   0.0000000000000000     
  -5.2565102386683701E-002   7.6488816176281921E-002   0.0000000000000000     
  -5.4612894187938507E-002   8.2531398694577762E-002   0.0000000000000000     
  -5.0433062032952107E-002   6.0258041898693361E-002   0.0000000000000000     
  -5.2995244408395051E-002   6.5698438390784930E-002   0.0000000000000000     
  -5.5439225621046688E-002   7.1331053589748381E-002   0.0000000000000000     
  -5.7765005670907019E-002   7.7155887495583719E-002   0.0000000000000000     
  -5.9972584557976057E-002   8.3172940108290933E-002   0.0000000000000000     
  -5.5233973137296541E-002   6.1045927155256932E-002   0.0000000000000000     
  -5.7990633450045972E-002   6.6465370746142116E-002   0.0000000000000000     
  -6.0619817629713794E-002   7.2075050465931073E-002   0.0000000000000000     
  -6.3121525676300014E-002   7.7874966314623817E-002   0.0000000000000000     
  -6.5495757589804610E-002   8.3865118292220348E-002   0.0000000000000000     
  -6.0164301181875088E-002   6.1888634149918520E-002   0.0000000000000000     
  -6.3125606352088109E-002   6.7286403085178470E-002   0.0000000000000000     
  -6.5949060092417328E-002   7.2872209246339720E-002   0.0000000000000000     
  -6.8634662402862673E-002   7.8646052633402241E-002   0.0000000000000000     
  -7.1182413283424201E-002   8.4607933246366049E-002   0.0000000000000000     
  -6.5224046166687769E-002   6.2786162882678104E-002   0.0000000000000000     
  -6.8400163114521489E-002   6.8161535407894047E-002   0.0000000000000000     
  -7.1426953009157232E-002   7.3722529930974334E-002   0.0000000000000000     
  -7.4304415850594996E-002   7.9469146451918979E-002   0.0000000000000000     
  -7.7032551638834768E-002   8.5401384970728009E-002   0.0000000000000000     
  -5.4612894187938507E-002   8.2531398694577762E-002   0.0000000000000000     
  -5.6579560935409501E-002   8.8745922931085769E-002   0.0000000000000000     
  -5.8494004094325772E-002   9.5110345644212529E-002   0.0000000000000000     
  -6.0356223664687313E-002  0.10162466683395803        0.0000000000000000     
  -6.2166219646494145E-002  0.10828888650032231        0.0000000000000000     
  -5.9972584557976057E-002   8.3172940108290933E-002   0.0000000000000000     
  -6.2093843088669644E-002   8.9361709823852831E-002   0.0000000000000000     
  -6.4160662069403643E-002   9.5701695038252280E-002   0.0000000000000000     
  -6.6173041500178040E-002  0.10219289575148925        0.0000000000000000     
  -6.8130981380992856E-002  0.10883531196356379        0.0000000000000000     
  -6.5495757589804610E-002   8.3865118292220348E-002   0.0000000000000000     
  -6.7777274828582465E-002   9.0026630476798736E-002   0.0000000000000000     
  -7.0000838850988401E-002   9.6340626946437094E-002   0.0000000000000000     
  -7.2166449657022416E-002  0.10280710770113537        0.0000000000000000     
  -7.4274107246684540E-002  0.10942607274089361        0.0000000000000000     
  -7.1182413283424201E-002   8.4607933246366049E-002   0.0000000000000000     
  -7.3629856155147957E-002   9.0740684889923484E-002   0.0000000000000000     
  -7.6014534439080059E-002   9.7027141368766917E-002   0.0000000000000000     
  -7.8336448135220504E-002  0.10346730268289635        0.0000000000000000     
  -8.0595597243569267E-002  0.11006116883231179        0.0000000000000000     
  -7.7032551638834768E-002   8.5401384970728009E-002   0.0000000000000000     
  -7.9651587068366128E-002   9.1503873063227062E-002   0.0000000000000000     
  -8.2201748833678617E-002   9.7761238305241804E-002   0.0000000000000000     
  -8.4683036934772249E-002  0.10417348069677222        0.0000000000000000     
  -8.7095451371647009E-002  0.11074060023781834        0.0000000000000000     
  -6.2166219646494145E-002  0.10828888650032231        0.0000000000000000     
  -6.3909297983365407E-002  0.11509649408154438        0.0000000000000000     
  -6.5570764618920238E-002  0.12204097901586329        0.0000000000000000     
  -6.7150619553158639E-002  0.12912234130327907        0.0000000000000000     
  -6.8648862786080622E-002  0.13634058094379170        0.0000000000000000     
  -6.8130981380992856E-002  0.10883531196356379        0.0000000000000000     
  -7.0017868597523944E-002  0.11562142749908123        0.0000000000000000     
  -7.1817090035447173E-002  0.12254372618264708        0.0000000000000000     
  -7.3528645694762571E-002  0.12960220801426134        0.0000000000000000     
  -7.5152535575470109E-002  0.13679687299392390        0.0000000000000000     
  -7.4274107246684540E-002  0.10942607274089361        0.0000000000000000     
  -7.6305802426167649E-002  0.11618903467357607        0.0000000000000000     
  -7.8243526001664648E-002  0.12308750610704700        0.0000000000000000     
  -8.0087277973175511E-002  0.13012148704130641        0.0000000000000000     
  -8.1837058340700250E-002  0.13729097747635433        0.0000000000000000     
  -8.0595597243569267E-002  0.11006116883231179        0.0000000000000000     
  -8.2773099469296590E-002  0.11679931560502883        0.0000000000000000     
  -8.4850072517572664E-002  0.12367231878906301        0.0000000000000000     
  -8.6826516388397473E-002  0.13068017838441442        0.0000000000000000     
  -8.8702431081771033E-002  0.13782289439108295        0.0000000000000000     
  -8.7095451371647009E-002  0.11074060023781834        0.0000000000000000     
  -8.9419759726910727E-002  0.11745227029343953        0.0000000000000000     
  -9.1636729583171220E-002  0.12429816422869516        0.0000000000000000     
  -9.3746360940428472E-002  0.13127828204358527        0.0000000000000000     
  -9.5748653798682470E-002  0.13839262373810984        0.0000000000000000     
  -6.8648862786080622E-002  0.13634058094379170        0.0000000000000000     
  -7.0071047542219572E-002  0.14368145649523714        0.0000000000000000     
  -7.1422727046108900E-002  0.15113072651545142        0.0000000000000000     
  -7.2703901297748591E-002  0.15868839100443449        0.0000000000000000     
  -7.3914570297138674E-002  0.16635444996218640        0.0000000000000000     
  -7.5152535575470109E-002  0.13679687299392390        0.0000000000000000     
  -7.6695045570807974E-002  0.14411376718228580        0.0000000000000000     
  -7.8162461574014283E-002  0.15153893663999807        0.0000000000000000     
  -7.9554783585089078E-002  0.15907238136706056        0.0000000000000000     
  -8.0872011604032318E-002  0.16671410136347337        0.0000000000000000     
  -8.1837058340700250E-002  0.13729097747635433        0.0000000000000000     
  -8.3499984789034726E-002  0.14458247834566082        0.0000000000000000     
  -8.5083175002974826E-002  0.15198249058269606        0.0000000000000000     
  -8.6586628982520522E-002  0.15949101418745998        0.0000000000000000     
  -8.8010346727671843E-002  0.16710804915995264        0.0000000000000000     
  -8.8702431081771033E-002  0.13782289439108295        0.0000000000000000     
  -9.0485865196899884E-002  0.14508758998536217        0.0000000000000000     
  -9.2184867332990528E-002  0.15246138834354542        0.0000000000000000     
  -9.3799437490042978E-002  0.15994428946563274        0.0000000000000000     
  -9.5329575668057234E-002  0.16753629335162415        0.0000000000000000     
  -9.5748653798682470E-002  0.13839262373810984        0.0000000000000000     
  -9.7652686794403393E-002  0.14562910210138980        0.0000000000000000     
  -9.9467538564061375E-002  0.15297562992254615        0.0000000000000000     
 -0.10119320910765639       0.16043220720157886        0.0000000000000000     
 -0.10282969842518848       0.16799883393848791        0.0000000000000000     
  -7.3914570297138674E-002  0.16635444996218640        0.0000000000000000     
  -7.5052665753822162E-002  0.17411956253112790        0.0000000000000000     
  -7.6116119377342112E-002  0.18197438785367989        0.0000000000000000     
  -7.7104931167698509E-002  0.18991892592984225        0.0000000000000000     
  -7.8019101124891382E-002  0.19795317675961513        0.0000000000000000     
  -8.0872011604032318E-002  0.16671410136347337        0.0000000000000000     
  -8.2112867454543381E-002  0.17445508937764859        0.0000000000000000     
  -8.3276072960321593E-002  0.18228633815799833        0.0000000000000000     
  -8.4361628121366924E-002  0.19020784770452262        0.0000000000000000     
  -8.5369532937679460E-002  0.19821961801722138        0.0000000000000000     
  -8.8010346727671843E-002  0.16710804915995264        0.0000000000000000     
  -8.9353830168530490E-002  0.17482454856789459        0.0000000000000000     
  -9.0616581235198210E-002  0.18263146547900638        0.0000000000000000     
  -9.1798599927675001E-002  0.19052879989328814        0.0000000000000000     
  -9.2899886245960850E-002  0.19851655181073974        0.0000000000000000     
  -9.5329575668057234E-002  0.16753629335162415        0.0000000000000000     
  -9.6775553895783462E-002  0.17522794010186585        0.0000000000000000     
  -9.8137644201971963E-002  0.18300976981670408        0.0000000000000000     
  -9.9415846586622669E-002  0.19088178249613882        0.0000000000000000     
 -0.10061016104973558       0.19884397814017010        0.0000000000000000     
 -0.10282969842518848       0.16799883393848791        0.0000000000000000     
 -0.10437803863630238       0.17566526397956239        0.0000000000000000     
 -0.10583926186064289       0.18342125117109129        0.0000000000000000     
 -0.10721336809820997       0.19126679551307468        0.0000000000000000     
 -0.10850035734900368       0.19920189700551250        0.0000000000000000     
  -7.8019101124891382E-002  0.19795317675961513        0.0000000000000000     
  -7.8859304865356500E-002  0.20606984230410061        0.0000000000000000     
  -7.9626218005529645E-002  0.21426162452440101        0.0000000000000000     
  -8.0319840545410859E-002  0.22252852342051629        0.0000000000000000     
  -8.0940172485000100E-002  0.23087053899244642        0.0000000000000000     
  -8.5369532937679460E-002  0.19821961801722138        0.0000000000000000     
  -8.6302532064628540E-002  0.20631355746824931        0.0000000000000000     
  -8.7163370157583644E-002  0.21448157442976079        0.0000000000000000     
  -8.7952047216544788E-002  0.22272366890175593        0.0000000000000000     
  -8.8668563241511955E-002  0.23103984088423474        0.0000000000000000     
  -9.2899886245960850E-002  0.19851655181073974        0.0000000000000000     
  -9.3924783210310697E-002  0.20658689165776362        0.0000000000000000     
  -9.4877633840979456E-002  0.21473198986076206        0.0000000000000000     
  -9.5758438137967125E-002  0.22295184641973509        0.0000000000000000     
  -9.6567196101273733E-002  0.23124646133468277        0.0000000000000000     
 -0.10061016104973558       0.19884397814017010        0.0000000000000000     
 -0.10172605830240297       0.20688984487264353        0.0000000000000000     
 -0.10276900905571708       0.21501287081740469        0.0000000000000000     
 -0.10373901330967789       0.22321305597445373        0.0000000000000000     
 -0.10463607106428538       0.23149040034379048        0.0000000000000000     
 -0.10850035734900368       0.19920189700551250        0.0000000000000000     
 -0.10970635734090539       0.20722241711288913        0.0000000000000000     
 -0.11083749580179648       0.21532421729968892        0.0000000000000000     
 -0.11189377273167703       0.22350729756591184        0.0000000000000000     
 -0.11287518813054699       0.23177165791155790        0.0000000000000000     
  -8.0940172485000100E-002  0.23087053899244642        0.0000000000000000     
  -8.1476618001202109E-002  0.23930840769173606        0.0000000000000000     
  -8.1918581270921595E-002  0.24786286596992965        0.0000000000000000     
  -8.2266062294158504E-002  0.25653391382702728        0.0000000000000000     
  -8.2519061070912919E-002  0.26532155126302898        0.0000000000000000     
  -8.8668563241511955E-002  0.23103984088423474        0.0000000000000000     
  -8.9298596648607759E-002  0.23945576150311668        0.0000000000000000     
  -8.9827825853954851E-002  0.24799710188432134        0.0000000000000000     
  -9.0256250857553177E-002  0.25666386202784869        0.0000000000000000     
  -9.0583871659402806E-002  0.26545604193369865        0.0000000000000000     
  -9.6567196101273733E-002  0.23124646133468277        0.0000000000000000     
  -9.7294766083144427E-002  0.23964250839905565        0.0000000000000000     
  -9.7932006435824490E-002  0.24816666140630458        0.0000000000000000     
  -9.8478917159313908E-002  0.25681892035642950        0.0000000000000000     
  -9.8935498253612655E-002  0.26559928524943033        0.0000000000000000     
 -0.10463607106428538       0.23149040034379048        0.0000000000000000     
 -0.10546512630481211       0.23986864837955305        0.0000000000000000     
 -0.10623112301653054       0.24837154453587948        0.0000000000000000     
 -0.10693406119944066       0.25699908881276973        0.0000000000000000     
 -0.10757394085354251       0.26575128121022390        0.0000000000000000     
 -0.11287518813054699       0.23177165791155790        0.0000000000000000     
 -0.11380967731361083       0.24013418144460871        0.0000000000000000     
 -0.11472517559607298       0.24861175127304591        0.0000000000000000     
 -0.11562168297793346       0.25720436739686947        0.0000000000000000     
 -0.11649919945919228       0.26591202981607942        0.0000000000000000     
  -8.2519061070912919E-002  0.26532155126302898        0.0000000000000000     
  -8.2716573169691748E-002  0.27425218120396150        0.0000000000000000     
  -8.2897594159001997E-002  0.28335220657585164        0.0000000000000000     
  -8.3062124038843665E-002  0.29262162737869946        0.0000000000000000     
  -8.3210162809216739E-002  0.30206044361250500        0.0000000000000000     
  -9.0583871659402806E-002  0.26545604193369865        0.0000000000000000     
  -9.0841009422665181E-002  0.27443666583131604        0.0000000000000000     
  -9.1057985310501827E-002  0.28366875795014534        0.0000000000000000     
  -9.1234799322912730E-002  0.29315231829018673        0.0000000000000000     
  -9.1371451459897890E-002  0.30288734685143998        0.0000000000000000     
  -9.8935498253612655E-002  0.26559928524943033        0.0000000000000000     
  -9.9312738270863343E-002  0.27460599970837551        0.0000000000000000     
  -9.9621625763208502E-002  0.28393730735633332        0.0000000000000000     
  -9.9862160730648145E-002  0.29359320819330381        0.0000000000000000     
 -0.10003434317318227       0.30357370221928687        0.0000000000000000     
 -0.10757394085354251       0.26575128121022390        0.0000000000000000     
 -0.10813175971428621       0.27476018283513987        0.0000000000000000     
 -0.10858851551712201       0.28415785479441547        0.0000000000000000     
 -0.10894420826204990       0.29394429708805081        0.0000000000000000     
 -0.10919883794906989       0.30411950971604573        0.0000000000000000     
 -0.11649919945919228       0.26591202981607942        0.0000000000000000     
 -0.11729807375293377       0.27489921521160909        0.0000000000000000     
 -0.11795865457224236       0.28433040026439182        0.0000000000000000     
 -0.11848094191711800       0.29420558497442761        0.0000000000000000     
 -0.11886493578756072       0.30452476934171657        0.0000000000000000     
 </DataArray>
 <DataArray  type="Float64" Name="stress" NumberOfComponents="3" format="ascii">
   6273333292.5704727        106115956.91264081        116756732.85585625     
   5972674233.5956192        59612229.110428095        91447262.457085177     
   5673612397.7674465        18432578.463773966        75018373.016835570     
   5376147785.0859337       -17422995.027322769        67470064.535101011     
   5080280395.5510988       -47954491.362831831        68802337.011887908     
   5842698247.2122650        82183179.536077976        227973275.24092248     
   5565794645.8929062        41420320.869960785        211955237.80288720     
   5290351341.0864363        5525117.2467787266        204005232.41761619     
   5016368332.7928438       -25502431.333460808        204123259.08509982     
   4743845621.0121326       -51662324.870762348        212309317.80534640     
   5434675071.2222624        65033962.969969511        338736703.74164975     
   5179205359.2562323        29315502.949309111        331850351.52492708     
   4925059017.1693087       -1991724.1410346031        332219482.45521277     
   4672236044.9614630       -28887718.301083088        339844096.53249013     
   4420736442.6327124       -51372479.530829668        354724193.75677139     
   5049263764.6004801        54668307.214334011        449047018.35803866     
   4812906373.6856146        23297775.348479986        451132603.62320501     
   4577735426.0160542       -4117945.6996884346        459661123.12961513     
   4343750921.5917902       -27578855.930207014        474632576.87727016     
   4110952860.4128346       -47084955.343040705        496046964.86616874     
   4686464327.3469048        51086212.269157648        558904219.09007704     
   4466897689.1810379        23367138.067465067        569801994.09771407     
   4248380567.6266823       -853547.42918372154        586330154.44083607     
   4030912962.6838369       -21575844.220804453        608488700.11944425     
   3814494874.3525019       -38799752.307381630        636277631.13353741     
   5080280395.5510988       -47954491.362831831        68802337.011887908     
   4954596040.7567787       -26110890.478355885        54366247.842615373     
   4828184915.6495056       -6689857.3037152290        44920629.236505210     
   4701047020.2292891        10308608.161117554        40465481.193531170     
   4573182354.4961329        24884505.916134596        41000803.713715672     
   4743845621.0121326       -51662324.870762348        212309317.80534640     
   4630099390.2990866       -29123065.930009842        201192325.75555655     
   4515595857.4628859       -9108147.3997640610        194107499.03830639     
   4400335022.5035391        8382430.7199821472        191054837.65359211     
   4284316885.4210305        23348668.429211378        192034341.60140732     
   4420736442.6327124       -51372479.530829668        354724193.75677139     
   4316190321.0563335       -28958967.017167330        346890678.38121885     
   4210856365.5465941       -9171567.6147153378        342131023.10759008     
   4104734576.1034980        7989718.6765530109        340445227.93588448     
   3997824952.7270408        22524891.856611490        341833292.86610329     
   4110952860.4128346       -47084955.343040705        496046964.86616874     
   4012868833.0285192       -25618593.739847183        491461305.71961159     
   3913966439.9006348       -6880117.9485530853        488991201.44436699     
   3814245681.0291777        9130472.0308365822        488636652.04042542     
   3713706556.4141598        22413176.198349237        490397657.50779450     
   3814494874.3525019       -38799752.307381630        636277631.13353741     
   3720134926.2156401       -19101946.098044634        634904207.77072799     
   3624926080.5249972       -2233798.4013123512        634688034.04861724     
   3528868337.2805834        11804690.782856703        635629109.96720457     
   3431961696.4823937        23013521.454428434        637727435.52648914     
   4573182354.4961329        24884505.916134596        41000803.713715672     
   4363994661.0186386        14558589.728742123        31340403.736734856     
   4155200833.0502825        5545558.5717844963        26801379.018194836     
   3946800870.5910501       -2154587.5547454357        27383729.558078319     
   3738794773.6409388       -8541848.6508743763        33087455.356396198     
   4284316885.4210305        23348668.429211378        192034341.60140732     
   4088444401.3782592        13827125.323848486        183578826.54523531     
   3892978795.2433367        5661841.9113240242        180058780.46917096     
   3697920067.0162954       -1147181.8082613945        181474203.37322068     
   3503268216.6970935       -6599945.8350486755        187825095.25737679     
   3997824952.7270408        22524891.856611490        341833292.86610329     
   3814736517.3237758        13648373.594707727        334597843.86258274     
   3632067972.2271013        6171489.6881110668        332111957.56086588     
   3449819317.4370213        94240.136827230453        334375633.96092463     
   3267990552.9535384       -4583375.0591359138        341388873.06278032     
   3713706556.4141598        22413176.198349237        490397657.50779450     
   3542871008.8552017        14022334.541347980        484397455.68879604     
   3372468364.0015683        7074501.9021110535        482960910.29326379     
   3202498621.8532562        1569678.2806013823        486088021.32120460     
   3032961782.4102755       -2492136.3231219053        493778788.77260435     
   3431961696.4823937        23013521.454428434        637727435.52648914     
   3272847875.9725318        14949008.163764119        632977662.02385581     
   3114179970.5667324        8370878.5533074141        632605638.66636980     
   2955957980.2649879        3279132.6230365038        636611365.45403624     
   2798181905.0673041       -326229.62703394890        644994842.38684618     
   3738794773.6409388       -8541848.6508743763        33087455.356396198     
   3568939624.5963230       -3965831.9131798744        25263433.502396528     
   3398372803.5341372       -1762055.2340378761        20966302.656527229     
   3227094310.4543695       -1930518.6135107279        20196062.818755642     
   3055104145.3570218       -4471222.0515825748        22952713.989105459     
   3503268216.6970935       -6599945.8350486755        187825095.25737679     
   3342539735.4157605       -1996884.3102805614        179369334.16168010     
   3181324473.9233742        983576.51096594334        174400954.61722180     
   3019622432.2199397        2341436.6287336349        172919956.62399286     
   2857433610.3054428        2076696.0429513454        174926340.18201506     
   3267990552.9535384       -4583375.0591359138        341388873.06278032     
   3116275855.2729769        12866.003915786743        332563746.49965954     
   2964299269.1878886        3736145.7185531855        327186492.03089279     
   2812060794.6982808        6586464.0847893953        325257109.65649694     
   2659560431.8041477        8563821.1026035547        326775599.37646604     
   3032961782.4102755       -2492136.3231219053        493778788.77260435     
   2890147984.1679783        2063419.0294592381        484846670.51634109     
   2747297189.3276887        6495652.3887393475        479322914.89756310     
   2604409397.8893995        10804563.754688263        477207521.91627443     
   2461484609.8531141        14990153.127317548        478500491.57247126     
   2798181905.0673041       -326229.62703394890        644994842.38684618     
   2664156122.1007667        4154774.7663288116        636218106.21172655     
   2530318234.3427663        9262096.5214920044        630810223.21721399     
   2396668241.7932878        14995735.638402224        628771193.40331364     
   2263206144.4523573        21355692.117114425        630101016.77002299     
   3055104145.3570218       -4471222.0515825748        22952713.989105459     
   2887373438.5724669       -6024863.3346750736        13545872.539908977     
   2720162683.8018889       -5845331.2378338575        6550716.6175456848     
   2553471881.0452604       -3932625.7611598969        1967246.2220360769     
   2387301030.3026032       -286746.90459370613       -204538.64665058974     
   2857433610.3054428        2076696.0429513454        174926340.18201506     
   2696285443.7087178        1798838.0656547546        165883568.15900701     
   2535409564.5844245        2428604.9964742661        159198191.52922937     
   2374805972.9325809        3965996.8354605436        154870210.29268402     
   2214474668.7531729        6411013.5825541019        152899624.44936523     
   2659560431.8041477        8563821.1026035547        326775599.37646604     
   2504839690.7277622        9515212.0307660103        317807954.81454736     
   2350143572.5823145        10548679.395375371        311143415.51224732     
   2195472077.3677897        11664223.196394086        306781981.46957129     
   2040825205.0841856        12861843.433821559        304723652.68651712     
   2461484609.8531141        14990153.127317548        478500491.57247126     
   2313036179.6296396        17124258.560755253        469319032.50653517     
   2164364707.7955751        18514891.958900928        462386388.56661040     
   2015470194.3509147        19162053.321729302        457702559.75268960     
   1866352639.2956607        19065742.649234533        455267546.06479967     
   2263206144.4523573        21355692.117114425        630101016.77002299     
   2120874910.4143314        24625977.655595779        620416801.23496652     
   1978072970.2241933        26327242.687030554        612927110.69231415     
   1834800323.8819413        26459487.211420774        607631945.14205551     
   1691056971.3875744        25022711.228772104        604531304.58420873     
   2387301030.3026032       -286746.90459370613       -204538.64665058974     
   2245671456.1539397        6728471.1733657122       -6388330.8199038561     
   2100889153.8878951        3234595.5267437696       -10783226.027599735     
   1952954123.5045207       -10768373.844321728       -13389224.269794591     
   1801866365.0037642       -35280436.939993978       -14206325.546437183     
   2214474668.7531729        6411013.5825541019        152899624.44936523     
   2076332697.5679569        12795372.304765344        143009924.90302673     
   1936126708.4114718        12299671.122763157        134159682.82976061     
   1793856701.2837586        4923910.0366654396        126348898.22954699     
   1649522676.1848063       -9331910.9535754919        119577571.10241213     
   2040825205.0841856        12861843.433821559        304723652.68651712     
   1904029581.1696422        17972966.092422366        292398207.60421938     
   1766258649.4299703        19833062.667260766        280362780.50251991     
   1627512409.8651748        18442133.158346474        268617371.38141763     
   1487790862.4752405        13800177.565640807        257161980.24091300     
   1866352639.2956607        19065742.649234533        455267546.06479967     
   1728762106.9590340        22261252.536426067        441776517.28367287     
   1591284976.9433875        25834770.160219848        427826066.99068373     
   1453921249.2487354        29786295.520650566        413416195.18581909     
   1316670923.8750639        34115828.617703795        398546901.86908621     
   1691056971.3875744        25022711.228772104        604531304.58420873     
   1550530274.9361067        25660231.636724234        591144853.94139099     
   1411205690.9517341        30304793.601671100        576549542.29423654     
   1273083219.4344606        38956397.123620749        560745369.64275074     
   1136162860.3842874        51615042.202560127        543732335.98691535     
   1801866365.0037642       -35280436.939993978       -14206325.546437183     
   1771094190.2185218       -16312589.022019267       -8565948.2681226935     
   1748344129.8576484        29395640.310506701       -41669614.397130340     
   1733616183.9211426        101844251.05758613       -113517323.93342170     
   1726910352.4089952        201033243.21921539       -224109076.87703007     
   1649522676.1848063       -9331910.9535754919        119577571.10241213     
   1527085754.9901352       -13880397.235561669        135224478.14845204     
   1408781996.9559534       -4651672.9825732708        124530931.56378171     
   1294611402.0822282        18354261.805276036        87496931.348372295     
   1184573970.3690033        55137407.128105223        24122477.502235968     
   1487790862.4752405        13800177.565640807        257161980.24091300     
   1309128022.8042316       -3632994.5363292694        278278307.24682474     
   1130709395.0298214       -20252126.982996047        285457770.39858621     
   952534979.15199208       -36057219.774376869        278700369.69620609     
   774604775.17073321       -51048272.910528541        258006105.13966486     
   1316670923.8750639        34115828.617703795        398546901.86908621     
   1117220993.6608098        14429619.075652719        420595539.02698416     
   914126324.07924831       -17405721.690745175        441110902.10732210     
   707386915.13038671       -61390193.681493938        460092991.11009157     
   497002766.81421816       -117523796.89657581        477541806.03529185     
   1136162860.3842874        51615042.202560127        543732335.98691535     
   951364667.55985487        40307443.600331545        562176173.48893571     
   759032784.10424566        3887542.8941750526        591490326.68998027     
   559167210.01742351       -57644659.916018844        631674795.59002912     
   351767945.29941607       -144289164.83016902        682729580.18908548     
   1726910352.4089952        201033243.21921539       -224109076.87703007     
   1456437006.3377180        184533659.35855985       -96572390.474934340     
   1153837157.9379549        60945734.402951062        60126406.660655238     
   819110807.20975304       -169730531.64747518        245987314.52974632     
   452257954.15303659       -507495138.79290664        461010333.13233638     
   1184573970.3690033        55137407.128105223        24122477.502235968     
   977522650.67208385        11769912.095084250        155534068.47842711     
   732681152.01642823       -157564846.13372394        312770010.04885817     
   450049474.40200651       -452866867.55841815        495830302.21353161     
   129627617.82884663       -874136152.17890692        704714944.97244501     
   774604775.17073321       -51048272.910528541        258006105.13966486     
   621439024.30744004       -124144616.37810093        386684977.95464414     
   424819417.85513246       -342087145.14239955        537850441.22459781     
   184745955.81378612       -704875859.20347738        711502494.94953561     
  -98781361.816564441       -1212510758.5612469        907641139.12945676     
   497002766.81421816       -117523796.89657581        477541806.03529185     
   388186127.24380064       -223209926.06095481        596880337.95371997     
   230251955.45410579       -492621162.62295949        735367700.18788230     
   23200251.445103168       -925757506.58264852        893003892.73776281     
  -232968984.78319970       -1522618957.9399674        1069788915.6033740     
   351767945.29941607       -144289164.83016902        682729580.18908548     
   277763959.48115873       -285426016.95354939        786120148.47566032     
   148978764.81333795       -609166898.57544672        905321786.93869662     
  -34587638.704070270       -1115511809.6959746        1040334495.5782104     
  -272935251.07103366       -1804460750.3150475        1191158274.3941791     
   4686464327.3469048        51086212.269157648        558904219.09007704     
   4466897689.1810379        23367138.067465067        569801994.09771407     
   4248380567.6266823       -853547.42918372154        586330154.44083607     
   4030912962.6838369       -21575844.220804453        608488700.11944425     
   3814494874.3525019       -38799752.307381630        636277631.13353741     
   4326855003.0023785        57265840.464433908        717280661.98103368     
   4123898209.7442183        31740987.419993639        722038516.01345086     
   3921723045.7871408        8821565.3791584969        733436429.75695562     
   3720329511.1311383       -11492425.658081055        751474403.21153069     
   3519717605.7762184       -29200985.691717863        776152436.37718701     
   3945208745.4806409        56834388.706543922        874740783.11778927     
   3761746581.0604506        34369191.998439550        873046180.97949946     
   3578798158.6309109        13616468.592491388        879001312.92786932     
   3396363478.1920214       -5423781.5112898350        892606178.96291625     
   3214442539.7437730       -22751558.312909484        913860779.08462882     
   3541525554.7817020        49791856.995494843        1031284582.5003561     
   3380442803.1297479        31251751.802800894        1022824988.9958411     
   3219605906.1580048        13531162.210824490        1023024803.9535878     
   3059014863.8664856       -3369911.7804176807        1031884027.3735965     
   2898669676.2551794       -19451470.170946956        1049402659.2558666     
   3115805430.9055529        36138245.331283092        1186912060.1287270     
   2979986875.9520931        22388666.833079696        1171374940.0624905     
   2844146288.3684201        8565646.2341531515        1165506902.8341041     
   2708283668.1545310       -5330816.4654804468        1169307948.4435685     
   2572399015.3104310       -19300721.265824437        1182778076.8908937     
   3814494874.3525019       -38799752.307381630        636277631.13353741     
   3720134926.2156401       -19101946.098044634        634904207.77072799     
   3624926080.5249972       -2233798.4013123512        634688034.04861724     
   3528868337.2805834        11804690.782856703        635629109.96720457     
   3431961696.4823937        23013521.454428434        637727435.52648914     
   3519717605.7762184       -29200985.691717863        776152436.37718701     
   3427975935.3243780       -13842418.541859627        770660280.56617367     
   3335720365.2720556       -196850.06027245522        767026297.73204994     
   3242950895.6192513        11735719.753038049        765250487.87481725     
   3149667526.3659635        21955290.898067355        765332850.99447846     
   3214442539.7437730       -22751558.312909484        913860779.08462882     
   3127321785.0803747       -11131438.791494727        904640721.77091801     
   3040022128.7697868       -107658.09404385090        897979760.77029264     
   2952543570.8120089        10319783.779439449        893877896.08275521     
   2864886111.2070403        20150886.828964710        892335127.70830429     
   2898669676.2551794       -19451470.170946956        1049402659.2558666     
   2818172475.4836345       -10969006.846948743        1036845531.3849639     
   2737831371.0181956       -1966222.5026086569        1027548423.1633421     
   2657646362.8588567        7556882.8620719910        1021511334.5910048     
   2577617451.0056243        17600309.247104526        1018734265.6679498     
   2572399015.3104310       -19300721.265824437        1182778076.8908937     
   2500528006.5341544       -13355122.708231449        1167274709.4083097     
   2429148092.0172777       -5772543.2859739065        1155732284.9112055     
   2358259271.7597961        3447017.0009349585        1148150803.3995802     
   2287861545.7617145        14303558.152509332        1144530264.8734279     
   3431961696.4823937        23013521.454428434        637727435.52648914     
   3272847875.9725318        14949008.163764119        632977662.02385581     
   3114179970.5667324        8370878.5533074141        632605638.66636980     
   2955957980.2649879        3279132.6230365038        636611365.45403624     
   2798181905.0673041       -326229.62703394890        644994842.38684618     
   3149667526.3659635        21955290.898067355        765332850.99447846     
   3002712450.8780208        15811065.845423818        760248673.57867455     
   2856098340.2692771        10803390.390101671        759696483.36427081     
   2709825194.5397305        6932264.5321025848        763676280.35127211     
   2563893013.6893830        4197688.2714271545        772188064.53967464     
   2864886111.2070403        20150886.828964710        892335127.70830429     
   2730530458.0446162        16059153.205419421        886794104.45030868     
   2596410819.5365224        12754135.096315980        885939305.44998109     
   2462527195.6827641        10235832.501665831        889770730.70731485     
   2328879586.4833374        8504245.4214509726        898288380.22230625     
   2577617451.0056243        17600309.247104526        1018734265.6679498     
   2456301897.4723077        15693270.243742108        1012613954.6387671     
   2335117408.3684597        14223112.671936274        1011334104.9235044     
   2214063983.6940832        13189836.531703234        1014894716.5221642     
   2093141623.4491830        12593441.823048830        1023295789.4347377     
   2287861545.7617145        14303558.152509332        1144530264.8734279     
   2180026769.1611028        14713416.960398912        1137708224.1440492     
   2072218106.7650945        15210323.116974235        1135880881.7848437     
   1964435558.5736952        15794276.622242093        1139048237.7958198     
   1856679124.5869014        16465277.476195216        1147210292.1769769     
   2798181905.0673041       -326229.62703394890        644994842.38684618     
   2664156122.1007667        4154774.7663288116        636218106.21172655     
   2530318234.3427663        9262096.5214920044        630810223.21721399     
   2396668241.7932878        14995735.638402224        628771193.40331364     
   2263206144.4523573        21355692.117114425        630101016.77002299     
   2563893013.6893830        4197688.2714271545        772188064.53967464     
   2438718523.2462554        8496230.4433412552        763434921.04145098     
   2313734372.0846586        13429236.887010336        758163717.58557808     
   2188940560.2045803        18996707.602407217        756374454.17205191     
   2064337087.6060216        25198642.589549422        758067130.80088413     
   2328879586.4833374        8504245.4214509726        898288380.22230625     
   2212879493.8828864        12717256.967684984        889561680.81946564     
   2097072184.6369529        17572879.695639014        884430008.32071733     
   1981457658.7455292        23071113.605299473        882893362.72606063     
   1866035916.2086198        29211958.696664572        884951744.03549802     
   2093141623.4491830        12593441.823048830        1023295789.4347377     
   1986639034.0106626        16817854.339381456        1014598385.5457721     
   1880331671.9996481        21693024.947386384        1009609095.4226354     
   1774219537.4161384        27218953.647084594        1008327919.0653365     
   1668302630.2601340        33395640.438461006        1010754856.4738717     
   1856679124.5869014        16465277.476195216        1147210292.1769769     
   1759997143.6295815        20798022.558407307        1138545035.2203674     
   1663512834.1727517        25789672.642269671        1133700978.8913367     
   1567226196.2164235        31440227.727787375        1132678123.1898787     
   1471137229.7605772        37749687.814922988        1135476468.1159983     
   2263206144.4523573        21355692.117114425        630101016.77002299     
   2120874910.4143314        24625977.655595779        620416801.23496652     
   1978072970.2241933        26327242.687030554        612927110.69231415     
   1834800323.8819413        26459487.211420774        607631945.14205551     
   1691056971.3875744        25022711.228772104        604531304.58420873     
   2064337087.6060216        25198642.589549422        758067130.80088413     
   1928233321.7033393        27773626.981955051        748408923.37336195     
   1791822603.8135276        29325438.083931208        741507005.16817510     
   1655104933.9365895        29854075.895482481        737361376.18532860     
   1518080312.0725203        29359540.416601658        735972036.42482519     
   1866035916.2086198        29211958.696664572        884951744.03549802     
   1737764659.0982456        31573154.140100479        875510591.24132061     
   1609350204.1657176        33457023.509701967        869387491.89942706     
   1480792551.4110532        34863566.805502057        866582446.00980580     
   1352091700.8342390        35792784.027473152        867095453.57246017     
   1668302630.2601340        33395640.438461006        1010754856.4738717     
   1549468922.5990236        36024559.129992485        1001721804.8388611     
   1430655771.2807517        38721998.964319289        996568570.88606417     
   1311863176.3053160        41487959.941441536        995295154.61547685     
   1193091137.6727281        44322442.061374068        997901556.02710962     
   1471137229.7605772        37749687.814922988        1135476468.1159983     
   1363346112.2057023        41127841.951671302        1127042564.1659720     
   1255739305.1586356        45120364.447794855        1123050242.1280861     
   1148316808.6194036        49727255.303352475        1123499502.0023577     
   1041078622.5879852        54948514.518298566        1128390343.7887671     
   1691056971.3875744        25022711.228772104        604531304.58420873     
   1550530274.9361067        25660231.636724234        591144853.94139099     
   1411205690.9517341        30304793.601671100        576549542.29423654     
   1273083219.4344606        38956397.123620749        560745369.64275074     
   1136162860.3842874        51615042.202560127        543732335.98691535     
   1518080312.0725203        29359540.416601658        735972036.42482519     
   1375909906.8776641        27337258.444636583        726801405.24103129     
   1234056995.5421171        26373289.337043822        718189044.26972795     
   1092521578.0658789        26467633.093818903        710134953.51090181     
   951303654.44895506        27620289.714956105        702639132.96456182     
   1352091700.8342390        35792784.027473152        867095453.57246017     
   1213326533.2297735        32625383.575719714        861108586.80526817     
   1073994240.8768291        27567567.295708477        857447121.46738744     
   934094823.77540970        20619335.187437475        856111057.55881310     
   793628281.92551768        11780687.250927299        857100395.07954621     
   1193091137.6727281        44322442.061374068        997901556.02710962     
   1062780153.9924310        41524607.029954672        994066398.63410127     
   931017426.95587492        33887627.477663338        994323773.88722694     
   797802956.56305814        21411503.404507995        998673681.78648591     
   663136742.81398177        4096234.8104755580        1007116122.3318684     
   1041078622.5879852        54948514.518298566        1128390343.7887671     
   924270769.16565037        54034928.807378143        1125674840.7275317     
   805126553.77926171        45333469.882947117        1128819001.5292435     
   683645976.42881680        28844137.744991630        1137822826.1939175     
   559829037.11433029        4566932.3935691714        1152686314.7215354     
   1136162860.3842874        51615042.202560127        543732335.98691535     
   951364667.55985487        40307443.600331545        562176173.48893571     
   759032784.10424566        3887542.8941750526        591490326.68998027     
   559167210.01742351       -57644659.916018844        631674795.59002912     
   351767945.29941607       -144289164.83016902        682729580.18908548     
   951303654.44895506        27620289.714956105        702639132.96456182     
   792017607.57537532        10715874.153793782        720745044.93197739     
   624082219.45435822       -35019678.898821652        748896941.99924099     
   447497490.08591276       -109586369.44287273        787094824.16636896     
   262263419.47003263       -212984197.47836185        835338691.43335330     
   793628281.92551768        11780687.250927299        857100395.07954621     
   657499150.71948278       -11427114.354186296        873566789.12673247     
   511605027.64977497       -67184888.838199675        899254837.67462313     
   355945912.71639538       -155492636.20112845        934164540.72321463     
   190521805.91934681       -276350356.44295537        978295898.27251124     
   663136742.81398177        4096234.8104755580        1007116122.3318684     
   547809296.99218917       -26121521.923584163        1020641406.0732222     
   421601208.69049358       -92608086.923987478        1042564013.7161238     
   284512477.90888304       -195363460.19077605        1072883945.2605646     
   136543104.64736384       -334387641.72393310        1111601200.7065654     
   559829037.11433029        4566932.3935691714        1152686314.7215354     
   462948046.39348799       -33367348.554410934        1161968895.7714310     
   354070762.57649994       -111289273.15621565        1178824470.1237357     
   233197185.66336536       -229198841.41184530        1203253037.7784255     
   100327315.65407875       -387096053.32131469        1235254598.7355144     
   351767945.29941607       -144289164.83016902        682729580.18908548     
   277763959.48115873       -285426016.95354939        786120148.47566032     
   148978764.81333795       -609166898.57544672        905321786.93869662     
  -34587638.704070270       -1115511809.6959746        1040334495.5782104     
  -272935251.07103366       -1804460750.3150475        1191158274.3941791     
   262263419.47003263       -212984197.47836185        835338691.43335330     
   223584155.65799952       -352626591.06760538        884788559.22094262     
   140667854.45939249       -639725775.94542038        945255344.86743844     
   13514515.874210536       -1074281752.1118281        1016739048.3728291     
  -157875860.09754789       -1656294519.5668130        1099239669.7371440     
   190521805.91934681       -276350356.44295537        978295898.27251124     
   173469686.06335652       -418607564.91312647        986106598.93460810     
   122724700.28379431       -673174326.46187735        1000140065.1380510     
   38286848.580649555       -1040050641.0892245        1020396296.8828330     
  -79843869.046064854       -1519236508.7951660        1046875294.1689619     
   136543104.64736384       -334387641.72393310        1111601200.7065654     
   127420550.69724715       -483368938.49006420        1090074267.6166720     
   95149302.286543280       -709512550.12482321        1069975947.7505537     
   39729359.415258050       -1012818476.6281817        1051306241.1082127     
  -38839277.916604161       -1393286718.0001256        1034065147.6896703     
   100327315.65407875       -387096053.32131469        1235254598.7355144     
   85436749.559650391       -546910711.79848135        1196691565.2671144     
   57941660.467637539       -748740446.93426871        1154762992.7049344     
   17842048.378038824       -992585258.72866440        1109468881.0489738     
  -34862086.709150434       -1278445147.1817007        1060809230.2992380     
   3115805430.9055529        36138245.331283092        1186912060.1287270     
   2979986875.9520931        22388666.833079696        1171374940.0624905     
   2844146288.3684201        8565646.2341531515        1165506902.8341041     
   2708283668.1545310       -5330816.4654804468        1169307948.4435685     
   2572399015.3104310       -19300721.265824437        1182778076.8908937     
   2691522777.2026019        23919698.723271847        1233076972.4418788     
   2579167015.0527802        12486569.237329960        1225201525.7144139     
   2466981371.7674670        1620502.6330780983        1225170733.1490636     
   2354965847.3466544       -8678501.0894938707        1232984594.7458255     
   2243120441.7903509       -18410441.930373192        1248643110.5047023     
   2291490135.0424323        18976155.578098774        1277313492.9874058     
   2197384512.3369927        8295679.0966430902        1277323896.3425539     
   2103641159.9907787       -1177229.5207272768        1283354525.1840763     
   2010260078.0037925       -9442570.2740045786        1295405379.5119772     
   1917241266.3760304       -16500343.163199186        1313476459.3262506     
   1915707504.4250374        21307615.895756960        1319621621.7653103     
   1834639367.8047273        9815996.4110115767        1327742051.9469142     
   1754125653.0383608        172449.77275180817        1340058278.9391508     
   1674166360.1259429       -7623024.0190156698        1356570302.7420256     
   1594761489.0674734       -13570424.964290142        1377278123.3555360     
   1564174885.3504241        30914079.676248014        1360001358.7755909     
   1490931581.4559860        17047521.180437744        1376455992.5274897     
   1418434850.9102123        5669540.5135114789        1395281994.4142838     
   1346684693.7131088       -3219862.3245180249        1416479364.4359751     
   1275681109.8646712       -9620687.3336614370        1440048102.5925608     
   2572399015.3104310       -19300721.265824437        1182778076.8908937     
   2500528006.5341544       -13355122.708231449        1167274709.4083097     
   2429148092.0172777       -5772543.2859739065        1155732284.9112055     
   2358259271.7597961        3447017.0009349585        1148150803.3995802     
   2287861545.7617145        14303558.152509332        1144530264.8734279     
   2243120441.7903509       -18410441.930373192        1248643110.5047023     
   2181531382.4784226       -12281787.685432196        1234790718.8555460     
   2120288923.7827656       -4997798.0529178381        1224844332.4964044     
   2059393065.7033806        3441526.9671740532        1218803951.4272768     
   1998843808.2402649        13036187.374827266        1216669575.6481698     
   1917241266.3760304       -16500343.163199186        1313476459.3262506     
   1865777191.6842725       -10235722.684160233        1301106467.5935380     
   1814515223.9656620       -3297412.2946298122        1292587543.4553804     
   1763455363.2201929        4314588.0053749084        1287919686.9117773     
   1712597609.4478736        12600278.215872765        1287102897.9627264     
   1594761489.0674734       -13570424.964290142        1377278123.3555360     
   1553265434.1517074       -7216927.7044103742        1366221955.6222878     
   1511826992.5659668       -671386.01112383604        1358961917.7881329     
   1470446164.3102415        6066200.1155549884        1355498009.8530712     
   1429122949.3845379        12995830.675633073        1355830231.8170998     
   1275681109.8646712       -9620687.3336614370        1440048102.5925608     
   1243996109.8807251       -3225402.7461904287        1430137182.9417980     
   1212224229.5836768        2880280.7976052165        1423967455.4946623     
   1180365468.9735172        8696363.2976952791        1421538920.2511618     
   1148419828.0502539        14222844.754105628        1422851577.2112896     
   2287861545.7617145        14303558.152509332        1144530264.8734279     
   2180026769.1611028        14713416.960398912        1137708224.1440492     
   2072218106.7650945        15210323.116974235        1135880881.7848437     
   1964435558.5736952        15794276.622242093        1139048237.7958198     
   1856679124.5869014        16465277.476195216        1147210292.1769769     
   1998843808.2402649        13036187.374827266        1216669575.6481698     
   1903703393.1837270        12937304.591256142        1210840073.9694035     
   1808667237.3483675        13185952.544944525        1209898169.3216252     
   1713735340.7341838        13782131.235883832        1213843861.7048302     
   1618907703.3411758        14725840.664084613        1222677151.1190238     
   1712597609.4478736        12600278.215872765        1287102897.9627264     
   1629845552.1091497        11900852.692964315        1282357104.5205748     
   1547275899.0081742        11809441.295880854        1282391806.7702150     
   1464888650.1449418        12326044.024613023        1287207004.7116520     
   1382683805.5194616        13450660.879177332        1296802698.3448830     
   1429122949.3845379        12995830.675633073        1355830231.8170998     
   1358453245.9373660        11604061.265504956        1352259315.7975585     
   1288044091.7445126        11080789.369770348        1353361794.1306193     
   1217895486.8059757        11426014.988425016        1359137666.8162851     
   1148007431.1217594        12639738.121480346        1369586933.8545516     
   1148419828.0502539        14222844.754105628        1422851577.2112896     
   1089526474.6683743        12046930.308884740        1420546707.8003576     
   1030971815.5573874        10999996.766635716        1422808131.4028323     
   972755850.71727824        11082044.127316475        1429635848.0187263     
   914878580.14806151        12293072.390968084        1441029857.6480262     
   1856679124.5869014        16465277.476195216        1147210292.1769769     
   1759997143.6295815        20798022.558407307        1138545035.2203674     
   1663512834.1727517        25789672.642269671        1133700978.8913367     
   1567226196.2164235        31440227.727787375        1132678123.1898787     
   1471137229.7605772        37749687.814922988        1135476468.1159983     
   1618907703.3411758        14725840.664084613        1222677151.1190238     
   1532493819.1737750        18587176.513222933        1214941824.9268599     
   1446235126.6334901        22965817.786083639        1211392620.8454597     
   1360131625.7203302        27861764.482693970        1212029538.8748236     
   1274183316.4342859        33275016.603020668        1216852579.0149586     
   1382683805.5194616        13450660.879177332        1296802698.3448830     
   1307580650.9510953        17153377.337973297        1289947743.0648863     
   1232590208.1364732        21231799.642580986        1287643831.3788505     
   1157712477.0755982        25685927.793008804        1289890963.2867670     
   1082947457.7684639        30515761.789245725        1296689138.7886405     
   1148007431.1217594        12639738.121480346        1369586933.8545516     
   1085257638.9615431        16496625.032660186        1363562789.6344540     
   1022578078.6816974        20587618.211742342        1362454610.4915044     
   959968750.28222048        24912717.658726692        1366262396.4256990     
   897429653.76311612        29471923.373613149        1374986147.4370456     
   914878580.14806151        12293072.390968084        1441029857.6480262     
   865524783.20511842        16616919.597292095        1435786964.6355543     
   816198738.26916444        21033273.493582428        1435824958.1834283     
   766900445.34020770        25542134.079863846        1441143838.2916334     
   717629904.41824555        30143501.356130332        1451743604.9601746     
   1471137229.7605772        37749687.814922988        1135476468.1159983     
   1363346112.2057023        41127841.951671302        1127042564.1659720     
   1255739305.1586356        45120364.447794855        1123050242.1280861     
   1148316808.6194036        49727255.303352475        1123499502.0023577     
   1041078622.5879852        54948514.518298566        1128390343.7887671     
   1274183316.4342859        33275016.603020668        1216852579.0149586     
   1177977293.0124447        35950498.352618337        1210662875.1127617     
   1081839953.0426199        38854924.942265093        1209105355.3362498     
   985771296.52480447        41988296.371952772        1212180019.6854262     
   889771323.45899951        45350612.641661614        1219886868.1602743     
   1082947457.7684639        30515761.789245725        1296689138.7886405     
   998871106.23262715        32651944.477622271        1292608736.7025044     
   914747811.09298503        34631648.486649543        1293351120.9555790     
   830577572.34954786        36454873.816355914        1298916291.5478728     
   746360390.00230336        38121620.466711551        1309304248.4793837     
   897429653.76311612        29471923.373613149        1374986147.4370456     
   826027551.86623037        31232180.326633364        1372880148.9351814     
   754462879.30973113        32450535.080944896        1375787538.9860682     
   682735636.09362102        33126987.636551261        1383708317.5897052     
   610845822.21790123        33261537.993459612        1396642484.7460945     
   717629904.41824555        30143501.356130332        1451743604.9601746     
   659446629.91327000        31691205.899695337        1451477111.8108034     
   600985157.69286108        32311584.725155473        1456414609.4277196     
   542245487.75703847        32004637.832568228        1466556097.8109140     
   483227620.10578442        30770365.221873298        1481901576.9604008     
   1041078622.5879852        54948514.518298566        1128390343.7887671     
   924270769.16565037        54034928.807378143        1125674840.7275317     
   805126553.77926171        45333469.882947117        1128819001.5292435     
   683645976.42881680        28844137.744991630        1137822826.1939175     
   559829037.11433029        4566932.3935691714        1152686314.7215354     
   889771323.45899951        45350612.641661614        1219886868.1602743     
   787917037.47064793        43573483.498253226        1217222285.6494677     
   683763418.66565537        34131911.632708013        1220400062.7093425     
   577310467.04401386        17025897.044997096        1229420199.3399029     
   468558182.60573578       -7744560.2648359537        1244282695.5411477     
   746360390.00230336        38121620.466711551        1309304248.4793837     
   659410230.61288679        35466115.640307277        1306733787.1909769     
   570197767.55423534        25269598.583131492        1309988381.1809852     
   478723000.82634062        7532069.2951348424        1319068030.4494150     
   384985930.42921633       -17746472.223618522        1333972734.9962530     
   610845822.21790123        33261537.993459612        1396642484.7460945     
   538750348.59235919        29712825.233534813        1394209345.3520634     
   464429600.44499409        18746530.734201878        1397583956.9441810     
   387883577.77579355        362654.49541376531        1406766319.5224512     
   309112280.58477211       -25438803.482771888        1421756433.0868587     
   483227620.10578442        30770365.221873298        1481901576.9604008     
   425937391.40906727        26313612.277923033        1479648960.1327212     
   366458917.33793950        14562708.085939929        1483186789.9989262     
   304792197.89237303       -4482347.3541747928        1492515066.5590069     
   240937233.07239723       -30821554.042317808        1507633789.8129609     
   559829037.11433029        4566932.3935691714        1152686314.7215354     
   462948046.39348799       -33367348.554410934        1161968895.7714310     
   354070762.57649994       -111289273.15621565        1178824470.1237357     
   233197185.66336536       -229198841.41184530        1203253037.7784255     
   100327315.65407875       -387096053.32131469        1235254598.7355144     
   468558182.60573578       -7744560.2648359537        1244282695.5411477     
   390873560.16099864       -42073433.588375285        1242736399.8560677     
   303040766.39327168       -110229544.65521099        1247551530.8599532     
   205059801.30257118       -212212893.46530324        1258728088.5528135     
   96930664.888874322       -348023480.01869708        1276266072.9346354     
   384985930.42921633       -17746472.223618522        1333972734.9962530     
   323036057.36507463       -49508423.591380030        1323753704.6448822     
   252786134.75111252       -108937206.79187891        1318684534.3690615     
   174236162.58733320       -196032821.82509422        1318765224.1687787     
   87386140.873734519       -310795268.69105333        1323995774.0440352     
   309112280.58477211       -25438803.482771888        1421756433.0868587     
   259435538.00571513       -55672318.563430399        1405020810.1378994     
   203306867.65000963       -107412259.56625324        1392223480.6510527     
   140726269.51765096       -180658626.49125189        1383364444.6263211     
   71693743.608652890       -275411419.33838224        1378443702.0636992     
   240937233.07239723       -30821554.042317808        1507633789.8129609     
   200072002.08293337       -60565118.504484117        1486537716.3350987     
   154602965.08998710       -105654702.97825854        1468168369.7059290     
   104530122.09354623       -166090307.46368173        1452525749.9254465     
   49853473.093617693       -241871931.96073043        1439609856.9936502     
   100327315.65407875       -387096053.32131469        1235254598.7355144     
   85436749.559650391       -546910711.79848135        1196691565.2671144     
   57941660.467637539       -748740446.93426871        1154762992.7049344     
   17842048.378038824       -992585258.72866440        1109468881.0489738     
  -34862086.709150434       -1278445147.1817007        1060809230.2992380     
   96930664.888874322       -348023480.01869708        1276266072.9346354     
   79947675.139052957       -489168444.92890292        1221956430.3117881     
   51566776.037923962       -668306441.01013410        1165094379.3015749     
   11787967.585502803       -885437468.26234770        1105679919.9040086     
  -39388750.218226731       -1140561526.6855838        1043713052.1190808     
   87386140.873734519       -310795268.69105333        1323995774.0440352     
   70633958.058285683       -432573570.85739195        1255347238.1873980     
   43690479.537825227       -588322858.70710683        1184959424.6498210     
   6555705.3123441935       -778043132.24022079        1112832333.4313085     
  -40770364.618158579       -1001734391.4567366        1038965964.5318606     
   71693743.608652890       -275411419.33838224        1378443702.0636992     
   57495598.317357302       -377126089.58390778        1296863988.8939416     
   34312770.967331439       -508789700.02520877        1214358128.7496643     
   2145261.5585764945       -670402250.66228187        1130926121.6308661     
  -39006929.908914775       -861963741.49512351        1046567967.5375632     
   49853473.093617693       -241871931.96073043        1439609856.9936502     
   40532595.916256234       -322826001.10850197        1346506682.4314237     
   23433650.326451480       -429706964.96441507        1253290491.6011057     
  -1443363.6758076549       -562514823.52851486        1159961284.5026994     
  -34098446.090516418       -721249576.80077732        1066519061.1361901     
   1564174885.3504241        30914079.676248014        1360001358.7755909     
   1490931581.4559860        17047521.180437744        1376455992.5274897     
   1418434850.9102123        5669540.5135114789        1395281994.4142838     
   1346684693.7131088       -3219862.3245180249        1416479364.4359751     
   1275681109.8646712       -9620687.3336614370        1440048102.5925608     
   1210502891.4036565        34397078.385039926        1407038262.8891730     
   1146417712.6216397        21251348.983735919        1416602769.0142665     
   1082892463.8814106        9972053.0550557971        1430674273.4537489     
   1019927145.1829715        559190.59900921583        1449252776.2076199     
   957521756.52631974       -6987238.3844115138        1472338277.2758753     
   831916412.61599803        30405731.641567916        1453404577.4807832     
   783091159.45923138        19811371.488617182        1455861205.4543848     
   734639193.03737450        10461300.452029705        1464960461.9218638     
   686560513.35042787        2355518.5318095982        1480702346.8832228     
   638855120.39839172       -4505974.2720412016        1503086860.3384576     
   428415448.98744535        18940039.445825949        1499100302.5504227     
   400951921.96875882        12727588.695076659        1494231301.8478408     
   373675038.37810254        7137282.7044280022        1498140559.8186257     
   346584798.21548140        2169121.4738949239        1510828076.4627790     
   319681201.48088825       -2176894.9965418875        1532293851.7802973     
  0.51800120969171082        1.7978165659479111        1544125438.0980945     
  0.15022525348227136       0.60312451004159029        1531713058.1946344     
  -9.6398850440565925E-002 -0.18773011991089453        1530214567.1440330     
 -0.22187192559387978      -0.57474694646421554        1539629964.9462912     
 -0.22619040340366248      -0.55791511520576598        1559959251.6014047     
   1275681109.8646712       -9620687.3336614370        1440048102.5925608     
   1243996109.8807251       -3225402.7461904287        1430137182.9417980     
   1212224229.5836768        2880280.7976052165        1423967455.4946623     
   1180365468.9735172        8696363.2976952791        1421538920.2511618     
   1148419828.0502539        14222844.754105628        1422851577.2112896     
   957521756.52631974       -6987238.3844115138        1472338277.2758753     
   934851031.32302654       -1862867.4605728984        1462033598.7705407     
   912115145.88316822        3044302.6747161746        1455215073.3536863     
   889314100.20674253        7734272.0214453936        1451882701.0253072     
   866447894.29375446        12207040.579636216        1452036481.7854080     
   638855120.39839172       -4505974.2720412016        1503086860.3384576     
   624469986.78959894       -871121.96768155694        1492413763.0678511     
   610041413.02078342        2618929.8032708466        1484971779.7705686     
   595569399.09194076        5964181.0407973528        1480760910.4466090     
   581053945.00307584        9164631.7449179590        1479781155.0959780     
   319681201.48088825       -2176894.9965418875        1532293851.7802973     
   312852976.28044611       -250166.26750063896        1521277675.8337176     
   306003030.99651921        1604162.1832583696        1513237574.7453058     
   299131365.62910932        3386090.3557403684        1508173548.5150697     
   292237980.17821491        5095618.2499408126        1506085597.1430047     
 -0.22619040340366248      -0.55791511520576598        1559959251.6014047     
 -0.20443601024498814      -0.36004518963309179        1548625337.0681474     
 -0.18962395756169859      -0.18531778675714769        1540012458.2779069     
 -0.18175394797262651       -3.3729486694509522E-002   1534120615.2306876     
 -0.18082650761368332        9.4716222044975387E-002   1530949807.9264853     
   1148419828.0502539        14222844.754105628        1422851577.2112896     
   1089526474.6683743        12046930.308884740        1420546707.8003576     
   1030971815.5573874        10999996.766635716        1422808131.4028323     
   972755850.71727824        11082044.127316475        1429635848.0187263     
   914878580.14806151        12293072.390968084        1441029857.6480262     
   866447894.29375446        12207040.579636216        1452036481.7854080     
   820062673.55409563        9910543.0591574311        1449138098.0024703     
   773931473.51430583        8460781.2049093544        1451322888.5636609     
   728054294.17438400        7857755.0168856680        1458590853.4689729     
   682431135.53433049        8101464.4950906336        1470941992.7184150     
   581053945.00307584        9164631.7449179590        1479781155.0959780     
   548653660.70767093        7190592.2897888422        1476190471.1081874     
   516422723.54111648        5781043.2641597092        1478199842.7952342     
   484361133.50341052        4935984.6680275500        1485809270.1571164     
   452468890.59455675        4655416.5014020503        1499018753.1938338     
   292237980.17821491        5095618.2499408126        1506085597.1430047     
   275299436.12909847        3887078.0007713884        1501703827.1175053     
   258445565.63781282        2960782.9443712234        1503438994.0975542     
   241676368.70436299        2316733.0807556957        1511291098.0831518     
   224991845.32873964        1954928.4098962843        1525260139.0742993     
 -0.18082650761368332        9.4716222044975387E-002   1530949807.9264853     
 -0.18161914280193733       0.19211699538915861        1525678166.0304193     
 -0.19560150202843113       0.24555202193920922        1527040342.4706187     
 -0.22276761479434404       0.25504120335786268        1535036337.2470751     
 -0.26311947126594964       0.22057790575754058        1549666150.3597939     
   914878580.14806151        12293072.390968084        1441029857.6480262     
   865524783.20511842        16616919.597292095        1435786964.6355543     
   816198738.26916444        21033273.493582428        1435824958.1834283     
   766900445.34020770        25542134.079863846        1441143838.2916334     
   717629904.41824555        30143501.356130332        1451743604.9601746     
   682431135.53433049        8101464.4950906336        1470941992.7184150     
   646295650.97109377        11608308.832265943        1466494599.0669482     
   610180980.41299117        15184533.186552852        1467122790.5785682     
   574087123.86002576        18830137.557962209        1472826567.2532730     
   538014081.31219459        22545121.946485311        1483605929.0910687     
   452468890.59455675        4655416.5014020503        1499018753.1938338     
   428965142.99031413        7169285.3432166278        1495358764.5678694     
   405475271.38934433        9729407.5292750150        1496569059.7077391     
   381999275.79165661        12335783.059604526        1502649638.6134479     
   358537156.19723916        14988411.934172347        1513600501.2849929     
   224991845.32873964        1954928.4098962843        1525260139.0742993     
   213533259.26277536        3299849.1301345378        1522379461.1383293     
   202081611.19822940        4667896.5217665061        1524163765.5709476     
   190636901.13509947        6059070.5847870559        1530613052.3721514     
   179199129.07338896        7473371.3192025721        1541727321.5419424     
 -0.26311947126594964       0.22057790575754058        1549666150.3597939     
 -0.21151665583864665       0.19303649795848202        1547556688.7783189     
 -0.16036306897777747       0.16399974327281525        1549906908.1681833     
 -0.10964015867359683       0.13352774700954842        1556716808.5293841     
  -5.9371189283578187E-002  0.10153983880818011        1567986389.8619204     
   717629904.41824555        30143501.356130332        1451743604.9601746     
   659446629.91327000        31691205.899695337        1451477111.8108034     
   600985157.69286108        32311584.725155473        1456414609.4277196     
   542245487.75703847        32004637.832568228        1466556097.8109140     
   483227620.10578442        30770365.221873298        1481901576.9604008     
   538014081.31219459        22545121.946485311        1483605929.0910687     
   493444053.61221659        23426128.797196984        1483212856.7842934     
   448665377.62655866        23611641.362304702        1488241375.3364966     
   403678053.35522735        23101659.641835779        1498691484.7476969     
   358482080.79821485        21896183.635761663        1514563185.0178859     
   358537156.19723916        14988411.934172347        1513600501.2849929     
   328202089.85285407        15389235.457229257        1513161990.8221741     
   297727924.65252978        15326396.127155975        1518362671.3110502     
   267114660.59627265        14799893.943973571        1529202542.7516193     
   236362297.68408072        13809728.907673970        1545681605.1438868     
   179199129.07338896        7473371.3192025721        1541727321.5419424     
   163720738.63517338        7580525.8797610551        1541324513.9244545     
   148172798.77076325        7455849.0196693018        1546778497.3513653     
   132555309.48016828        7099340.7389631495        1558089271.8226740     
   116868270.76338616        6511001.0376314856        1575256837.3383799     
  -5.9371189283578187E-002  0.10153983880818011        1567986389.8619204     
  -4.0826774195800178E-002   6.4790343419999563E-002   1567700426.0911343     
  -1.8733549510187374E-002   3.9870213357934947E-002   1573488853.4574518     
   6.9123278529608402E-003   2.6792258887655050E-002   1585351671.9608691     
   3.6123485155517956E-002   2.5598570882071466E-002   1603288881.6013937     
   483227620.10578442        30770365.221873298        1481901576.9604008     
   425937391.40906727        26313612.277923033        1479648960.1327212     
   366458917.33793950        14562708.085939929        1483186789.9989262     
   304792197.89237303       -4482347.3541747928        1492515066.5590069     
   240937233.07239723       -30821554.042317808        1507633789.8129609     
   358482080.79821485        21896183.635761663        1514563185.0178859     
   316393690.07210171        18817403.165748000        1510893166.2783785     
   272664115.31526244        10268009.259981960        1512808428.7130110     
   227293356.52770799       -3751998.0815040022        1520308972.3217821     
   180281413.70943365       -23242618.858718820        1533394797.1046963     
   236362297.68408072        13809728.907673970        1545681605.1438868     
   208889557.72931042        11933064.751796901        1541232422.7268605     
   180322695.08752063        6409324.9725187123        1542163355.9642422     
   150661709.75871962       -2761490.4301300123        1548474404.8560240     
   119906601.74289675       -15579381.456185162        1560165569.4022057     
   116868270.76338616        6511001.0376314856        1575256837.3383799     
   103424994.38070744        5660597.0361131355        1570666729.4781704     
   89434656.654711947        2986655.2235416509        1571251571.7526193     
   74897257.585410297       -1510824.4000524171        1577011364.1617322     
   59812797.172787189       -7831841.8347166516        1587946106.7055063     
   3.6123485155517956E-002   2.5598570882071466E-002   1603288881.6013937     
   2.6289501711105358E-002   1.8688210319909755E-002   1599196086.5323055     
   1.6826512710649583E-002   1.3016579572441936E-002   1600073076.0781469     
   7.7769750346527704E-003   8.7217321277232168E-003   1605919850.2389138     
  -9.0358123913517182E-004   5.6575165797577839E-003   1616736409.0145988     
   240937233.07239723       -30821554.042317808        1507633789.8129609     
   200072002.08293337       -60565118.504484117        1486537716.3350987     
   154602965.08998710       -105654702.97825854        1468168369.7059290     
   104530122.09354623       -166090307.46368173        1452525749.9254465     
   49853473.093617693       -241871931.96073043        1439609856.9936502     
   180281413.70943365       -23242618.858718820        1533394797.1046963     
   148893987.22060373       -45771843.179300718        1507783516.2991676     
   114053706.22915247       -79810582.508613616        1485071279.7666094     
   75760570.735100389       -125358836.84659722        1465258087.5070238     
   34014580.738442294       -182416606.19326890        1448343939.5204041     
   119906601.74289675       -15579381.456185162        1560165569.4022057     
   98489315.252637282       -30746564.985833339        1531381858.0200372     
   74770125.760652184       -53586758.521234229        1505669508.3351214     
   48749033.266935386       -84099962.062408239        1483028520.3474638     
   20426037.771491647       -122286175.60933661        1463458894.0570517     
   59812797.172787189       -7831841.8347166516        1587946106.7055063     
   48857986.179051071       -15489283.924039382        1557332741.4977188     
   36752223.684474699       -26983231.016161770        1529963055.4114776     
   23495509.689040903       -42313683.111141525        1505837048.4467657     
   9087844.1927624121       -61480640.208939552        1484954720.6035912     
  -9.0358123913517182E-004   5.6575165797577839E-003   1616736409.0145988     
  -1.5912179998542417E-004   6.0740332177874855E-003   1585636166.7322259     
   6.1772931092673902E-004   6.5985220950252384E-003   1557951920.9956706     
   1.4188055492374879E-003   7.2048022310105308E-003   1533683671.8049316     
   2.2521362064642017E-003   7.9165154285445322E-003   1512831419.1600144     
   49853473.093617693       -241871931.96073043        1439609856.9936502     
   40532595.916256234       -322826001.10850197        1346506682.4314237     
   23433650.326451480       -429706964.96441507        1253290491.6011057     
  -1443363.6758076549       -562514823.52851486        1159961284.5026994     
  -34098446.090516418       -721249576.80077732        1066519061.1361901     
   34014580.738442294       -182416606.19326890        1448343939.5204041     
   29865263.730149120       -242279755.79160422        1347756785.9709358     
   19882395.412509486       -321588076.42109859        1246393636.6158929     
   4065975.7854914963       -420341568.08184856        1144254491.4552906     
  -17583995.150885999       -538540230.77380395        1041339350.4891037     
   20426037.771491647       -122286175.60933661        1463458894.0570517     
   19554053.682348639       -161626673.83318788        1357656364.8072693     
   14793035.386931956       -213930619.41128537        1250414860.2144408     
   6142982.8852340132       -279198012.34365237        1141734380.2785695     
  -6396103.8227315247       -357428852.63024670        1031614924.9996542     
   9087844.1927624121       -61480640.208939552        1484954720.6035912     
   9598965.7728359662       -80866755.233305141        1376205418.9404230     
   8165570.2497274280       -106734593.93494730        1265354162.3967369     
   4787657.6234211624       -139084156.31391454        1152400950.9725521     
  -534772.10606806725       -177915442.37015676        1037345784.6678237     
   2.2521362064642017E-003   7.9165154285445322E-003   1512831419.1600144     
   1.6241586830024613E-003   8.0811730933368076E-003   1403403948.3704057     
   8.8999320733653179E-004   7.8925648068388487E-003   1291211543.1628013     
   4.9845658736089732E-005   7.3503359991973147E-003   1176254203.5371976     
  -8.8171228560066008E-004   6.5034058724347558E-003   1058531929.4936249     
  0.51800120969171082        1.7978165659479111        1544125438.0980945     
  0.15022525348227136       0.60312451004159029        1531713058.1946344     
  -9.6398850440565925E-002 -0.18773011991089453        1530214567.1440330     
 -0.22187192559387978      -0.57474694646421554        1539629964.9462912     
 -0.22619040340366248      -0.55791511520576598        1559959251.6014047     
  -428415448.35198259       -18940037.442012519        1499100301.4731834     
  -400951921.80465388       -12727588.144397110        1494231301.0519941     
  -373675038.53581685       -7137283.1084202975        1498140559.2913418     
  -346584798.54547477       -2169122.3340944648        1510828076.1912282     
  -319681201.83362615        2176894.1785868257        1532293851.7516446     
  -831916412.21183062       -30405731.178800851        1453404575.7100327     
  -783091159.29888582       -19811371.553716272        1455861204.1381960     
  -734639193.06408000       -10461300.855761945        1464960461.0345707     
  -686560513.50741601       -2355519.0849467814        1480702346.3991621     
  -638855120.62889051        4505973.7587418556        1503086860.2319653     
  -1210502891.0615411       -34397079.412548721        1407038260.8086462     
  -1146417712.3324730       -21251349.624844432        1416602767.4532356     
  -1082892463.6811900       -9972053.4297586679        1430674272.3737209     
  -1019927145.1076963       -559190.82729911804        1449252775.5700967     
  -957521756.61198521        6987238.1825469732        1472338277.0423620     
  -1564174884.9011147       -30914082.143254042        1360001356.7690165     
  -1490931580.9054153       -17047522.357780933        1376455990.9971189     
  -1418434850.3871472       -5669540.8304095268        1395281993.3087885     
  -1346684693.3463125        3219862.4388460517        1416479363.7040298     
  -1275681109.7829089        9620687.4500033855        1440048102.1828396     
 -0.22619040340366248      -0.55791511520576598        1559959251.6014047     
 -0.20443601024498814      -0.36004518963309179        1548625337.0681474     
 -0.18962395756169859      -0.18531778675714769        1540012458.2779069     
 -0.18175394797262651       -3.3729486694509522E-002   1534120615.2306876     
 -0.18082650761368332        9.4716222044975387E-002   1530949807.9264853     
  -319681201.83362615        2176894.1785868257        1532293851.7516446     
  -312852976.62683594        250165.71791978180        1521277675.8016610     
  -306003031.34275335       -1604162.4851048142        1513237574.7106562     
  -299131365.98138678       -3386090.4305161238        1508173548.4786313     
  -292237980.54272741       -5095618.1182848513        1506085597.1055827     
  -638855120.62889051        4505973.7587418556        1503086860.2319653     
  -624469987.04860699        871121.59608337283        1492413762.9635262     
  -610041413.30680454       -2618930.0281750858        1484971779.6700261     
  -595569399.40347981       -5964181.1140275300        1480760910.3514638     
  -581053945.33863485       -9164631.6614795625        1479781155.0078366     
  -957521756.61198521        6987238.1825469732        1472338277.0423620     
  -934851031.46975505        1862867.2744272351        1462033598.5537395     
  -912115146.08177471       -3044302.8145210147        1455215073.1560133     
  -889314100.44803762       -7734272.0842816830        1451882700.8491852     
  -866447894.56855071       -12207040.534879267        1452036481.6332538     
  -1275681109.7829089        9620687.4500033855        1440048102.1828396     
  -1243996109.8902774        3225402.7529587746        1430137182.5723026     
  -1212224229.6676617       -2880280.8441336751        1423967455.1686225     
  -1180365469.1150601       -8696363.3412748575        1421538919.9717968     
  -1148419828.2324779       -14222844.738482475        1422851576.9818296     
 -0.18082650761368332        9.4716222044975387E-002   1530949807.9264853     
 -0.18161914280193733       0.19211699538915861        1525678166.0304193     
 -0.19560150202843113       0.24555202193920922        1527040342.4706187     
 -0.22276761479434404       0.25504120335786268        1535036337.2470751     
 -0.26311947126594964       0.22057790575754058        1549666150.3597939     
  -292237980.54272741       -5095618.1182848513        1506085597.1055827     
  -275299436.49844319       -3887077.7009928077        1501703827.0656836     
  -258445566.03251553       -2960782.5448892266        1503438994.0349984     
  -241676369.14495286       -2316732.6500032544        1511291098.0135159     
  -224991845.83574742       -1954928.0163059533        1525260139.0012453     
  -581053945.33863485       -9164631.6614795625        1479781155.0078366     
  -548653661.04085171       -7190592.0617646575        1476190470.9980729     
  -516422723.88660353       -5781042.9404989183        1478199842.6704652     
  -484361133.87588602       -4935984.2976686656        1485809270.0250137     
  -452468891.00870222       -4655416.1332845390        1499018753.0617149     
  -866447894.56855071       -12207040.534879267        1452036481.6332538     
  -820062673.80885160       -9910542.8902222216        1449138097.8275876     
  -773931473.75785685       -8460780.9412467182        1451322888.3770266     
  -728054294.41557014       -7857754.6879644096        1458590853.2815659     
  -682431135.78198802       -8101464.1303641200        1470941992.5412068     
  -1148419828.2324779       -14222844.738482475        1422851576.9818296     
  -1089526474.8024406       -12046930.186351478        1420546707.5542262     
  -1030971815.6462820       -10999996.547152698        1422808131.1546731     
  -972755850.76400495       -11082043.820890367        1429635847.7831681     
  -914878580.15560257       -12293072.007545590        1441029857.4397159     
 -0.26311947126594964       0.22057790575754058        1549666150.3597939     
 -0.21151665583864665       0.19303649795848202        1547556688.7783189     
 -0.16036306897777747       0.16399974327281525        1549906908.1681833     
 -0.10964015867359683       0.13352774700954842        1556716808.5293841     
  -5.9371189283578187E-002  0.10153983880818011        1567986389.8619204     
  -224991845.83574742       -1954928.0163059533        1525260139.0012453     
  -213533259.66425145       -3299848.7596117631        1522379461.0852807     
  -202081611.49837616       -4667896.1883178353        1524163765.5323060     
  -190636901.33811876       -6059070.3024154082        1530613052.3423212     
  -179199129.18347552       -7473371.1018971354        1541727321.5153196     
  -452468891.00870222       -4655416.1332845390        1499018753.0617149     
  -428965143.31259614       -7169284.9709413499        1495358764.4718888     
  -405475271.62728626       -9729407.1779170036        1496569059.6367066     
  -381999275.95276672       -12335782.754195839        1502649638.5561581     
  -358537156.28904015       -14988411.699782163        1513600501.2302547     
  -682431135.78198802       -8101464.1303641200        1470941992.5412068     
  -646295651.15655434       -11608308.440962464        1466494598.9381492     
  -610180980.54708529       -15184532.804773301        1467122790.4813805     
  -574087123.95358849       -18830137.221825212        1472826567.1709044     
  -538014081.37605751       -22545121.692098022        1483605929.0067158     
  -914878580.15560257       -12293072.007545590        1441029857.4397159     
  -865524783.19612134       -16616919.169662863        1435786964.4840536     
  -816198738.25777984       -21033273.068907380        1435824958.0663321     
  -766900445.34058750       -25542133.705318332        1441143838.1865582     
  -717629904.44453394       -30143501.078858286        1451743604.8447206     
  -5.9371189283578187E-002  0.10153983880818011        1567986389.8619204     
  -4.0826774195800178E-002   6.4790343419999563E-002   1567700426.0911343     
  -1.8733549510187374E-002   3.9870213357934947E-002   1573488853.4574518     
   6.9123278529608402E-003   2.6792258887655050E-002   1585351671.9608691     
   3.6123485155517956E-002   2.5598570882071466E-002   1603288881.6013937     
  -179199129.18347552       -7473371.1018971354        1541727321.5153196     
  -163720738.71180993       -7580525.7405034676        1541324513.9088020     
  -148172798.80655533       -7455848.9338141978        1546778497.3449302     
  -132555309.46770924       -7099340.6818181574        1558089271.8237071     
  -116868270.69526845       -6511000.9845089801        1575256837.3451400     
  -358537156.28904015       -14988411.699782163        1513600501.2302547     
  -328202089.91983670       -15389235.306927010        1513161990.7897079     
  -297727924.68699872       -15326396.035291761        1518362671.2973623     
  -267114660.59053880       -14799893.884914294        1529202542.7532074     
  -236362297.63044325       -13809728.855751380        1545681605.1572511     
  -538014081.37605751       -22545121.692098022        1483605929.0067158     
  -493444053.66489387       -23426128.634441376        1483212856.7338641     
  -448665377.66006291       -23611641.264562204        1488241375.3147492     
  -403678053.36156541       -23101659.582457870        1498691484.7493751     
  -358482080.76940101       -21896183.588135347        1514563185.0377491     
  -717629904.44453394       -30143501.078858286        1451743604.8447206     
  -659446629.94699156       -31691205.723077863        1451477111.7412591     
  -600985157.72573924       -32311584.621594638        1456414609.3970904     
  -542245487.78079391       -32004637.774468273        1466556097.8122053     
  -483227620.11213964       -30770365.181646928        1481901576.9866080     
   3.6123485155517956E-002   2.5598570882071466E-002   1603288881.6013937     
   2.6289501711105358E-002   1.8688210319909755E-002   1599196086.5323055     
   1.6826512710649583E-002   1.3016579572441936E-002   1600073076.0781469     
   7.7769750346527704E-003   8.7217321277232168E-003   1605919850.2389138     
  -9.0358123913517182E-004   5.6575165797577839E-003   1616736409.0145988     
  -116868270.69526845       -6511000.9845089801        1575256837.3451400     
  -103424994.33123681       -5660596.9968273304        1570666729.4826312     
  -89434656.623081520       -2986655.1953978650        1571251571.7555716     
  -74897257.570781246        1510824.4198462069        1577011364.1639695     
  -59812797.174358502        7831841.8488335870        1587946106.7078135     
  -236362297.63044325       -13809728.855751380        1545681605.1572511     
  -208889557.69103798       -11933064.713023677        1541232422.7356951     
  -180322695.06375608       -6409324.9440430924        1542163355.9701138     
  -150661709.74859622        2761490.4512001052        1548474404.8605096     
  -119906601.74556306        15579381.472684763        1560165569.4068904     
  -358482080.76940101       -21896183.588135347        1514563185.0377491     
  -316393690.05310702       -18817403.129884556        1510893166.2914956     
  -272664115.30519825       -10268009.232918203        1512808428.7217541     
  -227293356.52567193        3751998.1027725786        1520308972.3285146     
  -180281413.71452466        23242618.877202168        1533394797.1117835     
  -483227620.11213964       -30770365.181646928        1481901576.9866080     
  -425937391.41746241       -26313612.247464642        1479648960.1500382     
  -366458917.34740806       -14562708.062026903        1483186790.0105028     
  -304792197.90200490        4482347.3745736778        1492515066.5679991     
  -240937233.08123380        30821554.062401965        1507633789.8225300     
  -9.0358123913517182E-004   5.6575165797577839E-003   1616736409.0145988     
  -1.5912179998542417E-004   6.0740332177874855E-003   1585636166.7322259     
   6.1772931092673902E-004   6.5985220950252384E-003   1557951920.9956706     
   1.4188055492374879E-003   7.2048022310105308E-003   1533683671.8049316     
   2.2521362064642017E-003   7.9165154285445322E-003   1512831419.1600144     
  -59812797.174358502        7831841.8488335870        1587946106.7078135     
  -48857986.179059140        15489283.939004157        1557332741.4996119     
  -36752223.682940617        26983231.031907685        1529963055.4129941     
  -23495509.686004587        42313683.127535351        1505837048.4479716     
  -9087844.1882626452        61480640.225848712        1484954720.6045315     
  -119906601.74556306        15579381.472684763        1560165569.4068904     
  -98489315.253513902        30746565.003251202        1531381858.0237656     
  -74770125.759854689        53586758.539184317        1505669508.3380036     
  -48749033.264585093        84099962.080485672        1483028520.3496032     
  -20426037.767712370        122286175.62713039        1463458894.0585556     
  -180281413.71452466        23242618.877202168        1533394797.1117835     
  -148893987.22351611        45771843.198842332        1507783516.3046761     
  -114053706.23011231        79810582.528470784        1485071279.7706959     
  -75760570.734304637        125358836.86611083        1465258087.5098464     
  -34014580.736105561        182416606.21172071        1448343939.5221264     
  -240937233.08123380        30821554.062401965        1507633789.8225300     
  -200072002.08906755        60565118.525768712        1486537716.3423519     
  -154602965.09371871        105654702.99974763        1468168369.7110660     
  -104530122.09516719        166090307.48440182        1452525749.9286888     
  -49853473.093447700        241871931.97961304        1439609856.9952104     
   2.2521362064642017E-003   7.9165154285445322E-003   1512831419.1600144     
   1.6241586830024613E-003   8.0811730933368076E-003   1403403948.3704057     
   8.8999320733653179E-004   7.8925648068388487E-003   1291211543.1628013     
   4.9845658736089732E-005   7.3503359991973147E-003   1176254203.5371976     
  -8.8171228560066008E-004   6.5034058724347558E-003   1058531929.4936249     
  -9087844.1882626452        61480640.225848712        1484954720.6045315     
  -9598965.7697291076        80866755.249814734        1376205418.9410110     
  -8165570.2480330318        106734593.95098610        1265354162.3970418     
  -4787657.6231723428        139084156.32937095        1152400950.9725988     
   534772.10484702140        177915442.38495830        1037345784.6677390     
  -20426037.767712370        122286175.62713039        1463458894.0585556     
  -19554053.679908231        161626673.84992051        1357656364.8082736     
  -14793035.385680020        213930619.42746329        1250414860.2150781     
  -6142982.8850157261        279198012.35978878        1141734380.2789643     
   6396103.8220764995        357428852.64687669        1031614924.9999436     
  -34014580.736105561        182416606.21172071        1448343939.5221264     
  -29865263.728924632        242279755.80836517        1347756785.9722183     
  -19882395.412048295        321588076.43733037        1246393636.6169438     
  -4065975.7854760587        420341568.09860969        1144254491.4562776     
   17583995.150798708        538540230.79223645        1041339350.4902533     
  -49853473.093447700        241871931.97961304        1439609856.9952104     
  -40532595.916775420        322826001.12515944        1346506682.4328277     
  -23433650.327145427        429706964.98056209        1253290491.6026056     
   1443363.6754573286        562514823.54587460        1159961284.5045509     
   34098446.091016918        721249576.82104480        1066519061.1386497     
  -1564174884.9011147       -30914082.143254042        1360001356.7690165     
  -1490931580.9054153       -17047522.357780933        1376455990.9971189     
  -1418434850.3871472       -5669540.8304095268        1395281993.3087885     
  -1346684693.3463125        3219862.4388460517        1416479363.7040298     
  -1275681109.7829089        9620687.4500033855        1440048102.1828396     
  -1915707503.1327105       -21307617.392089367        1319621620.6188662     
  -1834639366.6656556       -9815997.0445826054        1327742051.1031237     
  -1754125652.1412044       -172449.83910083771        1340058278.3520808     
  -1674166359.5593677        7623024.2243390083        1356570302.3657343     
  -1594761488.9201379        13570425.145751894        1377278123.1440868     
  -2291490133.0482626       -18976156.146113038        1277313492.5428751     
  -2197384510.7351937       -8295679.2241775990        1277323896.0739169     
  -2103641158.8299103        1177229.6718066931        1283354525.0507851     
  -2010260077.3324158        9442570.5418323278        1295405379.4734778     
  -1917241266.2427027        16500343.385909677        1313476459.3420005     
  -2691522774.6477580       -23919698.405318379        1233076972.5410378     
  -2579167013.1140313       -12486568.896564007        1225201525.9094906     
  -2466981370.4532623       -1620502.2976745367        1225170733.4048991     
  -2354965846.6654582        8678501.3913298845        1232984595.0272622     
  -2243120441.7506180        18410442.170457125        1248643110.7765801     
  -3115805427.9312072       -36138244.169711232        1186912060.6133573     
  -2979986873.8021646       -22388666.061735511        1171374940.6098514     
  -2844146287.0112562       -8565645.7475477457        1165506903.4144258     
  -2708283667.5584931        5330816.7728264332        1169307949.0270832     
  -2572399015.4438682        19300721.499407649        1182778077.4478240     
  -1275681109.7829089        9620687.4500033855        1440048102.1828396     
  -1243996109.8902774        3225402.7529587746        1430137182.5723026     
  -1212224229.6676617       -2880280.8441336751        1423967455.1686225     
  -1180365469.1150601       -8696363.3412748575        1421538919.9717968     
  -1148419828.2324779       -14222844.738482475        1422851576.9818296     
  -1594761488.9201379        13570425.145751894        1377278123.1440868     
  -1553265434.0683818        7216927.8409612775        1366221955.4355104     
  -1511826992.5421262        671386.11784040928        1358961917.6288857     
  -1470446164.3413687       -6066200.0236111283        1355498009.7242117     
  -1429122949.4661150       -12995830.583407938        1355830231.7214842     
  -1917241266.2427027        16500343.385909677        1313476459.3420005     
  -1865777191.5886986        10235722.926303387        1301106467.6039877     
  -1814515223.9156756        3297412.5300922394        1292587543.4630179     
  -1763455363.2236366       -4314587.8027353287        1287919686.9190948     
  -1712597609.5125816       -12600278.072173834        1287102897.9722157     
  -2243120441.7506180        18410442.170457125        1248643110.7765801     
  -2181531382.4512300        12281788.008987546        1234790719.0777297     
  -2120288923.7883120        4997798.3926212788        1224844332.6710210     
  -2059393065.7618642       -3441526.6786439419        1218803951.5564518     
  -1998843808.3718829       -13036187.204799414        1216669575.7340200     
  -2572399015.4438682        19300721.499407649        1182778077.4478240     
  -2500528006.6559777        13355123.088992119        1167274709.8567419     
  -2429148092.1600399        5772543.7054121494        1155732285.2528937     
  -2358259271.9560509       -3447016.6513372660        1148150803.6362793     
  -2287861546.0440154       -14303557.981264353        1144530265.0068994     
  -1148419828.2324779       -14222844.738482475        1422851576.9818296     
  -1089526474.8024406       -12046930.186351478        1420546707.5542262     
  -1030971815.6462820       -10999996.547152698        1422808131.1546731     
  -972755850.76400495       -11082043.820890367        1429635847.7831681     
  -914878580.15560257       -12293072.007545590        1441029857.4397159     
  -1429122949.4661150       -12995830.583407938        1355830231.7214842     
  -1358453245.9514942       -11604061.133395016        1352259315.6537130     
  -1288044091.6929264       -11080789.203556359        1353361793.9542115     
  -1217895486.6904051       -11426014.793868780        1359137666.6229832     
  -1148007430.9439301       -12639737.904345989        1369586933.6600242     
  -1712597609.5125816       -12600278.072173834        1287102897.9722157     
  -1629845552.0841739       -11900852.575530469        1282357104.4517415     
  -1547275898.8939848       -11809441.206277490        1282391806.6397600     
  -1464888649.9420142       -12326043.964419782        1287207004.5362759     
  -1382683805.2282598       -13450660.849951982        1296802698.1412878     
  -1998843808.3718829       -13036187.204799414        1216669575.7340200     
  -1903703393.2004764       -12937304.512750745        1210840073.9483135     
  -1808667237.2494590       -13185952.555329919        1209898169.2113230     
  -1713735340.5188301       -13782131.332538009        1213843861.5230501     
  -1618907703.0085835       -14725840.844353616        1222677150.8834965     
  -2287861546.0440154       -14303557.981264353        1144530265.0068994     
  -2180026769.3004050       -14713416.945060253        1137708224.1434278     
  -2072218106.7593477       -15210323.250701785        1135880881.6688948     
  -1964435558.4208486       -15794276.898202181        1139048237.5833051     
  -1856679124.2849076       -16465277.887562275        1147210291.8866553     
  -914878580.15560257       -12293072.007545590        1441029857.4397159     
  -865524783.19612134       -16616919.169662863        1435786964.4840536     
  -816198738.25777984       -21033273.068907380        1435824958.0663321     
  -766900445.34058750       -25542133.705318332        1441143838.1865582     
  -717629904.44453394       -30143501.078858286        1451743604.8447206     
  -1148007430.9439301       -12639737.904345989        1369586933.6600242     
  -1085257638.8330650       -16496624.832775831        1363562789.4660068     
  -1022578078.6050164       -20587618.037264228        1362454610.3350296     
  -959968750.25977731       -24912717.517790318        1366262396.2670991     
  -897429653.79735637       -29471923.274362803        1374986147.2622070     
  -1382683805.2282598       -13450660.849951982        1296802698.1412878     
  -1307580650.7514424       -17153377.380343914        1289947742.8702965     
  -1232590208.0191014       -21231799.725662708        1287643831.1874480     
  -1157712477.0312519       -25685927.885944426        1289890963.0927386     
  -1082947457.7878838       -30515761.861175478        1296689138.5861762     
  -1618907703.0085835       -14725840.844353616        1222677150.8834965     
  -1532493818.9512386       -18587176.812321842        1214941824.6969171     
  -1446235126.5000467       -22965818.134129167        1211392620.6235776     
  -1360131625.6550076       -27861764.809787869        1212029538.6634817     
  -1274183316.4161274       -33275016.839294732        1216852578.8166289     
  -1856679124.2849076       -16465277.887562275        1147210291.8866553     
  -1759997143.4324644       -20798023.128735423        1138545034.9458678     
  -1663512834.0478423       -25789673.262643933        1133700978.6434286     
  -1567226196.1310482       -31440228.289310157        1132678122.9793255     
  -1471137229.6820836       -37749688.208747745        1135476467.9535668     
  -717629904.44453394       -30143501.078858286        1451743604.8447206     
  -659446629.94699156       -31691205.723077863        1451477111.7412591     
  -600985157.72573924       -32311584.621594638        1456414609.3970904     
  -542245487.78079391       -32004637.774468273        1466556097.8122053     
  -483227620.11213964       -30770365.181646928        1481901576.9866080     
  -897429653.79735637       -29471923.274362803        1374986147.2622070     
  -826027551.90590119       -31232180.254647583        1372880148.8194079     
  -754462879.35300434       -32450535.030122101        1375787538.9209609     
  -682735636.13868201       -33126987.600845784        1383708317.5668619     
  -610845822.26291323       -33261537.966745347        1396642484.7571182     
  -1082947457.7878838       -30515761.861175478        1296689138.5861762     
  -998871106.25948548       -32651944.504611313        1292608736.5647297     
  -914747811.13191688       -34631648.484157920        1293351120.8726976     
  -830577572.40517628       -36454873.799788773        1298916291.5100789     
  -746360390.07926583       -38121620.451520860        1309304248.4768703     
  -1274183316.4161274       -33275016.839294732        1216852578.8166289     
  -1177977293.0077500       -35950498.472989976        1210662874.9772298     
  -1081839953.0624676       -38854924.983658135        1209105355.2523010     
  -985771296.58028507       -41988296.371330857        1212180019.6418452     
  -889771323.56118917       -45350612.635959297        1219886868.1458657     
  -1471137229.6820836       -37749688.208747745        1135476467.9535668     
  -1363346112.1506917       -41127842.159761786        1127042564.0568976     
  -1255739305.1446729       -45120364.528689682        1123050242.0597651     
  -1148316808.6640017       -49727255.315440834        1123499501.9621699     
  -1041078622.7086989       -54948514.520086884        1128390343.7641098     
  -483227620.11213964       -30770365.181646928        1481901576.9866080     
  -425937391.41746241       -26313612.247464642        1479648960.1500382     
  -366458917.34740806       -14562708.062026903        1483186790.0105028     
  -304792197.90200490        4482347.3745736778        1492515066.5679991     
  -240937233.08123380        30821554.062401965        1507633789.8225300     
  -610845822.26291323       -33261537.966745347        1396642484.7571182     
  -538750348.62960613       -29712825.210183203        1394209345.3571942     
  -464429600.47408283       -18746530.712902516        1397583956.9463217     
  -387883577.79634285       -362654.47489571571        1406766319.5245070     
  -309112280.59638137        25438803.503849477        1421756433.0917425     
  -746360390.07926583       -38121620.451520860        1309304248.4768703     
  -659410230.67299509       -35466115.622308642        1306733787.1849253     
  -570197767.59764695       -25269598.562829971        1309988381.1740522     
  -478723000.85323071       -7532069.2731296718        1319068030.4442503     
  -384985930.43973261        17746472.246845871        1333972734.9955275     
  -889771323.56118917       -45350612.635959297        1219886868.1458657     
  -787917037.54761398       -43573483.483779728        1217222285.6332297     
  -683763418.71810901       -34131911.611847550        1220400062.6936910     
  -577310467.07266581       -17025897.020117998        1229420199.3272462     
  -468558182.61129826        7744560.2913662791        1244282695.5338910     
  -1041078622.7086989       -54948514.520086884        1128390343.7641098     
  -924270769.25346828       -54034928.794634759        1125674840.7021160     
  -805126553.83545721       -45333469.859906048        1128819001.5052421     
  -683645976.45465982       -28844137.715891093        1137822826.1734757     
  -559829037.11106622       -4566932.3625606298        1152686314.7068267     
  -240937233.08123380        30821554.062401965        1507633789.8225300     
  -200072002.08906755        60565118.525768712        1486537716.3423519     
  -154602965.09371871        105654702.99974763        1468168369.7110660     
  -104530122.09516719        166090307.48440182        1452525749.9286888     
  -49853473.093447700        241871931.97961304        1439609856.9952104     
  -309112280.59638137        25438803.503849477        1421756433.0917425     
  -259435538.01509827        55672318.583628714        1405020810.1414847     
  -203306867.65717238        107412259.58555061        1392223480.6532469     
  -140726269.52258611        180658626.50967377        1383364444.6270251     
  -71693743.611348212        275411419.35596889        1378443702.0628233     
  -384985930.43973261        17746472.246845871        1333972734.9955275     
  -323036057.37472707        49508423.611382619        1323753704.6442397     
  -252786134.75960481        108937206.80963914        1318684534.3680913     
  -174236162.59435466        196032821.84165394        1318765224.1670742     
  -87386140.878988236        310795268.70738959        1323995774.0411940     
  -468558182.61129826        7744560.2913662791        1244282695.5338910     
  -390873560.16793883        42073433.609078318        1242736399.8506205     
  -303040766.40100384        110229544.67204809        1247551530.8556011     
  -205059801.31046939        212212893.48034370        1258728088.5488300     
  -96930664.896361336        348023480.03389037        1276266072.9303145     
  -559829037.11106622       -4566932.3625606298        1152686314.7068267     
  -462948046.39474499        33367348.576685697        1161968895.7606165     
  -354070762.58137405        111289273.17276736        1178824470.1157715     
  -233197185.67095071        229198841.42569053        1203253037.7722991     
  -100327315.66346723        387096053.33547789        1235254598.7301826     
  -49853473.093447700        241871931.97961304        1439609856.9952104     
  -40532595.916775420        322826001.12515944        1346506682.4328277     
  -23433650.327145427        429706964.98056209        1253290491.6026056     
   1443363.6754573286        562514823.54587460        1159961284.5045509     
   34098446.091016918        721249576.82104480        1066519061.1386497     
  -71693743.611348212        275411419.35596889        1378443702.0628233     
  -57495598.319698051        377126089.60052669        1296863988.8934865     
  -34312770.969015509        508789700.04185909        1214358128.7499022     
  -2145261.5592786372        670402250.68002665        1130926121.6320395     
   39006929.909484476        861963741.51497197        1046567967.5399498     
  -87386140.878988236        310795268.70738959        1323995774.0411940     
  -70633958.062130302        432573570.87402105        1255347238.1853337     
  -43690479.540160298        588322858.72436190        1184959424.6487930     
  -6555705.3130736947        778043132.25843811        1112832333.4315803     
   40770364.619139850        1001734391.4762422        1038965964.5336874     
  -96930664.896361336        348023480.03389037        1276266072.9303145     
  -79947675.144069433        489168444.94566667        1221956430.3083494     
  -51566776.040588349        668306441.02807891        1165094379.2992947     
  -11787967.585904360        885437468.28115702        1105679919.9031403     
   39388750.219967186        1140561526.7048707        1043713052.1198808     
  -100327315.66346723        387096053.33547789        1235254598.7301826     
  -85436749.565513670        546910711.81546080        1196691565.2625489     
  -57941660.470289260        748740446.95301580        1154762992.7013948     
  -17842048.377792835        992585258.74813879        1109468881.0467224     
   34862086.711978912        1278445147.2008545        1060809230.2985308     
  -3115805427.9312072       -36138244.169711232        1186912060.6133573     
  -2979986873.8021646       -22388666.061735511        1171374940.6098514     
  -2844146287.0112562       -8565645.7475477457        1165506903.4144258     
  -2708283667.5584931        5330816.7728264332        1169307949.0270832     
  -2572399015.4438682        19300721.499407649        1182778077.4478240     
  -3541525552.0201850       -49791855.728868723        1031284583.1957005     
  -3380442801.1830921       -31251750.973311186        1022824989.5643791     
  -3219605904.9924383       -13531161.705859780        1023024804.4432610     
  -3059014863.4482150        3369912.0734778643        1031884027.8323449     
  -2898669676.5504251        19451470.364704132        1049402659.7316301     
  -3945208743.6935606       -56834387.563346863        874740784.00345814     
  -3761746579.8566513       -34369191.272674561        873046181.55131674     
  -3578798157.9744744       -13616468.164423227        879001313.31149268     
  -3396363478.0470243        5423781.7614061832        892606179.28399432     
  -3214442540.0743003        22751558.504810095        913860779.46881378     
  -4326855002.9513292       -57265839.673140764        717280663.03663325     
  -4123898209.8228393       -31740986.959825993        722038516.57065761     
  -3921723045.9573717       -8821565.1232457161        733436430.01912248     
  -3720329511.3549180        11492425.836604357        751474403.38203037     
  -3519717606.0154834        29200985.919724464        776152436.65937924     
  -4686464329.7935019       -51086212.058259010        558904220.29522204     
  -4466897691.0816498       -23367138.034767628        569801994.62240469     
  -4248380568.9411216        853547.41767477989        586330154.56615055     
  -4030912963.3719020        21575844.299082756        608488700.12645495     
  -3814494874.3739948        38799752.609433651        636277631.30332339     
  -2572399015.4438682        19300721.499407649        1182778077.4478240     
  -2500528006.6559777        13355123.088992119        1167274709.8567419     
  -2429148092.1600399        5772543.7054121494        1155732285.2528937     
  -2358259271.9560509       -3447016.6513372660        1148150803.6362793     
  -2287861546.0440154       -14303557.981264353        1144530265.0068994     
  -2898669676.5504251        19451470.364704132        1049402659.7316301     
  -2818172475.7656088        10969007.169928193        1036845531.7627981     
  -2737831371.3137751        1966222.8652116060        1027548423.4469124     
  -2657646363.1949277       -7556882.5494529009        1021511334.7839718     
  -2577617451.4090633       -17600309.074064732        1018734265.7739772     
  -3214442540.0743003        22751558.504810095        913860779.46881378     
  -3127321785.3905263        11131439.096272707        904640722.07436299     
  -3040022129.0807657        107658.44102501869        897979760.99856913     
  -2952543571.1450191       -10319783.460939646        893877896.24143493     
  -2864886111.5832877       -20150886.609614849        892335127.80295742     
  -3519717606.0154834        29200985.919724464        776152436.65937924     
  -3427975935.5307212        13842418.868036747        770660280.79143834     
  -3335720365.4610004        196850.43286466599        767026297.90786672     
  -3242950895.8063264       -11735719.385784268        765250488.00866556     
  -3149667526.5666962       -21955290.587925076        765332851.09383440     
  -3814494874.3739948        38799752.609433651        636277631.30332339     
  -3720134926.1862006        19101946.485213757        634904207.91402173     
  -3624926080.4544802        2233798.8407480717        634688034.17480218     
  -3528868337.1788435       -11804690.323993683        635629110.08566713     
  -3431961696.3592796       -23013521.008980989        637727435.64661360     
  -2287861546.0440154       -14303557.981264353        1144530265.0068994     
  -2180026769.3004050       -14713416.945060253        1137708224.1434278     
  -2072218106.7593477       -15210323.250701785        1135880881.6688948     
  -1964435558.4208486       -15794276.898202181        1139048237.5833051     
  -1856679124.2849076       -16465277.887562275        1147210291.8866553     
  -2577617451.4090633       -17600309.074064732        1018734265.7739772     
  -2456301897.6925893       -15693270.176183820        1012613954.6545587     
  -2335117408.4057970       -14223112.710569024        1011334104.8495525     
  -2214063983.5486703       -13189836.677179337        1014894716.3589596     
  -2093141623.1212268       -12593442.076061010        1023295789.1827774     
  -2864886111.5832877       -20150886.609614849        892335127.80295742     
  -2730530458.2497511       -16059153.056809783        886794104.49595428     
  -2596410819.5730071       -12754135.026646852        885939305.42883718     
  -2462527195.5530581       -10235832.519125819        889770730.60160065     
  -2328879586.1898985       -8504245.5342485905        898288380.01425159     
  -3149667526.5666962       -21955290.587925076        765332851.09383440     
  -3002712450.9718943       -15811065.586930633        760248673.66761112     
  -2856098340.2610030       -10803390.198972583        759696483.40674257     
  -2709825194.4340196       -6932264.4240443707        763676280.31123078     
  -2563893013.4909496       -4197688.2621518373        772188064.38106883     
  -3431961696.3592796       -23013521.008980989        637727435.64661360     
  -3272847875.8590064       -14949007.766533732        632977662.16953158     
  -3114179970.4697633       -8370878.2275191545        632605638.78327620     
  -2955957980.1915474       -3279132.3919310570        636611365.48784566     
  -2798181905.0243607        326229.74022996426        644994842.28323936     
  -1856679124.2849076       -16465277.887562275        1147210291.8866553     
  -1759997143.4324644       -20798023.128735423        1138545034.9458678     
  -1663512834.0478423       -25789673.262643933        1133700978.6434286     
  -1567226196.1310482       -31440228.289310157        1132678122.9793255     
  -1471137229.6820836       -37749688.208747745        1135476467.9535668     
  -2093141623.1212268       -12593442.076061010        1023295789.1827774     
  -1986639033.7562628       -16817854.736075640        1014598385.3227985     
  -1880331671.7917805       -21693025.397700071        1009609095.2384560     
  -1774219537.2277761       -27218954.060913563        1008327918.9297462     
  -1668302630.0642626       -33395640.725766122        1010754856.3966796     
  -2328879586.1898985       -8504245.5342485905        898288380.01425159     
  -2212879493.6344438       -12717257.209743977        889561680.64697957     
  -2097072184.4121170       -17572879.995676041        884430008.19264126     
  -1981457658.5229268       -23071113.892063737        882893362.65123737     
  -1866035915.9668748       -29211958.898901224        884951744.02275753     
  -2563893013.4909496       -4197688.2621518373        772188064.38106883     
  -2438718523.0670033       -8496230.5497093201        763434920.91841221     
  -2313734371.9088492       -13429237.056573629        758163717.50598371     
  -2188940560.0164785       -18996707.782711029        756374454.14377892     
  -2064337087.3899043       -25198642.728168130        758067130.83180213     
  -2798181905.0243607        326229.74022996426        644994842.28323936     
  -2664156122.0539508       -4154774.7560075521        636218106.13710415     
  -2530318234.2819781       -9262096.5803805590        630810223.17848217     
  -2396668241.7084532       -14995735.732907534        628771193.40738797     
  -2263206144.3333693       -21355692.213572383        630101016.82380819     
  -1471137229.6820836       -37749688.208747745        1135476467.9535668     
  -1363346112.1506917       -41127842.159761786        1127042564.0568976     
  -1255739305.1446729       -45120364.528689682        1123050242.0597651     
  -1148316808.6640017       -49727255.315440834        1123499501.9621699     
  -1041078622.7086989       -54948514.520086884        1128390343.7641098     
  -1668302630.0642626       -33395640.725766122        1010754856.3966796     
  -1549468922.4653053       -36024559.289652169        1001721804.7769116     
  -1430655771.2217197       -38721999.038100660        996568570.83563089     
  -1311863176.3334994       -41487959.971115530        995295154.57283461     
  -1193091137.8006425       -44322442.088665485        997901555.98851860     
  -1866035915.9668748       -29211958.898901224        884951744.02275753     
  -1737764658.9319248       -31573154.265136003        875510591.21155310     
  -1609350204.0823512       -33457023.582606256        869387491.85778284     
  -1480792551.4181499       -34863566.851322591        866582445.96144116     
  -1352091700.9393172       -35792784.071263433        867095453.52253664     
  -2064337087.3899043       -25198642.728168130        758067130.83180213     
  -1928233321.5505466       -27773627.086214662        748408923.36081648     
  -1791822603.7265580       -29325438.162174821        741507005.12621570     
  -1655104933.9179547       -29854075.956076086        737361376.12799621     
  -1518080312.1247275       -29359540.467888832        735972036.36615276     
  -2263206144.3333693       -21355692.213572383        630101016.82380819     
  -2120874910.3211741       -24625977.752911687        620416801.22470939     
  -1978072970.1543460       -26327242.776819348        612927110.64093602     
  -1834800323.8329175       -26459487.285383940        607631945.07249129     
  -1691056971.3568575       -25022711.278516650        604531304.51938105     
  -1041078622.7086989       -54948514.520086884        1128390343.7641098     
  -924270769.25346828       -54034928.794634759        1125674840.7021160     
  -805126553.83545721       -45333469.859906048        1128819001.5052421     
  -683645976.45465982       -28844137.715891093        1137822826.1734757     
  -559829037.11106622       -4566932.3625606298        1152686314.7068267     
  -1193091137.8006425       -44322442.088665485        997901555.98851860     
  -1062780154.0836746       -41524607.035444438        994066398.60203624     
  -931017427.01208925       -33887627.466828167        994323773.86075640     
  -797802956.58588648       -21411503.382813096        998673681.76467586     
  -663136742.80505610       -4096234.7833907306        1007116122.3137914     
  -1352091700.9393172       -35792784.071263433        867095453.52253664     
  -1213326533.3032217       -32625383.593049586        861108586.76869941     
  -1073994240.9206815       -27567567.293344140        857447121.44015002     
  -934094823.79168224       -20619335.172112286        856111057.53688025     
  -793628281.91623354       -11780687.229383707        857100395.05890119     
  -1518080312.1247275       -29359540.467888832        735972036.36615276     
  -1375909906.9121170       -27337258.467475891        726801405.20210743     
  -1234056995.5612237       -26373289.339438915        718189044.24342513     
  -1092521578.0720465       -26467633.083778799        710134953.49011993     
  -951303654.44458628       -27620289.700532675        702639132.94217658     
  -1691056971.3568575       -25022711.278516650        604531304.51938105     
  -1550530274.9103460       -25660231.658668935        591144853.90225554     
  -1411205690.9337261       -30304793.605121672        576549542.27058113     
  -1273083219.4269831       -38956397.117821991        560745369.62436736     
  -1136162860.3901238       -51615042.196823657        543732335.96360326     
  -559829037.11106622       -4566932.3625606298        1152686314.7068267     
  -462948046.39474499        33367348.576685697        1161968895.7606165     
  -354070762.58137405        111289273.17276736        1178824470.1157715     
  -233197185.67095071        229198841.42569053        1203253037.7722991     
  -100327315.66346723        387096053.33547789        1235254598.7301826     
  -663136742.80505610       -4096234.7833907306        1007116122.3137914     
  -547809296.98909521        26121521.943289816        1020641406.0584688     
  -421601208.69253010        92608086.938652247        1042564013.7044063     
  -284512477.91539490        195363460.20259345        1072883945.2516003     
  -136543104.65765265        334387641.73519993        1111601200.7000484     
  -793628281.91623354       -11780687.229383707        857100395.05890119     
  -657499150.71521854        11427114.370403618        873566789.10860085     
  -511605027.65007800        67184888.850598752        899254837.65943778     
  -355945912.72081774        155492636.21119595        934164540.71142113     
  -190521805.92742616        276350356.45223558        978295898.26455736     
  -951303654.44458628       -27620289.700532675        702639132.94217658     
  -792017607.57312739       -10715874.142052382        720745044.91101098     
  -624082219.45400953        35019678.908623934        748896941.98088253     
  -447497490.08722824        109586369.45151222        787094824.15178609     
  -262263419.47278911        212984197.48659271        835338691.42372465     
  -1136162860.3901238       -51615042.196823657        543732335.96360326     
  -951364667.56281447       -40307443.594015181        562176173.46570301     
  -759032784.10431647       -3887542.8872335553        591490326.66872418     
  -559167210.01462793        57644659.923510939        631674795.57266998     
  -351767945.29372907        144289164.83829004        682729580.17754352     
  -100327315.66346723        387096053.33547789        1235254598.7301826     
  -85436749.565513670        546910711.81546080        1196691565.2625489     
  -57941660.470289260        748740446.95301580        1154762992.7013948     
  -17842048.377792835        992585258.74813879        1109468881.0467224     
   34862086.711978912        1278445147.2008545        1060809230.2985308     
  -136543104.65765265        334387641.73519993        1111601200.7000484     
  -127420550.70389479        483368938.50369734        1090074267.6115110     
  -95149302.289797008        709512550.14002120        1069975947.7466943     
  -39729359.415341556        1012818476.6441838        1051306241.1055779     
   38839277.919469118        1393286718.0161996        1034065147.6881620     
  -190521805.92742616        276350356.45223558        978295898.26455736     
  -173469686.06865126        418607564.92400813        986106598.92872381     
  -122724700.28644553        673174326.47387671        1000140065.1338236     
  -38286848.580802083        1040050641.1018548        1020396296.8798614     
   79843869.048263788        1519236508.8079360        1046875294.1668431     
  -262263419.47278911        212984197.48659271        835338691.42372465     
  -223584155.65977296        352626591.07640254        884788559.21417737     
  -140667854.46024445        639725775.95459771        945255344.86280084     
  -13514515.874203801        1074281752.1211500        1016739048.3695804     
   157875860.09833229        1656294519.5760546        1099239669.7345340     
  -351767945.29372907        144289164.83829004        682729580.17754352     
  -277763959.47724795        285426016.96091771        786120148.46788454     
  -148978764.81118897        609166898.58215499        905321786.93361485     
   34587638.704470932        1115511809.7020538        1040334495.5747317     
   272935251.06971174        1804460750.3205662        1191158274.3912377     
  -4686464329.7935019       -51086212.058259010        558904220.29522204     
  -4466897691.0816498       -23367138.034767628        569801994.62240469     
  -4248380568.9411216        853547.41767477989        586330154.56615055     
  -4030912963.3719020        21575844.299082756        608488700.12645495     
  -3814494874.3739948        38799752.609433651        636277631.30332339     
  -5049263769.1447315       -54668306.715452433        449047018.65471995     
  -4812906377.1260090       -23297775.184029818        451132603.62255025     
  -4577735428.2937822        4117945.7257142067        459661123.01574343     
  -4343750922.6480541        27578856.013804436        474632576.83430064     
  -4110952860.1888275        47084955.680226564        496046965.07822138     
  -5434675076.7960606       -65033961.862670660        338736702.99456304     
  -5179205363.4452982       -29315502.415781021        331850350.88531888     
  -4925059019.8962307        1991724.3588178158        332219482.01024228     
  -4672236046.1488485        28887718.461123705        339844096.36933452     
  -4420736442.2031412        51372479.891172647        354724193.96259457     
  -5842698252.7474709       -82183177.499914169        227973273.31474394     
  -5565794650.0395365       -41420319.730018616        211955236.41071910     
  -5290351343.7484732       -5525116.6830222607        204005231.54965699     
  -5016368333.8742771        25502431.641073942        204123258.73156643     
  -4743845620.4169521        51662325.242280722        212309317.95644301     
  -6273333296.9989738       -106115953.62718821        116756729.61527152     
  -5972674236.9087009       -59612227.126721144        91447260.198740393     
  -5673612399.8504972       -18432577.399789810        75018371.633978277     
  -5376147785.8243551        17422995.553609133        67470063.920993686     
  -5080280394.8302526        47954491.733522177        68802337.059775248     
  -3814494874.3739948        38799752.609433651        636277631.30332339     
  -3720134926.1862006        19101946.485213757        634904207.91402173     
  -3624926080.4544802        2233798.8407480717        634688034.17480218     
  -3528868337.1788435       -11804690.323993683        635629110.08566713     
  -3431961696.3592796       -23013521.008980989        637727435.64661360     
  -4110952860.1888275        47084955.680226564        496046965.07822138     
  -4012868832.7529044        25618594.058573723        491461305.89109778     
  -3913966439.5685573        6880118.2649998665        488991201.59032416     
  -3814245680.6357913       -9130471.7005071640        488636652.17589480     
  -3713706555.9545956       -22413175.837923050        490397657.64781344     
  -4420736442.2031412        51372479.891172647        354724193.96259457     
  -4316190320.5583363        28958967.260322332        346890678.54956621     
  -4210856364.9606075        9171567.8058726788        342131023.25914884     
  -4104734575.4099603       -7989718.4721765518        340445228.09134620     
  -3997824951.9063916       -22524891.573819399        341833293.04615450     
  -4743845620.4169521        51662325.242280722        212309317.95644301     
  -4630099389.6025085        29123066.090433359        201192325.88942781     
  -4515595856.6306467        9108147.4633228779        194107499.18128666     
  -4400335021.5013504       -8382430.6390080452        191054837.83202231     
  -4284316884.2146511       -23348668.216659546        192034341.84163183     
  -5080280394.8302526        47954491.733522177        68802337.059775248     
  -4954596039.8854103        26110890.548952579        54366247.910685278     
  -4828184914.5786486        6689857.2374255657        44920629.356732115     
  -4701047018.9099627       -10308608.201011896        40465481.397920884     
  -4573182352.8793659       -24884505.766409874        41000804.034251578     
  -3431961696.3592796       -23013521.008980989        637727435.64661360     
  -3272847875.8590064       -14949007.766533732        632977662.16953158     
  -3114179970.4697633       -8370878.2275191545        632605638.78327620     
  -2955957980.1915474       -3279132.3919310570        636611365.48784566     
  -2798181905.0243607        326229.74022996426        644994842.28323936     
  -3713706555.9545956       -22413175.837923050        490397657.64781344     
  -3542871008.5395932       -14022334.211458445        484397455.85762352     
  -3372468363.8331661       -7074501.6135931015        482960910.43777996     
  -3202498621.8353252       -1569678.0443389416        486088021.38828552     
  -3032961782.5460668        2492136.4963033199        493778788.70914227     
  -3997824951.9063916       -22524891.573819399        341833293.04615450     
  -3814736516.7780066       -13648373.323723555        334597844.07904005     
  -3632067971.9557657       -6171489.4274303913        332111957.76179808     
  -3449819317.4396582       -94239.884920358658        334375634.09442872     
  -3267990553.2296877        4583375.3038055897        341388873.07693058     
  -4284316884.2146511       -23348668.216659546        192034341.84163183     
  -4088444400.5742545       -13827125.103354692        183578826.83378717     
  -3892978794.8375487       -5661841.6690037251        180058780.75532722     
  -3697920067.0045376        1147182.0863480568        181474203.60627174     
  -3503268217.0752234        6599946.1627318859        187825095.38661218     
  -4573182352.8793659       -24884505.766409874        41000804.034251578     
  -4363994659.9283209       -14558589.550307989        31340404.121854998     
  -4155200832.4785309       -5545558.3383655548        26801379.418381128     
  -3946800870.5299830        2154587.8694310188        27383729.923818771     
  -3738794774.0826745        8541849.0730831623        33087455.638178490     
  -2798181905.0243607        326229.74022996426        644994842.28323936     
  -2664156122.0539508       -4154774.7560075521        636218106.13710415     
  -2530318234.2819781       -9262096.5803805590        630810223.17848217     
  -2396668241.7084532       -14995735.732907534        628771193.40738797     
  -2263206144.3333693       -21355692.213572383        630101016.82380819     
  -3032961782.5460668        2492136.4963033199        493778788.70914227     
  -2890147984.2641668       -2063418.8725275993        484846670.49562705     
  -2747297189.3883643       -6495652.2616705894        479322914.92017657     
  -2604409397.9186559       -10804563.671143770        477207521.98279238     
  -2461484609.8550491       -14990153.100936174        478500491.68347859     
  -3267990553.2296877        4583375.3038055897        341388873.07693058     
  -3116275855.4918852       -12865.694296836853        332563746.55377555     
  -2964299269.3678279       -3736145.4048771858        327186492.11922789     
  -2812060794.8575215       -6586463.8279590607        325257109.77330083     
  -2659560431.9609694       -8563820.9635555744        326775599.51597947     
  -3503268217.0752234        6599946.1627318859        187825095.38661218     
  -3342539735.7370958        1996884.7786955833        179369334.31154630     
  -3181324474.2203760       -983576.01001930237        174400954.77564746     
  -3019622432.5250549       -2341436.2034077644        172919956.77890283     
  -2857433610.6511364       -2076695.8014638424        174926340.32131693     
  -3738794774.0826745        8541849.0730831623        33087455.638178490     
  -3568939624.9998198        3965832.5464072227        25263433.768949974     
  -3398372803.9460053        1762055.9229176044        20966302.889420424     
  -3227094310.9212499        1930519.2025758028        20196062.999600083     
  -3055104145.9255557        4471222.3853521347        22952714.099491518     
  -2263206144.3333693       -21355692.213572383        630101016.82380819     
  -2120874910.3211741       -24625977.752911687        620416801.22470939     
  -1978072970.1543460       -26327242.776819348        612927110.64093602     
  -1834800323.8329175       -26459487.285383940        607631945.07249129     
  -1691056971.3568575       -25022711.278516650        604531304.51938105     
  -2461484609.8550491       -14990153.100936174        478500491.68347859     
  -2313036179.6141677       -17124258.588246346        469319032.54768044     
  -2164364707.7544827       -18514892.012881875        462386388.56046021     
  -2015470194.2759705       -19162053.374769330        457702559.72181368     
  -1866352639.1786501       -19065742.673949957        455267546.03174311     
  -2659560431.9609694       -8563820.9635555744        326775599.51597947     
  -2504839690.8249960       -9515211.9989397526        317807954.88505059     
  -2350143572.6060185       -10548679.424329996        311143415.53593892     
  -2195472077.3040214       -11664223.239640713        306781981.46865296     
  -2040825204.9190259       -12861843.444965124        304723652.68318325     
  -2857433610.6511364       -2076695.8014638424        174926340.32131693     
  -2696285443.9536591       -1798837.9850094318        165883568.23681369     
  -2535409564.7089701       -2428605.0111930370        159198191.56737754     
  -2374805972.9170818       -3965996.8800381422        154870210.31300268     
  -2214474668.5779905       -6411013.5915467739        152899624.47370282     
  -3055104145.9255557        4471222.3853521347        22952714.099491518     
  -2887373439.0001411        6024863.4536151886        13545872.602979040     
  -2720162684.0633512        5845331.2264714241        6550716.6547723170     
  -2553471881.1151228        3932625.7041058540        1967246.2548912058     
  -2387301030.1555343        286746.88629782200       -204538.59669567776     
  -1691056971.3568575       -25022711.278516650        604531304.51938105     
  -1550530274.9103460       -25660231.658668935        591144853.90225554     
  -1411205690.9337261       -30304793.605121672        576549542.27058113     
  -1273083219.4269831       -38956397.117821991        560745369.62436736     
  -1136162860.3901238       -51615042.196823657        543732335.96360326     
  -1866352639.1786501       -19065742.673949957        455267546.03174311     
  -1728762106.8715398       -22261252.545011759        441776517.26222461     
  -1591284976.8874953       -25834770.159641743        427826066.97484273     
  -1453921249.2265403       -29786295.517892838        413416195.16960502     
  -1316670923.8886571       -34115828.619733334        398546901.84649879     
  -2040825204.9190259       -12861843.444965124        304723652.68318325     
  -1904029581.0464952       -17972966.095459580        292398207.59920865     
  -1766258649.3502357       -19833062.666866660        280362780.49406195     
  -1627512409.8302553       -18442133.159204423        268617371.36773419     
  -1487790862.4865510       -13800177.572464645        257161980.22023016     
  -2214474668.5779905       -6411013.5915467739        152899624.47370282     
  -2076332697.4352260       -12795372.310035110        143009924.91322049     
  -1936126708.3219445       -12299671.126795292        134159682.82823244     
  -1793856701.2381308       -4923910.0417773724        126348898.21876292     
  -1649522676.1837761        9331910.9450281858        119577571.08479418     
  -2387301030.1555343        286746.88629782200       -204538.59669567776     
  -2245671456.0377407       -6728471.1887789965       -6388330.7957680346     
  -2100889153.8026009       -3234595.5393582582       -10783226.022635117     
  -1952954123.4501469        10768373.834436536       -13389224.277326547     
  -1801866364.9803543        35280436.932695031       -14206325.559818788     
  -1136162860.3901238       -51615042.196823657        543732335.96360326     
  -951364667.56281447       -40307443.594015181        562176173.46570301     
  -759032784.10431647       -3887542.8872335553        591490326.66872418     
  -559167210.01462793        57644659.923510939        631674795.57266998     
  -351767945.29372907        144289164.83829004        682729580.17754352     
  -1316670923.8886571       -34115828.619733334        398546901.84649879     
  -1117220993.6671634       -14429619.073293984        420595539.00711513     
  -914126324.07871938        17405721.696308732        441110902.09072912     
  -707386915.12332296        61390193.689075977        460092991.09734094     
  -497002766.80097252        117523796.90502587        477541806.02695042     
  -1487790862.4865510       -13800177.572464645        257161980.22023016     
  -1309128022.8077834        3632994.5365593433        278278307.23107451     
  -1130709395.0263262        20252126.987904847        285457770.38698685     
  -952534979.14216220        36057219.781598210        278700369.68797457     
  -774604775.15529668        51048272.917610884        258006105.13403603     
  -1649522676.1837761        9331910.9450281858        119577571.08479418     
  -1527085754.9847119        13880397.235453546        135224478.13757855     
  -1408781996.9471512        4651672.9875212312        124530931.55750661     
  -1294611402.0711689       -18354261.798996627        87496931.344581500     
  -1184573970.3567092       -55137407.123930693        24122477.498800576     
  -1801866364.9803543        35280436.932695031       -14206325.559818788     
  -1771094190.1978755        16312589.023583651       -8565948.2733851504     
  -1748344129.8411837       -29395640.304817796       -41669614.397718973     
  -1733616183.9102926       -101844251.05254507       -113517323.93284443     
  -1726910352.4051738       -201033243.21953452       -224109076.87875432     
  -351767945.29372907        144289164.83829004        682729580.17754352     
  -277763959.47724795        285426016.96091771        786120148.46788454     
  -148978764.81118897        609166898.58215499        905321786.93361485     
   34587638.704470932        1115511809.7020538        1040334495.5747317     
   272935251.06971174        1804460750.3205662        1191158274.3912377     
  -497002766.80097252        117523796.90502587        477541806.02695042     
  -388186127.23496336        223209926.06698662        596880337.94772923     
  -230251955.44936225        492621162.62759000        735367700.18369055     
  -23200251.444156051        925757506.58687699        893003892.73481059     
   232968984.78064036        1522618957.9447951        1069788915.6011169     
  -774604775.15529668        51048272.917610884        258006105.13403603     
  -621439024.29751921        124144616.38159010        386684977.95026177     
  -424819417.85013992        342087145.14424372        537850441.22144914     
  -184745955.81316146        704875859.20555329        711502494.94758558     
   98781361.813435793        1212510758.5655839        907641139.12868810     
  -1184573970.3567092       -55137407.123930693        24122477.498800576     
  -977522650.66491234       -11769912.095250964        155534068.47548890     
  -732681152.01351488        157564846.13209161        312770010.04691195     
  -450049474.40249920        452866867.55816674        495830302.21306759     
  -129627617.83187187        874136152.18294203        704714944.97397840     
  -1726910352.4051738       -201033243.21953452       -224109076.87875432     
  -1456437006.3371484       -184533659.36354488       -96572390.476602226     
  -1153837157.9394920       -60945734.408807933        60126406.660072371     
  -819110807.21222913        169730531.64461738        245987314.53126082     
  -452257954.15532923        507495138.79685509        461010333.13698912     
 </DataArray>
 <DataArray  type="Float64" Name="VM" NumberOfComponents="1" format="ascii">
   6224240261.6394119     
   5945202645.7585249     
   5665908697.0427513     
   5386148326.2894764     
   5105817473.9944248     
   5815463937.3503456     
   5557339628.9590006     
   5299384155.9355545     
   5041580122.1343031     
   4784040562.6099596     
   5434216756.0885782     
   5196495983.7855110     
   4959549274.0847645     
   4723566071.1641102     
   4488890929.8615828     
   5082022054.2339687     
   4864467331.0536232     
   4648483031.9515390     
   4434473654.4585199     
   4223020509.0035758     
   4760595105.6050205     
   4563262573.1102991     
   4368490988.9185715     
   4176897254.4768286     
   3989288870.8623238     
   5105817473.9944248     
   4968595343.4529629     
   4832159743.9251547     
   4696424221.4300699     
   4561343870.0090322     
   4784040562.6099596     
   4657783406.5843067     
   4532642803.3214006     
   4408586953.3125544     
   4285617202.4202847     
   4488890929.8615828     
   4372222472.6952896     
   4256897522.1054111     
   4142924445.4892073     
   4030336356.8086133     
   4223020509.0035758     
   4114751424.4314208     
   4007922948.9493241     
   3902566456.8859930     
   3798730362.3303323     
   3989288870.8623238     
   3888462502.0137625     
   3789020735.6126552     
   3690998102.0536976     
   3594439877.1197786     
   4561343870.0090322     
   4357071769.9855509     
   4152690302.4853969     
   3948163508.3056235     
   3743511704.3736053     
   4285617202.4202847     
   4093915111.0038528     
   3902632191.1547623     
   3711826367.7288332     
   3521631431.1844501     
   4030336356.8086133     
   3851779222.2431402     
   3674293895.3206329     
   3498049372.7445650     
   3323311718.1311221     
   3798730362.3303323     
   3634057645.9328475     
   3471237258.3167710     
   3310561536.6199465     
   3152439438.7925320     
   3594439877.1197786     
   3444533789.1142654     
   3297375959.8470826     
   3153383491.9707074     
   3013103046.7323909     
   3743511704.3736053     
   3571192281.2574697     
   3399448145.6209998     
   3228249529.3832383     
   3057600670.6349492     
   3521631431.1844501     
   3357941424.3919091     
   3195143874.4905481     
   3033275258.7129536     
   2872419677.2697673     
   3323311718.1311221     
   3169058385.1931744     
   3016150205.7709327     
   2864713653.9811511     
   2714941234.4918547     
   3152439438.7925320     
   3008691563.3664045     
   2866895520.0137711     
   2727289240.2439022     
   2590197158.3872867     
   3013103046.7323909     
   2881145010.6625309     
   2751894749.9693642     
   2625711974.0943522     
   2503059659.3485479     
   3057600670.6349492     
   2890485802.6124544     
   2723113692.4149537     
   2555442735.0866404     
   2387444442.9549780     
   2872419677.2697673     
   2710656806.6498904     
   2549153240.2996655     
   2387939490.7203946     
   2227078134.6722665     
   2714941234.4918547     
   2559977348.1761522     
   2406018672.0714698     
   2253213432.5748491     
   2101773937.4108896     
   2590197158.3872867     
   2443686076.7547836     
   2299162440.5086732     
   2156928751.9258494     
   2017388879.9967914     
   2503059659.3485479     
   2366693733.4624009     
   2233478793.5335765     
   2103875994.3368471     
   1978473977.8314440     
   2387444442.9549780     
   2242342092.0910573     
   2099356807.8731527     
   1958497822.4320059     
   1819929448.7105703     
   2227078134.6722665     
   2084732418.9234970     
   1943944611.5204661     
   1804717554.8728857     
   1667123789.3666592     
   2101773937.4108896     
   1961611773.4680202     
   1822317896.1568484     
   1683920375.9633563     
   1546472492.3280241     
   2017388879.9967914     
   1880459797.4041836     
   1743803389.8196082     
   1607546623.1962695     
   1471864732.5497653     
   1978473977.8314440     
   1847531415.1566248     
   1716648394.3006752     
   1586180903.2207246     
   1456647391.6167305     
   1819929448.7105703     
   1779368424.2561796     
   1735334744.4192712     
   1696436568.5910695     
   1681113314.5207677     
   1667123789.3666592     
   1551849575.1472828     
   1427503206.6201272     
   1294434650.2253258     
   1158743703.0791323     
   1546472492.3280241     
   1396746892.8003011     
   1243491685.1140769     
   1084430938.7408745     
   917530473.99701309     
   1471864732.5497653     
   1327769449.7048297     
   1198155836.1845624     
   1087496346.9876289     
   1001684468.6908303     
   1456647391.6167305     
   1347775386.7487845     
   1273882854.7130873     
   1243086087.6802788     
   1262408567.9621842     
   1681113314.5207677     
   1383646795.3446932     
   1129415189.7960632     
   1010103141.9492372     
   1152908872.3618083     
   1158743703.0791323     
   1008343318.0770798     
   985174290.06125677     
   1161459637.9728103     
   1544052777.5687270     
   917530473.99701309     
   962975842.12181985     
   1144844839.2206049     
   1476452305.4857688     
   1957448325.1012895     
   1001684468.6908303     
   1164455473.9207056     
   1425277349.2500653     
   1808704198.2937789     
   2334794427.3425250     
   1262408567.9621842     
   1446325189.0452421     
   1715475015.4164014     
   2110418814.1097331     
   2663577557.8613896     
   4760595105.6050205     
   4563262573.1102991     
   4368490988.9185715     
   4176897254.4768286     
   3989288870.8623238     
   4474443792.1748428     
   4294259678.8314815     
   4118152585.9431477     
   3946882401.7973199     
   3781439112.1508665     
   4199903924.9411464     
   4038472396.0123019     
   3882934586.1214070     
   3734162931.5027828     
   3593287717.7111821     
   3944513534.0792184     
   3802793490.5932641     
   3669089740.2571063     
   3544325865.6243753     
   3429691744.4919271     
   3717960520.2861705     
   3595895278.0268569     
   3484264420.3120923     
   3383948794.3596401     
   3296081052.6611152     
   3989288870.8623238     
   3888462502.0137625     
   3789020735.6126552     
   3690998102.0536976     
   3594439877.1197786     
   3781439112.1508665     
   3685161313.6319170     
   3590637137.7560892     
   3497947227.0475888     
   3407189283.4274931     
   3593287717.7111821     
   3502884747.4415174     
   3414844768.1040645     
   3329294745.6700835     
   3246387905.5111041     
   3429691744.4919271     
   3346382366.3357916     
   3266293764.1383023     
   3189594644.2042212     
   3116490516.9908576     
   3296081052.6611152     
   3220839063.1634512     
   3149915472.0205760     
   3083507826.6490884     
   3021860199.4996438     
   3594439877.1197786     
   3444533789.1142654     
   3297375959.8470826     
   3153383491.9707074     
   3013103046.7323909     
   3407189283.4274931     
   3271542465.7521648     
   3139741253.3007412     
   3012311371.6352415     
   2889917957.9448061     
   3246387905.5111041     
   3125926394.3376355     
   3010492018.9620252     
   2900692125.2536783     
   2797268869.6469221     
   3116490516.9908576     
   3011856395.0107651     
   2913443492.6976638     
   2821893692.2813382     
   2737963369.2499819     
   3021860199.4996438     
   2933223067.8748531     
   2851925009.8441644     
   2778582794.9552579     
   2713896111.4049525     
   3013103046.7323909     
   2881145010.6625309     
   2751894749.9693642     
   2625711974.0943522     
   2503059659.3485479     
   2889917957.9448061     
   2770414940.5807242     
   2654602054.9194498     
   2542940410.6269231     
   2436001111.4121413     
   2797268869.6469221     
   2691247959.1923499     
   2589945612.4250288     
   2493891409.9800911     
   2403716202.6360493     
   2737963369.2499819     
   2646098285.7098751     
   2559933452.0386748     
   2480015930.6218157     
   2406971341.7087088     
   2713896111.4049525     
   2636336934.9735117     
   2565321097.6134067     
   2501357967.5399146     
   2445006185.1653714     
   2503059659.3485479     
   2366693733.4624009     
   2233478793.5335765     
   2103875994.3368471     
   1978473977.8314440     
   2436001111.4121413     
   2312065923.3737879     
   2192815577.7836881     
   2078931787.5163317     
   1971249398.5885315     
   2403716202.6360493     
   2294670466.3544717     
   2191982485.7119136     
   2096480800.2365925     
   2009129548.1969438     
   2406971341.7087088     
   2314448638.2305641     
   2229870899.2321868     
   2154093092.6173792     
   2088054782.6635273     
   2445006185.1653714     
   2369600696.7308249     
   2303471982.4082680     
   2247388493.9558506     
   2202147274.3022194     
   1978473977.8314440     
   1847531415.1566248     
   1716648394.3006752     
   1586180903.2207246     
   1456647391.6167305     
   1971249398.5885315     
   1854988582.3916905     
   1743110032.7753990     
   1636539773.5648260     
   1536415143.8815851     
   2009129548.1969438     
   1912632856.3404222     
   1824900789.0925882     
   1747133741.6301932     
   1680624410.6336908     
   2088054782.6635273     
   2012858274.9750447     
   1949982346.2800174     
   1900503411.5563033     
   1865448848.5567961     
   2202147274.3022194     
   2146784773.6080894     
   2106295735.4927204     
   2081443484.2388542     
   2072903742.7585325     
   1456647391.6167305     
   1347775386.7487845     
   1273882854.7130873     
   1243086087.6802788     
   1262408567.9621842     
   1536415143.8815851     
   1475581180.0914001     
   1447446041.3737202     
   1455973072.5403669     
   1504451568.4155915     
   1680624410.6336908     
   1652061087.0418575     
   1651242995.3704817     
   1680539374.2603643     
   1742557729.5295970     
   1865448848.5567961     
   1854781284.0638051     
   1867133280.2995868     
   1904714533.4167318     
   1970555538.2576671     
   2072903742.7585325     
   2069153635.3438160     
   2084715107.4263523     
   2122219399.5554323     
   2185476379.1414032     
   1262408567.9621842     
   1446325189.0452421     
   1715475015.4164014     
   2110418814.1097331     
   2663577557.8613896     
   1504451568.4155915     
   1612987752.4645016     
   1788728142.2936161     
   2066411672.5159876     
   2476233219.1190333     
   1742557729.5295970     
   1787500607.4521439     
   1884590298.4479048     
   2060732221.3942623     
   2341152822.1895680     
   1970555538.2576671     
   1968821574.0715106     
   2003625877.9802821     
   2093645804.7288208     
   2257546080.8156505     
   2185476379.1414032     
   2156234946.7335482     
   2146575287.6641195     
   2167029575.8917375     
   2228680498.2169161     
   3717960520.2861705     
   3595895278.0268569     
   3484264420.3120923     
   3383948794.3596401     
   3296081052.6611152     
   3426648954.6128297     
   3335177625.5963154     
   3253479973.9606228     
   3182315205.1397748     
   3122587701.1893201     
   3178426141.7047472     
   3115286138.5572672     
   3060846369.2715111     
   3015699265.0479059     
   2980500411.2152357     
   2975529158.1875281     
   2938823917.7873869     
   2909282198.5287042     
   2887300171.6296115     
   2873286453.1388073     
   2819229471.4805131     
   2807426616.8401093     
   2800782609.9009190     
   2799490585.9319625     
   2803737397.4976869     
   3296081052.6611152     
   3220839063.1634512     
   3149915472.0205760     
   3083507826.6490884     
   3021860199.4996438     
   3122587701.1893201     
   3059435810.4773273     
   3001162739.7896719     
   2947960888.8938193     
   2900059271.5370793     
   2980500411.2152357     
   2928986342.9169197     
   2882847073.3334680     
   2842251961.0664968     
   2807395900.5418086     
   2873286453.1388073     
   2832592927.5829911     
   2797672033.6200027     
   2768655497.5969105     
   2745690351.9397960     
   2803737397.4976869     
   2772620817.7802491     
   2747554235.2354355     
   2728624577.6038785     
   2715926439.7554922     
   3021860199.4996438     
   2933223067.8748531     
   2851925009.8441644     
   2778582794.9552579     
   2713896111.4049525     
   2900059271.5370793     
   2828078189.6211762     
   2763903541.1577015     
   2708082458.4285879     
   2661213533.9045978     
   2807395900.5418086     
   2751447043.4191608     
   2703611648.3088942     
   2664338571.8838649     
   2634101199.7750587     
   2745690351.9397960     
   2704733271.9562721     
   2672016515.3547893     
   2647876483.2579985     
   2632655583.2001657     
   2715926439.7554922     
   2688484045.9170389     
   2669238118.6628885     
   2658415431.6744118     
   2656239525.9703345     
   2713896111.4049525     
   2636336934.9735117     
   2565321097.6134067     
   2501357967.5399146     
   2445006185.1653714     
   2661213533.9045978     
   2597816192.4362502     
   2541913795.4339771     
   2493969819.2838635     
   2454473971.4989510     
   2634101199.7750587     
   2584478189.5587306     
   2543155365.2172790     
   2510513317.8054380     
   2486939406.0391788     
   2632655583.2001657     
   2595778040.7914610     
   2567856114.9131894     
   2549169280.8135066     
   2539992188.3074989     
   2656239525.9703345     
   2630490361.1454883     
   2614237054.9141541     
   2607659315.8642101     
   2610928554.3692317     
   2445006185.1653714     
   2369600696.7308249     
   2303471982.4082680     
   2247388493.9558506     
   2202147274.3022194     
   2454473971.4989510     
   2396599228.4864316     
   2348544200.1216221     
   2310899913.2599072     
   2284243840.9278359     
   2486939406.0391788     
   2445139380.6984677     
   2413411496.3179746     
   2392166394.3517332     
   2381782413.9603591     
   2539992188.3074989     
   2512349106.7318406     
   2494826368.0342736     
   2487680545.3327250     
   2491134674.7014985     
   2610928554.3692317     
   2595252001.1819272     
   2589640700.7723484     
   2594236006.8935094     
   2609153791.7965288     
   2202147274.3022194     
   2146784773.6080894     
   2106295735.4927204     
   2081443484.2388542     
   2072903742.7585325     
   2284243840.9278359     
   2243495017.6935134     
   2216638939.1816554     
   2204125701.4037957     
   2206343990.6444077     
   2381782413.9603591     
   2352732995.8713236     
   2336571003.5273542     
   2333548387.2492852     
   2343888013.3585367     
   2491134674.7014985     
   2471150762.5275726     
   2463140798.3565845     
   2467242907.9706531     
   2483593172.4746032     
   2609153791.7965288     
   2595956519.6445022     
   2593973156.8400173     
   2603284124.2462521     
   2623986606.4790587     
   2072903742.7585325     
   2069153635.3438160     
   2084715107.4263523     
   2122219399.5554323     
   2185476379.1414032     
   2206343990.6444077     
   2191843741.0553231     
   2192382897.8432693     
   2209929720.7754059     
   2247401902.3145962     
   2343888013.3585367     
   2319432688.3983817     
   2306532606.3019295     
   2306592348.8194933     
   2321698443.9951859     
   2483593172.4746032     
   2450938598.6015129     
   2426843090.5616469     
   2412251312.9417562     
   2408538527.3515506     
   2623986606.4790587     
   2585574881.9890771     
   2553028517.0454082     
   2526928400.1264157     
   2508081971.7788038     
   2185476379.1414032     
   2156234946.7335482     
   2146575287.6641195     
   2167029575.8917375     
   2228680498.2169161     
   2247401902.3145962     
   2182731735.9077215     
   2134499889.4577661     
   2112382595.6474609     
   2127326392.9653924     
   2321698443.9951859     
   2224938987.6961889     
   2141523585.2305782     
   2079827425.8659272     
   2050035064.0013242     
   2408538527.3515506     
   2283151667.8710046     
   2168294100.0085435     
   2070715732.7306986     
   1999198340.5884926     
   2508081971.7788038     
   2357580376.5036402     
   2215282822.4584761     
   2086179196.7997594     
   1977159297.9699943     
   2819229471.4805131     
   2807426616.8401093     
   2800782609.9009190     
   2799490585.9319625     
   2803737397.4976869     
   2713693546.8028908     
   2703821829.2429814     
   2702303369.2089009     
   2709369334.0961161     
   2725238921.0283337     
   2646671304.9475174     
   2637556765.8792195     
   2640160291.8032293     
   2654654780.0314078     
   2681202186.0661359     
   2630150084.6610651     
   2618015056.1753449     
   2621124255.2850833     
   2639541318.6382141     
   2673325656.6440201     
   2674503712.0454507     
   2653004839.4098115     
   2650409376.7754822     
   2666717324.1424661     
   2701928681.5107541     
   2803737397.4976869     
   2772620817.7802491     
   2747554235.2354355     
   2728624577.6038785     
   2715926439.7554922     
   2725238921.0283337     
   2699688529.5177021     
   2679951358.0841932     
   2666074140.6113124     
   2658107227.7218699     
   2681202186.0661359     
   2659399186.5384116     
   2643101074.2877069     
   2632326920.9183898     
   2627097130.4807773     
   2673325656.6440201     
   2653452960.4992361     
   2638714350.3396206     
   2629114016.3561544     
   2624656424.5561118     
   2701928681.5107541     
   2682297765.6905098     
   2667379822.0263805     
   2657174850.5183754     
   2651682851.1664863     
   2715926439.7554922     
   2688484045.9170389     
   2669238118.6628885     
   2658415431.6744118     
   2656239525.9703345     
   2658107227.7218699     
   2639029636.4818649     
   2628974672.0453448     
   2628091657.6038766     
   2636524271.5905404     
   2627097130.4807773     
   2614295759.8968778     
   2611314748.0652394     
   2618229713.8179188     
   2635111953.2193341     
   2624656424.5561118     
   2615354265.0403347     
   2616681887.8743935     
   2628660359.2400856     
   2651309258.6127977     
   2651682851.1664863     
   2642552099.5631914     
   2644911458.3664904     
   2658760927.5763679     
   2684100507.1928344     
   2656239525.9703345     
   2630490361.1454883     
   2614237054.9141541     
   2607659315.8642101     
   2610928554.3692317     
   2636524271.5905404     
   2619570508.5113206     
   2611634341.4544282     
   2612809742.7809339     
   2623184610.2865496     
   2635111953.2193341     
   2624743915.7659698     
   2622921400.7179594     
   2629682712.2923646     
   2645063151.3720169     
   2651309258.6127977     
   2645339370.5464940     
   2647478238.5565734     
   2657734562.7896485     
   2676116282.8760948     
   2684100507.1928344     
   2680446812.5571051     
   2684517511.9492836     
   2696312605.3693652     
   2715832092.8173475     
   2610928554.3692317     
   2595252001.1819272     
   2589640700.7723484     
   2594236006.8935094     
   2609153791.7965288     
   2623184610.2865496     
   2613854905.9181199     
   2614546151.5320024     
   2625336649.6148925     
   2646288793.7401147     
   2645063151.3720169     
   2640431838.2643800     
   2645862680.5481219     
   2661390099.2512474     
   2687040866.5601897     
   2676116282.8760948     
   2674446602.0111432     
   2682997796.0425820     
   2701778449.8933821     
   2730795116.2907615     
   2715832092.8173475     
   2715336789.0372224     
   2725362639.3316064     
   2745909643.7004929     
   2776977802.1438961     
   2609153791.7965288     
   2595956519.6445022     
   2593973156.8400173     
   2603284124.2462521     
   2623986606.4790587     
   2646288793.7401147     
   2634938297.9254503     
   2633898149.1487641     
   2643207760.5847039     
   2662917691.3697314     
   2687040866.5601897     
   2677214353.6403437     
   2676976850.1976585     
   2686343532.5678573     
   2705335135.0248790     
   2730795116.2907615     
   2722338195.3522530     
   2722909266.3254752     
   2732511585.7895613     
   2751149917.0751910     
   2776977802.1438961     
   2769888873.1392679     
   2771407863.5903721     
   2781534773.4972010     
   2800269602.8597426     
   2623986606.4790587     
   2585574881.9890771     
   2553028517.0454082     
   2526928400.1264157     
   2508081971.7788038     
   2662917691.3697314     
   2617501295.0068102     
   2577749170.8231215     
   2543992049.5343633     
   2516691903.2201233     
   2705335135.0248790     
   2655007512.1980147     
   2610285579.4068193     
   2571316752.2115302     
   2538307459.2314844     
   2751149917.0751910     
   2698006597.3181453     
   2650553030.4477844     
   2608825850.4028392     
   2572876357.5501122     
   2800269602.8597426     
   2746402403.0989709     
   2698451882.9140348     
   2656418042.3049326     
   2620300881.2716737     
   2508081971.7788038     
   2357580376.5036402     
   2215282822.4584761     
   2086179196.7997594     
   1977159297.9699943     
   2516691903.2201233     
   2348653279.0600286     
   2184193085.3357916     
   2026417451.6374626     
   1879901065.7138555     
   2538307459.2314844     
   2357829174.0648837     
   2177099399.4248981     
   1997592691.2854533     
   1821592216.5051510     
   2572876357.5501122     
   2385211075.5286360     
   2194468948.9234190     
   2001029002.0216279     
   1805496573.6061268     
   2620300881.2716737     
   2430766942.1203122     
   2236443996.0773864     
   2037332043.1428897     
   1833431083.3168750     
   2674503712.0454507     
   2653004839.4098115     
   2650409376.7754822     
   2666717324.1424661     
   2701928681.5107541     
   2630150082.8666377     
   2618015054.8274145     
   2621124254.3755260     
   2639541318.1593480     
   2673325656.5875030     
   2646671301.9730196     
   2637556763.6435366     
   2640160290.2790251     
   2654654779.1909103     
   2681202185.8801370     
   2713693543.2000713     
   2703821826.5370417     
   2702303367.3399510     
   2709369333.0018234     
   2725238920.6440878     
   2819229467.6724391     
   2807426613.9929347     
   2800782607.9047494     
   2799490584.6718917     
   2803737396.8558922     
   2701928681.5107541     
   2682297765.6905098     
   2667379822.0263805     
   2657174850.5183754     
   2651682851.1664863     
   2673325656.5875030     
   2653452960.4525065     
   2638714350.3027363     
   2629114016.3291430     
   2624656424.5389972     
   2681202185.8801370     
   2659399186.3798866     
   2643101074.1583853     
   2632326920.8198390     
   2627097130.4144025     
   2725238920.6440878     
   2699688529.1839738     
   2679951357.8060336     
   2666074140.3934169     
   2658107227.5685515     
   2803737396.8558922     
   2772620817.2143021     
   2747554234.7553034     
   2728624577.2189708     
   2715926439.4746523     
   2651682851.1664863     
   2642552099.5631914     
   2644911458.3664904     
   2658760927.5763679     
   2684100507.1928344     
   2624656424.5389972     
   2615354265.0050044     
   2616681887.8246045     
   2628660359.1797142     
   2651309258.5459652     
   2627097130.4144025     
   2614295759.8031111     
   2611314747.9525838     
   2618229713.6951337     
   2635111953.0955610     
   2658107227.5685515     
   2639029636.2980704     
   2628974671.8455176     
   2628091657.4028754     
   2636524271.4037461     
   2715926439.4746523     
   2688484045.6051950     
   2669238118.3416867     
   2658415431.3661642     
   2656239525.6981406     
   2684100507.1928344     
   2680446812.5571051     
   2684517511.9492836     
   2696312605.3693652     
   2715832092.8173475     
   2651309258.5459652     
   2645339370.5015554     
   2647478238.5246186     
   2657734562.7619247     
   2676116282.8439689     
   2635111953.0955610     
   2624743915.6835594     
   2622921400.6585684     
   2629682712.2379313     
   2645063151.3047886     
   2636524271.4037461     
   2619570508.3868895     
   2611634341.3639579     
   2612809742.6963677     
   2623184610.1801505     
   2656239525.6981406     
   2630490360.9621291     
   2614237054.7805843     
   2607659315.7415156     
   2610928554.2186232     
   2715832092.8173475     
   2715336789.0372224     
   2725362639.3316064     
   2745909643.7004929     
   2776977802.1438961     
   2676116282.8439689     
   2674446601.9925313     
   2682997796.0355110     
   2701778449.8958259     
   2730795116.3006363     
   2645063151.3047886     
   2640431838.2251596     
   2645862680.5329723     
   2661390099.2560606     
   2687040866.5806894     
   2623184610.1801505     
   2613854905.8558850     
   2614546151.5079675     
   2625336649.6227560     
   2646288793.7732673     
   2610928554.2186232     
   2595252001.0938878     
   2589640700.7388210     
   2594236006.9058733     
   2609153791.8455734     
   2776977802.1438961     
   2769888873.1392679     
   2771407863.5903721     
   2781534773.4972010     
   2800269602.8597426     
   2730795116.3006363     
   2722338195.3588104     
   2722909266.3299956     
   2732511585.7933121     
   2751149917.0794168     
   2687040866.5806894     
   2677214353.6540408     
   2676976850.2071242     
   2686343532.5756536     
   2705335135.0335703     
   2646288793.7732673     
   2634938297.9476991     
   2633898149.1641021     
   2643207760.5970893     
   2662917691.3831286     
   2609153791.8455734     
   2595956519.6776381     
   2593973156.8627415     
   2603284124.2640834     
   2623986606.4975743     
   2800269602.8597426     
   2746402403.0989709     
   2698451882.9140348     
   2656418042.3049326     
   2620300881.2716737     
   2751149917.0794168     
   2698006597.3216448     
   2650553030.4506507     
   2608825850.4052148     
   2572876357.5521045     
   2705335135.0335703     
   2655007512.2050281     
   2610285579.4124012     
   2571316752.2159114     
   2538307459.2348933     
   2662917691.3831286     
   2617501295.0174184     
   2577749170.8312960     
   2543992049.5404491     
   2516691903.2244430     
   2623986606.4975743     
   2585574882.0034561     
   2553028517.0561137     
   2526928400.1339178     
   2508081971.7834873     
   2620300881.2716737     
   2430766942.1203122     
   2236443996.0773864     
   2037332043.1428897     
   1833431083.3168750     
   2572876357.5521045     
   2385211075.5301814     
   2194468948.9247093     
   2001029002.0227923     
   1805496573.6074970     
   2538307459.2348933     
   2357829174.0677314     
   2177099399.4275713     
   1997592691.2883945     
   1821592216.5089386     
   2516691903.2244430     
   2348653279.0639930     
   2184193085.3400164     
   2026417451.6426268     
   1879901065.7209721     
   2508081971.7834873     
   2357580376.5085144     
   2215282822.4643135     
   2086179196.8075697     
   1977159297.9811106     
   2819229467.6724391     
   2807426613.9929347     
   2800782607.9047494     
   2799490584.6718917     
   2803737396.8558922     
   2975529155.3638444     
   2938823915.7388897     
   2909282197.1565609     
   2887300170.8300204     
   2873286452.8038316     
   3178426139.5357070     
   3115286137.0544848     
   3060846368.3577676     
   3015699264.6398087     
   2980500411.2227883     
   3426648952.8446975     
   3335177624.4461408     
   3253479973.3804584     
   3182315205.0743818     
   3122587701.5744591     
   3717960518.7475686     
   3595895277.1015882     
   3484264419.9857016     
   3383948794.6105084     
   3296081053.4577160     
   2803737396.8558922     
   2772620817.2143021     
   2747554234.7553034     
   2728624577.2189708     
   2715926439.4746523     
   2873286452.8038316     
   2832592927.3047194     
   2797672033.4039145     
   2768655497.4483590     
   2745690351.8639822     
   2980500411.2227883     
   2928986342.9477668     
   2882847073.3866215     
   2842251961.1411338     
   2807395900.6373739     
   3122587701.5744591     
   3059435810.8435583     
   3001162740.1279540     
   2947960889.1953030     
   2900059271.7933822     
   3296081053.4577160     
   3220839063.8952184     
   3149915472.6694069     
   3083507827.1967754     
   3021860199.9283786     
   2715926439.4746523     
   2688484045.6051950     
   2669238118.3416867     
   2658415431.3661642     
   2656239525.6981406     
   2745690351.8639822     
   2704733271.7801957     
   2672016515.1013532     
   2647876482.9513330     
   2632655582.8657503     
   2807395900.6373739     
   2751447043.3424511     
   2703611648.0834074     
   2664338571.5348454     
   2634101199.3297687     
   2900059271.7933822     
   2828078189.6313868     
   2763903540.9450102     
   2708082458.0183272     
   2661213533.3247223     
   3021860199.9283786     
   2933223067.9829359     
   2851925009.6535912     
   2778582794.4902949     
   2713896110.6928716     
   2656239525.6981406     
   2630490360.9621291     
   2614237054.7805843     
   2607659315.7415156     
   2610928554.2186232     
   2632655582.8657503     
   2595778040.5132122     
   2567856114.6672354     
   2549169280.5753131     
   2539992188.0518417     
   2634101199.3297687     
   2584478189.1565771     
   2543155364.8507113     
   2510513317.4656644     
   2486939405.7160430     
   2661213533.3247223     
   2597816191.8970695     
   2541913794.9455652     
   2493969818.8549380     
   2454473971.1365452     
   2713896110.6928716     
   2636336934.3011799     
   2565321097.0094509     
   2501357967.0320749     
   2445006184.7800460     
   2610928554.2186232     
   2595252001.0938878     
   2589640700.7388210     
   2594236006.9058733     
   2609153791.8455734     
   2539992188.0518417     
   2512349106.5657821     
   2494826367.9463906     
   2487680545.3110981     
   2491134674.7336950     
   2486939405.7160430     
   2445139380.4856067     
   2413411496.1996388     
   2392166394.3116827     
   2381782413.9818521     
   2454473971.1365452     
   2396599228.2509866     
   2348544199.9920931     
   2310899913.2146101     
   2284243840.9445400     
   2445006184.7800460     
   2369600696.4877663     
   2303471982.2803984     
   2247388493.9150524     
   2202147274.3195000     
   2609153791.8455734     
   2595956519.6776381     
   2593973156.8627415     
   2603284124.2640834     
   2623986606.4975743     
   2491134674.7336950     
   2471150762.5464182     
   2463140798.3674483     
   2467242907.9790087     
   2483593172.4860225     
   2381782413.9818521     
   2352732995.8798852     
   2336571003.5283103     
   2333548387.2481866     
   2343888013.3611488     
   2284243840.9445400     
   2243495017.6956267     
   2216638939.1744766     
   2204125701.3930764     
   2206343990.6362319     
   2202147274.3195000     
   2146784773.6072352     
   2106295735.4789152     
   2081443484.2180157     
   2072903742.7372358     
   2623986606.4975743     
   2585574882.0034561     
   2553028517.0561137     
   2526928400.1339178     
   2508081971.7834873     
   2483593172.4860225     
   2450938598.6103067     
   2426843090.5678449     
   2412251312.9453573     
   2408538527.3525538     
   2343888013.3611488     
   2319432688.4005489     
   2306532606.3032088     
   2306592348.8194313     
   2321698443.9933686     
   2206343990.6362319     
   2191843741.0496054     
   2192382897.8391132     
   2209929720.7718530     
   2247401902.3108177     
   2072903742.7372358     
   2069153635.3287394     
   2084715107.4160888     
   2122219399.5485108     
   2185476379.1364584     
   2508081971.7834873     
   2357580376.5085144     
   2215282822.4643135     
   2086179196.8075697     
   1977159297.9811106     
   2408538527.3525538     
   2283151667.8734355     
   2168294100.0132065     
   2070715732.7384899     
   1999198340.6004932     
   2321698443.9933686     
   2224938987.6966877     
   2141523585.2341566     
   2079827425.8733459     
   2050035064.0132189     
   2247401902.3108177     
   2182731735.9067559     
   2134499889.4603488     
   2112382595.6541204     
   2127326392.9762976     
   2185476379.1364584     
   2156234946.7315655     
   2146575287.6657331     
   2167029575.8972216     
   2228680498.2259769     
   3717960518.7475686     
   3595895277.1015882     
   3484264419.9857016     
   3383948794.6105084     
   3296081053.4577160     
   3944513532.7152696     
   3802793489.6914277     
   3669089739.8657627     
   3544325865.7905984     
   3429691745.2619905     
   4199903924.3493886     
   4038472395.5988026     
   3882934585.9738345     
   3734162931.7151551     
   3593287718.3880796     
   4474443793.0059309     
   4294259679.4053144     
   4118152586.3664556     
   3946882402.1906257     
   3781439112.6561313     
   4760595108.5263958     
   4563262575.1782942     
   4368490990.2418585     
   4176897255.1838622     
   3989288871.1115665     
   3296081053.4577160     
   3220839063.8952184     
   3149915472.6694069     
   3083507827.1967754     
   3021860199.9283786     
   3429691745.2619905     
   3346382367.0619831     
   3266293764.8059611     
   3189594644.7987466     
   3116490517.4979577     
   3593287718.3880796     
   3502884748.0910273     
   3414844768.7154579     
   3329294746.2329459     
   3246387906.0154452     
   3781439112.6561313     
   3685161314.1185045     
   3590637138.2173891     
   3497947227.4775672     
   3407189283.8207126     
   3989288871.1115665     
   3888462502.2428222     
   3789020735.8190432     
   3690998102.2356772     
   3594439877.2763648     
   3021860199.9283786     
   2933223067.9829359     
   2851925009.6535912     
   2778582794.4902949     
   2713896110.6928716     
   3116490517.4979577     
   3011856395.2329650     
   2913443492.6351933     
   2821893691.9351063     
   2737963368.6219630     
   3246387906.0154452     
   3125926394.6192861     
   3010492019.0044951     
   2900692125.0391631     
   2797268869.1560144     
   3407189283.8207126     
   3271542466.0174766     
   3139741253.4103322     
   3012311371.5581689     
   2889917957.6458654     
   3594439877.2763648     
   3444533789.2739463     
   3297375959.9759274     
   3153383492.0304575     
   3013103046.6785464     
   2713896110.6928716     
   2636336934.3011799     
   2565321097.0094509     
   2501357967.0320749     
   2445006184.7800460     
   2737963368.6219630     
   2646098285.1168056     
   2559933451.5073900     
   2480015930.1792226     
   2406971341.3814797     
   2797268869.1560144     
   2691247958.7192426     
   2589945611.9930997     
   2493891409.6135230     
   2403716202.3597350     
   2889917957.6458654     
   2770414940.2750020     
   2654602054.6254258     
   2542940410.3642259     
   2436001111.2016783     
   3013103046.6785464     
   2881145010.5745974     
   2751894749.8600621     
   2625711973.9774966     
   2503059659.2393036     
   2445006184.7800460     
   2369600696.4877663     
   2303471982.2803984     
   2247388493.9150524     
   2202147274.3195000     
   2406971341.3814797     
   2314448638.0106869     
   2229870899.1048193     
   2154093092.5666995     
   2088054782.6727116     
   2403716202.3597350     
   2294670466.1499634     
   2191982485.5761409     
   2096480800.1661513     
   2009129548.1881301     
   2436001111.2016783     
   2312065923.1928725     
   2192815577.6397166     
   2078931787.4173751     
   1971249398.5436468     
   2503059659.2393036     
   2366693733.3287463     
   2233478793.3911276     
   2103875994.2028062     
   1978473977.7253287     
   2202147274.3195000     
   2146784773.6072352     
   2106295735.4789152     
   2081443484.2180157     
   2072903742.7372358     
   2088054782.6727116     
   2012858274.9734371     
   1949982346.2682734     
   1900503411.5356848     
   1865448848.5291095     
   2009129548.1881301     
   1912632856.3317962     
   1824900789.0803318     
   1747133741.6104710     
   1680624410.6026888     
   1971249398.5436468     
   1854988582.3631055     
   1743110032.7554581     
   1636539773.5450292     
   1536415143.8524134     
   1978473977.7253287     
   1847531415.0887144     
   1716648394.2608383     
   1586180903.1975029     
   1456647391.5971079     
   2072903742.7372358     
   2069153635.3287394     
   2084715107.4160888     
   2122219399.5485108     
   2185476379.1364584     
   1865448848.5291095     
   1854781284.0417018     
   1867133280.2828517     
   1904714533.4049852     
   1970555538.2505264     
   1680624410.6026888     
   1652061087.0147226     
   1651242995.3481977     
   1680539374.2438362     
   1742557729.5197039     
   1536415143.8524134     
   1475581180.0625446     
   1447446041.3474205     
   1455973072.5191483     
   1504451568.4021111     
   1456647391.5971079     
   1347775386.7237978     
   1273882854.6855674     
   1243086087.6545258     
   1262408567.9436080     
   2185476379.1364584     
   2156234946.7315655     
   2146575287.6657331     
   2167029575.8972216     
   2228680498.2259769     
   1970555538.2505264     
   1968821574.0679727     
   2003625877.9805722     
   2093645804.7327662     
   2257546080.8225250     
   1742557729.5197039     
   1787500607.4466155     
   1884590298.4464977     
   2060732221.3963811     
   2341152822.1941562     
   1504451568.4021111     
   1612987752.4563413     
   1788728142.2901263     
   2066411672.5160673     
   2476233219.1212325     
   1262408567.9436080     
   1446325189.0335879     
   1715475015.4104612     
   2110418814.1076529     
   2663577557.8612118     
   4760595108.5263958     
   4563262575.1782942     
   4368490990.2418585     
   4176897255.1838622     
   3989288871.1115665     
   5082022059.0455971     
   4864467334.5296965     
   4648483034.1746693     
   4434473655.5241251     
   4223020509.0268679     
   5434216762.0302324     
   5196495988.0891523     
   4959549276.8120718     
   4723566072.3871374     
   4488890929.6664305     
   5815463943.6399107     
   5557339633.4995375     
   5299384158.7722368     
   5041580123.3247166     
   4784040562.2248936     
   6224240267.4823980     
   5945202649.9426403     
   5665908699.5995722     
   5386148327.2690001     
   5105817473.4636345     
   3989288871.1115665     
   3888462502.2428222     
   3789020735.8190432     
   3690998102.2356772     
   3594439877.2763648     
   4223020509.0268679     
   4114751424.3806205     
   4007922948.8332267     
   3902566456.7135096     
   3798730362.1106896     
   4488890929.6664305     
   4372222472.3637247     
   4256897521.6566305     
   4142924444.9419088     
   4030336356.1813655     
   4784040562.2248936     
   4657783405.9877768     
   4532642802.5416117     
   4408586952.3766499     
   4285617201.3549356     
   5105817473.4636345     
   4968595342.6195641     
   4832159742.8245821     
   4696424220.0962963     
   4561343868.4753628     
   3594439877.2763648     
   3444533789.2739463     
   3297375959.9759274     
   3153383492.0304575     
   3013103046.6785464     
   3798730362.1106896     
   3634057645.8528113     
   3471237258.3532190     
   3310561536.7463164     
   3152439438.9768553     
   4030336356.1813655     
   3851779221.8932252     
   3674293895.2355337     
   3498049372.9096599     
   3323311718.5278611     
   4285617201.3549356     
   4093915110.3504524     
   3902632190.9103889     
   3711826367.8899083     
   3521631431.7452416     
   4561343868.4753628     
   4357071768.9923964     
   4152690302.0378981     
   3948163508.4096308     
   3743511705.0345626     
   3013103046.6785464     
   2881145010.5745974     
   2751894749.8600621     
   2625711973.9774966     
   2503059659.2393036     
   3152439438.9768553     
   3008691563.5240226     
   2866895520.1437850     
   2727289240.3462591     
   2590197158.4630232     
   3323311718.5278611     
   3169058385.5777030     
   3016150206.1301675     
   2864713654.3025317     
   2714941234.7632732     
   3521631431.7452416     
   3357941424.9692941     
   3195143875.0613976     
   3033275259.2544484     
   2872419677.7589221     
   3743511705.0345626     
   3571192281.9837108     
   3399448146.3818412     
   3228249530.1482654     
   3057600671.3731575     
   2503059659.2393036     
   2366693733.3287463     
   2233478793.3911276     
   2103875994.2028062     
   1978473977.7253287     
   2590197158.4630232     
   2443686076.7510815     
   2299162440.4414716     
   2156928751.8121881     
   2017388879.8555150     
   2714941234.7632732     
   2559977348.3128214     
   2406018672.0897484     
   2253213432.4916592     
   2101773937.2442324     
   2872419677.7589221     
   2710656806.9477916     
   2549153240.4233217     
   2387939490.6868548     
   2227078134.4988952     
   3057600671.3731575     
   2890485803.1006546     
   2723113692.6709824     
   2555442735.1279855     
   2387444442.7987466     
   1978473977.7253287     
   1847531415.0887144     
   1716648394.2608383     
   1586180903.1975029     
   1456647391.5971079     
   2017388879.8555150     
   1880459797.3053043     
   1743803389.7576144     
   1607546623.1650877     
   1471864732.5425587     
   2101773937.2442324     
   1961611773.3453655     
   1822317896.0762837     
   1683920375.9228442     
   1546472492.3253152     
   2227078134.4988952     
   2084732418.7912138     
   1943944611.4292831     
   1804717554.8228033     
   1667123789.3575695     
   2387444442.7987466     
   2242342091.9669819     
   2099356807.7814932     
   1958497822.3728080     
   1819929448.6837246     
   1456647391.5971079     
   1347775386.7237978     
   1273882854.6855674     
   1243086087.6545258     
   1262408567.9436080     
   1471864732.5425587     
   1327769449.6922262     
   1198155836.1680319     
   1087496346.9695454     
   1001684468.6746389     
   1546472492.3253152     
   1396746892.7943292     
   1243491685.1051936     
   1084430938.7291420     
   917530473.98218691     
   1667123789.3575695     
   1551849575.1390252     
   1427503206.6122417     
   1294434650.2166259     
   1158743703.0685773     
   1819929448.6837246     
   1779368424.2364037     
   1735334744.4056344     
   1696436568.5824647     
   1681113314.5176344     
   1262408567.9436080     
   1446325189.0335879     
   1715475015.4104612     
   2110418814.1076529     
   2663577557.8612118     
   1001684468.6746389     
   1164455473.9098620     
   1425277349.2439656     
   1808704198.2913430     
   2334794427.3429089     
   917530473.98218691     
   962975842.11107469     
   1144844839.2144620     
   1476452305.4838433     
   1957448325.1036084     
   1158743703.0685773     
   1008343318.0687308     
   985174290.05613542     
   1161459637.9723563     
   1544052777.5743906     
   1681113314.5176344     
   1383646795.3425221     
   1129415189.7948232     
   1010103141.9509207     
   1152908872.3713062     
 </DataArray>
 <DataArray  type="Float64" Name="strain" NumberOfComponents="3" format="ascii">
  0.10402497509161135       -2.9598067180975018E-002   5.0594584237537710E-003
   9.9246509414374851E-002  -2.8869834016137630E-002   3.9627147064736912E-003
   9.4468043737138574E-002  -2.8060852347774334E-002   3.2507961640628746E-003
   8.9689578059902186E-002  -2.7171122175885049E-002   2.9237027965210438E-003
   8.4911112382665799E-002  -2.6200643500469356E-002   2.9814346038484763E-003
   9.6967388222524042E-002  -2.7843771577126697E-002   9.8788419271066408E-003
   9.2556142493865290E-002  -2.7138634548298513E-002   9.1847269714584456E-003
   8.8144896765206704E-002  -2.6359671417985869E-002   8.8402267380967015E-003
   8.3733651036548035E-002  -2.5506882186188566E-002   8.8453412270209919E-003
   7.9322405307889365E-002  -2.4580266852906707E-002   9.2000704382316778E-003
   9.0252748038854524E-002  -2.6089475973278486E-002   1.4678590495471489E-002
   8.6173511806190650E-002  -2.5407435080459340E-002   1.4380181899413508E-002
   8.2094275573526998E-002  -2.4658490488197127E-002   1.4396177573059221E-002
   7.8015039340863124E-002  -2.3842642196492028E-002   1.4726577516407907E-002
   7.3935803108199361E-002  -2.2959890205344058E-002   1.5371381729460093E-002
   8.3881054540602989E-002  -2.4335180369430165E-002   1.9458704128848342E-002
   8.0098617351351167E-002  -2.3676235612620070E-002   1.9549079490338885E-002
   7.6316180162099345E-002  -2.2957309558408412E-002   1.9918648668949990E-002
   7.2533742972847551E-002  -2.2178402206795740E-002   2.0567411664681706E-002
   6.8751305783595784E-002  -2.1339513557781520E-002   2.1495368477533978E-002
   7.7852307727769299E-002  -2.2580884765581899E-002   2.4219182827236674E-002
   7.4331459129346633E-002  -2.1945036144780772E-002   2.4691419744234278E-002
   7.0810610530923968E-002  -2.1256128628619808E-002   2.5407640025769562E-002
   6.7289761932501302E-002  -2.0514162217099258E-002   2.6367843671842583E-002
   6.3768913334078609E-002  -1.9719136910218871E-002   2.7572030682453286E-002
   8.4911112382665799E-002  -2.6200643500469356E-002   2.9814346038484763E-003
   8.2707155131671428E-002  -2.5208161711756494E-002   2.3558707398466661E-003
   8.0503197880677002E-002  -2.4252422199976115E-002   1.9465606002485591E-003
   7.8299240629682576E-002  -2.3333424965127823E-002   1.7535041850530175E-003
   7.6095283378688205E-002  -2.2451170007211751E-002   1.7767014942610126E-003
   7.9322405307889365E-002  -2.4580266852906707E-002   9.2000704382316778E-003
   7.7313938501301499E-002  -2.3635881383662266E-002   8.7183341160741168E-003
   7.5305471694713577E-002  -2.2729781743977162E-002   8.4113249583266103E-003
   7.3297004888125739E-002  -2.1861967933851326E-002   8.2790429649889918E-003
   7.1288538081537789E-002  -2.1032439953284965E-002   8.3214881360609838E-003
   7.3935803108199361E-002  -2.2959890205344058E-002   1.5371381729460093E-002
   7.2081300186024724E-002  -2.2063601055567789E-002   1.5031929396519483E-002
   7.0226797263850144E-002  -2.1207141287978223E-002   1.4825677667995571E-002
   6.8372294341675535E-002  -2.0390510902574942E-002   1.4752626543888328E-002
   6.6517791419500955E-002  -1.9613709899358345E-002   1.4812776024197810E-002
   6.8751305783595784E-002  -2.1339513557781520E-002   2.1495368477533978E-002
   6.7009240185841215E-002  -2.0491320727473381E-002   2.1296656581183168E-002
   6.5267174588086674E-002  -1.9684500831979056E-002   2.1189618729255903E-002
   6.3525108990332119E-002  -1.8919053871298615E-002   2.1174254921751769E-002
   6.1783043392577577E-002  -1.8194979845431641E-002   2.1250565158671096E-002
   6.3768913334078609E-002  -1.9719136910218871E-002   2.7572030682453286E-002
   6.2097758500750888E-002  -1.8919040399378945E-002   2.7512515670064880E-002
   6.0426603667423182E-002  -1.8161860375980193E-002   2.7503148142106748E-002
   5.8755448834095440E-002  -1.7447596840021971E-002   2.7543928098578863E-002
   5.7084294000767755E-002  -1.6776249791504827E-002   2.7634855539481196E-002
   7.6095283378688205E-002  -2.2451170007211751E-002   1.7767014942610126E-003
   7.2660451401666937E-002  -2.1577330142947493E-002   1.3580841619251771E-003
   6.9225619424645779E-002  -2.0683578189055002E-002   1.1613930907884429E-003
   6.5790787447624566E-002  -1.9769914145534341E-002   1.1866282808500606E-003
   6.2355955470603353E-002  -1.8836338012385934E-002   1.4337897321105020E-003
   7.1288538081537789E-002  -2.1032439953284965E-002   8.3214881360609838E-003
   6.8071604396351737E-002  -2.0211769918160483E-002   7.9550824836268630E-003
   6.4854670711165657E-002  -1.9370529944361281E-002   7.8025471536640745E-003
   6.1637737025979564E-002  -1.8508720031885834E-002   7.8638821461728958E-003
   5.8420803340793470E-002  -1.7626340180736277E-002   8.1390874611529940E-003
   6.6517791419500955E-002  -1.9613709899358345E-002   1.4812776024197810E-002
   6.3510700087422725E-002  -1.8846209693373750E-002   1.4499239900711919E-002
   6.0503608755344468E-002  -1.8057481699666991E-002   1.4391518160970854E-002
   5.7496517423266225E-002  -1.7247525918237989E-002   1.4489610804973400E-002
   5.4489426091187981E-002  -1.6416342349086621E-002   1.4793517832720482E-002
   6.1783043392577577E-002  -1.8194979845431641E-002   2.1250565158671096E-002
   5.8977738474879957E-002  -1.7480649468586879E-002   2.0990556413181163E-002
   5.6172433557182246E-002  -1.6744433454972653E-002   2.0928306112708097E-002
   5.3367128639484590E-002  -1.5986331804589589E-002   2.1063814257252199E-002
   5.0561823721786865E-002  -1.5206344517436743E-002   2.1397080846812855E-002
   5.7084294000767755E-002  -1.6776249791504827E-002   2.7634855539481196E-002
   5.4472719558723376E-002  -1.6115089243799924E-002   2.7429032021033750E-002
   5.1861145116678997E-002  -1.5431385210278536E-002   2.7412911008876023E-002
   4.9249570674634618E-002  -1.4725137690940998E-002   2.7586492503008236E-002
   4.6637996232590240E-002  -1.3996346685787087E-002   2.7949776503430002E-002
   6.2355955470603353E-002  -1.8836338012385934E-002   1.4337897321105020E-003
   5.9502156236171277E-002  -1.7910795321534612E-002   1.0947487851038495E-003
   5.6648357001739147E-002  -1.7021231604904652E-002   9.0853978178284667E-004
   5.3794557767307044E-002  -1.6167646862497026E-002   8.7516272214607782E-004
   5.0940758532874941E-002  -1.5350041094311484E-002   9.9461760619456996E-004
   5.8420803340793470E-002  -1.7626340180736277E-002   8.1390874611529940E-003
   5.5718980011814079E-002  -1.6745980082250145E-002   7.7726711470061383E-003
   5.3017156682834743E-002  -1.5890229427767438E-002   7.5573747000796110E-003
   5.0315333353855324E-002  -1.5059088217287471E-002   7.4931981203730236E-003
   4.7613510024875960E-002  -1.4252556450811360E-002   7.5801414078873197E-003
   5.4489426091187981E-002  -1.6416342349086621E-002   1.4793517832720482E-002
   5.1937866591196702E-002  -1.5581164842966289E-002   1.4411095681651914E-002
   4.9386307091205381E-002  -1.4759227250630225E-002   1.4178081321338687E-002
   4.6834747591214067E-002  -1.3950529572078249E-002   1.4094474751781536E-002
   4.4283188091222780E-002  -1.3155071807310681E-002   1.4160275972980196E-002
   5.0561823721786865E-002  -1.5206344517436743E-002   2.1397080846812855E-002
   4.8158815974319008E-002  -1.4416349603682238E-002   2.1010022389041448E-002
   4.5755808226851116E-002  -1.3628225073492789E-002   2.0770659645561067E-002
   4.3352800479383218E-002  -1.2841970926868861E-002   2.0678992616371891E-002
   4.0949792731915319E-002  -1.2057587163810279E-002   2.0735021301473755E-002
   4.6637996232590240E-002  -1.3996346685787087E-002   2.7949776503430002E-002
   4.4381828161181136E-002  -1.3251534364398354E-002   2.7569451269174816E-002
   4.2125660089771977E-002  -1.2497222896355631E-002   2.7335109672745939E-002
   3.9869492018362790E-002  -1.1733412281659736E-002   2.7246751714143591E-002
   3.7613323946953714E-002  -1.0960102520309878E-002   2.7304377393367663E-002
   5.0940758532874941E-002  -1.5350041094311484E-002   9.9461760619456996E-004
   4.8153014959547824E-002  -1.4537281581773587E-002   5.8698781006272238E-004
   4.5365271386220651E-002  -1.3698235606306675E-002   2.8386438676031300E-004
   4.2577527812893479E-002  -1.2832903167912302E-002   8.5247336288230002E-005
   3.9789784239566361E-002  -1.1941284266589580E-002  -8.8633413548588891E-006
   4.7613510024875960E-002  -1.4252556450811360E-002   7.5801414078873197E-003
   4.4929096538150359E-002  -1.3451446584116011E-002   7.1882879535569710E-003
   4.2244683051424703E-002  -1.2636571072980884E-002   6.8985882995999392E-003
   3.9560269564699047E-002  -1.1807929917405230E-002   6.7110424460163076E-003
   3.6875856077973446E-002  -1.0965523117389964E-002   6.6256503928058263E-003
   4.4283188091222780E-002  -1.3155071807310681E-002   1.4160275972980196E-002
   4.1699752118642214E-002  -1.2365611586459380E-002   1.3771678041963720E-002
   3.9116316146061703E-002  -1.1574906539655316E-002   1.3482881338864050E-002
   3.6532880173481191E-002  -1.0782956666899046E-002   1.3293885863681423E-002
   3.3949444200900653E-002  -9.9897619681905692E-003   1.3204691616415742E-002
   4.0949792731915319E-002  -1.2057587163810279E-002   2.0735021301473755E-002
   3.8464981701023547E-002  -1.1279776588802276E-002   2.0337158075283190E-002
   3.5980170670131748E-002  -1.0513242006329526E-002   2.0036743504553117E-002
   3.3495359639239934E-002  -9.7579834163924184E-003   1.9833777589283216E-002
   3.1010548608348176E-002  -9.0140008189910636E-003   1.9728260329474653E-002
   3.7613323946953714E-002  -1.0960102520309878E-002   2.7304377393367663E-002
   3.5224785285294213E-002  -1.0193941591145061E-002   2.6884728053515217E-002
   3.2836246623634741E-002  -9.4515774730037916E-003   2.6560174796666947E-002
   3.0447707961975254E-002  -8.7330101658860265E-003   2.6330717622822408E-002
   2.8059169300315712E-002  -8.0382396697916692E-003   2.6196356531982379E-002
   3.9789784239566361E-002  -1.1941284266589580E-002  -8.8633413548588891E-006
   3.7394215246698836E-002  -1.1116216094546938E-002  -2.7682766886250043E-004
   3.4998646253831200E-002  -1.0450535843993747E-002  -4.6727312786265518E-004
   3.2603077260963620E-002  -9.9442435149279668E-003  -5.8019971835776563E-004
   3.0207508268096039E-002  -9.5973391073520542E-003  -6.1560744034561132E-004
   3.6875856077973446E-002  -1.0965523117389964E-002   6.6256503928058263E-003
   3.4541568097942121E-002  -1.0168407282760361E-002   6.1970967457978254E-003
   3.2207280117910714E-002  -9.4756390233446397E-003   5.8135862559562934E-003
   2.9872992137879320E-002  -8.8872183391410370E-003   5.4751189232803699E-003
   2.7538704157847982E-002  -8.4031452301502885E-003   5.1816947477711928E-003
   3.3949444200900653E-002  -9.9897619681905692E-003   1.3204691616415742E-002
   3.1643961522365260E-002  -9.2205984709745059E-003   1.2670588996182841E-002
   2.9338478843829868E-002  -8.5007422026955048E-003   1.2149053821775863E-002
   2.7032996165294518E-002  -7.8301931633534341E-003   1.1640086093194765E-002
   2.4727513486759140E-002  -7.2089513529488558E-003   1.1143685810439563E-002
   3.1010548608348176E-002  -9.0140008189910636E-003   1.9728260329474653E-002
   2.8701395519968434E-002  -8.2727896591880679E-003   1.9143649082292491E-002
   2.6392242431588692E-002  -7.5258453820466059E-003   1.8539129569596295E-002
   2.4083089343209005E-002  -6.7731679875661678E-003   1.7914701791385493E-002
   2.1773936254829214E-002  -6.0147574757469235E-003   1.7270365747660402E-002
   2.8059169300315712E-002  -8.0382396697916692E-003   2.6196356531982379E-002
   2.5713870090751489E-002  -7.3249808474017963E-003   2.5616277004126942E-002
   2.3368570881187212E-002  -6.5509485613974849E-003   2.4983813499416918E-002
   2.1023271671622906E-002  -5.7161428117786239E-003   2.4298966017852530E-002
   1.8677972462058656E-002  -4.8205635985454354E-003   2.3561734559433001E-002
   3.0207508268096039E-002  -9.5973391073520542E-003  -6.1560744034561132E-004
   2.9599799448752129E-002  -9.1273474347929318E-003  -3.7119109161865005E-004
   2.8992090629408274E-002  -8.2517933107797981E-003  -1.8056832905423148E-003
   2.8384381810064446E-002  -6.9706767353126114E-003  -4.9190840371149402E-003
   2.7776672990720508E-002  -5.2839977083913858E-003  -9.7113933313379697E-003
   2.7538704157847982E-002  -8.4031452301502885E-003   5.1816947477711928E-003
   2.5520831236013397E-002  -7.8667687288767052E-003   5.8597273864329225E-003
   2.3502958314178757E-002  -7.1214378678226553E-003   5.3963403677638744E-003
   2.1485085392344089E-002  -6.1671526469898735E-003   3.7915336917627995E-003
   1.9467212470509532E-002  -5.0039130663765974E-003   1.0453073584302253E-003
   2.4727513486759140E-002  -7.2089513529488558E-003   1.1143685810439563E-002
   2.1836965352752175E-002  -6.6061900229599790E-003   1.2058726647362406E-002
   1.8946417218745334E-002  -5.9910824248657069E-003   1.2369836717272070E-002
   1.6055869084738418E-002  -5.3636285586662405E-003   1.2077016020168932E-002
   1.3165320950731529E-002  -4.7238284243624751E-003   1.1180264556052144E-002
   2.1773936254829214E-002  -6.0147574757469235E-003   1.7270365747660402E-002
   1.8548201798968565E-002  -5.3456113170431696E-003   1.8225806691169313E-002
   1.5322467343107864E-002  -4.8607269819086613E-003   1.9114805757983959E-002
   1.2096732887247249E-002  -4.5601044703434991E-003   1.9937362948103967E-002
   8.8709984313865148E-003  -4.4437437823473536E-003   2.0693478261529313E-002
   1.8677972462058656E-002  -4.8205635985454354E-003   2.3561734559433001E-002
   1.5654540574662590E-002  -4.0850326111270818E-003   2.4360967517853882E-002
   1.2631108687266551E-002  -3.7303715389516434E-003   2.5631247489899145E-002
   9.6076767998704848E-003  -3.7565803820207647E-003   2.7372574475567929E-002
   6.5842449124744462E-003  -4.1636591403332313E-003   2.9584948474860373E-002
   2.7776672990720508E-002  -5.2839977083913858E-003  -9.7113933313379697E-003
   2.3351281808835833E-002  -4.2066240423792589E-003  -4.1848035872471545E-003
   1.8925890626951158E-002  -4.7534235496405897E-003   2.6054776219617271E-003
   1.4500499445066595E-002  -6.9243962301733519E-003   1.0659450296289008E-002
   1.0075108263181809E-002  -1.0719542083980294E-002   1.9977114435734578E-002
   1.9467212470509532E-002  -5.0039130663765974E-003   1.0453073584302253E-003
   1.6233194617392643E-002  -4.6914480517756818E-003   6.7398096340651747E-003
   1.2999176764275755E-002  -6.2894865289775392E-003   1.3553367102117186E-002
   9.7651589111588666E-003  -9.7980284979836685E-003   2.1485979762586371E-002
   6.5311410580419782E-003  -1.5217073958792682E-002   3.0537647615472618E-002
   1.3165320950731529E-002  -4.7238284243624751E-003   1.1180264556052144E-002
   1.0978040153681173E-002  -5.1762720611722157E-003   1.6756349044701246E-002
   8.7907593566308728E-003  -7.8255495083156545E-003   2.3306852453065907E-002
   6.6034785595804890E-003  -1.2671660765793555E-002   3.0831774781146543E-002
   4.4161977625301607E-003  -1.9714605833604626E-002   3.9331116028943125E-002
   8.8709984313865148E-003  -4.4437437823473536E-003   2.0693478261529313E-002
   7.5858184177014509E-003  -5.6610960705682500E-003   2.5864814644661199E-002
   6.3006384040165606E-003  -9.3616124876531870E-003   3.1865933674808236E-002
   5.0154583903316285E-003  -1.5545293033602990E-002   3.8696835351969723E-002
   3.7302783766465092E-003  -2.4212137708416792E-002   4.6357519676146208E-002
   6.5842449124744462E-003  -4.1636591403332313E-003   2.9584948474860373E-002
   6.0565294094537259E-003  -6.1459200799649505E-003   3.4065206433945283E-002
   5.5288139064328667E-003  -1.0897675466990803E-002   3.9230610767343521E-002
   5.0010984034120354E-003  -1.8418925301412557E-002   4.5081161475055781E-002
   4.4733829003913428E-003  -2.8709669583228958E-002   5.1616858557081091E-002
   7.7852307727769299E-002  -2.2580884765581899E-002   2.4219182827236674E-002
   7.4331459129346633E-002  -2.1945036144780772E-002   2.4691419744234278E-002
   7.0810610530923968E-002  -2.1256128628619808E-002   2.5407640025769562E-002
   6.7289761932501302E-002  -2.0514162217099258E-002   2.6367843671842583E-002
   6.3768913334078609E-002  -1.9719136910218871E-002   2.7572030682453286E-002
   7.1827920847717469E-002  -2.0679844340604658E-002   3.1082162019178128E-002
   6.8572931891970335E-002  -2.0090474591721197E-002   3.1288335693916203E-002
   6.5317942936223214E-002  -1.9461589139283059E-002   3.1782245289468075E-002
   6.2062953980476045E-002  -1.8793187983290376E-002   3.2563890805832996E-002
   5.8807965024728903E-002  -1.8085271123743057E-002   3.3633272243011436E-002
   6.5469307147811295E-002  -1.8778803915627473E-002   3.7905433935104205E-002
   6.2523930391015309E-002  -1.8235913038661594E-002   3.7832001175778313E-002
   5.9578553634219392E-002  -1.7667049649946365E-002   3.8090056893541002E-002
   5.6633176877423475E-002  -1.7072213749481605E-002   3.8679601088393037E-002
   5.3687800120627426E-002  -1.6451405337267355E-002   3.9600633760333917E-002
   5.8776466628050889E-002  -1.6877763490650260E-002   4.4688998575015432E-002
   5.6184454626481799E-002  -1.6381351485602061E-002   4.4322416189819781E-002
   5.3592442624912626E-002  -1.5872510160609615E-002   4.4331074837988801E-002
   5.1000430623343515E-002  -1.5351239515672722E-002   4.4714974519522520E-002
   4.8408418621774391E-002  -1.4817539550791681E-002   4.5474115234420888E-002
   5.1749399288436138E-002  -1.4976723065673048E-002   5.1432855938911504E-002
   4.9554504598369492E-002  -1.4526789932542472E-002   5.0759580736041254E-002
   4.7359609908302902E-002  -1.4077970671272880E-002   5.0505299122811181E-002
   4.5164715218236257E-002  -1.3630265281863996E-002   5.0670011099221299E-002
   4.2969820528169639E-002  -1.3183673764315895E-002   5.1253716665272064E-002
   6.3768913334078609E-002  -1.9719136910218871E-002   2.7572030682453286E-002
   6.2097758500750888E-002  -1.8919040399378945E-002   2.7512515670064880E-002
   6.0426603667423182E-002  -1.8161860375980193E-002   2.7503148142106748E-002
   5.8755448834095440E-002  -1.7447596840021971E-002   2.7543928098578863E-002
   5.7084294000767755E-002  -1.6776249791504827E-002   2.7634855539481196E-002
   5.8807965024728903E-002  -1.8085271123743057E-002   3.3633272243011436E-002
   5.7202144348115602E-002  -1.7370586652319553E-002   3.3395278824534191E-002
   5.5596323671502287E-002  -1.6681882660698151E-002   3.3237806235055498E-002
   5.3990502994889000E-002  -1.6019159148878956E-002   3.3160854474575417E-002
   5.2384682318275727E-002  -1.5382416116862030E-002   3.3164423543094068E-002
   5.3687800120627426E-002  -1.6451405337267355E-002   3.9600633760333917E-002
   5.2177686945297057E-002  -1.5822132905260120E-002   3.9201097943406447E-002
   5.0667573769966667E-002  -1.5201904945416331E-002   3.8912456300046014E-002
   4.9157460594636285E-002  -1.4590721457736055E-002   3.8734708830252727E-002
   4.7647347419305847E-002  -1.3988582442219122E-002   3.8667855534026518E-002
   4.8408418621774391E-002  -1.4817539550791681E-002   4.5474115234420888E-002
   4.7024386292295321E-002  -1.4273679158200651E-002   4.4929973026681766E-002
   4.5640353962816300E-002  -1.3721927230134455E-002   4.4527098337078158E-002
   4.4256321633337252E-002  -1.3162283766593083E-002   4.4265491165610210E-002
   4.2872289303858217E-002  -1.2594748767576380E-002   4.4145151512277825E-002
   4.2969820528169639E-002  -1.3183673764315895E-002   5.1253716665272064E-002
   4.1742242389110396E-002  -1.2725225411141294E-002   5.0581904074360085E-002
   4.0514664250051166E-002  -1.2241949514852621E-002   5.0081732346152236E-002
   3.9287086110991930E-002  -1.1733846075450065E-002   4.9753201480648476E-002
   3.8059507971932693E-002  -1.1200915092933417E-002   4.9596311477848543E-002
   5.7084294000767755E-002  -1.6776249791504827E-002   2.7634855539481196E-002
   5.4472719558723376E-002  -1.6115089243799924E-002   2.7429032021033750E-002
   5.1861145116678997E-002  -1.5431385210278536E-002   2.7412911008876023E-002
   4.9249570674634618E-002  -1.4725137690940998E-002   2.7586492503008236E-002
   4.6637996232590240E-002  -1.3996346685787087E-002   2.7949776503430002E-002
   5.2384682318275727E-002  -1.5382416116862030E-002   3.3164423543094068E-002
   4.9966152185406565E-002  -1.4750044490299707E-002   3.2944109188409232E-002
   4.7547622052537444E-002  -1.4100435194844690E-002   3.2920180945785069E-002
   4.5129091919668331E-002  -1.3433588230496944E-002   3.3092638815221793E-002
   4.2710561786799245E-002  -1.2749503597256462E-002   3.3461482796719233E-002
   4.7647347419305847E-002  -1.3988582442219122E-002   3.8667855534026518E-002
   4.5428545201383168E-002  -1.3384999736799422E-002   3.8427744526180044E-002
   4.3209742983460461E-002  -1.2769485179410678E-002   3.8390703236165849E-002
   4.0990940765537741E-002  -1.2142038770052724E-002   3.8556731663983643E-002
   3.8772138547615034E-002  -1.1502660508725837E-002   3.8925829809633272E-002
   4.2872289303858217E-002  -1.2594748767576380E-002   4.4145151512277825E-002
   4.0859898606653088E-002  -1.2019954983299171E-002   4.3879938034346574E-002
   3.8847507909447979E-002  -1.1438535163976693E-002   4.3824477880018524E-002
   3.6835117212242877E-002  -1.0850489309608698E-002   4.3978771049293784E-002
   3.4822726515037802E-002  -1.0255817420195101E-002   4.4342817542171967E-002
   3.8059507971932693E-002  -1.1200915092933417E-002   4.9596311477848543E-002
   3.6260212401216380E-002  -1.0654910229798864E-002   4.9300689712908796E-002
   3.4460916830500038E-002  -1.0107585148542569E-002   4.9221504877343225E-002
   3.2661621259783710E-002  -9.5589398491644426E-003   4.9358756971152190E-002
   3.0862325689067382E-002  -9.0089743316645876E-003   4.9712445994335663E-002
   4.6637996232590240E-002  -1.3996346685787087E-002   2.7949776503430002E-002
   4.4381828161181136E-002  -1.3251534364398354E-002   2.7569451269174816E-002
   4.2125660089771977E-002  -1.2497222896355631E-002   2.7335109672745939E-002
   3.9869492018362790E-002  -1.1733412281659736E-002   2.7246751714143591E-002
   3.7613323946953714E-002  -1.0960102520309878E-002   2.7304377393367663E-002
   4.2710561786799245E-002  -1.2749503597256462E-002   3.3461482796719233E-002
   4.0602827568554212E-002  -1.2051988775508921E-002   3.3082179911796211E-002
   3.8495093350309262E-002  -1.1344851245639789E-002   3.2853761095375050E-002
   3.6387359132064298E-002  -1.0628091007649446E-002   3.2776226347455584E-002
   3.4279624913819279E-002  -9.9017080615376174E-003   3.2849575668038311E-002
   3.8772138547615034E-002  -1.1502660508725837E-002   3.8925829809633272E-002
   3.6817738613209680E-002  -1.0852443186619681E-002   3.8547672835510180E-002
   3.4863338678804354E-002  -1.0192479594924114E-002   3.8325300360564418E-002
   3.2908938744398993E-002  -9.5227697336393233E-003   3.8258712384795959E-002
   3.0954538809993673E-002  -8.8433136027653569E-003   3.8347908908204914E-002
   3.4822726515037802E-002  -1.0255817420195101E-002   4.4342817542171967E-002
   3.3026561295147472E-002  -9.6528975977302894E-003   4.3965930040316792E-002
   3.1230396075257204E-002  -9.0401079442084670E-003   4.3749727468314202E-002
   2.9434230855366884E-002  -8.4174484596292835E-003   4.3694209826164579E-002
   2.7638065635476595E-002  -7.7849191439929855E-003   4.3799377113867777E-002
   3.0862325689067382E-002  -9.0089743316645876E-003   4.9712445994335663E-002
   2.9229295614367656E-002  -8.4533520088411196E-003   4.9336951526215922E-002
   2.7596265539667847E-002  -7.8877362934925976E-003   4.9127042418624589E-002
   2.5963235464968121E-002  -7.3121271856189940E-003   4.9082718671561415E-002
   2.4330205390268339E-002  -6.7265246852208360E-003   4.9203980285026594E-002
   3.7613323946953714E-002  -1.0960102520309878E-002   2.7304377393367663E-002
   3.5224785285294213E-002  -1.0193941591145061E-002   2.6884728053515217E-002
   3.2836246623634741E-002  -9.4515774730037916E-003   2.6560174796666947E-002
   3.0447707961975254E-002  -8.7330101658860265E-003   2.6330717622822408E-002
   2.8059169300315712E-002  -8.0382396697916692E-003   2.6196356531982379E-002
   3.4279624913819279E-002  -9.9017080615376174E-003   3.2849575668038311E-002
   3.1998353893479214E-002  -9.1782728254841128E-003   3.2431053346179017E-002
   2.9717082873139136E-002  -8.4703557176687844E-003   3.2131970223954254E-002
   2.7435811852799079E-002  -7.7779567380915730E-003   3.1952326301364242E-002
   2.5154540832458994E-002  -7.1010758867525725E-003   3.1892121578409094E-002
   3.0954538809993673E-002  -8.8433136027653569E-003   3.8347908908204914E-002
   2.8804878547603593E-002  -8.1626040598228866E-003   3.7938792287123893E-002
   2.6655218285213451E-002  -7.4891339623335551E-003   3.7673457982308506E-002
   2.4505558022823375E-002  -6.8229033102968975E-003   3.7551905993758253E-002
   2.2355897760433285E-002  -6.1639121037133093E-003   3.7574136321473273E-002
   2.7638065635476595E-002  -7.7849191439929855E-003   4.3799377113867777E-002
   2.5644359247667097E-002  -7.1469352941619102E-003   4.3407944876350649E-002
   2.3650652859857596E-002  -6.5079122069984369E-003   4.3184638071729446E-002
   2.1656946472048060E-002  -5.8678498825025550E-003   4.3129456700003996E-002
   1.9663240084238601E-002  -5.2267483206740739E-003   4.3242400761174749E-002
   2.4330205390268339E-002  -6.7265246852208360E-003   4.9203980285026594E-002
   2.2516795993670013E-002  -6.1312665285006562E-003   4.8838511113858785E-002
   2.0703386597071619E-002  -5.5266904516632631E-003   4.8665510492217068E-002
   1.8889977200473300E-002  -4.9127964547078101E-003   4.8684978420102165E-002
   1.7076567803874926E-002  -4.2895845376349495E-003   4.8896914897513244E-002
   2.8059169300315712E-002  -8.0382396697916692E-003   2.6196356531982379E-002
   2.5713870090751489E-002  -7.3249808474017963E-003   2.5616277004126942E-002
   2.3368570881187212E-002  -6.5509485613974849E-003   2.4983813499416918E-002
   2.1023271671622906E-002  -5.7161428117786239E-003   2.4298966017852530E-002
   1.8677972462058656E-002  -4.8205635985454354E-003   2.3561734559433001E-002
   2.5154540832458994E-002  -7.1010758867525725E-003   3.1892121578409094E-002
   2.2795145489071217E-002  -6.4239285603110430E-003   3.1494727560444691E-002
   2.0435750145683398E-002  -5.7307301554265222E-003   3.1121525251688209E-002
   1.8076354802295552E-002  -5.0214806720990796E-003   3.0772514652139080E-002
   1.5716959458907803E-002  -4.2961801103288400E-003   3.0447695761797677E-002
   2.2355897760433285E-002  -6.1639121037133093E-003   3.7574136321473273E-002
   2.0058981969284295E-002  -5.5228762732202064E-003   3.7314705428228290E-002
   1.7762066178135277E-002  -4.9105117494556705E-003   3.7156041930253458E-002
   1.5465150386986308E-002  -4.3268185324197572E-003   3.7098145827548570E-002
   1.3168234595837325E-002  -3.7717966221121335E-003   3.7141017120113667E-002
   1.9663240084238601E-002  -5.2267483206740739E-003   4.3242400761174749E-002
   1.7505379531390745E-002  -4.6218239861295779E-003   4.3076210607477725E-002
   1.5347518978542932E-002  -4.0902933434849853E-003   4.3087363535113166E-002
   1.3189658425695095E-002  -3.6321563927401573E-003   4.3275859544081058E-002
   1.1031797872847318E-002  -3.2474131338953161E-003   4.3641698634380964E-002
   1.7076567803874926E-002  -4.2895845376349495E-003   4.8896914897513244E-002
   1.5134338175390616E-002  -3.7207716990386164E-003   4.8779243098193037E-002
   1.3192108546906292E-002  -3.2700749375138560E-003   4.8915490066267220E-002
   1.1249878918421989E-002  -2.9374942530608905E-003   4.9305655801736431E-002
   9.3076492899376584E-003  -2.7230296456788317E-003   4.9949740304599866E-002
   1.8677972462058656E-002  -4.8205635985454354E-003   2.3561734559433001E-002
   1.5654540574662590E-002  -4.0850326111270818E-003   2.4360967517853882E-002
   1.2631108687266551E-002  -3.7303715389516434E-003   2.5631247489899145E-002
   9.6076767998704848E-003  -3.7565803820207647E-003   2.7372574475567929E-002
   6.5842449124744462E-003  -4.1636591403332313E-003   2.9584948474860373E-002
   1.5716959458907803E-002  -4.2961801103288400E-003   3.0447695761797677E-002
   1.3146714088820621E-002  -3.7814901353136476E-003   3.1232285280385685E-002
   1.0576468718733412E-002  -3.7040724122521518E-003   3.2452200819967109E-002
   8.0062233486462436E-003  -4.0639269411441095E-003   3.4107442380542655E-002
   5.4359779785590201E-003  -4.8610537219895278E-003   3.6198009962111977E-002
   1.3168234595837325E-002  -3.7717966221121335E-003   3.7141017120113667E-002
   1.1015454750428977E-002  -3.4779476595005188E-003   3.7854560862158410E-002
   8.8626749050205803E-003  -3.6777732855522022E-003   3.8967709632567002E-002
   6.7098950596122323E-003  -4.3712735002674509E-003   4.0480463431339299E-002
   4.5571152142038912E-003  -5.5584483036459909E-003   4.2392822258475488E-002
   1.1031797872847318E-002  -3.2474131338953161E-003   4.3641698634380964E-002
   9.2607625594877396E-003  -3.1744051836873483E-003   4.4227794263172963E-002
   7.4897272461281646E-003  -3.6514741588522595E-003   4.5177773927698700E-002
   5.7186919327685982E-003  -4.6786200593906830E-003   4.6491637627957799E-002
   3.9476566194090630E-003  -6.2558428853023706E-003   4.8169385363951163E-002
   9.3076492899376584E-003  -2.7230296456788317E-003   4.9949740304599866E-002
   7.8826375159968542E-003  -2.8708627078742888E-003   5.0351985483428674E-002
   6.4576257420560779E-003  -3.6251750321527609E-003   5.1082393705361884E-002
   5.0326139681153154E-003  -4.9859666185142482E-003   5.2140964970398440E-002
   3.6076021941745529E-003  -6.9532374669589725E-003   5.3527699278538954E-002
   6.5842449124744462E-003  -4.1636591403332313E-003   2.9584948474860373E-002
   6.0565294094537259E-003  -6.1459200799649505E-003   3.4065206433945283E-002
   5.5288139064328667E-003  -1.0897675466990803E-002   3.9230610767343521E-002
   5.0010984034120354E-003  -1.8418925301412557E-002   4.5081161475055781E-002
   4.4733829003913428E-003  -2.8709669583228958E-002   5.1616858557081091E-002
   5.4359779785590201E-003  -4.8610537219895278E-003   3.6198009962111977E-002
   5.4895355496380194E-003  -6.9950306294167541E-003   3.8340837566240848E-002
   5.5430931207169770E-003  -1.1365435538053970E-002   4.0961064944255665E-002
   5.5966506917959832E-003  -1.7972268447901521E-002   4.4058692096155927E-002
   5.6502082628749339E-003  -2.6815529358959145E-002   4.7633719021942911E-002
   4.5571152142038912E-003  -5.5584483036459909E-003   4.2392822258475488E-002
   4.9841992589549078E-003  -7.8441411788688908E-003   4.2731285953833020E-002
   5.4112833037059591E-003  -1.1833195609116928E-002   4.3339402822648879E-002
   5.8383673484569479E-003  -1.7525611594390322E-002   4.4217172864922764E-002
   6.2654513932080824E-003  -2.4921389134689109E-002   4.5364596080655017E-002
   3.9476566194090630E-003  -6.2558428853023706E-003   4.8169385363951163E-002
   4.5405205374044397E-003  -8.6932517283206390E-003   4.7236551596722451E-002
   5.1333844553998371E-003  -1.2300955680179769E-002   4.6365624402523994E-002
   5.7262483733952086E-003  -1.7078954740879317E-002   4.5556603781355884E-002
   6.3191122913905592E-003  -2.3027248910419074E-002   4.4809489733219049E-002
   3.6076021941745529E-003  -6.9532374669589725E-003   5.3527699278538954E-002
   4.1584993849865803E-003  -9.5423622777729422E-003   5.1856634494908294E-002
   4.7093965757986356E-003  -1.2768715751242665E-002   5.0039729683880485E-002
   5.2602937666106353E-003  -1.6632297887367933E-002   4.8076984845455528E-002
   5.8111909574226628E-003  -2.1133108686149260E-002   4.5968399979633645E-002
   5.1749399288436138E-002  -1.4976723065673048E-002   5.1432855938911504E-002
   4.9554504598369492E-002  -1.4526789932542472E-002   5.0759580736041254E-002
   4.7359609908302902E-002  -1.4077970671272880E-002   5.0505299122811181E-002
   4.5164715218236257E-002  -1.3630265281863996E-002   5.0670011099221299E-002
   4.2969820528169639E-002  -1.3183673764315895E-002   5.1253716665272064E-002
   4.4739114459760337E-002  -1.3058952240625143E-002   5.3433335472481414E-002
   4.2923684071359686E-002  -1.2687725587975068E-002   5.3092066114291264E-002
   4.1108253682959062E-002  -1.2307898481619367E-002   5.3090731769792759E-002
   3.9292823294558382E-002  -1.1919470921558172E-002   5.3429332438985774E-002
   3.7477392906157717E-002  -1.1522442907791308E-002   5.4107868121870434E-002
   3.8096621472816714E-002  -1.1141181415577184E-002   5.5350251362787581E-002
   3.6581596810133336E-002  -1.0848661243407581E-002   5.5350702174844002E-002
   3.5066572147449945E-002  -1.0537826291966014E-002   5.5612029424643307E-002
   3.3551547484766568E-002  -1.0208676561252373E-002   5.6134233112185683E-002
   3.2036522822083170E-002  -9.8612120512668044E-003   5.6917313237470860E-002
   3.1821920327605176E-002  -9.2234105905292380E-003   5.7183603609830116E-002
   3.0528242814690396E-002  -9.0095968988401082E-003   5.7535488917699613E-002
   2.9234565301775591E-002  -8.7677541023126089E-003   5.8069192087363199E-002
   2.7940887788860794E-002  -8.4978822009466430E-003   5.8784713118821108E-002
   2.6647210275946007E-002  -8.1999811947422035E-003   5.9682052012073231E-002
   2.5915011024125828E-002  -7.3056397654813199E-003   5.8933392213608937E-002
   2.4763622085030912E-002  -7.1705325542726350E-003   5.9646426342857883E-002
   2.3612233145935982E-002  -6.9976819126592038E-003   6.0462219757952296E-002
   2.2460844206841073E-002  -6.7870878406408458E-003   6.1380772458892258E-002
   2.1309455267746163E-002  -6.5387503382177137E-003   6.2402084445677630E-002
   4.2969820528169639E-002  -1.3183673764315895E-002   5.1253716665272064E-002
   4.1742242389110396E-002  -1.2725225411141294E-002   5.0581904074360085E-002
   4.0514664250051166E-002  -1.2241949514852621E-002   5.0081732346152236E-002
   3.9287086110991930E-002  -1.1733846075450065E-002   4.9753201480648476E-002
   3.8059507971932693E-002  -1.1200915092933417E-002   4.9596311477848543E-002
   3.7477392906157717E-002  -1.1522442907791308E-002   5.4107868121870434E-002
   3.6420265313067537E-002  -1.1112353373815984E-002   5.3507597817073663E-002
   3.5363137719977351E-002  -1.0684741253129126E-002   5.3076587741510861E-002
   3.4306010126887138E-002  -1.0239606545730667E-002   5.2814837895182001E-002
   3.3248882533796945E-002  -9.7769492516208700E-003   5.2722348278087361E-002
   3.2036522822083170E-002  -9.8612120512668044E-003   5.6917313237470860E-002
   3.1147465141492012E-002  -9.4994813364907005E-003   5.6381280262386646E-002
   3.0258407460900850E-002  -9.1275329914054723E-003   5.6012126883066483E-002
   2.9369349780309674E-002  -8.7453670160113819E-003   5.5809853099510351E-002
   2.8480292099718529E-002  -8.3529834103081568E-003   5.5774458911718144E-002
   2.6647210275946007E-002  -8.1999811947422035E-003   5.9682052012073231E-002
   2.5923841874383839E-002  -7.8866092991653758E-003   5.9202951410299132E-002
   2.5200473472821734E-002  -7.5703247296818980E-003   5.8888349770819089E-002
   2.4477105071259581E-002  -7.2511274862919568E-003   5.8738247093633088E-002
   2.3753736669697465E-002  -6.9290175689954714E-003   5.8752643378740997E-002
   2.1309455267746163E-002  -6.5387503382177137E-003   6.2402084445677630E-002
   2.0749395511743041E-002  -6.2737372618401344E-003   6.1972611260811244E-002
   2.0189335755739918E-002  -6.0131164679582960E-003   6.1705256404768705E-002
   1.9629275999736809E-002  -5.7568879565726636E-003   6.1600019877550344E-002
   1.9069216243733700E-002  -5.5050517276828415E-003   6.1656901679155884E-002
   3.8059507971932693E-002  -1.1200915092933417E-002   4.9596311477848543E-002
   3.6260212401216380E-002  -1.0654910229798864E-002   4.9300689712908796E-002
   3.4460916830500038E-002  -1.0107585148542569E-002   4.9221504877343225E-002
   3.2661621259783710E-002  -9.5589398491644426E-003   4.9358756971152190E-002
   3.0862325689067382E-002  -9.0089743316645876E-003   4.9712445994335663E-002
   3.3248882533796945E-002  -9.7769492516208700E-003   5.2722348278087361E-002
   3.1663703363439169E-002  -9.3028952227310335E-003   5.2469736538674150E-002
   3.0078524193081400E-002  -8.8235703109927621E-003   5.2428920670603757E-002
   2.8493345022723642E-002  -8.3389745164061876E-003   5.2599900673875974E-002
   2.6908165852365842E-002  -7.8491078389711366E-003   5.2982676548491037E-002
   2.8480292099718529E-002  -8.3529834103081568E-003   5.5774458911718144E-002
   2.7104588271687671E-002  -7.9508802156630087E-003   5.5568807862558245E-002
   2.5728884443656834E-002  -7.5395554734428577E-003   5.5570311626709321E-002
   2.4353180615625965E-002  -7.1190091836478252E-003   5.5778970204171587E-002
   2.2977476787595139E-002  -6.6892413462776856E-003   5.6194783594944925E-002
   2.3753736669697465E-002  -6.9290175689954714E-003   5.8752643378740997E-002
   2.2582867125961907E-002  -6.5988652085950811E-003   5.8597903684560866E-002
   2.1411997582226359E-002  -6.2555406358930574E-003   5.8645677745660166E-002
   2.0241128038490801E-002  -5.8990438508894610E-003   5.8895965562039021E-002
   1.9070258494755254E-002  -5.5293748535841236E-003   5.9348767133697231E-002
   1.9069216243733700E-002  -5.5050517276828415E-003   6.1656901679155884E-002
   1.8098539926261814E-002  -5.2468502015271257E-003   6.1557024004682159E-002
   1.7127863608789942E-002  -4.9715257983430072E-003   6.1655019027456071E-002
   1.6157187291318056E-002  -4.6790785181311176E-003   6.1950886747478145E-002
   1.5186510973846185E-002  -4.3695083608908392E-003   6.2444627164747801E-002
   3.0862325689067382E-002  -9.0089743316645876E-003   4.9712445994335663E-002
   2.9229295614367656E-002  -8.4533520088411196E-003   4.9336951526215922E-002
   2.7596265539667847E-002  -7.8877362934925976E-003   4.9127042418624589E-002
   2.5963235464968121E-002  -7.3121271856189940E-003   4.9082718671561415E-002
   2.4330205390268339E-002  -6.7265246852208360E-003   4.9203980285026594E-002
   2.6908165852365842E-002  -7.8491078389711366E-003   5.2982676548491037E-002
   2.5448627770330134E-002  -7.3526828206484929E-003   5.2647479080163928E-002
   2.3989089688294420E-002  -6.8484120033993900E-003   5.2493680236636586E-002
   2.2529551606258701E-002  -6.3362953872234187E-003   5.2521280017909025E-002
   2.1070013524222997E-002  -5.8163329721210855E-003   5.2730278423981536E-002
   2.2977476787595139E-002  -6.6892413462776856E-003   5.6194783594944925E-002
   2.1707243962495057E-002  -6.2520136324559217E-003   5.5897735532811743E-002
   2.0437011137394982E-002  -5.8090877133060159E-003   5.5797899359750186E-002
   1.9166778312294925E-002  -5.3604635888278435E-003   5.5895275075759907E-002
   1.7896545487194833E-002  -4.9061412590215570E-003   5.6189862680841085E-002
   1.9070258494755254E-002  -5.5293748535841236E-003   5.9348767133697231E-002
   1.8005144190862417E-002  -5.1513444442633782E-003   5.9087720884159679E-002
   1.6940029886969576E-002  -4.7697634232127806E-003   5.9039699787965194E-002
   1.5874915583076708E-002  -4.3846317904323237E-003   5.9204703845113622E-002
   1.4809801279183870E-002  -3.9959495459220284E-003   5.9582733055605311E-002
   1.5186510973846185E-002  -4.3695083608908392E-003   6.2444627164747801E-002
   1.4342328455432179E-002  -4.0506752560707238E-003   6.2217435134207355E-002
   1.3498145937018161E-002  -3.7304391331194481E-003   6.2219081521281888E-002
   1.2653963418604142E-002  -3.4087999920366409E-003   6.2449566325970776E-002
   1.1809780900190109E-002  -3.0857578328223889E-003   6.2908889548274227E-002
   2.4330205390268339E-002  -6.7265246852208360E-003   4.9203980285026594E-002
   2.2516795993670013E-002  -6.1312665285006562E-003   4.8838511113858785E-002
   2.0703386597071619E-002  -5.5266904516632631E-003   4.8665510492217068E-002
   1.8889977200473300E-002  -4.9127964547078101E-003   4.8684978420102165E-002
   1.7076567803874926E-002  -4.2895845376349495E-003   4.8896914897513244E-002
   2.1070013524222997E-002  -5.8163329721210855E-003   5.2730278423981536E-002
   1.9453202391777655E-002  -5.2907114925185850E-003   5.2462057921553007E-002
   1.7836391259332340E-002  -4.7616176828420148E-003   5.2394565397904158E-002
   1.6219580126886977E-002  -4.2290515430914756E-003   5.2527800853035142E-002
   1.4602768994441684E-002  -3.6930130732673039E-003   5.2861764286945223E-002
   1.7896545487194833E-002  -4.9061412590215570E-003   5.6189862680841085E-002
   1.6484592048155673E-002  -4.4501564565360974E-003   5.6013045257108526E-002
   1.5072638609116503E-002  -3.9965449140207665E-003   5.6045215241408430E-002
   1.3660685170077352E-002  -3.5453066314751411E-003   5.6286372633741158E-002
   1.2248731731038166E-002  -3.0964416088996582E-003   5.6736517434106626E-002
   1.4809801279183870E-002  -3.9959495459220284E-003   5.9582733055605311E-002
   1.3610964962804006E-002  -3.6096014205539290E-003   5.9491473120524524E-002
   1.2412128646424127E-002  -3.2314721451995737E-003   5.9617460022729628E-002
   1.1213292330044261E-002  -2.8615617198589176E-003   5.9960693762220560E-002
   1.0014456013664389E-002  -2.4998701445318461E-003   6.0521174338997424E-002
   1.1809780900190109E-002  -3.0857578328223889E-003   6.2908889548274227E-002
   1.0832321135722689E-002  -2.7690463845714275E-003   6.2897341511801486E-002
   9.8548613712552413E-003  -2.4663993763783809E-003   6.3111299741867855E-002
   8.8774016067878006E-003  -2.1778168082423888E-003   6.3550764238472945E-002
   7.8999418423203738E-003  -1.9032986801643670E-003   6.4215735001617369E-002
   1.7076567803874926E-002  -4.2895845376349495E-003   4.8896914897513244E-002
   1.5134338175390616E-002  -3.7207716990386164E-003   4.8779243098193037E-002
   1.3192108546906292E-002  -3.2700749375138560E-003   4.8915490066267220E-002
   1.1249878918421989E-002  -2.9374942530608905E-003   4.9305655801736431E-002
   9.3076492899376584E-003  -2.7230296456788317E-003   4.9949740304599866E-002
   1.4602768994441684E-002  -3.6930130732673039E-003   5.2861764286945223E-002
   1.2914083207019533E-002  -3.2133604623823531E-003   5.2746299044810263E-002
   1.1225397419597383E-002  -2.8499518994498096E-003   5.2884002717404843E-002
   9.5367116321752460E-003  -2.6027873844701177E-003   5.3274875304729130E-002
   7.8480258447531093E-003  -2.4718669174426111E-003   5.3918916806783068E-002
   1.2248731731038166E-002  -3.0964416088996582E-003   5.6736517434106626E-002
   1.0812839932013242E-002  -2.7059492257259787E-003   5.6625130778275662E-002
   9.3769481329882658E-003  -2.4298288613856522E-003   5.6766163184509361E-002
   7.9410563339633363E-003  -2.2680805158794559E-003   5.7159614652807986E-002
   6.5051645349383652E-003  -2.2207041892063906E-003   5.7805485183170968E-002
   1.0014456013664389E-002  -2.4998701445318461E-003   6.0521174338997424E-002
   8.8306083503716451E-003  -2.1985379890695489E-003   6.0415738298589414E-002
   7.6467606870788919E-003  -2.0097058233216059E-003   6.0561971467581174E-002
   6.4629130237861578E-003  -1.9333736472887386E-003   6.0959873845972887E-002
   5.2790653604933950E-003  -1.9695414609700590E-003   6.1609445433763885E-002
   7.8999418423203738E-003  -1.9032986801643670E-003   6.4215735001617369E-002
   6.9673884620948395E-003  -1.6911267524132856E-003   6.4118121605751255E-002
   6.0348350818692914E-003  -1.5895827852573652E-003   6.4271427566620132E-002
   5.1022817016437572E-003  -1.5986667786981115E-003   6.4675652884223639E-002
   4.1697283214182090E-003  -1.7183787327339495E-003   6.5330797558561637E-002
   9.3076492899376584E-003  -2.7230296456788317E-003   4.9949740304599866E-002
   7.8826375159968542E-003  -2.8708627078742888E-003   5.0351985483428674E-002
   6.4576257420560779E-003  -3.6251750321527609E-003   5.1082393705361884E-002
   5.0326139681153154E-003  -4.9859666185142482E-003   5.2140964970398440E-002
   3.6076021941745529E-003  -6.9532374669589725E-003   5.3527699278538954E-002
   7.8480258447531093E-003  -2.4718669174426111E-003   5.3918916806783068E-002
   6.7249265039585199E-003  -2.6555916939445812E-003   5.3851910660429603E-002
   5.6018271631639166E-003  -3.3523629095532081E-003   5.4060566337264637E-002
   4.4787278223693688E-003  -4.5621805642679092E-003   5.4544883837288588E-002
   3.3556284815747239E-003  -6.2850446580893227E-003   5.5304863160500872E-002
   6.5051645349383652E-003  -2.2207041892063906E-003   5.7805485183170968E-002
   5.6314764073748108E-003  -2.4403206800150401E-003   5.7362660534611559E-002
   4.7577882798112703E-003  -3.0795507869535443E-003   5.7142996489325998E-002
   3.8841001522476916E-003  -4.1383945100215702E-003   5.7146493047313743E-002
   3.0104120246841753E-003  -5.6168518492195618E-003   5.7373150208574863E-002
   5.2790653604933950E-003  -1.9695414609700590E-003   6.1609445433763885E-002
   4.6022872262457375E-003  -2.2250496660857488E-003   6.0884235105975640E-002
   3.9255090919980938E-003  -2.8067386643542691E-003   6.0329684161545619E-002
   3.2487309577504423E-003  -3.7146084557757864E-003   5.9945792600473918E-002
   2.5719528235027926E-003  -4.9486590403496344E-003   5.9732560422760303E-002
   4.1697283214182090E-003  -1.7183787327339495E-003   6.5330797558561637E-002
   3.6373589605713103E-003  -2.0097786521560690E-003   6.4416634374520942E-002
   3.1049895997244115E-003  -2.5339265417542445E-003   6.3620629353923597E-002
   2.5726202388775127E-003  -3.2908224015290935E-003   6.2942782496769351E-002
   2.0402508780306139E-003  -4.2804662314802622E-003   6.2383093803058176E-002
   3.6076021941745529E-003  -6.9532374669589725E-003   5.3527699278538954E-002
   4.1584993849865803E-003  -9.5423622777729422E-003   5.1856634494908294E-002
   4.7093965757986356E-003  -1.2768715751242665E-002   5.0039729683880485E-002
   5.2602937666106353E-003  -1.6632297887367933E-002   4.8076984845455528E-002
   5.8111909574226628E-003  -2.1133108686149260E-002   4.5968399979633645E-002
   3.3556284815747239E-003  -6.2850446580893227E-003   5.5304863160500872E-002
   3.7783034769620638E-003  -8.5525457911769798E-003   5.2951445313510814E-002
   4.2009784723494037E-003  -1.1396274563691855E-002   5.0487423103068252E-002
   4.6236534677367852E-003  -1.4816230975633310E-002   4.7912796529173712E-002
   5.0463284631241390E-003  -1.8812415027001927E-002   4.5227565591826835E-002
   3.0104120246841753E-003  -5.6168518492195618E-003   5.7373150208574863E-002
   3.3401004885917213E-003  -7.5627293045812949E-003   5.4398380321453915E-002
   3.6697889524992880E-003  -1.0023833376140906E-002   5.1348241734825578E-002
   3.9994774164068408E-003  -1.3000164063898735E-002   4.8222734448690033E-002
   4.3291658803143729E-003  -1.6491721367854817E-002   4.5021858463047293E-002
   2.5719528235027926E-003  -4.9486590403496344E-003   5.9732560422760303E-002
   2.8438904198754937E-003  -6.5729128179852492E-003   5.6197439518737471E-002
   3.1158280162482347E-003  -8.6513921885901374E-003   5.2622185579152124E-002
   3.3877656126210173E-003  -1.1184097152164247E-002   4.9006798604004198E-002
   3.6597032089937045E-003  -1.4171027708707484E-002   4.5351278593294408E-002
   2.0402508780306139E-003  -4.2804662314802622E-003   6.2383093803058176E-002
   2.2896732708134471E-003  -5.5830963313896476E-003   5.8348622905361691E-002
   2.5390956635962664E-003  -7.2789510010391745E-003   5.4309254636047910E-002
   2.7885180563791134E-003  -9.3680302404295437E-003   5.0264988995116971E-002
   3.0379404491619466E-003  -1.1850334049560374E-002   4.6215825982568237E-002
   2.5915011024125828E-002  -7.3056397654813199E-003   5.8933392213608937E-002
   2.4763622085030912E-002  -7.1705325542726350E-003   5.9646426342857883E-002
   2.3612233145935982E-002  -6.9976819126592038E-003   6.0462219757952296E-002
   2.2460844206841073E-002  -6.7870878406408458E-003   6.1380772458892258E-002
   2.1309455267746163E-002  -6.5387503382177137E-003   6.2402084445677630E-002
   2.0003062798135740E-002  -5.4792298172676168E-003   6.0971658058530831E-002
   1.9000705132108650E-002  -5.3778994133792668E-003   6.1386119990618215E-002
   1.7998347466081567E-002  -5.2482614351561235E-003   6.1995885182995786E-002
   1.6995989800054481E-002  -5.0903158825980378E-003   6.2800953635663528E-002
   1.5993632134027387E-002  -4.9040627557051242E-003   6.3801325348621263E-002
   1.3713244885392127E-002  -3.6528198690538582E-003   6.2980865024167276E-002
   1.2952462466877437E-002  -3.5852662724858708E-003   6.3087318903023340E-002
   1.2191680048362758E-002  -3.4988409576530433E-003   6.3481620016614101E-002
   1.1430897629848084E-002  -3.3935439245553131E-003   6.4163768364939658E-002
   1.0670115211333403E-002  -3.2693751731926457E-003   6.5133763947999829E-002
   7.0455572858949597E-003  -1.8264099208401274E-003   6.4961013110518315E-002
   6.6188940893372634E-003  -1.7926331315925165E-003   6.4750023080073105E-002
   6.1922308927795698E-003  -1.7494204801500463E-003   6.4919424258807118E-002
   5.7655676962218814E-003  -1.6967719665124913E-003   6.5469216646720424E-002
   5.3389044996641800E-003  -1.6346875906801395E-003   6.6399400243812884E-002
  -3.5572933487770797E-013   2.7373603384006628E-011   6.6912102317584099E-002
  -5.1186832550342842E-013   9.3009488999484802E-012   6.6374232521767496E-002
  -6.6799690778829302E-013  -2.6468410796454123E-012   6.6309297909574766E-002
  -8.2413069424358554E-013  -8.4697561464341931E-012   6.6717298481005952E-002
  -9.8026448069887806E-013  -8.1676332364111204E-012   6.7598234236060872E-002
   2.1309455267746163E-002  -6.5387503382177137E-003   6.2402084445677630E-002
   2.0749395511743041E-002  -6.2737372618401344E-003   6.1972611260811244E-002
   2.0189335755739918E-002  -6.0131164679582960E-003   6.1705256404768705E-002
   1.9629275999736809E-002  -5.7568879565726636E-003   6.1600019877550344E-002
   1.9069216243733700E-002  -5.5050517276828415E-003   6.1656901679155884E-002
   1.5993632134027387E-002  -4.9040627557051242E-003   6.3801325348621263E-002
   1.5590164859353307E-002  -4.7053029476246816E-003   6.3354789280056764E-002
   1.5186697584679224E-002  -4.5098373515039050E-003   6.3059319845326409E-002
   1.4783230310005150E-002  -4.3176659673429558E-003   6.2914917044429974E-002
   1.4379763035331061E-002  -4.1287887951415025E-003   6.2921580877367683E-002
   1.0670115211333403E-002  -3.2693751731926457E-003   6.5133763947999829E-002
   1.0412188722998390E-002  -3.1368686334093537E-003   6.4671263066273549E-002
   1.0154262234663369E-002  -3.0065582350494030E-003   6.4348777123391307E-002
   9.8963357463283594E-003  -2.8784439781130815E-003   6.4166306119353061E-002
   9.6384092579933425E-003  -2.7525258626000804E-003   6.4123850054159048E-002
   5.3389044996641800E-003  -1.6346875906801395E-003   6.6399400243812884E-002
   5.2154671026782718E-003  -1.5684343191939079E-003   6.5922032619461099E-002
   5.0920297056923618E-003  -1.5032791185949565E-003   6.5573628238963247E-002
   4.9685923087064536E-003  -1.4392219888832072E-003   6.5354187102319689E-002
   4.8451549117205436E-003  -1.3762629300587276E-003   6.5263709209530202E-002
  -9.8026448069887806E-013  -8.1676332364111204E-012   6.7598234236060872E-002
  -1.6070408892510102E-012  -4.9785731093265895E-012   6.7107097939619720E-002
  -2.2338103589092384E-012  -2.1405099914773018E-012   6.6733873192042631E-002
  -2.8605850327378946E-012   3.4661162828797387E-013   6.6478559993329800E-002
  -3.4873562371195987E-012   2.4827362388180063E-012   6.6341158343481033E-002
   1.9069216243733700E-002  -5.5050517276828415E-003   6.1656901679155884E-002
   1.8098539926261814E-002  -5.2468502015271257E-003   6.1557024004682159E-002
   1.7127863608789942E-002  -4.9715257983430072E-003   6.1655019027456071E-002
   1.6157187291318056E-002  -4.6790785181311176E-003   6.1950886747478145E-002
   1.5186510973846185E-002  -4.3695083608908392E-003   6.2444627164747801E-002
   1.4379763035331061E-002  -4.1287887951415025E-003   6.2921580877367683E-002
   1.3618158510605806E-002  -3.9351376501178537E-003   6.2795984246773712E-002
   1.2856553985880551E-002  -3.7286443474897069E-003   6.2890658504425309E-002
   1.2094949461155306E-002  -3.5093088872571593E-003   6.3205603650322156E-002
   1.1333344936430054E-002  -3.2771312694201415E-003   6.3740819684464656E-002
   9.6384092579933425E-003  -2.7525258626000804E-003   6.4123850054159048E-002
   9.1082747170122373E-003  -2.6234250987085400E-003   6.3968253748021453E-002
   8.5781401760311425E-003  -2.4857628966362538E-003   6.4055326521126818E-002
   8.0480056350500373E-003  -2.3395392563832600E-003   6.4385068373475046E-002
   7.5178710940689356E-003  -2.1847541779494162E-003   6.4957479305066138E-002
   4.8451549117205436E-003  -1.3762629300587276E-003   6.5263709209530202E-002
   4.5688885454811179E-003  -1.3117125472993027E-003   6.5073832508425231E-002
   4.2926221792416912E-003  -1.2428814457828771E-003   6.5149023077560680E-002
   4.0163558130022715E-003  -1.1697696255092201E-003   6.5489280916936579E-002
   3.7400894467628457E-003  -1.0923770864787602E-003   6.6094606026552968E-002
  -3.4873562371195987E-012   2.4827362388180063E-012   6.6341158343481033E-002
  -3.9875706903114150E-012   4.1100456371623295E-012   6.6112720527984836E-002
  -4.4877851435032312E-012   5.0705412091289759E-012   6.6171748173726813E-002
  -4.9879995966950474E-012   5.3645247966027654E-012   6.6518241280706589E-002
  -5.4882140498868637E-012   4.9918957856220914E-012   6.7152199848924399E-002
   1.5186510973846185E-002  -4.3695083608908392E-003   6.2444627164747801E-002
   1.4342328455432179E-002  -4.0506752560707238E-003   6.2217435134207355E-002
   1.3498145937018161E-002  -3.7304391331194481E-003   6.2219081521281888E-002
   1.2653963418604142E-002  -3.4087999920366409E-003   6.2449566325970776E-002
   1.1809780900190109E-002  -3.0857578328223889E-003   6.2908889548274227E-002
   1.1333344936430054E-002  -3.2771312694201415E-003   6.3740819684464656E-002
   1.0713552638690234E-002  -3.0380064409843699E-003   6.3548099292901089E-002
   1.0093760340950421E-002  -2.7978293489557410E-003   6.3575320925071288E-002
   9.4739680432106184E-003  -2.5565999933340917E-003   6.3822484580975170E-002
   8.8541757454708159E-003  -2.3143183741195505E-003   6.4289590260612983E-002
   7.5178710940689356E-003  -2.1847541779494162E-003   6.4957479305066138E-002
   7.1135726231224862E-003  -2.0253376258979605E-003   6.4798879797941009E-002
   6.7092741521760299E-003  -1.8652195647921380E-003   6.4851325920668695E-002
   6.3049756812295875E-003  -1.7043999946315409E-003   6.5114817673249406E-002
   5.9006772102831243E-003  -1.5428789154166567E-003   6.5589355055683030E-002
   3.7400894467628457E-003  -1.0923770864787602E-003   6.6094606026552968E-002
   3.5423884087289166E-003  -1.0126688108116344E-003   6.5969776649327599E-002
   3.3446873706949910E-003  -9.3260978062837188E-004   6.6047096508074402E-002
   3.1469863326610559E-003  -8.5219999592904636E-004   6.6326565602793222E-002
   2.9492852946271363E-003  -7.7143945671356851E-004   6.6808183933484172E-002
  -5.4882140498868637E-012   4.9918957856220914E-012   6.7152199848924399E-002
  -4.4904600871031874E-012   4.2748582451679340E-012   6.7060789847060487E-002
  -3.4927165326603671E-012   3.5351443994358078E-012   6.7162632687287949E-002
  -2.4949747129410227E-012   2.7736632435271247E-012   6.7457728369606645E-002
  -1.4972190154338705E-012   1.9891865932208930E-012   6.7946076894016549E-002
   1.1809780900190109E-002  -3.0857578328223889E-003   6.2908889548274227E-002
   1.0832321135722689E-002  -2.7690463845714275E-003   6.2897341511801486E-002
   9.8548613712552413E-003  -2.4663993763783809E-003   6.3111299741867855E-002
   8.8774016067878006E-003  -2.1778168082423888E-003   6.3550764238472945E-002
   7.8999418423203738E-003  -1.9032986801643670E-003   6.4215735001617369E-002
   8.8541757454708159E-003  -2.3143183741195505E-003   6.4289590260612983E-002
   8.1069369162176247E-003  -2.0767847881077994E-003   6.4272557127319385E-002
   7.3596980869644543E-003  -1.8497995320943816E-003   6.4490459597914856E-002
   6.6124592577112770E-003  -1.6333626060788739E-003   6.4943297672400202E-002
   5.8652204284581066E-003  -1.4274740100617134E-003   6.5631071350775061E-002
   5.9006772102831243E-003  -1.5428789154166567E-003   6.5589355055683030E-002
   5.3930886535947554E-003  -1.3845231916437828E-003   6.5570352935627546E-002
   4.8855000969063832E-003  -1.2331996878100493E-003   6.5795715756812173E-002
   4.3779115402180092E-003  -1.0889084039151370E-003   6.6265443519236841E-002
   3.8703229835296421E-003  -9.5164933995917078E-004   6.6979536222901759E-002
   2.9492852946271363E-003  -7.7143945671356851E-004   6.6808183933484172E-002
   2.6907763478540847E-003  -6.9226159517984942E-004   6.6790728936726357E-002
   2.4322674010810409E-003  -6.1659984352599451E-004   6.7027068218559166E-002
   2.1737584543079888E-003  -5.4445420175145559E-004   6.7517201778982544E-002
   1.9152495075349454E-003  -4.7582466985640615E-004   6.8261129617996463E-002
  -1.4972190154338705E-012   1.9891865932208930E-012   6.7946076894016549E-002
  -1.0043979536966674E-012   1.2839729279789935E-012   6.7933685130615817E-002
  -5.1157689195946432E-013   7.5817130351651940E-013   6.8184516983156251E-002
  -1.8755830222261238E-014   4.1197600886277996E-013   6.8698572451637657E-002
   4.7406523151494184E-013   2.4602542225693469E-013   6.9475851536060396E-002
   7.8999418423203738E-003  -1.9032986801643670E-003   6.4215735001617369E-002
   6.9673884620948395E-003  -1.6911267524132856E-003   6.4118121605751255E-002
   6.0348350818692914E-003  -1.5895827852573652E-003   6.4271427566620132E-002
   5.1022817016437572E-003  -1.5986667786981115E-003   6.4675652884223639E-002
   4.1697283214182090E-003  -1.7183787327339495E-003   6.5330797558561637E-002
   5.8652204284581066E-003  -1.4274740100617134E-003   6.5631071350775061E-002
   5.1791411520396222E-003  -1.2683450642647087E-003   6.5472037205396405E-002
   4.4930618756211307E-003  -1.1921870889099462E-003   6.5555031910897149E-002
   3.8069825992026532E-003  -1.1990000839969400E-003   6.5880055467277224E-002
   3.1209033227841548E-003  -1.2887840495258152E-003   6.6447107874536837E-002
   3.8703229835296421E-003  -9.5164933995917078E-004   6.6979536222901759E-002
   3.4218273050628557E-003  -8.4556337611660370E-004   6.6786738318163952E-002
   2.9733316265960832E-003  -7.9479139256229125E-004   6.6827078758450495E-002
   2.5248359481293108E-003  -7.9933338929576506E-004   6.7100557543761041E-002
   2.0763402696625383E-003  -8.5918936631756981E-004   6.7607174674095577E-002
   1.9152495075349454E-003  -4.7582466985640615E-004   6.8261129617996463E-002
   1.6954469211645585E-003  -4.2278168796831828E-004   6.8062224944054048E-002
   1.4756443347941576E-003  -3.9739569621453225E-004   6.8087568109280169E-002
   1.2558417484237671E-003  -3.9966669459459182E-004   6.8337159113675064E-002
   1.0360391620533697E-003  -4.2959468310921345E-004   6.8810997957238607E-002
   4.7406523151494184E-013   2.4602542225693469E-013   6.9475851536060396E-002
   3.4471731025220720E-013   1.8002266344296913E-013   6.9298497083066568E-002
   2.1535898064861669E-013   1.3281042932078435E-013   6.9336499963386367E-002
   8.6007589938930096E-014   1.0647732695545642E-013   6.9589860177019597E-002
  -4.3347270217708456E-014   9.8809849191638932E-014   7.0058577723965954E-002
   4.1697283214182090E-003  -1.7183787327339495E-003   6.5330797558561637E-002
   3.6373589605713103E-003  -2.0097786521560690E-003   6.4416634374520942E-002
   3.1049895997244115E-003  -2.5339265417542445E-003   6.3620629353923597E-002
   2.5726202388775127E-003  -3.2908224015290935E-003   6.2942782496769351E-002
   2.0402508780306139E-003  -4.2804662314802622E-003   6.2383093803058176E-002
   3.1209033227841548E-003  -1.2887840495258152E-003   6.6447107874536837E-002
   2.7104256695732326E-003  -1.5073339890913640E-003   6.5337285706297266E-002
   2.2999480163622757E-003  -1.9004449062893225E-003   6.4353088789886409E-002
   1.8894703631513257E-003  -2.4681168011187887E-003   6.3494517125304364E-002
   1.4789927099403827E-003  -3.2103496735800263E-003   6.2761570712550840E-002
   2.0763402696625383E-003  -8.5918936631756981E-004   6.7607174674095577E-002
   1.7952214124731213E-003  -1.0048893260270753E-003   6.6359880514201608E-002
   1.5141025552837077E-003  -1.2669632708238315E-003   6.5245678694521927E-002
   1.2329836980942976E-003  -1.6454112007081474E-003   6.4264569215056772E-002
   9.5186484090487716E-004  -2.1402331156797350E-003   6.3416552075805571E-002
   1.0360391620533697E-003  -4.2959468310921345E-004   6.8810997957238607E-002
   8.9174618927104817E-004  -5.0244466296257839E-004   6.7484418798234483E-002
   7.4745321648872053E-004  -6.3348163535840302E-004   6.6298399067830693E-002
   6.0316024370638942E-004  -8.2270560029756336E-004   6.5252938766026516E-002
   4.5886727092407133E-004  -1.0701165577794713E-003   6.4348037892822285E-002
  -4.3347270217708456E-014   9.8809849191638932E-014   7.0058577723965954E-002
  -3.3022196088694500E-014   1.0202949596305189E-013   6.8710900558396459E-002
  -2.2697121959680544E-014   1.0688672169578695E-013   6.7511249909812387E-002
  -1.2377252001094519E-014   1.1298600943732140E-013   6.6459625778213710E-002
  -2.0469737016526324E-015   1.2068124277675452E-013   6.5556028163600621E-002
   2.0402508780306139E-003  -4.2804662314802622E-003   6.2383093803058176E-002
   2.2896732708134471E-003  -5.5830963313896476E-003   5.8348622905361691E-002
   2.5390956635962664E-003  -7.2789510010391745E-003   5.4309254636047910E-002
   2.7885180563791134E-003  -9.3680302404295437E-003   5.0264988995116971E-002
   3.0379404491619466E-003  -1.1850334049560374E-002   4.6215825982568237E-002
   1.4789927099403827E-003  -3.2103496735800263E-003   6.2761570712550840E-002
   1.7091531744605065E-003  -4.1873222485108164E-003   5.8402794058740548E-002
   1.9393136389806512E-003  -5.4592132507475244E-003   5.4010390920022022E-002
   2.1694741035007681E-003  -7.0260226802916007E-003   4.9584361296395929E-002
   2.3996345680209197E-003  -8.8877505371423027E-003   4.5124705187861158E-002
   9.5186484090487716E-004  -2.1402331156797350E-003   6.3416552075805571E-002
   1.1340342638717499E-003  -2.7915481656315411E-003   5.8831775808315001E-002
   1.3162036868386261E-003  -3.6394755004560825E-003   5.4184643942625774E-002
   1.4983731098054953E-003  -4.6840151201537096E-003   4.9475156478738007E-002
   1.6805425327723750E-003  -5.9251670247237875E-003   4.4703313416651680E-002
   4.5886727092407133E-004  -1.0701165577794713E-003   6.4348037892822285E-002
   5.6431653904712512E-004  -1.3957740827525988E-003   5.9635568154085002E-002
   6.6976580717019365E-004  -1.8197377501644255E-003   5.4832013703858595E-002
   7.7521507529325871E-004  -2.3420075600156815E-003   4.9937374542143920E-002
   8.8066434341631597E-004  -2.9625835123056055E-003   4.4951650668939025E-002
  -2.0469737016526324E-015   1.2068124277675452E-013   6.5556028163600621E-002
  -1.3336554083309693E-014   1.2656542480726785E-013   6.0814171096050917E-002
  -2.4629603911918707E-014   1.2709278074396479E-013   5.5952500203721389E-002
  -3.5920919017051745E-014   1.2225637169294146E-013   5.0971015486611898E-002
  -4.7212234122184782E-014   1.1279865930191590E-013   4.5869716944723748E-002
  -3.5572933487770797E-013   2.7373603384006628E-011   6.6912102317584099E-002
  -5.1186832550342842E-013   9.3009488999484802E-012   6.6374232521767496E-002
  -6.6799690778829302E-013  -2.6468410796454123E-012   6.6309297909574766E-002
  -8.2413069424358554E-013  -8.4697561464341931E-012   6.6717298481005952E-002
  -9.8026448069887806E-013  -8.1676332364111204E-012   6.7598234236060872E-002
  -7.0455572853229814E-003   1.8264099510597043E-003   6.4961013063837947E-002
  -6.6188940893555787E-003   1.7926331399499840E-003   6.4750023045586413E-002
  -6.1922308933881794E-003   1.7494204742054126E-003   6.4919424235958145E-002
  -5.7655676974207731E-003   1.6967719538257993E-003   6.5469216634953226E-002
  -5.3389045014533704E-003   1.6346875788112447E-003   6.6399400242571266E-002
  -1.3713244880969838E-002   3.6528198747458052E-003   6.2980864947434753E-002
  -1.2952462463879516E-002   3.5852662705991578E-003   6.3087318845988491E-002
  -1.2191680046789190E-002   3.4988409510577009E-003   6.3481619978164733E-002
  -1.1430897629698868E-002   3.3935439161213009E-003   6.4163768343963687E-002
  -1.0670115212608551E-002   3.2693751657901504E-003   6.5133763943385159E-002
  -2.0003062787296272E-002   5.4792297984318922E-003   6.0971657968374671E-002
  -1.9000705124083660E-002   5.3778994012482900E-003   6.1386119922973548E-002
  -1.7998347460871041E-002   5.2482614279099719E-003   6.1995885136194570E-002
  -1.6995989797658442E-002   5.0903158784168295E-003   6.2800953608037530E-002
  -1.5993632134445823E-002   4.9040627527690422E-003   6.3801325338502357E-002
  -2.5915011004302310E-002   7.3056397221180069E-003   5.8933392126657380E-002
  -2.4763622069968017E-002   7.1705325318973945E-003   5.9646426276541820E-002
  -2.3612233135633737E-002   6.9976819047622429E-003   6.0462219710047505E-002
  -2.2460844201299440E-002   6.7870878407123303E-003   6.1380772427174629E-002
  -2.1309455266965163E-002   6.5387503397479341E-003   6.2402084427923055E-002
  -9.8026448069887806E-013  -8.1676332364111204E-012   6.7598234236060872E-002
  -1.6070408892510102E-012  -4.9785731093265895E-012   6.7107097939619720E-002
  -2.2338103589092384E-012  -2.1405099914773018E-012   6.6733873192042631E-002
  -2.8605850327378946E-012   3.4661162828797387E-013   6.6478559993329800E-002
  -3.4873562371195987E-012   2.4827362388180063E-012   6.6341158343481033E-002
  -5.3389045014533704E-003   1.6346875788112447E-003   6.6399400242571266E-002
  -5.2154671057035307E-003   1.5684343117661759E-003   6.5922032618071974E-002
  -5.0920297099536979E-003   1.5032791152953529E-003   6.5573628237461767E-002
  -4.9685923142038652E-003   1.4392219893983316E-003   6.5354187100740688E-002
  -4.8451549184540324E-003   1.3762629340755561E-003   6.5263709207908582E-002
  -1.0670115212608551E-002   3.2693751657901504E-003   6.5133763943385159E-002
  -1.0412188725457201E-002   3.1368686285110914E-003   6.4671263061752804E-002
  -1.0154262238305867E-002   3.0065582327311047E-003   6.4348777119034459E-002
  -9.8963357511545249E-003   2.8784439784502736E-003   6.4166306115230096E-002
  -9.6384092640031827E-003   2.7525258656685148E-003   6.4123850050339590E-002
  -1.5993632134445823E-002   4.9040627527690422E-003   6.3801325338502357E-002
  -1.5590164860868054E-002   4.7053029452558959E-003   6.3354789270662043E-002
  -1.5186697587290306E-002   4.5098373501668565E-003   6.3059319836760580E-002
  -1.4783230313712552E-002   4.3176659675021600E-003   6.2914917036798024E-002
  -1.4379763040134781E-002   4.1287887972614318E-003   6.2921580870774332E-002
  -2.1309455266965163E-002   6.5387503397479341E-003   6.2402084427923055E-002
  -2.0749395511936084E-002   6.2737372620007004E-003   6.1972611244799775E-002
  -2.0189335756907026E-002   6.0131164676027471E-003   6.1705256390640312E-002
  -1.9629276001877961E-002   5.7568879565540534E-003   6.1600019865444527E-002
  -1.9069216246848888E-002   5.5050517288543488E-003   6.1656901669212616E-002
  -3.4873562371195987E-012   2.4827362388180063E-012   6.6341158343481033E-002
  -3.9875706903114150E-012   4.1100456371623295E-012   6.6112720527984836E-002
  -4.4877851435032312E-012   5.0705412091289759E-012   6.6171748173726813E-002
  -4.9879995966950474E-012   5.3645247966027654E-012   6.6518241280706589E-002
  -5.4882140498868637E-012   4.9918957856220914E-012   6.7152199848924399E-002
  -4.8451549184540324E-003   1.3762629340755561E-003   6.5263709207908582E-002
  -4.5688885531357561E-003   1.3117125541423358E-003   6.5073832506179624E-002
  -4.2926221878174797E-003   1.2428814544144240E-003   6.5149023074849932E-002
  -4.0163558224991982E-003   1.1697696348913766E-003   6.5489280913919021E-002
  -3.7400894571809271E-003   1.0923770955736378E-003   6.6094606023387292E-002
  -9.6384092640031827E-003   2.7525258656685148E-003   6.4123850050339590E-002
  -9.1082747237053729E-003   2.6234251041748480E-003   6.3968253743249825E-002
  -8.5781401834075649E-003   2.4857629037580362E-003   6.4055326515720157E-002
  -8.0480056431097569E-003   2.3395392644182857E-003   6.4385068367750597E-002
  -7.5178711028119471E-003   2.1847541861554354E-003   6.4957479299340981E-002
  -1.4379763040134781E-002   4.1287887972614318E-003   6.2921580870774332E-002
  -1.3618158515696416E-002   3.9351376542072214E-003   6.2795984239195468E-002
  -1.2856553991258048E-002   3.7286443531018391E-003   6.2890658496337820E-002
  -1.2094949466819681E-002   3.5093088939451107E-003   6.3205603642201194E-002
  -1.1333344942381314E-002   3.2771312767372052E-003   6.3740819676785632E-002
  -1.9069216246848888E-002   5.5050517288543488E-003   6.1656901669212616E-002
  -1.8098539929108919E-002   5.2468502042396781E-003   6.1557023994016469E-002
  -1.7127863611368935E-002   4.9715258024455311E-003   6.1655019016702506E-002
  -1.6157187293628965E-002   4.6790785234718524E-003   6.1950886737270616E-002
  -1.5186510975888981E-002   4.3695083673189195E-003   6.2444627155721022E-002
  -5.4882140498868637E-012   4.9918957856220914E-012   6.7152199848924399E-002
  -4.4904600871031874E-012   4.2748582451679340E-012   6.7060789847060487E-002
  -3.4927165326603671E-012   3.5351443994358078E-012   6.7162632687287949E-002
  -2.4949747129410227E-012   2.7736632435271247E-012   6.7457728369606645E-002
  -1.4972190154338705E-012   1.9891865932208930E-012   6.7946076894016549E-002
  -3.7400894571809271E-003   1.0923770955736378E-003   6.6094606023387292E-002
  -3.5423884172727984E-003   1.0126688189943944E-003   6.5969776647028827E-002
  -3.3446873773646801E-003   9.3260978768658354E-004   6.6047096506399922E-002
  -3.1469863374565688E-003   8.5220000165033699E-004   6.6326565601500589E-002
  -2.9492852975484402E-003   7.7143946088575888E-004   6.6808183932330512E-002
  -7.5178711028119471E-003   2.1847541861554354E-003   6.4957479299340981E-002
  -7.1135726303552292E-003   2.0253376337139584E-003   6.4798879793781849E-002
  -6.7092741578985192E-003   1.8652195718378145E-003   6.4851325917590616E-002
  -6.3049756854417997E-003   1.7044000005272363E-003   6.5114817670766850E-002
  -5.9006772129850914E-003   1.5428789197821646E-003   6.5589355053311038E-002
  -1.1333344942381314E-002   3.2771312767372052E-003   6.3740819676785632E-002
  -1.0713552643737760E-002   3.0380064484333974E-003   6.3548099287319804E-002
  -1.0093760345094223E-002   2.7978293559892051E-003   6.3575320920859824E-002
  -9.4739680464506829E-003   2.5565999994041893E-003   6.3822484577405858E-002
  -8.8541757478071345E-003   2.3143183786786536E-003   6.4289590256957685E-002
  -1.5186510975888981E-002   4.3695083673189195E-003   6.2444627155721022E-002
  -1.4342328457420374E-002   4.0506752631528919E-003   6.2217435127642329E-002
  -1.3498145938951794E-002   3.7304391401404430E-003   6.2219081516207725E-002
  -1.2653963420483201E-002   3.4087999982809654E-003   6.2449566321417530E-002
  -1.1809780902014608E-002   3.0857578375750316E-003   6.2908889543271229E-002
  -1.4972190154338705E-012   1.9891865932208930E-012   6.7946076894016549E-002
  -1.0043979536966674E-012   1.2839729279789935E-012   6.7933685130615817E-002
  -5.1157689195946432E-013   7.5817130351651940E-013   6.8184516983156251E-002
  -1.8755830222261238E-014   4.1197600886277996E-013   6.8698572451637657E-002
   4.7406523151494184E-013   2.4602542225693469E-013   6.9475851536060396E-002
  -2.9492852975484402E-003   7.7143946088575888E-004   6.6808183932330512E-002
  -2.6907763498276484E-003   6.9226159788399189E-004   6.6790728936048094E-002
  -2.4322674021068514E-003   6.1659984513587340E-004   6.7027068218280306E-002
  -2.1737584543860631E-003   5.4445420264157690E-004   6.7517201779027314E-002
  -1.9152495066652626E-003   4.7582467040119258E-004   6.8261129618289396E-002
  -5.9006772129850914E-003   1.5428789197821646E-003   6.5589355053311038E-002
  -5.3930886554626432E-003   1.3845231944837333E-003   6.5570352934220671E-002
  -4.8855000979401873E-003   1.2331996895134645E-003   6.5795715756219036E-002
  -4.3779115404177418E-003   1.0889084048707892E-003   6.6265443519305661E-002
  -3.8703229828952971E-003   9.5164934055635975E-004   6.6979536223480879E-002
  -8.8541757478071345E-003   2.3143183786786536E-003   6.4289590256957685E-002
  -8.1069369179093582E-003   2.0767847910837800E-003   6.4272557125134105E-002
  -7.3596980880115707E-003   1.8497995338909445E-003   6.4490459596972471E-002
  -6.6124592581138005E-003   1.6333626071001958E-003   6.4943297672472922E-002
  -5.8652204282160069E-003   1.4274740107114159E-003   6.5631071351635789E-002
  -1.1809780902014608E-002   3.0857578375750316E-003   6.2908889543271229E-002
  -1.0832321137167804E-002   2.7690463876836602E-003   6.2897341508787896E-002
  -9.8548613723210138E-003   2.4663993782687854E-003   6.3111299740540583E-002
  -8.8774016074742237E-003   2.1778168093294983E-003   6.3550764238528901E-002
  -7.8999418426274268E-003   1.9032986808665830E-003   6.4215735002753016E-002
   4.7406523151494184E-013   2.4602542225693469E-013   6.9475851536060396E-002
   3.4471731025220720E-013   1.8002266344296913E-013   6.9298497083066568E-002
   2.1535898064861669E-013   1.3281042932078435E-013   6.9336499963386367E-002
   8.6007589938930096E-014   1.0647732695545642E-013   6.9589860177019597E-002
  -4.3347270217708456E-014   9.8809849191638932E-014   7.0058577723965954E-002
  -1.9152495066652626E-003   4.7582467040119258E-004   6.8261129618289396E-002
  -1.6954469205364767E-003   4.2278168837572849E-004   6.8062224944247351E-002
  -1.4756443344077028E-003   3.9739569652544326E-004   6.8087568109408109E-002
  -1.2558417482789186E-003   3.9966669485134304E-004   6.8337159113772014E-002
  -1.0360391621501430E-003   4.2959468335235229E-004   6.8810997957338582E-002
  -3.8703229828952971E-003   9.5164934055635975E-004   6.6979536223480879E-002
  -3.4218273046188481E-003   8.4556337657146208E-004   6.6786738318546784E-002
  -2.9733316263423860E-003   7.9479139291806222E-004   6.6827078758704930E-002
  -2.5248359480659378E-003   7.9933338959631631E-004   6.7100557543955414E-002
  -2.0763402697894749E-003   8.5918936660589473E-004   6.7607174674298581E-002
  -5.8652204282160069E-003   1.4274740107114159E-003   6.5631071351635789E-002
  -5.1791411519023613E-003   1.2683450647674593E-003   6.5472037205964811E-002
  -4.4930618755887140E-003   1.1921870893106881E-003   6.5555031911276013E-002
  -3.8069825992750614E-003   1.1990000843412358E-003   6.5880055467568963E-002
  -3.1209033229614219E-003   1.2887840498593262E-003   6.6447107874843953E-002
  -7.8999418426274268E-003   1.9032986808665830E-003   6.4215735002753016E-002
  -6.9673884623870502E-003   1.6911267529629015E-003   6.4118121606501655E-002
  -6.0348350821466668E-003   1.5895827857032585E-003   6.4271427567121786E-002
  -5.1022817019062833E-003   1.5986667790862524E-003   6.4675652884613299E-002
  -4.1697283216659067E-003   1.7183787331128686E-003   6.5330797558976306E-002
  -4.3347270217708456E-014   9.8809849191638932E-014   7.0058577723965954E-002
  -3.3022196088694500E-014   1.0202949596305189E-013   6.8710900558396459E-002
  -2.2697121959680544E-014   1.0688672169578695E-013   6.7511249909812387E-002
  -1.2377252001094519E-014   1.1298600943732140E-013   6.6459625778213710E-002
  -2.0469737016526324E-015   1.2068124277675452E-013   6.5556028163600621E-002
  -1.0360391621501430E-003   4.2959468335235229E-004   6.8810997957338582E-002
  -8.9174618934600644E-004   5.0244466321203163E-004   6.7484418798316514E-002
  -7.4745321654188200E-004   6.3348163561316451E-004   6.6298399067896419E-002
  -6.0316024373775323E-004   8.2270560055561215E-004   6.5252938766078766E-002
  -4.5886727093362098E-004   1.0701165580387917E-003   6.4348037892863030E-002
  -2.0763402697894749E-003   8.5918936660589473E-004   6.7607174674298581E-002
  -1.7952214125748212E-003   1.0048893263217562E-003   6.6359880514363173E-002
  -1.5141025553601665E-003   1.2669632711190121E-003   6.5245678694646828E-002
  -1.2329836981455132E-003   1.6454112009976866E-003   6.4264569215149475E-002
  -9.5186484093085812E-004   2.1402331159574017E-003   6.3416552075870741E-002
  -3.1209033229614219E-003   1.2887840498593262E-003   6.6447107874843953E-002
  -2.7104256697194802E-003   1.5073339894316196E-003   6.5337285706535964E-002
  -2.2999480164775593E-003   1.9004449066250748E-003   6.4353088790063490E-002
  -1.8894703632356315E-003   2.4681168014400370E-003   6.3494517125426683E-002
  -1.4789927099936964E-003   3.2103496738758730E-003   6.2761570712625475E-002
  -4.1697283216659067E-003   1.7183787331128686E-003   6.5330797558976306E-002
  -3.6373589607799697E-003   2.0097786525414829E-003   6.4416634374835247E-002
  -3.1049895998940501E-003   2.5339265421310542E-003   6.3620629354146196E-002
  -2.5726202390081287E-003   3.2908224018825330E-003   6.2942782496909849E-002
  -2.0402508781221934E-003   4.2804662317941222E-003   6.2383093803125789E-002
  -2.0469737016526324E-015   1.2068124277675452E-013   6.5556028163600621E-002
  -1.3336554083309693E-014   1.2656542480726785E-013   6.0814171096050917E-002
  -2.4629603911918707E-014   1.2709278074396479E-013   5.5952500203721389E-002
  -3.5920919017051745E-014   1.2225637169294146E-013   5.0971015486611898E-002
  -4.7212234122184782E-014   1.1279865930191590E-013   4.5869716944723748E-002
  -4.5886727093362098E-004   1.0701165580387917E-003   6.4348037892863030E-002
  -5.6431653907789217E-004   1.3957740830122245E-003   5.9635568154110474E-002
  -6.6976580722214775E-004   1.8197377504232670E-003   5.4832013703871807E-002
  -7.7521507536639379E-004   2.3420075602720442E-003   4.9937374542145946E-002
  -8.8066434351067452E-004   2.9625835125584032E-003   4.4951650668935361E-002
  -9.5186484093085812E-004   2.1402331159574017E-003   6.3416552075870741E-002
  -1.1340342639147398E-003   2.7915481658982166E-003   5.8831775808358522E-002
  -1.3162036868986501E-003   3.6394755007194551E-003   5.4184643942653390E-002
  -1.4983731098825392E-003   4.6840151204215578E-003   4.9475156478755118E-002
  -1.6805425328664421E-003   5.9251670250042299E-003   4.4703313416664225E-002
  -1.4789927099936964E-003   3.2103496738758730E-003   6.2761570712625475E-002
  -1.7091531745239029E-003   4.1873222487840422E-003   5.8402794058796129E-002
  -1.9393136390541234E-003   5.4592132510157473E-003   5.4010390920067569E-002
  -2.1694741035843163E-003   7.0260226805708755E-003   4.9584361296438693E-002
  -2.3996345681145366E-003   8.8877505374499455E-003   4.5124705187910980E-002
  -2.0402508781221934E-003   4.2804662317941222E-003   6.2383093803125789E-002
  -2.2896732709053874E-003   5.5830963316698679E-003   5.8348622905422531E-002
  -2.5390956636885675E-003   7.2789510013117620E-003   5.4309254636112914E-002
  -2.7885180564717511E-003   9.3680302407206234E-003   5.0264988995197213E-002
  -3.0379404492549417E-003   1.1850334049895661E-002   4.6215825982674819E-002
  -2.5915011004302310E-002   7.3056397221180069E-003   5.8933392126657380E-002
  -2.4763622069968017E-002   7.1705325318973945E-003   5.9646426276541820E-002
  -2.3612233135633737E-002   6.9976819047622429E-003   6.0462219710047505E-002
  -2.2460844201299440E-002   6.7870878407123303E-003   6.1380772427174629E-002
  -2.1309455266965163E-002   6.5387503397479341E-003   6.2402084427923055E-002
  -3.1821920298584730E-002   9.2234105591287308E-003   5.7183603560150870E-002
  -3.0528242792538015E-002   9.0095968825852357E-003   5.7535488881135355E-002
  -2.9234565286491238E-002   8.7677540967210088E-003   5.8069192061923500E-002
  -2.7940887780444491E-002   8.4978822015358210E-003   5.8784713102515158E-002
  -2.6647210274397724E-002   8.1999811970298875E-003   5.9682052002910435E-002
  -3.8096621436740474E-002   1.1141181396139427E-002   5.5350251343524587E-002
  -3.6581596782799007E-002   1.0848661233273008E-002   5.5350702163203064E-002
  -3.5066572128857540E-002   1.0537826288679664E-002   5.5612029418867351E-002
  -3.3551547474916094E-002   1.0208676562359284E-002   5.6134233110517379E-002
  -3.2036522820974592E-002   9.8612120543120074E-003   5.6917313238153355E-002
  -4.4739114418769377E-002   1.3058952233150151E-002   5.3433335476778310E-002
  -4.2923684040751038E-002   1.2687725583960759E-002   5.3092066122744593E-002
  -4.1108253662732665E-002   1.2307898480638402E-002   5.3090731780878961E-002
  -3.9292823284714284E-002   1.1919470923182789E-002   5.3429332451181359E-002
  -3.7477392906695925E-002   1.1522442911594044E-002   5.4107868133651808E-002
  -5.1749399244671562E-002   1.4976723070160847E-002   5.1432855959912149E-002
  -4.9554504566394070E-002   1.4526789934648565E-002   5.0759580759760226E-002
  -4.7359609888116536E-002   1.4077970672597154E-002   5.0505299147958455E-002
  -4.5164715209839022E-002   1.3630265284006241E-002   5.0670011124506933E-002
  -4.2969820531561509E-002   1.3183673768876136E-002   5.1253716689405704E-002
  -2.1309455266965163E-002   6.5387503397479341E-003   6.2402084427923055E-002
  -2.0749395511936084E-002   6.2737372620007004E-003   6.1972611244799775E-002
  -2.0189335756907026E-002   6.0131164676027471E-003   6.1705256390640312E-002
  -1.9629276001877961E-002   5.7568879565540534E-003   6.1600019865444527E-002
  -1.9069216246848888E-002   5.5050517288543488E-003   6.1656901669212616E-002
  -2.6647210274397724E-002   8.1999811970298875E-003   5.9682052002910435E-002
  -2.5923841873677834E-002   7.8866093010245969E-003   5.9202951402205453E-002
  -2.5200473472957969E-002   7.5703247313413033E-003   5.8888349763918379E-002
  -2.4477105072238090E-002   7.2511274879799911E-003   5.8738247088049172E-002
  -2.3753736671518210E-002   6.9290175709404433E-003   5.8752643374597652E-002
  -3.2036522820974592E-002   9.8612120543120074E-003   5.6917313238153355E-002
  -3.1147465141109828E-002   9.4994813400485489E-003   5.6381280262839471E-002
  -3.0258407461245057E-002   9.1275329950799150E-003   5.6012126883397448E-002
  -2.9369349781380269E-002   8.7453670194059287E-003   5.5809853099827438E-002
  -2.8480292101515488E-002   8.3529834130266767E-003   5.5774458912129343E-002
  -3.7477392906695925E-002   1.1522442911594044E-002   5.4107868133651808E-002
  -3.6420265314232113E-002   1.1112353379072612E-002   5.3507597826701621E-002
  -3.5363137721768308E-002   1.0684741258818582E-002   5.3076587749077572E-002
  -3.4306010129304516E-002   1.0239606550831922E-002   5.2814837900779579E-002
  -3.3248882536840718E-002   9.7769492551127574E-003   5.2722348281807538E-002
  -4.2969820531561509E-002   1.3183673768876136E-002   5.1253716689405704E-002
  -4.1742242393044596E-002   1.2725225418096425E-002   5.0581904093792152E-002
  -4.0514664254527724E-002   1.2241949522557069E-002   5.0081732360958725E-002
  -3.9287086116010832E-002   1.1733846082257967E-002   4.9753201490905438E-002
  -3.8059507977493939E-002   1.1200915097199005E-002   4.9596311483632305E-002
  -1.9069216246848888E-002   5.5050517288543488E-003   6.1656901669212616E-002
  -1.8098539929108919E-002   5.2468502042396781E-003   6.1557023994016469E-002
  -1.7127863611368935E-002   4.9715258024455311E-003   6.1655019016702506E-002
  -1.6157187293628965E-002   4.6790785234718524E-003   6.1950886737270616E-002
  -1.5186510975888981E-002   4.3695083673189195E-003   6.2444627155721022E-002
  -2.3753736671518210E-002   6.9290175709404433E-003   5.8752643374597652E-002
  -2.2582867126857930E-002   6.5988652108675550E-003   5.8597903678327568E-002
  -2.1411997582197660E-002   6.2555406384053602E-003   5.8645677738015836E-002
  -2.0241128037537408E-002   5.8990438535542131E-003   5.8895965553662603E-002
  -1.9070258492877107E-002   5.5293748563138845E-003   5.9348767125267710E-002
  -2.8480292101515488E-002   8.3529834130266767E-003   5.5774458912129343E-002
  -2.7104588271858580E-002   7.9508802174953624E-003   5.5568807859575464E-002
  -2.5728884442201696E-002   7.5395554743653004E-003   5.5570311621056273E-002
  -2.4353180612544802E-002   7.1190091836364072E-003   5.5778970196571950E-002
  -2.2977476782887904E-002   6.6892413453087662E-003   5.6194783586122468E-002
  -3.3248882536840718E-002   9.7769492551127574E-003   5.2722348281807538E-002
  -3.1663703364110854E-002   9.3028952241232046E-003   5.2469736537760249E-002
  -3.0078524191381004E-002   8.8235703103251295E-003   5.2428920665823997E-002
  -2.8493345018651146E-002   8.3389745137185181E-003   5.2599900665998837E-002
  -2.6908165845921289E-002   7.8491078343036896E-003   5.2982676538284854E-002
  -3.8059507977493939E-002   1.1200915097199005E-002   4.9596311483632305E-002
  -3.6260212403614780E-002   1.0654910230751019E-002   4.9300689712881873E-002
  -3.4460916829735622E-002   1.0107585146285042E-002   4.9221504872318772E-002
  -3.2661621255856463E-002   9.5589398438008719E-003   4.9358756961943223E-002
  -3.0862325681977318E-002   9.0089743232985020E-003   4.9712445981755060E-002
  -1.5186510975888981E-002   4.3695083673189195E-003   6.2444627155721022E-002
  -1.4342328457420374E-002   4.0506752631528919E-003   6.2217435127642329E-002
  -1.3498145938951794E-002   3.7304391401404430E-003   6.2219081516207725E-002
  -1.2653963420483201E-002   3.4087999982809654E-003   6.2449566321417530E-002
  -1.1809780902014608E-002   3.0857578375750316E-003   6.2908889543271229E-002
  -1.9070258492877107E-002   5.5293748563138845E-003   5.9348767125267710E-002
  -1.8005144189720535E-002   5.1513444469523939E-003   5.9087720876860289E-002
  -1.6940029886563950E-002   4.7697634257373445E-003   5.9039699781184618E-002
  -1.5874915583407336E-002   4.3846317926690484E-003   5.9204703838240960E-002
  -1.4809801280250792E-002   3.9959495477474016E-003   5.9582733048028969E-002
  -2.2977476782887904E-002   6.6892413453087662E-003   5.6194783586122468E-002
  -2.1707243958955652E-002   6.2520136307514795E-003   5.5897735524379516E-002
  -2.0437011135023376E-002   5.8090877113344611E-003   5.5797899351456078E-002
  -1.9166778311091141E-002   5.3604635870571852E-003   5.5895275067352007E-002
  -1.7896545487158851E-002   4.9061412579198271E-003   5.6189862672067631E-002
  -2.6908165845921289E-002   7.8491078343036896E-003   5.2982676538284854E-002
  -2.5448627765125700E-002   7.3526828145508288E-003   5.2647479070199739E-002
  -2.3989089684330136E-002   6.8484119969314146E-003   5.2493680227021701E-002
  -2.2529551603534519E-002   6.3362953814452396E-003   5.2521280008750879E-002
  -2.1070013522738983E-002   5.8163329680923914E-003   5.2730278415387251E-002
  -3.0862325681977318E-002   9.0089743232985020E-003   4.9712445981755060E-002
  -2.9229295608230732E-002   8.4533519983500671E-003   4.9336951514320937E-002
  -2.7596265534484153E-002   7.8877362825284791E-003   4.9127042407881905E-002
  -2.5963235460737585E-002   7.3121271758334050E-003   4.9082718662437436E-002
  -2.4330205386990988E-002   6.7265246782646226E-003   4.9203980277987891E-002
  -1.1809780902014608E-002   3.0857578375750316E-003   6.2908889543271229E-002
  -1.0832321137167804E-002   2.7690463876836602E-003   6.2897341508787896E-002
  -9.8548613723210138E-003   2.4663993782687854E-003   6.3111299740540583E-002
  -8.8774016074742237E-003   2.1778168093294983E-003   6.3550764238528901E-002
  -7.8999418426274268E-003   1.9032986808665830E-003   6.4215735002753016E-002
  -1.4809801280250792E-002   3.9959495477474016E-003   5.9582733048028969E-002
  -1.3610964963825117E-002   3.6096014219520467E-003   5.9491473115507676E-002
  -1.2412128647399462E-002   3.2314721462629870E-003   5.9617460019908308E-002
  -1.1213292330973804E-002   2.8615617206793134E-003   5.9960693761230685E-002
  -1.0014456014548159E-002   2.4998701452021432E-003   6.0521174339475126E-002
  -1.7896545487158851E-002   4.9061412579198271E-003   5.6189862672067631E-002
  -1.6484592048468368E-002   4.4501564562205720E-003   5.6013045251138288E-002
  -1.5072638609777825E-002   3.9965449142569526E-003   5.6045215237816901E-002
  -1.3660685171087329E-002   3.5453066320294026E-003   5.6286372632103419E-002
  -1.2248731732396826E-002   3.0964416095376479E-003   5.6736517433997713E-002
  -2.1070013522738983E-002   5.8163329680923914E-003   5.2730278415387251E-002
  -1.9453202391097549E-002   5.2907114904889169E-003   5.2462057915679962E-002
  -1.7836391259456168E-002   4.7616176822513692E-003   5.2394565394266374E-002
  -1.6219580127814763E-002   4.2290515433792437E-003   5.2527800851146625E-002
  -1.4602768996173358E-002   3.6930130738732914E-003   5.2861764286320848E-002
  -2.4330205386990988E-002   6.7265246782646226E-003   4.9203980277987891E-002
  -2.2516795991712718E-002   6.1312665247574283E-003   4.8838511109132232E-002
  -2.0703386596434434E-002   5.5266904502452030E-003   4.8665510489256492E-002
  -1.8889977201156156E-002   4.9127964547293276E-003   4.8684978418360697E-002
  -1.7076567805877879E-002   4.2895845382087128E-003   4.8896914896444765E-002
  -7.8999418426274268E-003   1.9032986808665830E-003   6.4215735002753016E-002
  -6.9673884623870502E-003   1.6911267529629015E-003   6.4118121606501655E-002
  -6.0348350821466668E-003   1.5895827857032585E-003   6.4271427567121786E-002
  -5.1022817019062833E-003   1.5986667790862524E-003   6.4675652884613299E-002
  -4.1697283216659067E-003   1.7183787331128686E-003   6.5330797558976306E-002
  -1.0014456014548159E-002   2.4998701452021432E-003   6.0521174339475126E-002
  -8.8306083511091871E-003   2.1985379896449775E-003   6.0415738298811750E-002
  -7.6467606876702010E-003   2.0097058238220389E-003   6.0561971467673947E-002
  -6.4629130242312358E-003   1.9333736477334523E-003   6.0959873846061968E-002
  -5.2790653607922705E-003   1.9695414613793982E-003   6.1609445433975507E-002
  -1.2248731732396826E-002   3.0964416095376479E-003   5.6736517433997713E-002
  -1.0812839933105042E-002   2.7059492263264984E-003   5.6625130778013427E-002
  -9.3769481338133003E-003   2.4298288619410691E-003   5.6766163184208934E-002
  -7.9410563345215304E-003   2.2680805163806592E-003   5.7159614652584179E-002
  -6.5051645352297727E-003   2.2207041896460944E-003   5.7805485183139521E-002
  -1.4602768996173358E-002   3.6930130738732914E-003   5.2861764286320848E-002
  -1.2914083208374668E-002   3.2133604630084078E-003   5.2746299044106618E-002
  -1.1225397420575912E-002   2.8499519000597523E-003   5.2884002716726615E-002
  -9.5367116327771742E-003   2.6027873850280291E-003   5.3274875304180666E-002
  -7.8480258449784689E-003   2.4718669179125963E-003   5.3918916806468604E-002
  -1.7076567805877879E-002   4.2895845382087128E-003   4.8896914896444765E-002
  -1.5134338176917964E-002   3.7207716996900952E-003   4.8779243097091696E-002
  -1.3192108547958090E-002   3.2700749381788519E-003   4.8915490065227163E-002
  -1.1249878918998209E-002   2.9374942536751145E-003   4.9305655800850612E-002
  -9.3076492900383001E-003   2.7230296461793202E-003   4.9949740303962487E-002
  -4.1697283216659067E-003   1.7183787331128686E-003   6.5330797558976306E-002
  -3.6373589607799697E-003   2.0097786525414829E-003   6.4416634374835247E-002
  -3.1049895998940501E-003   2.5339265421310542E-003   6.3620629354146196E-002
  -2.5726202390081287E-003   3.2908224018825330E-003   6.2942782496909849E-002
  -2.0402508781221934E-003   4.2804662317941222E-003   6.2383093803125789E-002
  -5.2790653607922705E-003   1.9695414613793982E-003   6.1609445433975507E-002
  -4.6022872265031149E-003   2.2250496664693031E-003   6.0884235106131002E-002
  -3.9255090922139593E-003   2.8067386647117054E-003   6.0329684161640695E-002
  -3.2487309579248037E-003   3.7146084561074932E-003   5.9945792600504422E-002
  -2.5719528236356481E-003   4.9486590406562225E-003   5.9732560422722347E-002
  -6.5051645352297727E-003   2.2207041896460944E-003   5.7805485183139521E-002
  -5.6314764076356976E-003   2.4403206803966793E-003   5.7362660534583720E-002
  -4.7577882800416095E-003   3.0795507872920097E-003   5.7142996489283962E-002
  -3.8841001524475140E-003   4.1383945103326721E-003   5.7146493047239878E-002
  -3.0104120248534184E-003   5.6168518495181008E-003   5.7373150208451740E-002
  -7.8480258449784689E-003   2.4718669179125963E-003   5.3918916806468604E-002
  -6.7249265041777057E-003   2.6555916943243330E-003   5.3851910660193555E-002
  -5.6018271633769710E-003   3.3523629098724875E-003   5.4060566337076052E-002
  -4.4787278225762077E-003   4.5621805645580746E-003   5.4544883837115969E-002
  -3.3556284817754739E-003   6.2850446583799791E-003   5.5304863160313633E-002
  -9.3076492900383001E-003   2.7230296461793202E-003   4.9949740303962487E-002
  -7.8826375161291790E-003   2.8708627082518201E-003   5.0351985482960049E-002
  -6.4576257422200717E-003   3.6251750324529930E-003   5.1082393705016771E-002
  -5.0326139683109644E-003   4.9859666187829291E-003   5.2140964970132958E-002
  -3.6076021944018433E-003   6.9532374672419683E-003   5.3527699278307916E-002
  -2.0402508781221934E-003   4.2804662317941222E-003   6.2383093803125789E-002
  -2.2896732709053874E-003   5.5830963316698679E-003   5.8348622905422531E-002
  -2.5390956636885675E-003   7.2789510013117620E-003   5.4309254636112914E-002
  -2.7885180564717511E-003   9.3680302407206234E-003   5.0264988995197213E-002
  -3.0379404492549417E-003   1.1850334049895661E-002   4.6215825982674819E-002
  -2.5719528236356481E-003   4.9486590406562225E-003   5.9732560422722347E-002
  -2.8438904199976009E-003   6.5729128182739349E-003   5.6197439518717751E-002
  -3.1158280163595536E-003   8.6513921888760614E-003   5.2622185579162428E-002
  -3.3877656127214439E-003   1.1184097152463504E-002   4.9006798604055046E-002
  -3.6597032090834522E-003   1.4171027709035444E-002   4.5351278593397826E-002
  -3.0104120248534184E-003   5.6168518495181008E-003   5.7373150208451740E-002
  -3.3401004887389438E-003   7.5627293048776689E-003   5.4398380321364459E-002
  -3.6697889526244813E-003   1.0023833376440167E-002   5.1348241734781030E-002
  -3.9994774165100855E-003   1.3000164064206003E-002   4.8222734448701815E-002
  -4.3291658803955475E-003   1.6491721368175005E-002   4.5021858463126452E-002
  -3.3556284817754739E-003   6.2850446583799791E-003   5.5304863160313633E-002
  -3.7783034771294906E-003   8.5525457914814584E-003   5.2951445313361808E-002
  -4.2009784724835342E-003   1.1396274564004258E-002   5.0487423102969435E-002
  -4.6236534678375241E-003   1.4816230975948804E-002   4.7912796529136076E-002
  -5.0463284631915677E-003   1.8812415027314677E-002   4.5227565591861502E-002
  -3.6076021944018433E-003   6.9532374672419683E-003   5.3527699278307916E-002
  -4.1584993851691981E-003   9.5423622780852480E-003   5.1856634494710452E-002
  -4.7093965759365669E-003   1.2768715751568377E-002   5.0039729683727108E-002
  -5.2602937667039079E-003   1.6632297887691279E-002   4.8076984845357967E-002
  -5.8111909574712906E-003   2.1133108686454349E-002   4.5968399979603003E-002
  -5.1749399244671562E-002   1.4976723070160847E-002   5.1432855959912149E-002
  -4.9554504566394070E-002   1.4526789934648565E-002   5.0759580759760226E-002
  -4.7359609888116536E-002   1.4077970672597154E-002   5.0505299147958455E-002
  -4.5164715209839022E-002   1.3630265284006241E-002   5.0670011124506933E-002
  -4.2969820531561509E-002   1.3183673768876136E-002   5.1253716689405704E-002
  -5.8776466588358736E-002   1.6877763497953113E-002   4.4688998605147023E-002
  -5.6184454598184982E-002   1.6381351489693607E-002   4.4322416214456428E-002
  -5.3592442608011347E-002   1.5872510163197864E-002   4.4331074859207981E-002
  -5.1000430617837642E-002   1.5351239518465707E-002   4.4714974539401611E-002
  -4.8408418627663943E-002   1.4817539555497194E-002   4.5474115255037306E-002
  -6.5469307123742604E-002   1.8778803925745352E-002   3.7905433973483185E-002
  -6.2523930374580816E-002   1.8235913044738677E-002   3.7832001200557061E-002
  -5.9578553625419126E-002   1.7667049653798651E-002   3.8090056910164684E-002
  -5.6633176876257435E-002   1.7072213752925225E-002   3.8679601102306421E-002
  -5.3687800127095724E-002   1.6451405342118336E-002   3.9600633776981933E-002
  -7.1827920850823124E-002   2.0679844353537633E-002   3.1082162064920777E-002
  -6.8572931895581515E-002   2.0090474599783761E-002   3.1288335718061833E-002
  -6.5317942940339963E-002   1.9461589144399428E-002   3.1782245300828640E-002
  -6.2062953985098326E-002   1.8793187987384663E-002   3.2563890813221315E-002
  -5.8807965029856676E-002   1.8085271128739491E-002   3.3633272255239766E-002
  -7.7852307769600393E-002   2.2580884781329857E-002   2.4219182879459622E-002
  -7.4331459161186997E-002   2.1945036154828790E-002   2.4691419766970868E-002
  -7.0810610552773740E-002   2.1256128635000190E-002   2.5407640031199857E-002
  -6.7289761944360441E-002   2.0514162221844223E-002   2.6367843672146382E-002
  -6.3768913335947086E-002   1.9719136915360536E-002   2.7572030689810678E-002
  -4.2969820531561509E-002   1.3183673768876136E-002   5.1253716689405704E-002
  -4.1742242393044596E-002   1.2725225418096425E-002   5.0581904093792152E-002
  -4.0514664254527724E-002   1.2241949522557069E-002   5.0081732360958725E-002
  -3.9287086116010832E-002   1.1733846082257967E-002   4.9753201490905438E-002
  -3.8059507977493939E-002   1.1200915097199005E-002   4.9596311483632305E-002
  -4.8408418627663943E-002   1.4817539555497194E-002   4.5474115255037306E-002
  -4.7024386298609791E-002   1.4273679164993516E-002   4.4929973043054586E-002
  -4.5640353969555646E-002   1.3721927237655737E-002   4.4527098349366204E-002
  -4.4256321640501528E-002   1.3162283773483757E-002   4.4265491173972112E-002
  -4.2872289311447397E-002   1.2594748772477571E-002   4.4145151516872344E-002
  -5.3687800127095724E-002   1.6451405342118336E-002   3.9600633776981933E-002
  -5.2177686951990133E-002   1.5822132911890510E-002   3.9201097956555728E-002
  -5.0667573776884550E-002   1.5201904952754246E-002   3.8912456309937997E-002
  -4.9157460601778960E-002   1.4590721464709437E-002   3.8734708837128845E-002
  -4.7647347426673391E-002   1.3988582447756193E-002   3.8667855538128154E-002
  -5.8807965029856676E-002   1.8085271128739491E-002   3.3633272255239766E-002
  -5.7202144353185533E-002   1.7370586658787553E-002   3.3395278834295661E-002
  -5.5596323676514334E-002   1.6681882667852751E-002   3.3237806242674223E-002
  -5.3990502999843190E-002   1.6019159155935228E-002   3.3160854480375507E-002
  -5.2384682323171984E-002   1.5382416123034731E-002   3.3164423547399492E-002
  -6.3768913335947086E-002   1.9719136915360536E-002   2.7572030689810678E-002
  -6.2097758502196079E-002   1.8919040405684567E-002   2.7512515676274274E-002
  -6.0426603668445072E-002   1.8161860382951533E-002   2.7503148147574763E-002
  -5.8755448834694093E-002   1.7447596847160990E-002   2.7543928103712242E-002
  -5.7084294000943087E-002   1.6776249798313381E-002   2.7634855544686587E-002
  -3.8059507977493939E-002   1.1200915097199005E-002   4.9596311483632305E-002
  -3.6260212403614780E-002   1.0654910230751019E-002   4.9300689712881873E-002
  -3.4460916829735622E-002   1.0107585146285042E-002   4.9221504872318772E-002
  -3.2661621255856463E-002   9.5589398438008719E-003   4.9358756961943223E-002
  -3.0862325681977318E-002   9.0089743232985020E-003   4.9712445981755060E-002
  -4.2872289311447397E-002   1.2594748772477571E-002   4.4145151516872344E-002
  -4.0859898610662235E-002   1.2019954985526549E-002   4.3879938035030874E-002
  -3.8847507909877108E-002   1.1438535163519503E-002   4.3824477876813941E-002
  -3.6835117209091946E-002   1.0850489306457031E-002   4.3978771042221580E-002
  -3.4822726508306812E-002   1.0255817414338453E-002   4.4342817531253687E-002
  -4.7647347426673391E-002   1.3988582447756193E-002   3.8667855538128154E-002
  -4.5428545205545137E-002   1.3384999740301926E-002   3.8427744528158017E-002
  -4.3209742984416891E-002   1.2769485180754256E-002   3.8390703235249610E-002
  -4.0990940763288672E-002   1.2142038769113194E-002   3.8556731659402696E-002
  -3.8772138542160398E-002   1.1502660505378681E-002   3.8925829800617567E-002
  -5.2384682323171984E-002   1.5382416123034731E-002   3.3164423547399492E-002
  -4.9966152188263592E-002   1.4750044495077295E-002   3.2944109192263149E-002
  -4.7547622053355193E-002   1.4100435197988807E-002   3.2920180947625513E-002
  -4.5129091918446766E-002   1.3433588231769355E-002   3.3092638813486668E-002
  -4.2710561783538395E-002   1.2749503596418882E-002   3.3461482789846314E-002
  -5.7084294000943087E-002   1.6776249798313381E-002   2.7634855544686587E-002
  -5.4472719558817440E-002   1.6115089249852804E-002   2.7429032027346367E-002
  -5.1861145116691793E-002   1.5431385215223498E-002   2.7412911013941971E-002
  -4.9249570674566132E-002   1.4725137694425551E-002   2.7586492504473314E-002
  -4.6637996232440498E-002   1.3996346687458971E-002   2.7949776498940371E-002
  -3.0862325681977318E-002   9.0089743232985020E-003   4.9712445981755060E-002
  -2.9229295608230732E-002   8.4533519983500671E-003   4.9336951514320937E-002
  -2.7596265534484153E-002   7.8877362825284791E-003   4.9127042407881905E-002
  -2.5963235460737585E-002   7.3121271758334050E-003   4.9082718662437436E-002
  -2.4330205386990988E-002   6.7265246782646226E-003   4.9203980277987891E-002
  -3.4822726508306812E-002   1.0255817414338453E-002   4.4342817531253687E-002
  -3.3026561288924006E-002   9.6528975898467206E-003   4.3965930030654604E-002
  -3.1230396069541172E-002   9.0401079356638991E-003   4.3749727460333093E-002
  -2.9434230850158366E-002   8.4174484517903214E-003   4.3694209820289001E-002
  -2.7638065630775546E-002   7.7849191382252103E-003   4.3799377110522786E-002
  -3.8772138542160398E-002   1.1502660505378681E-002   3.8925829800617567E-002
  -3.6817738607858676E-002   1.0852443181343152E-002   3.8547672828035784E-002
  -3.4863338673556905E-002   1.0192479588799319E-002   3.8325300355014455E-002
  -3.2908938739255128E-002   9.5227697277469048E-003   3.8258712381553622E-002
  -3.0954538804953406E-002   8.8433135981860200E-003   3.8347908907652828E-002
  -4.2710561783538395E-002   1.2749503596418882E-002   3.3461482789846314E-002
  -4.0602827565034839E-002   1.2051988772839861E-002   3.3082179906464532E-002
  -3.8495093346531284E-002   1.1344851241934684E-002   3.2853761091925962E-002
  -3.6387359128027756E-002   1.0628091003703877E-002   3.2776226346230418E-002
  -3.4279624909524228E-002   9.9017080581467187E-003   3.2849575669378094E-002
  -4.6637996232440498E-002   1.3996346687458971E-002   2.7949776498940371E-002
  -4.4381828160452469E-002   1.3251534364336293E-002   2.7569451265941181E-002
  -4.2125660088464398E-002   1.2497222895070215E-002   2.7335109671067559E-002
  -3.9869492016476347E-002   1.1733412279660474E-002   2.7246751714320144E-002
  -3.7613323944488297E-002   1.0960102518107306E-002   2.7304377395698354E-002
  -2.4330205386990988E-002   6.7265246782646226E-003   4.9203980277987891E-002
  -2.2516795991712718E-002   6.1312665247574283E-003   4.8838511109132232E-002
  -2.0703386596434434E-002   5.5266904502452030E-003   4.8665510489256492E-002
  -1.8889977201156156E-002   4.9127964547293276E-003   4.8684978418360697E-002
  -1.7076567805877879E-002   4.2895845382087128E-003   4.8896914896444765E-002
  -2.7638065630775546E-002   7.7849191382252103E-003   4.3799377110522786E-002
  -2.5644359244640161E-002   7.1469352908323236E-003   4.3407944873666171E-002
  -2.3650652858504824E-002   6.5079122054735872E-003   4.3184638069544007E-002
  -2.1656946472369411E-002   5.8678498821489039E-003   4.3129456698156168E-002
  -1.9663240086234046E-002   5.2267483208587873E-003   4.3242400759502475E-002
  -3.0954538804953406E-002   8.8433135981860200E-003   3.8347908907652828E-002
  -2.8804878544206401E-002   8.1626040569073577E-003   3.7938792285833967E-002
  -2.6655218283459490E-002   7.4891339607016522E-003   3.7673457980503922E-002
  -2.4505558022712551E-002   6.8229033095687057E-003   3.7551905991662450E-002
  -2.2355897761965636E-002   6.1639121035088618E-003   3.7574136319309920E-002
  -3.4279624909524228E-002   9.9017080581467187E-003   3.2849575669378094E-002
  -3.1998353890411370E-002   9.1782728229824889E-003   3.2431053345635383E-002
  -2.9717082871298428E-002   8.4703557159298767E-003   3.2131970222136014E-002
  -2.7435811852185531E-002   7.7779567369885057E-003   3.1952326298879834E-002
  -2.5154540833072683E-002   7.1010758861588252E-003   3.1892121575866621E-002
  -3.7613323944488297E-002   1.0960102518107306E-002   2.7304377395698354E-002
  -3.5224785283255011E-002   1.0193941589057343E-002   2.6884728053070739E-002
  -3.2836246622021670E-002   9.4515774711580736E-003   2.6560174794440561E-002
  -3.0447707960788370E-002   8.7330101644081878E-003   2.6330717619807958E-002
  -2.8059169299555042E-002   8.0382396688090108E-003   2.6196356529173181E-002
  -1.7076567805877879E-002   4.2895845382087128E-003   4.8896914896444765E-002
  -1.5134338176917964E-002   3.7207716996900952E-003   4.8779243097091696E-002
  -1.3192108547958090E-002   3.2700749381788519E-003   4.8915490065227163E-002
  -1.1249878918998209E-002   2.9374942536751145E-003   4.9305655800850612E-002
  -9.3076492900383001E-003   2.7230296461793202E-003   4.9949740303962487E-002
  -1.9663240086234046E-002   5.2267483208587873E-003   4.3242400759502475E-002
  -1.7505379532884023E-002   4.6218239864943000E-003   4.3076210606088239E-002
  -1.5347518979534014E-002   4.0902933439466438E-003   4.3087363533966111E-002
  -1.3189658426184043E-002   3.6321563932158810E-003   4.3275859543135953E-002
  -1.1031797872833982E-002   3.2474131343021018E-003   4.3641698633597625E-002
  -2.2355897761965636E-002   6.1639121035088618E-003   3.7574136319309920E-002
  -2.0058981970421781E-002   5.5228762732986159E-003   3.7314705426643641E-002
  -1.7762066178877971E-002   4.9105117497143386E-003   3.7156041929073166E-002
  -1.5465150387334143E-002   4.3268185327565399E-003   3.7098145826598143E-002
  -1.3168234595790307E-002   3.7717966224247723E-003   3.7141017119219050E-002
  -2.5154540833072683E-002   7.1010758861588252E-003   3.1892121575866621E-002
  -2.2795145489531238E-002   6.4239285601026541E-003   3.1494727558757991E-002
  -2.0435750145989869E-002   5.7307301554821374E-003   3.1121525250548423E-002
  -1.8076354802448548E-002   5.0214806722972526E-003   3.0772514651238529E-002
  -1.5716959458907109E-002   4.2961801105473874E-003   3.0447695760827655E-002
  -2.8059169299555042E-002   8.0382396688090108E-003   2.6196356529173181E-002
  -2.5713870090212421E-002   7.3249808469072475E-003   2.5616277002431076E-002
  -2.3368570880869827E-002   6.5509485612499363E-003   2.4983813498391849E-002
  -2.1023271671527274E-002   5.7161428118378821E-003   2.4298966017055917E-002
  -1.8677972462184611E-002   4.8205635986702244E-003   2.3561734558422809E-002
  -9.3076492900383001E-003   2.7230296461793202E-003   4.9949740303962487E-002
  -7.8826375161291790E-003   2.8708627082518201E-003   5.0351985482960049E-002
  -6.4576257422200717E-003   3.6251750324529930E-003   5.1082393705016771E-002
  -5.0326139683109644E-003   4.9859666187829291E-003   5.2140964970132958E-002
  -3.6076021944018433E-003   6.9532374672419683E-003   5.3527699278307916E-002
  -1.1031797872833982E-002   3.2474131343021018E-003   4.3641698633597625E-002
  -9.2607625595347021E-003   3.1744051840003062E-003   4.4227794262533648E-002
  -7.4897272462354295E-003   3.6514741591068545E-003   4.5177773927190940E-002
  -5.7186919329362158E-003   4.6786200596201991E-003   4.6491637627569346E-002
  -3.9476566196368773E-003   6.2558428855415960E-003   4.8169385363668771E-002
  -1.3168234595790307E-002   3.7717966224247723E-003   3.7141017119219050E-002
  -1.1015454750438993E-002   3.4779476597494863E-003   3.7854560861372705E-002
  -8.8626749050876273E-003   3.6777732857603690E-003   3.8967709631908973E-002
  -6.7098950597362754E-003   4.3712735004573545E-003   4.0480463430828249E-002
  -4.5571152143849478E-003   5.5584483038410570E-003   4.2392822258130819E-002
  -1.5716959458907109E-002   4.2961801105473874E-003   3.0447695760827655E-002
  -1.3146714088841861E-002   3.7814901354980973E-003   3.1232285279477141E-002
  -1.0576468718776611E-002   3.7040724124137794E-003   3.2452200819171578E-002
  -8.0062233487113652E-003   4.0639269412946783E-003   3.4107442379910730E-002
  -5.4359779786461154E-003   4.8610537221404904E-003   3.6198009961694734E-002
  -1.8677972462184611E-002   4.8205635986702244E-003   2.3561734558422809E-002
  -1.5654540574743497E-002   4.0850326112471524E-003   2.4360967516847132E-002
  -1.2631108687302439E-002   3.7303715390676895E-003   2.5631247488978048E-002
  -9.6076767998613533E-003   3.7565803821316551E-003   2.7372574474815697E-002
  -6.5842449124202673E-003   4.1636591404401457E-003   2.9584948474360218E-002
  -3.6076021944018433E-003   6.9532374672419683E-003   5.3527699278307916E-002
  -4.1584993851691981E-003   9.5423622780852480E-003   5.1856634494710452E-002
  -4.7093965759365669E-003   1.2768715751568377E-002   5.0039729683727108E-002
  -5.2602937667039079E-003   1.6632297887691279E-002   4.8076984845357967E-002
  -5.8111909574712906E-003   2.1133108686454349E-002   4.5968399979603003E-002
  -3.9476566196368773E-003   6.2558428855415960E-003   4.8169385363668771E-002
  -4.5405205375834007E-003   8.6932517285810973E-003   4.7236551596498810E-002
  -5.1333844555300559E-003   1.2300955680449338E-002   4.6365624402356753E-002
  -5.7262483734766105E-003   1.7078954741146436E-002   4.5556603781241711E-002
  -6.3191122914231790E-003   2.3027248910672649E-002   4.4809489733153685E-002
  -4.5571152143849478E-003   5.5584483038410570E-003   4.2392822258130819E-002
  -4.9841992590975610E-003   7.8441411790767246E-003   4.2731285953578030E-002
  -5.4112833038101431E-003   1.1833195609330174E-002   4.3339402822465692E-002
  -5.8383673485226419E-003   1.7525611594601590E-002   4.4217172864793992E-002
  -6.2654513932352829E-003   2.4921389134890948E-002   4.5364596080563202E-002
  -5.4359779786461154E-003   4.8610537221404904E-003   3.6198009961694734E-002
  -5.4895355497115621E-003   6.9950306295722409E-003   3.8340837565947687E-002
  -5.5430931207770626E-003   1.1365435538211184E-002   4.0961064944054701E-002
  -5.5966506918424816E-003   1.7972268448056855E-002   4.4058692096015151E-002
  -5.6502082629080672E-003   2.6815529359109247E-002   4.7633719021829807E-002
  -6.5842449124202673E-003   4.1636591404401457E-003   2.9584948474360218E-002
  -6.0565294094253874E-003   6.1459200800682012E-003   3.4065206433608330E-002
  -5.5288139064305908E-003   1.0897675467091861E-002   3.9230610767123308E-002
  -5.0010984034357525E-003   1.8418925301511874E-002   4.5081161474905040E-002
  -4.4733829004409698E-003   2.8709669583327546E-002   5.1616858556953638E-002
  -7.7852307769600393E-002   2.2580884781329857E-002   2.4219182879459622E-002
  -7.4331459161186997E-002   2.1945036154828790E-002   2.4691419766970868E-002
  -7.0810610552773740E-002   2.1256128635000190E-002   2.5407640031199857E-002
  -6.7289761944360441E-002   2.0514162221844223E-002   2.6367843672146382E-002
  -6.3768913335947086E-002   1.9719136915360536E-002   2.7572030689810678E-002
  -8.3881054618834938E-002   2.4335180400466117E-002   1.9458704141704530E-002
  -8.0098617409513337E-002   2.3676235632562881E-002   1.9549079490310511E-002
  -7.6316180200191611E-002   2.2957309570230816E-002   1.9918648664015548E-002
  -7.2533742990869926E-002   2.2178402213470345E-002   2.0567411662819696E-002
  -6.8751305781548269E-002   2.1339513562281254E-002   2.1495368486722927E-002
  -9.0252748137287661E-002   2.6089476019602459E-002   1.4678590463097732E-002
  -8.6173511878676057E-002   2.5407435110296805E-002   1.4380181871697151E-002
  -8.2094275620064605E-002   2.4658490505461449E-002   1.4396177553777166E-002
  -7.8015039361453098E-002   2.3842642205096305E-002   1.4726577509337830E-002
  -7.3935803102841549E-002   2.2959890209201916E-002   1.5371381738379097E-002
  -9.6967388324958284E-002   2.7843771638738787E-002   9.8788418436389046E-003
  -9.2556142568675503E-002   2.7138634588030702E-002   9.1847269111311608E-003
  -8.8144896812392778E-002   2.6359671440691994E-002   8.8402267004851365E-003
  -8.3733651056109998E-002   2.5506882196722622E-002   8.8453412117012117E-003
  -7.9322405299827273E-002   2.4580266856122773E-002   9.2000704447791973E-003
 -0.10402497518184695        2.9598067257875060E-002   5.0594582833284329E-003
  -9.9246509479511413E-002   2.8869834065764821E-002   3.9627146086120835E-003
  -9.4468043777175992E-002   2.8060852375922651E-002   3.2507961041390587E-003
  -8.9689578074840626E-002   2.7171122188348593E-002   2.9237027699097265E-003
  -8.4911112372505149E-002   2.6200643503043297E-002   2.9814346059235941E-003
  -6.3768913335947086E-002   1.9719136915360536E-002   2.7572030689810678E-002
  -6.2097758502196079E-002   1.8919040405684567E-002   2.7512515676274274E-002
  -6.0426603668445072E-002   1.8161860382951533E-002   2.7503148147574763E-002
  -5.8755448834694093E-002   1.7447596847160990E-002   2.7543928103712242E-002
  -5.7084294000943087E-002   1.6776249798313381E-002   2.7634855544686587E-002
  -6.8751305781548269E-002   2.1339513562281254E-002   2.1495368486722927E-002
  -6.7009240182841268E-002   2.0491320731407414E-002   2.1296656588614238E-002
  -6.5267174584134280E-002   1.9684500835592783E-002   2.1189618735580715E-002
  -6.3525108985427320E-002   1.8919053874837173E-002   2.1174254927622108E-002
  -6.1783043386720304E-002   1.8194979849140924E-002   2.1250565164738583E-002
  -7.3935803102841549E-002   2.2959890209201916E-002   1.5371381738379097E-002
  -7.2081300178940544E-002   2.2063601057130386E-002   1.5031929403814537E-002
  -7.0226797255039497E-002   2.1207141288234255E-002   1.4825677674563116E-002
  -6.8372294331138450E-002   2.0390510902513523E-002   1.4752626550625002E-002
  -6.6517791407237431E-002   1.9613709899968301E-002   1.4812776032000027E-002
  -7.9322405299827273E-002   2.4580266856122773E-002   9.2000704447791973E-003
  -7.7313938490493977E-002   2.3635881382853101E-002   8.7183341218752056E-003
  -7.5305471681160724E-002   2.2729781740875282E-002   8.4113249645224215E-003
  -7.3297004871827470E-002   2.1861967930189956E-002   8.2790429727209666E-003
  -7.1288538062494217E-002   2.1032439950795595E-002   8.3214881464707124E-003
  -8.4911112372505149E-002   2.6200643503043297E-002   2.9814346059235941E-003
  -8.2707155117501596E-002   2.5208161708576260E-002   2.3558707427963621E-003
  -8.0503197862497933E-002   2.4252422193517004E-002   1.9465606054583917E-003
  -7.8299240607494325E-002   2.3333424957866285E-002   1.7535041939099050E-003
  -7.6095283352490717E-002   2.2451170001623333E-002   1.7767015081509019E-003
  -5.7084294000943087E-002   1.6776249798313381E-002   2.7634855544686587E-002
  -5.4472719558817440E-002   1.6115089249852804E-002   2.7429032027346367E-002
  -5.1861145116691793E-002   1.5431385215223498E-002   2.7412911013941971E-002
  -4.9249570674566132E-002   1.4725137694425551E-002   2.7586492504473314E-002
  -4.6637996232440498E-002   1.3996346687458971E-002   2.7949776498940371E-002
  -6.1783043386720304E-002   1.8194979849140924E-002   2.1250565164738583E-002
  -5.8977738471269261E-002   1.7480649472506993E-002   2.0990556420497020E-002
  -5.6172433555818135E-002   1.6744433458939278E-002   2.0928306118970466E-002
  -5.3367128640367058E-002   1.5986331808437643E-002   2.1063814260159040E-002
  -5.0561823724915966E-002   1.5206344521002058E-002   2.1397080844062832E-002
  -6.6517791407237431E-002   1.9613709899968301E-002   1.4812776032000027E-002
  -6.3510700079681487E-002   1.8846209695161306E-002   1.4499239910091735E-002
  -6.0503608752125612E-002   1.8057481702654990E-002   1.4391518169677917E-002
  -5.7496517424569703E-002   1.7247525922449620E-002   1.4489610810758578E-002
  -5.4489426097013828E-002   1.6416342354545199E-002   1.4793517833333658E-002
  -7.1288538062494217E-002   2.1032439950795595E-002   8.3214881464707124E-003
  -6.8071604384054143E-002   2.0211769917815363E-002   7.9550824961307776E-003
  -6.4854670705614126E-002   1.9370529946371014E-002   7.8025471660641797E-003
  -6.1637737027174032E-002   1.8508720036461819E-002   7.8638821562717759E-003
  -5.8420803348734049E-002   1.7626340188088313E-002   8.1390874667531948E-003
  -7.6095283352490717E-002   2.2451170001623333E-002   1.7767015081509019E-003
  -7.2660451384387148E-002   2.1577330140469808E-002   1.3580841786137166E-003
  -6.9225619416283690E-002   2.0683578190086566E-002   1.1613931081298490E-003
  -6.5790787448180205E-002   1.9769914150473765E-002   1.1866282966988134E-003
  -6.2355955480076664E-002   1.8836338021631427E-002   1.4337897443210679E-003
  -4.6637996232440498E-002   1.3996346687458971E-002   2.7949776498940371E-002
  -4.4381828160452469E-002   1.3251534364336293E-002   2.7569451265941181E-002
  -4.2125660088464398E-002   1.2497222895070215E-002   2.7335109671067559E-002
  -3.9869492016476347E-002   1.1733412279660474E-002   2.7246751714320144E-002
  -3.7613323944488297E-002   1.0960102518107306E-002   2.7304377395698354E-002
  -5.0561823724915966E-002   1.5206344521002058E-002   2.1397080844062832E-002
  -4.8158815976706806E-002   1.4416349606778706E-002   2.1010022388143840E-002
  -4.5755808228497716E-002   1.3628225075913977E-002   2.0770659646540984E-002
  -4.3352800480288549E-002   1.2841970928407550E-002   2.0678992619254336E-002
  -4.0949792732079465E-002   1.2057587164259642E-002   2.0735021306284074E-002
  -5.4489426097013828E-002   1.6416342354545199E-002   1.4793517833333658E-002
  -5.1937866596393274E-002   1.5581164849221146E-002   1.4411095683996941E-002
  -4.9386307095772741E-002   1.4759227256757851E-002   1.4178081325166542E-002
  -4.6834747595152236E-002   1.3950529577154959E-002   1.4094474756843035E-002
  -4.4283188094531717E-002   1.3155071810412255E-002   1.4160275979025777E-002
  -5.8420803348734049E-002   1.7626340188088313E-002   8.1390874667531948E-003
  -5.5718980019511741E-002   1.6745980091663740E-002   7.7726711535003393E-003
  -5.3017156690289502E-002   1.5890229437601558E-002   7.5573747069447236E-003
  -5.0315333361067215E-002   1.5059088225901813E-002   7.4931981270857893E-003
  -4.7613510031844955E-002   1.4252556456564619E-002   7.5801414139237341E-003
  -6.2355955480076664E-002   1.8836338021631427E-002   1.4337897443210679E-003
  -5.9502156246062365E-002   1.7910795334105889E-002   1.0947487966544989E-003
  -5.6648357012048012E-002   1.7021231618445321E-002   9.0853979187488498E-004
  -5.3794557778033714E-002   1.6167646874649180E-002   8.7516272998267031E-004
  -5.0940758544019360E-002   1.5350041102716983E-002   9.9461761097796586E-004
  -3.7613323944488297E-002   1.0960102518107306E-002   2.7304377395698354E-002
  -3.5224785283255011E-002   1.0193941589057343E-002   2.6884728053070739E-002
  -3.2836246622021670E-002   9.4515774711580736E-003   2.6560174794440561E-002
  -3.0447707960788370E-002   8.7330101644081878E-003   2.6330717619807958E-002
  -2.8059169299555042E-002   8.0382396688090108E-003   2.6196356529173181E-002
  -4.0949792732079465E-002   1.2057587164259642E-002   2.0735021306284074E-002
  -3.8464981700628231E-002   1.1279776588266732E-002   2.0337158077066153E-002
  -3.5980170669176970E-002   1.0513242005224382E-002   2.0036743504286608E-002
  -3.3495359637725659E-002   9.7579834151336961E-003   1.9833777587945259E-002
  -3.1010548606274418E-002   9.0140008179940834E-003   1.9728260328042202E-002
  -4.4283188094531717E-002   1.3155071810412255E-002   1.4160275979025777E-002
  -4.1699752120421901E-002   1.2365611587475983E-002   1.3771678045018859E-002
  -3.9116316146311995E-002   1.1574906539291260E-002   1.3482881339890687E-002
  -3.6532880172202159E-002   1.0782956665859430E-002   1.3293885863641629E-002
  -3.3949444198092274E-002   9.9897619671790450E-003   1.3204691616271275E-002
  -4.7613510031844955E-002   1.4252556456564619E-002   7.5801414139237341E-003
  -4.4929096542635938E-002   1.3451446586684804E-002   7.1882879569285935E-003
  -4.2244683053426865E-002   1.2636571073358298E-002   6.8985883012530266E-003
  -3.9560269564217841E-002   1.1807929916584773E-002   6.7110424468967821E-003
  -3.6875856075008775E-002   1.0965523116364173E-002   6.6256503938604550E-003
  -5.0940758544019360E-002   1.5350041102716983E-002   9.9461761097796586E-004
  -4.8153014967270424E-002   1.4537281585894291E-002   5.8698781279575840E-004
  -4.5365271390521544E-002   1.3698235607424614E-002   2.8386438837346706E-004
  -4.2577527813772581E-002   1.2832903167310714E-002   8.5247337711952254E-005
  -3.9789784237023729E-002   1.1941284265549301E-002  -8.8633391901460357E-006
  -2.8059169299555042E-002   8.0382396688090108E-003   2.6196356529173181E-002
  -2.5713870090212421E-002   7.3249808469072475E-003   2.5616277002431076E-002
  -2.3368570880869827E-002   6.5509485612499363E-003   2.4983813498391849E-002
  -2.1023271671527274E-002   5.7161428118378821E-003   2.4298966017055917E-002
  -1.8677972462184611E-002   4.8205635986702244E-003   2.3561734558422809E-002
  -3.1010548606274418E-002   9.0140008179940834E-003   1.9728260328042202E-002
  -2.8701395518467274E-002   8.2727896586075045E-003   1.9143649081363068E-002
  -2.6392242430660046E-002   7.5258453817767801E-003   1.8539129568909851E-002
  -2.4083089342852873E-002   6.7731679875011538E-003   1.7914701790682885E-002
  -2.1773936255045617E-002   6.0147574757810629E-003   1.7270365746681615E-002
  -3.3949444198092274E-002   9.9897619671790450E-003   1.3204691616271275E-002
  -3.1643961520297623E-002   9.2205984703081501E-003   1.2670588995965709E-002
  -2.9338478842502930E-002   8.5007422023034018E-003   1.2149053821409350E-002
  -2.7032996164708233E-002   7.8301931631645366E-003   1.1640086092601816E-002
  -2.4727513486913530E-002   7.2089513528916793E-003   1.1143685809543308E-002
  -3.6875856075008775E-002   1.0965523116364173E-002   6.6256503938604550E-003
  -3.4541568095703593E-002   1.0168407282008879E-002   6.1970967462395554E-003
  -3.2207280116398430E-002   9.4756390228298015E-003   5.8135862558900721E-003
  -2.9872992137093293E-002   8.8872183388276974E-003   5.4751189228130596E-003
  -2.7538704157788078E-002   8.4031452300026843E-003   5.1816947470077479E-003
  -3.9789784237023729E-002   1.1941284265549301E-002  -8.8633391901460357E-006
  -3.7394215244685114E-002   1.1116216093709053E-002  -2.7682766781661483E-004
  -3.4998646252346555E-002   1.0450535843357034E-002  -4.6727312764752171E-004
  -3.2603077260007968E-002   9.9442435144913438E-003  -5.8019971868415038E-004
  -3.0207508267669381E-002   9.5973391071133562E-003  -6.1560744092548081E-004
  -1.8677972462184611E-002   4.8205635986702244E-003   2.3561734558422809E-002
  -1.5654540574743497E-002   4.0850326112471524E-003   2.4360967516847132E-002
  -1.2631108687302439E-002   3.7303715390676895E-003   2.5631247488978048E-002
  -9.6076767998613533E-003   3.7565803821316551E-003   2.7372574474815697E-002
  -6.5842449124202673E-003   4.1636591404401457E-003   2.9584948474360218E-002
  -2.1773936255045617E-002   6.0147574757810629E-003   1.7270365746681615E-002
  -1.8548201799086256E-002   5.3456113171142516E-003   1.8225806690308322E-002
  -1.5322467343126867E-002   4.8607269819987420E-003   1.9114805757264930E-002
  -1.2096732887167429E-002   4.5601044704345478E-003   1.9937362947551440E-002
  -8.8709984312080048E-003   4.4437437824219606E-003   2.0693478261167852E-002
  -2.4727513486913530E-002   7.2089513528916793E-003   1.1143685809543308E-002
  -2.1836965352812522E-002   6.6061900229815729E-003   1.2058726646679896E-002
  -1.8946417218711625E-002   5.9910824249300443E-003   1.2369836716769431E-002
  -1.6055869084610694E-002   5.3636285587374474E-003   1.2077016019812231E-002
  -1.3165320950509665E-002   4.7238284244033313E-003   1.1180264555808228E-002
  -2.7538704157788078E-002   8.4031452300026843E-003   5.1816947470077479E-003
  -2.5520831235922463E-002   7.8667687288477839E-003   5.8597273859617369E-003
  -2.3502958314056795E-002   7.1214378678611107E-003   5.3963403674919530E-003
  -2.1485085392191162E-002   6.1671526470392334E-003   3.7915336915985316E-003
  -1.9467212470325502E-002   5.0039130663847020E-003   1.0453073582813582E-003
  -3.0207508267669381E-002   9.5973391071133562E-003  -6.1560744092548081E-004
  -2.9599799448415842E-002   9.1273474347157713E-003  -3.7119109184668986E-004
  -2.8992090629162304E-002   8.2517933107922881E-003  -1.8056832905678222E-003
  -2.8384381809908821E-002   6.9706767353423793E-003  -4.9190840370899255E-003
  -2.7776672990655227E-002   5.2839977083669609E-003  -9.7113933314126877E-003
  -6.5842449124202673E-003   4.1636591404401457E-003   2.9584948474360218E-002
  -6.0565294094253874E-003   6.1459200800682012E-003   3.4065206433608330E-002
  -5.5288139064305908E-003   1.0897675467091861E-002   3.9230610767123308E-002
  -5.0010984034357525E-003   1.8418925301511874E-002   4.5081161474905040E-002
  -4.4733829004409698E-003   2.8709669583327546E-002   5.1616858556953638E-002
  -8.8709984312080048E-003   4.4437437824219606E-003   2.0693478261167852E-002
  -7.5858184175843224E-003   5.6610960706245939E-003   2.5864814644401601E-002
  -6.3006384039606539E-003   9.3616124877066442E-003   3.1865933674626590E-002
  -5.0154583903369854E-003   1.5545293033668729E-002   3.8696835351841791E-002
  -3.7302783767133030E-003   2.4212137708510051E-002   4.6357519676048398E-002
  -1.3165320950509665E-002   4.7238284244033313E-003   1.1180264555808228E-002
  -1.0978040153533271E-002   5.1762720611807644E-003   1.6756349044511343E-002
  -8.7907593565568834E-003   7.8255495083214277E-003   2.3306852452929461E-002
  -6.6034785595804578E-003   1.2671660765825030E-002   3.0831774781062041E-002
  -4.4161977626039906E-003   1.9714605833692556E-002   3.9331116028909818E-002
  -1.9467212470325502E-002   5.0039130663847020E-003   1.0453073582813582E-003
  -1.6233194617272285E-002   4.6914480517370460E-003   6.7398096339378530E-003
  -1.2999176764219038E-002   6.2894865289357671E-003   1.3553367102032851E-002
  -9.7651589111658194E-003   9.7980284979819407E-003   2.1485979762566262E-002
  -6.5311410581125745E-003   1.5217073958875060E-002   3.0537647615539065E-002
  -2.7776672990655227E-002   5.2839977083669609E-003  -9.7113933314126877E-003
  -2.3351281808801416E-002   4.2066240422933276E-003  -4.1848035873194300E-003
  -1.8925890626947495E-002   4.7534235495506616E-003   2.6054776219364695E-003
  -1.4500499445093573E-002   6.9243962301381023E-003   1.0659450296354636E-002
  -1.0075108263239763E-002   1.0719542084057565E-002   1.9977114435936194E-002
 </DataArray>
 </PointData>
 </Piece>
 </UnstructuredGrid>
 </VTKFile>
