 <VTKFile type="UnstructuredGrid"  version="0.1"   >
 <UnstructuredGrid>
 <Piece  NumberOfPoints="          1600 "  NumberOfCells="         1024 ">
 <Points>
 <DataArray  type="Float64" NumberOfComponents="3"  format="ascii" >
   0.0000000000000000        0.0000000000000000        0.0000000000000000     
   3.1250000000000000E-002   0.0000000000000000        0.0000000000000000     
   6.2500000000000000E-002   0.0000000000000000        0.0000000000000000     
   9.3750000000000000E-002   0.0000000000000000        0.0000000000000000     
  0.12500000000000000        0.0000000000000000        0.0000000000000000     
   0.0000000000000000        3.1250000000000000E-002   0.0000000000000000     
   3.1250000000000000E-002   3.1250000000000000E-002   0.0000000000000000     
   6.2500000000000000E-002   3.1250000000000000E-002   0.0000000000000000     
   9.3750000000000000E-002   3.1250000000000000E-002   0.0000000000000000     
  0.12500000000000000        3.1250000000000000E-002   0.0000000000000000     
   0.0000000000000000        6.2500000000000000E-002   0.0000000000000000     
   3.1250000000000000E-002   6.2500000000000000E-002   0.0000000000000000     
   6.2500000000000000E-002   6.2500000000000000E-002   0.0000000000000000     
   9.3750000000000000E-002   6.2500000000000000E-002   0.0000000000000000     
  0.12500000000000000        6.2500000000000000E-002   0.0000000000000000     
   0.0000000000000000        9.3750000000000000E-002   0.0000000000000000     
   3.1250000000000000E-002   9.3750000000000000E-002   0.0000000000000000     
   6.2500000000000000E-002   9.3750000000000000E-002   0.0000000000000000     
   9.3750000000000000E-002   9.3750000000000000E-002   0.0000000000000000     
  0.12500000000000000        9.3750000000000000E-002   0.0000000000000000     
   0.0000000000000000       0.12500000000000000        0.0000000000000000     
   3.1250000000000000E-002  0.12500000000000000        0.0000000000000000     
   6.2500000000000000E-002  0.12500000000000000        0.0000000000000000     
   9.3750000000000000E-002  0.12500000000000000        0.0000000000000000     
  0.12500000000000000       0.12500000000000000        0.0000000000000000     
  0.12500000000000000        0.0000000000000000        0.0000000000000000     
  0.15625000000000000        0.0000000000000000        0.0000000000000000     
  0.18750000000000000        0.0000000000000000        0.0000000000000000     
  0.21875000000000000        0.0000000000000000        0.0000000000000000     
  0.25000000000000000        0.0000000000000000        0.0000000000000000     
  0.12500000000000000        3.1250000000000000E-002   0.0000000000000000     
  0.15625000000000000        3.1250000000000000E-002   0.0000000000000000     
  0.18750000000000000        3.1250000000000000E-002   0.0000000000000000     
  0.21875000000000000        3.1250000000000000E-002   0.0000000000000000     
  0.25000000000000000        3.1250000000000000E-002   0.0000000000000000     
  0.12500000000000000        6.2500000000000000E-002   0.0000000000000000     
  0.15625000000000000        6.2500000000000000E-002   0.0000000000000000     
  0.18750000000000000        6.2500000000000000E-002   0.0000000000000000     
  0.21875000000000000        6.2500000000000000E-002   0.0000000000000000     
  0.25000000000000000        6.2500000000000000E-002   0.0000000000000000     
  0.12500000000000000        9.3750000000000000E-002   0.0000000000000000     
  0.15625000000000000        9.3750000000000000E-002   0.0000000000000000     
  0.18750000000000000        9.3750000000000000E-002   0.0000000000000000     
  0.21875000000000000        9.3750000000000000E-002   0.0000000000000000     
  0.25000000000000000        9.3750000000000000E-002   0.0000000000000000     
  0.12500000000000000       0.12500000000000000        0.0000000000000000     
  0.15625000000000000       0.12500000000000000        0.0000000000000000     
  0.18750000000000000       0.12500000000000000        0.0000000000000000     
  0.21875000000000000       0.12500000000000000        0.0000000000000000     
  0.25000000000000000       0.12500000000000000        0.0000000000000000     
  0.25000000000000000        0.0000000000000000        0.0000000000000000     
  0.28125000000000000        0.0000000000000000        0.0000000000000000     
  0.31250000000000000        0.0000000000000000        0.0000000000000000     
  0.34375000000000000        0.0000000000000000        0.0000000000000000     
  0.37500000000000000        0.0000000000000000        0.0000000000000000     
  0.25000000000000000        3.1250000000000000E-002   0.0000000000000000     
  0.28125000000000000        3.1250000000000000E-002   0.0000000000000000     
  0.31250000000000000        3.1250000000000000E-002   0.0000000000000000     
  0.34375000000000000        3.1250000000000000E-002   0.0000000000000000     
  0.37500000000000000        3.1250000000000000E-002   0.0000000000000000     
  0.25000000000000000        6.2500000000000000E-002   0.0000000000000000     
  0.28125000000000000        6.2500000000000000E-002   0.0000000000000000     
  0.31250000000000000        6.2500000000000000E-002   0.0000000000000000     
  0.34375000000000000        6.2500000000000000E-002   0.0000000000000000     
  0.37500000000000000        6.2500000000000000E-002   0.0000000000000000     
  0.25000000000000000        9.3750000000000000E-002   0.0000000000000000     
  0.28125000000000000        9.3750000000000000E-002   0.0000000000000000     
  0.31250000000000000        9.3750000000000000E-002   0.0000000000000000     
  0.34375000000000000        9.3750000000000000E-002   0.0000000000000000     
  0.37500000000000000        9.3750000000000000E-002   0.0000000000000000     
  0.25000000000000000       0.12500000000000000        0.0000000000000000     
  0.28125000000000000       0.12500000000000000        0.0000000000000000     
  0.31250000000000000       0.12500000000000000        0.0000000000000000     
  0.34375000000000000       0.12500000000000000        0.0000000000000000     
  0.37500000000000000       0.12500000000000000        0.0000000000000000     
  0.37500000000000000        0.0000000000000000        0.0000000000000000     
  0.40625000000000000        0.0000000000000000        0.0000000000000000     
  0.43750000000000000        0.0000000000000000        0.0000000000000000     
  0.46875000000000000        0.0000000000000000        0.0000000000000000     
  0.50000000000000000        0.0000000000000000        0.0000000000000000     
  0.37500000000000000        3.1250000000000000E-002   0.0000000000000000     
  0.40625000000000000        3.1250000000000000E-002   0.0000000000000000     
  0.43750000000000000        3.1250000000000000E-002   0.0000000000000000     
  0.46875000000000000        3.1250000000000000E-002   0.0000000000000000     
  0.50000000000000000        3.1250000000000000E-002   0.0000000000000000     
  0.37500000000000000        6.2500000000000000E-002   0.0000000000000000     
  0.40625000000000000        6.2500000000000000E-002   0.0000000000000000     
  0.43750000000000000        6.2500000000000000E-002   0.0000000000000000     
  0.46875000000000000        6.2500000000000000E-002   0.0000000000000000     
  0.50000000000000000        6.2500000000000000E-002   0.0000000000000000     
  0.37500000000000000        9.3750000000000000E-002   0.0000000000000000     
  0.40625000000000000        9.3750000000000000E-002   0.0000000000000000     
  0.43750000000000000        9.3750000000000000E-002   0.0000000000000000     
  0.46875000000000000        9.3750000000000000E-002   0.0000000000000000     
  0.50000000000000000        9.3750000000000000E-002   0.0000000000000000     
  0.37500000000000000       0.12500000000000000        0.0000000000000000     
  0.40625000000000000       0.12500000000000000        0.0000000000000000     
  0.43750000000000000       0.12500000000000000        0.0000000000000000     
  0.46875000000000000       0.12500000000000000        0.0000000000000000     
  0.50000000000000000       0.12500000000000000        0.0000000000000000     
  0.50000000000000000        0.0000000000000000        0.0000000000000000     
  0.53125000000000000        0.0000000000000000        0.0000000000000000     
  0.56250000000000000        0.0000000000000000        0.0000000000000000     
  0.59375000000000000        0.0000000000000000        0.0000000000000000     
  0.62500000000000000        0.0000000000000000        0.0000000000000000     
  0.50000000000000000        3.1250000000000000E-002   0.0000000000000000     
  0.53125000000000000        3.1250000000000000E-002   0.0000000000000000     
  0.56250000000000000        3.1250000000000000E-002   0.0000000000000000     
  0.59375000000000000        3.1250000000000000E-002   0.0000000000000000     
  0.62500000000000000        3.1250000000000000E-002   0.0000000000000000     
  0.50000000000000000        6.2500000000000000E-002   0.0000000000000000     
  0.53125000000000000        6.2500000000000000E-002   0.0000000000000000     
  0.56250000000000000        6.2500000000000000E-002   0.0000000000000000     
  0.59375000000000000        6.2500000000000000E-002   0.0000000000000000     
  0.62500000000000000        6.2500000000000000E-002   0.0000000000000000     
  0.50000000000000000        9.3750000000000000E-002   0.0000000000000000     
  0.53125000000000000        9.3750000000000000E-002   0.0000000000000000     
  0.56250000000000000        9.3750000000000000E-002   0.0000000000000000     
  0.59375000000000000        9.3750000000000000E-002   0.0000000000000000     
  0.62500000000000000        9.3750000000000000E-002   0.0000000000000000     
  0.50000000000000000       0.12500000000000000        0.0000000000000000     
  0.53125000000000000       0.12500000000000000        0.0000000000000000     
  0.56250000000000000       0.12500000000000000        0.0000000000000000     
  0.59375000000000000       0.12500000000000000        0.0000000000000000     
  0.62500000000000000       0.12500000000000000        0.0000000000000000     
  0.62500000000000000        0.0000000000000000        0.0000000000000000     
  0.65625000000000000        0.0000000000000000        0.0000000000000000     
  0.68750000000000000        0.0000000000000000        0.0000000000000000     
  0.71875000000000000        0.0000000000000000        0.0000000000000000     
  0.75000000000000000        0.0000000000000000        0.0000000000000000     
  0.62500000000000000        3.1250000000000000E-002   0.0000000000000000     
  0.65625000000000000        3.1250000000000000E-002   0.0000000000000000     
  0.68750000000000000        3.1250000000000000E-002   0.0000000000000000     
  0.71875000000000000        3.1250000000000000E-002   0.0000000000000000     
  0.75000000000000000        3.1250000000000000E-002   0.0000000000000000     
  0.62500000000000000        6.2500000000000000E-002   0.0000000000000000     
  0.65625000000000000        6.2500000000000000E-002   0.0000000000000000     
  0.68750000000000000        6.2500000000000000E-002   0.0000000000000000     
  0.71875000000000000        6.2500000000000000E-002   0.0000000000000000     
  0.75000000000000000        6.2500000000000000E-002   0.0000000000000000     
  0.62500000000000000        9.3750000000000000E-002   0.0000000000000000     
  0.65625000000000000        9.3750000000000000E-002   0.0000000000000000     
  0.68750000000000000        9.3750000000000000E-002   0.0000000000000000     
  0.71875000000000000        9.3750000000000000E-002   0.0000000000000000     
  0.75000000000000000        9.3750000000000000E-002   0.0000000000000000     
  0.62500000000000000       0.12500000000000000        0.0000000000000000     
  0.65625000000000000       0.12500000000000000        0.0000000000000000     
  0.68750000000000000       0.12500000000000000        0.0000000000000000     
  0.71875000000000000       0.12500000000000000        0.0000000000000000     
  0.75000000000000000       0.12500000000000000        0.0000000000000000     
  0.75000000000000000        0.0000000000000000        0.0000000000000000     
  0.78125000000000000        0.0000000000000000        0.0000000000000000     
  0.81250000000000000        0.0000000000000000        0.0000000000000000     
  0.84375000000000000        0.0000000000000000        0.0000000000000000     
  0.87500000000000000        0.0000000000000000        0.0000000000000000     
  0.75000000000000000        3.1250000000000000E-002   0.0000000000000000     
  0.78125000000000000        3.1250000000000000E-002   0.0000000000000000     
  0.81250000000000000        3.1250000000000000E-002   0.0000000000000000     
  0.84375000000000000        3.1250000000000000E-002   0.0000000000000000     
  0.87500000000000000        3.1250000000000000E-002   0.0000000000000000     
  0.75000000000000000        6.2500000000000000E-002   0.0000000000000000     
  0.78125000000000000        6.2500000000000000E-002   0.0000000000000000     
  0.81250000000000000        6.2500000000000000E-002   0.0000000000000000     
  0.84375000000000000        6.2500000000000000E-002   0.0000000000000000     
  0.87500000000000000        6.2500000000000000E-002   0.0000000000000000     
  0.75000000000000000        9.3750000000000000E-002   0.0000000000000000     
  0.78125000000000000        9.3750000000000000E-002   0.0000000000000000     
  0.81250000000000000        9.3750000000000000E-002   0.0000000000000000     
  0.84375000000000000        9.3750000000000000E-002   0.0000000000000000     
  0.87500000000000000        9.3750000000000000E-002   0.0000000000000000     
  0.75000000000000000       0.12500000000000000        0.0000000000000000     
  0.78125000000000000       0.12500000000000000        0.0000000000000000     
  0.81250000000000000       0.12500000000000000        0.0000000000000000     
  0.84375000000000000       0.12500000000000000        0.0000000000000000     
  0.87500000000000000       0.12500000000000000        0.0000000000000000     
  0.87500000000000000        0.0000000000000000        0.0000000000000000     
  0.90625000000000000        0.0000000000000000        0.0000000000000000     
  0.93750000000000000        0.0000000000000000        0.0000000000000000     
  0.96875000000000000        0.0000000000000000        0.0000000000000000     
   1.0000000000000000        0.0000000000000000        0.0000000000000000     
  0.87500000000000000        3.1250000000000000E-002   0.0000000000000000     
  0.90625000000000000        3.1250000000000000E-002   0.0000000000000000     
  0.93750000000000000        3.1250000000000000E-002   0.0000000000000000     
  0.96875000000000000        3.1250000000000000E-002   0.0000000000000000     
   1.0000000000000000        3.1250000000000000E-002   0.0000000000000000     
  0.87500000000000000        6.2500000000000000E-002   0.0000000000000000     
  0.90625000000000000        6.2500000000000000E-002   0.0000000000000000     
  0.93750000000000000        6.2500000000000000E-002   0.0000000000000000     
  0.96875000000000000        6.2500000000000000E-002   0.0000000000000000     
   1.0000000000000000        6.2500000000000000E-002   0.0000000000000000     
  0.87500000000000000        9.3750000000000000E-002   0.0000000000000000     
  0.90625000000000000        9.3750000000000000E-002   0.0000000000000000     
  0.93750000000000000        9.3750000000000000E-002   0.0000000000000000     
  0.96875000000000000        9.3750000000000000E-002   0.0000000000000000     
   1.0000000000000000        9.3750000000000000E-002   0.0000000000000000     
  0.87500000000000000       0.12500000000000000        0.0000000000000000     
  0.90625000000000000       0.12500000000000000        0.0000000000000000     
  0.93750000000000000       0.12500000000000000        0.0000000000000000     
  0.96875000000000000       0.12500000000000000        0.0000000000000000     
   1.0000000000000000       0.12500000000000000        0.0000000000000000     
   0.0000000000000000       0.12500000000000000        0.0000000000000000     
   3.1250000000000000E-002  0.12500000000000000        0.0000000000000000     
   6.2500000000000000E-002  0.12500000000000000        0.0000000000000000     
   9.3750000000000000E-002  0.12500000000000000        0.0000000000000000     
  0.12500000000000000       0.12500000000000000        0.0000000000000000     
   0.0000000000000000       0.15625000000000000        0.0000000000000000     
   3.1250000000000000E-002  0.15625000000000000        0.0000000000000000     
   6.2500000000000000E-002  0.15625000000000000        0.0000000000000000     
   9.3750000000000000E-002  0.15625000000000000        0.0000000000000000     
  0.12500000000000000       0.15625000000000000        0.0000000000000000     
   0.0000000000000000       0.18750000000000000        0.0000000000000000     
   3.1250000000000000E-002  0.18750000000000000        0.0000000000000000     
   6.2500000000000000E-002  0.18750000000000000        0.0000000000000000     
   9.3750000000000000E-002  0.18750000000000000        0.0000000000000000     
  0.12500000000000000       0.18750000000000000        0.0000000000000000     
   0.0000000000000000       0.21875000000000000        0.0000000000000000     
   3.1250000000000000E-002  0.21875000000000000        0.0000000000000000     
   6.2500000000000000E-002  0.21875000000000000        0.0000000000000000     
   9.3750000000000000E-002  0.21875000000000000        0.0000000000000000     
  0.12500000000000000       0.21875000000000000        0.0000000000000000     
   0.0000000000000000       0.25000000000000000        0.0000000000000000     
   3.1250000000000000E-002  0.25000000000000000        0.0000000000000000     
   6.2500000000000000E-002  0.25000000000000000        0.0000000000000000     
   9.3750000000000000E-002  0.25000000000000000        0.0000000000000000     
  0.12500000000000000       0.25000000000000000        0.0000000000000000     
  0.12500000000000000       0.12500000000000000        0.0000000000000000     
  0.15625000000000000       0.12500000000000000        0.0000000000000000     
  0.18750000000000000       0.12500000000000000        0.0000000000000000     
  0.21875000000000000       0.12500000000000000        0.0000000000000000     
  0.25000000000000000       0.12500000000000000        0.0000000000000000     
  0.12500000000000000       0.15625000000000000        0.0000000000000000     
  0.15625000000000000       0.15625000000000000        0.0000000000000000     
  0.18750000000000000       0.15625000000000000        0.0000000000000000     
  0.21875000000000000       0.15625000000000000        0.0000000000000000     
  0.25000000000000000       0.15625000000000000        0.0000000000000000     
  0.12500000000000000       0.18750000000000000        0.0000000000000000     
  0.15625000000000000       0.18750000000000000        0.0000000000000000     
  0.18750000000000000       0.18750000000000000        0.0000000000000000     
  0.21875000000000000       0.18750000000000000        0.0000000000000000     
  0.25000000000000000       0.18750000000000000        0.0000000000000000     
  0.12500000000000000       0.21875000000000000        0.0000000000000000     
  0.15625000000000000       0.21875000000000000        0.0000000000000000     
  0.18750000000000000       0.21875000000000000        0.0000000000000000     
  0.21875000000000000       0.21875000000000000        0.0000000000000000     
  0.25000000000000000       0.21875000000000000        0.0000000000000000     
  0.12500000000000000       0.25000000000000000        0.0000000000000000     
  0.15625000000000000       0.25000000000000000        0.0000000000000000     
  0.18750000000000000       0.25000000000000000        0.0000000000000000     
  0.21875000000000000       0.25000000000000000        0.0000000000000000     
  0.25000000000000000       0.25000000000000000        0.0000000000000000     
  0.25000000000000000       0.12500000000000000        0.0000000000000000     
  0.28125000000000000       0.12500000000000000        0.0000000000000000     
  0.31250000000000000       0.12500000000000000        0.0000000000000000     
  0.34375000000000000       0.12500000000000000        0.0000000000000000     
  0.37500000000000000       0.12500000000000000        0.0000000000000000     
  0.25000000000000000       0.15625000000000000        0.0000000000000000     
  0.28125000000000000       0.15625000000000000        0.0000000000000000     
  0.31250000000000000       0.15625000000000000        0.0000000000000000     
  0.34375000000000000       0.15625000000000000        0.0000000000000000     
  0.37500000000000000       0.15625000000000000        0.0000000000000000     
  0.25000000000000000       0.18750000000000000        0.0000000000000000     
  0.28125000000000000       0.18750000000000000        0.0000000000000000     
  0.31250000000000000       0.18750000000000000        0.0000000000000000     
  0.34375000000000000       0.18750000000000000        0.0000000000000000     
  0.37500000000000000       0.18750000000000000        0.0000000000000000     
  0.25000000000000000       0.21875000000000000        0.0000000000000000     
  0.28125000000000000       0.21875000000000000        0.0000000000000000     
  0.31250000000000000       0.21875000000000000        0.0000000000000000     
  0.34375000000000000       0.21875000000000000        0.0000000000000000     
  0.37500000000000000       0.21875000000000000        0.0000000000000000     
  0.25000000000000000       0.25000000000000000        0.0000000000000000     
  0.28125000000000000       0.25000000000000000        0.0000000000000000     
  0.31250000000000000       0.25000000000000000        0.0000000000000000     
  0.34375000000000000       0.25000000000000000        0.0000000000000000     
  0.37500000000000000       0.25000000000000000        0.0000000000000000     
  0.37500000000000000       0.12500000000000000        0.0000000000000000     
  0.40625000000000000       0.12500000000000000        0.0000000000000000     
  0.43750000000000000       0.12500000000000000        0.0000000000000000     
  0.46875000000000000       0.12500000000000000        0.0000000000000000     
  0.50000000000000000       0.12500000000000000        0.0000000000000000     
  0.37500000000000000       0.15625000000000000        0.0000000000000000     
  0.40625000000000000       0.15625000000000000        0.0000000000000000     
  0.43750000000000000       0.15625000000000000        0.0000000000000000     
  0.46875000000000000       0.15625000000000000        0.0000000000000000     
  0.50000000000000000       0.15625000000000000        0.0000000000000000     
  0.37500000000000000       0.18750000000000000        0.0000000000000000     
  0.40625000000000000       0.18750000000000000        0.0000000000000000     
  0.43750000000000000       0.18750000000000000        0.0000000000000000     
  0.46875000000000000       0.18750000000000000        0.0000000000000000     
  0.50000000000000000       0.18750000000000000        0.0000000000000000     
  0.37500000000000000       0.21875000000000000        0.0000000000000000     
  0.40625000000000000       0.21875000000000000        0.0000000000000000     
  0.43750000000000000       0.21875000000000000        0.0000000000000000     
  0.46875000000000000       0.21875000000000000        0.0000000000000000     
  0.50000000000000000       0.21875000000000000        0.0000000000000000     
  0.37500000000000000       0.25000000000000000        0.0000000000000000     
  0.40625000000000000       0.25000000000000000        0.0000000000000000     
  0.43750000000000000       0.25000000000000000        0.0000000000000000     
  0.46875000000000000       0.25000000000000000        0.0000000000000000     
  0.50000000000000000       0.25000000000000000        0.0000000000000000     
  0.50000000000000000       0.12500000000000000        0.0000000000000000     
  0.53125000000000000       0.12500000000000000        0.0000000000000000     
  0.56250000000000000       0.12500000000000000        0.0000000000000000     
  0.59375000000000000       0.12500000000000000        0.0000000000000000     
  0.62500000000000000       0.12500000000000000        0.0000000000000000     
  0.50000000000000000       0.15625000000000000        0.0000000000000000     
  0.53125000000000000       0.15625000000000000        0.0000000000000000     
  0.56250000000000000       0.15625000000000000        0.0000000000000000     
  0.59375000000000000       0.15625000000000000        0.0000000000000000     
  0.62500000000000000       0.15625000000000000        0.0000000000000000     
  0.50000000000000000       0.18750000000000000        0.0000000000000000     
  0.53125000000000000       0.18750000000000000        0.0000000000000000     
  0.56250000000000000       0.18750000000000000        0.0000000000000000     
  0.59375000000000000       0.18750000000000000        0.0000000000000000     
  0.62500000000000000       0.18750000000000000        0.0000000000000000     
  0.50000000000000000       0.21875000000000000        0.0000000000000000     
  0.53125000000000000       0.21875000000000000        0.0000000000000000     
  0.56250000000000000       0.21875000000000000        0.0000000000000000     
  0.59375000000000000       0.21875000000000000        0.0000000000000000     
  0.62500000000000000       0.21875000000000000        0.0000000000000000     
  0.50000000000000000       0.25000000000000000        0.0000000000000000     
  0.53125000000000000       0.25000000000000000        0.0000000000000000     
  0.56250000000000000       0.25000000000000000        0.0000000000000000     
  0.59375000000000000       0.25000000000000000        0.0000000000000000     
  0.62500000000000000       0.25000000000000000        0.0000000000000000     
  0.62500000000000000       0.12500000000000000        0.0000000000000000     
  0.65625000000000000       0.12500000000000000        0.0000000000000000     
  0.68750000000000000       0.12500000000000000        0.0000000000000000     
  0.71875000000000000       0.12500000000000000        0.0000000000000000     
  0.75000000000000000       0.12500000000000000        0.0000000000000000     
  0.62500000000000000       0.15625000000000000        0.0000000000000000     
  0.65625000000000000       0.15625000000000000        0.0000000000000000     
  0.68750000000000000       0.15625000000000000        0.0000000000000000     
  0.71875000000000000       0.15625000000000000        0.0000000000000000     
  0.75000000000000000       0.15625000000000000        0.0000000000000000     
  0.62500000000000000       0.18750000000000000        0.0000000000000000     
  0.65625000000000000       0.18750000000000000        0.0000000000000000     
  0.68750000000000000       0.18750000000000000        0.0000000000000000     
  0.71875000000000000       0.18750000000000000        0.0000000000000000     
  0.75000000000000000       0.18750000000000000        0.0000000000000000     
  0.62500000000000000       0.21875000000000000        0.0000000000000000     
  0.65625000000000000       0.21875000000000000        0.0000000000000000     
  0.68750000000000000       0.21875000000000000        0.0000000000000000     
  0.71875000000000000       0.21875000000000000        0.0000000000000000     
  0.75000000000000000       0.21875000000000000        0.0000000000000000     
  0.62500000000000000       0.25000000000000000        0.0000000000000000     
  0.65625000000000000       0.25000000000000000        0.0000000000000000     
  0.68750000000000000       0.25000000000000000        0.0000000000000000     
  0.71875000000000000       0.25000000000000000        0.0000000000000000     
  0.75000000000000000       0.25000000000000000        0.0000000000000000     
  0.75000000000000000       0.12500000000000000        0.0000000000000000     
  0.78125000000000000       0.12500000000000000        0.0000000000000000     
  0.81250000000000000       0.12500000000000000        0.0000000000000000     
  0.84375000000000000       0.12500000000000000        0.0000000000000000     
  0.87500000000000000       0.12500000000000000        0.0000000000000000     
  0.75000000000000000       0.15625000000000000        0.0000000000000000     
  0.78125000000000000       0.15625000000000000        0.0000000000000000     
  0.81250000000000000       0.15625000000000000        0.0000000000000000     
  0.84375000000000000       0.15625000000000000        0.0000000000000000     
  0.87500000000000000       0.15625000000000000        0.0000000000000000     
  0.75000000000000000       0.18750000000000000        0.0000000000000000     
  0.78125000000000000       0.18750000000000000        0.0000000000000000     
  0.81250000000000000       0.18750000000000000        0.0000000000000000     
  0.84375000000000000       0.18750000000000000        0.0000000000000000     
  0.87500000000000000       0.18750000000000000        0.0000000000000000     
  0.75000000000000000       0.21875000000000000        0.0000000000000000     
  0.78125000000000000       0.21875000000000000        0.0000000000000000     
  0.81250000000000000       0.21875000000000000        0.0000000000000000     
  0.84375000000000000       0.21875000000000000        0.0000000000000000     
  0.87500000000000000       0.21875000000000000        0.0000000000000000     
  0.75000000000000000       0.25000000000000000        0.0000000000000000     
  0.78125000000000000       0.25000000000000000        0.0000000000000000     
  0.81250000000000000       0.25000000000000000        0.0000000000000000     
  0.84375000000000000       0.25000000000000000        0.0000000000000000     
  0.87500000000000000       0.25000000000000000        0.0000000000000000     
  0.87500000000000000       0.12500000000000000        0.0000000000000000     
  0.90625000000000000       0.12500000000000000        0.0000000000000000     
  0.93750000000000000       0.12500000000000000        0.0000000000000000     
  0.96875000000000000       0.12500000000000000        0.0000000000000000     
   1.0000000000000000       0.12500000000000000        0.0000000000000000     
  0.87500000000000000       0.15625000000000000        0.0000000000000000     
  0.90625000000000000       0.15625000000000000        0.0000000000000000     
  0.93750000000000000       0.15625000000000000        0.0000000000000000     
  0.96875000000000000       0.15625000000000000        0.0000000000000000     
   1.0000000000000000       0.15625000000000000        0.0000000000000000     
  0.87500000000000000       0.18750000000000000        0.0000000000000000     
  0.90625000000000000       0.18750000000000000        0.0000000000000000     
  0.93750000000000000       0.18750000000000000        0.0000000000000000     
  0.96875000000000000       0.18750000000000000        0.0000000000000000     
   1.0000000000000000       0.18750000000000000        0.0000000000000000     
  0.87500000000000000       0.21875000000000000        0.0000000000000000     
  0.90625000000000000       0.21875000000000000        0.0000000000000000     
  0.93750000000000000       0.21875000000000000        0.0000000000000000     
  0.96875000000000000       0.21875000000000000        0.0000000000000000     
   1.0000000000000000       0.21875000000000000        0.0000000000000000     
  0.87500000000000000       0.25000000000000000        0.0000000000000000     
  0.90625000000000000       0.25000000000000000        0.0000000000000000     
  0.93750000000000000       0.25000000000000000        0.0000000000000000     
  0.96875000000000000       0.25000000000000000        0.0000000000000000     
   1.0000000000000000       0.25000000000000000        0.0000000000000000     
   0.0000000000000000       0.25000000000000000        0.0000000000000000     
   3.1250000000000000E-002  0.25000000000000000        0.0000000000000000     
   6.2500000000000000E-002  0.25000000000000000        0.0000000000000000     
   9.3750000000000000E-002  0.25000000000000000        0.0000000000000000     
  0.12500000000000000       0.25000000000000000        0.0000000000000000     
   0.0000000000000000       0.28125000000000000        0.0000000000000000     
   3.1250000000000000E-002  0.28125000000000000        0.0000000000000000     
   6.2500000000000000E-002  0.28125000000000000        0.0000000000000000     
   9.3750000000000000E-002  0.28125000000000000        0.0000000000000000     
  0.12500000000000000       0.28125000000000000        0.0000000000000000     
   0.0000000000000000       0.31250000000000000        0.0000000000000000     
   3.1250000000000000E-002  0.31250000000000000        0.0000000000000000     
   6.2500000000000000E-002  0.31250000000000000        0.0000000000000000     
   9.3750000000000000E-002  0.31250000000000000        0.0000000000000000     
  0.12500000000000000       0.31250000000000000        0.0000000000000000     
   0.0000000000000000       0.34375000000000000        0.0000000000000000     
   3.1250000000000000E-002  0.34375000000000000        0.0000000000000000     
   6.2500000000000000E-002  0.34375000000000000        0.0000000000000000     
   9.3750000000000000E-002  0.34375000000000000        0.0000000000000000     
  0.12500000000000000       0.34375000000000000        0.0000000000000000     
   0.0000000000000000       0.37500000000000000        0.0000000000000000     
   3.1250000000000000E-002  0.37500000000000000        0.0000000000000000     
   6.2500000000000000E-002  0.37500000000000000        0.0000000000000000     
   9.3750000000000000E-002  0.37500000000000000        0.0000000000000000     
  0.12500000000000000       0.37500000000000000        0.0000000000000000     
  0.12500000000000000       0.25000000000000000        0.0000000000000000     
  0.15625000000000000       0.25000000000000000        0.0000000000000000     
  0.18750000000000000       0.25000000000000000        0.0000000000000000     
  0.21875000000000000       0.25000000000000000        0.0000000000000000     
  0.25000000000000000       0.25000000000000000        0.0000000000000000     
  0.12500000000000000       0.28125000000000000        0.0000000000000000     
  0.15625000000000000       0.28125000000000000        0.0000000000000000     
  0.18750000000000000       0.28125000000000000        0.0000000000000000     
  0.21875000000000000       0.28125000000000000        0.0000000000000000     
  0.25000000000000000       0.28125000000000000        0.0000000000000000     
  0.12500000000000000       0.31250000000000000        0.0000000000000000     
  0.15625000000000000       0.31250000000000000        0.0000000000000000     
  0.18750000000000000       0.31250000000000000        0.0000000000000000     
  0.21875000000000000       0.31250000000000000        0.0000000000000000     
  0.25000000000000000       0.31250000000000000        0.0000000000000000     
  0.12500000000000000       0.34375000000000000        0.0000000000000000     
  0.15625000000000000       0.34375000000000000        0.0000000000000000     
  0.18750000000000000       0.34375000000000000        0.0000000000000000     
  0.21875000000000000       0.34375000000000000        0.0000000000000000     
  0.25000000000000000       0.34375000000000000        0.0000000000000000     
  0.12500000000000000       0.37500000000000000        0.0000000000000000     
  0.15625000000000000       0.37500000000000000        0.0000000000000000     
  0.18750000000000000       0.37500000000000000        0.0000000000000000     
  0.21875000000000000       0.37500000000000000        0.0000000000000000     
  0.25000000000000000       0.37500000000000000        0.0000000000000000     
  0.25000000000000000       0.25000000000000000        0.0000000000000000     
  0.28125000000000000       0.25000000000000000        0.0000000000000000     
  0.31250000000000000       0.25000000000000000        0.0000000000000000     
  0.34375000000000000       0.25000000000000000        0.0000000000000000     
  0.37500000000000000       0.25000000000000000        0.0000000000000000     
  0.25000000000000000       0.28125000000000000        0.0000000000000000     
  0.28125000000000000       0.28125000000000000        0.0000000000000000     
  0.31250000000000000       0.28125000000000000        0.0000000000000000     
  0.34375000000000000       0.28125000000000000        0.0000000000000000     
  0.37500000000000000       0.28125000000000000        0.0000000000000000     
  0.25000000000000000       0.31250000000000000        0.0000000000000000     
  0.28125000000000000       0.31250000000000000        0.0000000000000000     
  0.31250000000000000       0.31250000000000000        0.0000000000000000     
  0.34375000000000000       0.31250000000000000        0.0000000000000000     
  0.37500000000000000       0.31250000000000000        0.0000000000000000     
  0.25000000000000000       0.34375000000000000        0.0000000000000000     
  0.28125000000000000       0.34375000000000000        0.0000000000000000     
  0.31250000000000000       0.34375000000000000        0.0000000000000000     
  0.34375000000000000       0.34375000000000000        0.0000000000000000     
  0.37500000000000000       0.34375000000000000        0.0000000000000000     
  0.25000000000000000       0.37500000000000000        0.0000000000000000     
  0.28125000000000000       0.37500000000000000        0.0000000000000000     
  0.31250000000000000       0.37500000000000000        0.0000000000000000     
  0.34375000000000000       0.37500000000000000        0.0000000000000000     
  0.37500000000000000       0.37500000000000000        0.0000000000000000     
  0.37500000000000000       0.25000000000000000        0.0000000000000000     
  0.40625000000000000       0.25000000000000000        0.0000000000000000     
  0.43750000000000000       0.25000000000000000        0.0000000000000000     
  0.46875000000000000       0.25000000000000000        0.0000000000000000     
  0.50000000000000000       0.25000000000000000        0.0000000000000000     
  0.37500000000000000       0.28125000000000000        0.0000000000000000     
  0.40625000000000000       0.28125000000000000        0.0000000000000000     
  0.43750000000000000       0.28125000000000000        0.0000000000000000     
  0.46875000000000000       0.28125000000000000        0.0000000000000000     
  0.50000000000000000       0.28125000000000000        0.0000000000000000     
  0.37500000000000000       0.31250000000000000        0.0000000000000000     
  0.40625000000000000       0.31250000000000000        0.0000000000000000     
  0.43750000000000000       0.31250000000000000        0.0000000000000000     
  0.46875000000000000       0.31250000000000000        0.0000000000000000     
  0.50000000000000000       0.31250000000000000        0.0000000000000000     
  0.37500000000000000       0.34375000000000000        0.0000000000000000     
  0.40625000000000000       0.34375000000000000        0.0000000000000000     
  0.43750000000000000       0.34375000000000000        0.0000000000000000     
  0.46875000000000000       0.34375000000000000        0.0000000000000000     
  0.50000000000000000       0.34375000000000000        0.0000000000000000     
  0.37500000000000000       0.37500000000000000        0.0000000000000000     
  0.40625000000000000       0.37500000000000000        0.0000000000000000     
  0.43750000000000000       0.37500000000000000        0.0000000000000000     
  0.46875000000000000       0.37500000000000000        0.0000000000000000     
  0.50000000000000000       0.37500000000000000        0.0000000000000000     
  0.50000000000000000       0.25000000000000000        0.0000000000000000     
  0.53125000000000000       0.25000000000000000        0.0000000000000000     
  0.56250000000000000       0.25000000000000000        0.0000000000000000     
  0.59375000000000000       0.25000000000000000        0.0000000000000000     
  0.62500000000000000       0.25000000000000000        0.0000000000000000     
  0.50000000000000000       0.28125000000000000        0.0000000000000000     
  0.53125000000000000       0.28125000000000000        0.0000000000000000     
  0.56250000000000000       0.28125000000000000        0.0000000000000000     
  0.59375000000000000       0.28125000000000000        0.0000000000000000     
  0.62500000000000000       0.28125000000000000        0.0000000000000000     
  0.50000000000000000       0.31250000000000000        0.0000000000000000     
  0.53125000000000000       0.31250000000000000        0.0000000000000000     
  0.56250000000000000       0.31250000000000000        0.0000000000000000     
  0.59375000000000000       0.31250000000000000        0.0000000000000000     
  0.62500000000000000       0.31250000000000000        0.0000000000000000     
  0.50000000000000000       0.34375000000000000        0.0000000000000000     
  0.53125000000000000       0.34375000000000000        0.0000000000000000     
  0.56250000000000000       0.34375000000000000        0.0000000000000000     
  0.59375000000000000       0.34375000000000000        0.0000000000000000     
  0.62500000000000000       0.34375000000000000        0.0000000000000000     
  0.50000000000000000       0.37500000000000000        0.0000000000000000     
  0.53125000000000000       0.37500000000000000        0.0000000000000000     
  0.56250000000000000       0.37500000000000000        0.0000000000000000     
  0.59375000000000000       0.37500000000000000        0.0000000000000000     
  0.62500000000000000       0.37500000000000000        0.0000000000000000     
  0.62500000000000000       0.25000000000000000        0.0000000000000000     
  0.65625000000000000       0.25000000000000000        0.0000000000000000     
  0.68750000000000000       0.25000000000000000        0.0000000000000000     
  0.71875000000000000       0.25000000000000000        0.0000000000000000     
  0.75000000000000000       0.25000000000000000        0.0000000000000000     
  0.62500000000000000       0.28125000000000000        0.0000000000000000     
  0.65625000000000000       0.28125000000000000        0.0000000000000000     
  0.68750000000000000       0.28125000000000000        0.0000000000000000     
  0.71875000000000000       0.28125000000000000        0.0000000000000000     
  0.75000000000000000       0.28125000000000000        0.0000000000000000     
  0.62500000000000000       0.31250000000000000        0.0000000000000000     
  0.65625000000000000       0.31250000000000000        0.0000000000000000     
  0.68750000000000000       0.31250000000000000        0.0000000000000000     
  0.71875000000000000       0.31250000000000000        0.0000000000000000     
  0.75000000000000000       0.31250000000000000        0.0000000000000000     
  0.62500000000000000       0.34375000000000000        0.0000000000000000     
  0.65625000000000000       0.34375000000000000        0.0000000000000000     
  0.68750000000000000       0.34375000000000000        0.0000000000000000     
  0.71875000000000000       0.34375000000000000        0.0000000000000000     
  0.75000000000000000       0.34375000000000000        0.0000000000000000     
  0.62500000000000000       0.37500000000000000        0.0000000000000000     
  0.65625000000000000       0.37500000000000000        0.0000000000000000     
  0.68750000000000000       0.37500000000000000        0.0000000000000000     
  0.71875000000000000       0.37500000000000000        0.0000000000000000     
  0.75000000000000000       0.37500000000000000        0.0000000000000000     
  0.75000000000000000       0.25000000000000000        0.0000000000000000     
  0.78125000000000000       0.25000000000000000        0.0000000000000000     
  0.81250000000000000       0.25000000000000000        0.0000000000000000     
  0.84375000000000000       0.25000000000000000        0.0000000000000000     
  0.87500000000000000       0.25000000000000000        0.0000000000000000     
  0.75000000000000000       0.28125000000000000        0.0000000000000000     
  0.78125000000000000       0.28125000000000000        0.0000000000000000     
  0.81250000000000000       0.28125000000000000        0.0000000000000000     
  0.84375000000000000       0.28125000000000000        0.0000000000000000     
  0.87500000000000000       0.28125000000000000        0.0000000000000000     
  0.75000000000000000       0.31250000000000000        0.0000000000000000     
  0.78125000000000000       0.31250000000000000        0.0000000000000000     
  0.81250000000000000       0.31250000000000000        0.0000000000000000     
  0.84375000000000000       0.31250000000000000        0.0000000000000000     
  0.87500000000000000       0.31250000000000000        0.0000000000000000     
  0.75000000000000000       0.34375000000000000        0.0000000000000000     
  0.78125000000000000       0.34375000000000000        0.0000000000000000     
  0.81250000000000000       0.34375000000000000        0.0000000000000000     
  0.84375000000000000       0.34375000000000000        0.0000000000000000     
  0.87500000000000000       0.34375000000000000        0.0000000000000000     
  0.75000000000000000       0.37500000000000000        0.0000000000000000     
  0.78125000000000000       0.37500000000000000        0.0000000000000000     
  0.81250000000000000       0.37500000000000000        0.0000000000000000     
  0.84375000000000000       0.37500000000000000        0.0000000000000000     
  0.87500000000000000       0.37500000000000000        0.0000000000000000     
  0.87500000000000000       0.25000000000000000        0.0000000000000000     
  0.90625000000000000       0.25000000000000000        0.0000000000000000     
  0.93750000000000000       0.25000000000000000        0.0000000000000000     
  0.96875000000000000       0.25000000000000000        0.0000000000000000     
   1.0000000000000000       0.25000000000000000        0.0000000000000000     
  0.87500000000000000       0.28125000000000000        0.0000000000000000     
  0.90625000000000000       0.28125000000000000        0.0000000000000000     
  0.93750000000000000       0.28125000000000000        0.0000000000000000     
  0.96875000000000000       0.28125000000000000        0.0000000000000000     
   1.0000000000000000       0.28125000000000000        0.0000000000000000     
  0.87500000000000000       0.31250000000000000        0.0000000000000000     
  0.90625000000000000       0.31250000000000000        0.0000000000000000     
  0.93750000000000000       0.31250000000000000        0.0000000000000000     
  0.96875000000000000       0.31250000000000000        0.0000000000000000     
   1.0000000000000000       0.31250000000000000        0.0000000000000000     
  0.87500000000000000       0.34375000000000000        0.0000000000000000     
  0.90625000000000000       0.34375000000000000        0.0000000000000000     
  0.93750000000000000       0.34375000000000000        0.0000000000000000     
  0.96875000000000000       0.34375000000000000        0.0000000000000000     
   1.0000000000000000       0.34375000000000000        0.0000000000000000     
  0.87500000000000000       0.37500000000000000        0.0000000000000000     
  0.90625000000000000       0.37500000000000000        0.0000000000000000     
  0.93750000000000000       0.37500000000000000        0.0000000000000000     
  0.96875000000000000       0.37500000000000000        0.0000000000000000     
   1.0000000000000000       0.37500000000000000        0.0000000000000000     
   0.0000000000000000       0.37500000000000000        0.0000000000000000     
   3.1250000000000000E-002  0.37500000000000000        0.0000000000000000     
   6.2500000000000000E-002  0.37500000000000000        0.0000000000000000     
   9.3750000000000000E-002  0.37500000000000000        0.0000000000000000     
  0.12500000000000000       0.37500000000000000        0.0000000000000000     
   0.0000000000000000       0.40625000000000000        0.0000000000000000     
   3.1250000000000000E-002  0.40625000000000000        0.0000000000000000     
   6.2500000000000000E-002  0.40625000000000000        0.0000000000000000     
   9.3750000000000000E-002  0.40625000000000000        0.0000000000000000     
  0.12500000000000000       0.40625000000000000        0.0000000000000000     
   0.0000000000000000       0.43750000000000000        0.0000000000000000     
   3.1250000000000000E-002  0.43750000000000000        0.0000000000000000     
   6.2500000000000000E-002  0.43750000000000000        0.0000000000000000     
   9.3750000000000000E-002  0.43750000000000000        0.0000000000000000     
  0.12500000000000000       0.43750000000000000        0.0000000000000000     
   0.0000000000000000       0.46875000000000000        0.0000000000000000     
   3.1250000000000000E-002  0.46875000000000000        0.0000000000000000     
   6.2500000000000000E-002  0.46875000000000000        0.0000000000000000     
   9.3750000000000000E-002  0.46875000000000000        0.0000000000000000     
  0.12500000000000000       0.46875000000000000        0.0000000000000000     
   0.0000000000000000       0.50000000000000000        0.0000000000000000     
   3.1250000000000000E-002  0.50000000000000000        0.0000000000000000     
   6.2500000000000000E-002  0.50000000000000000        0.0000000000000000     
   9.3750000000000000E-002  0.50000000000000000        0.0000000000000000     
  0.12500000000000000       0.50000000000000000        0.0000000000000000     
  0.12500000000000000       0.37500000000000000        0.0000000000000000     
  0.15625000000000000       0.37500000000000000        0.0000000000000000     
  0.18750000000000000       0.37500000000000000        0.0000000000000000     
  0.21875000000000000       0.37500000000000000        0.0000000000000000     
  0.25000000000000000       0.37500000000000000        0.0000000000000000     
  0.12500000000000000       0.40625000000000000        0.0000000000000000     
  0.15625000000000000       0.40625000000000000        0.0000000000000000     
  0.18750000000000000       0.40625000000000000        0.0000000000000000     
  0.21875000000000000       0.40625000000000000        0.0000000000000000     
  0.25000000000000000       0.40625000000000000        0.0000000000000000     
  0.12500000000000000       0.43750000000000000        0.0000000000000000     
  0.15625000000000000       0.43750000000000000        0.0000000000000000     
  0.18750000000000000       0.43750000000000000        0.0000000000000000     
  0.21875000000000000       0.43750000000000000        0.0000000000000000     
  0.25000000000000000       0.43750000000000000        0.0000000000000000     
  0.12500000000000000       0.46875000000000000        0.0000000000000000     
  0.15625000000000000       0.46875000000000000        0.0000000000000000     
  0.18750000000000000       0.46875000000000000        0.0000000000000000     
  0.21875000000000000       0.46875000000000000        0.0000000000000000     
  0.25000000000000000       0.46875000000000000        0.0000000000000000     
  0.12500000000000000       0.50000000000000000        0.0000000000000000     
  0.15625000000000000       0.50000000000000000        0.0000000000000000     
  0.18750000000000000       0.50000000000000000        0.0000000000000000     
  0.21875000000000000       0.50000000000000000        0.0000000000000000     
  0.25000000000000000       0.50000000000000000        0.0000000000000000     
  0.25000000000000000       0.37500000000000000        0.0000000000000000     
  0.28125000000000000       0.37500000000000000        0.0000000000000000     
  0.31250000000000000       0.37500000000000000        0.0000000000000000     
  0.34375000000000000       0.37500000000000000        0.0000000000000000     
  0.37500000000000000       0.37500000000000000        0.0000000000000000     
  0.25000000000000000       0.40625000000000000        0.0000000000000000     
  0.28125000000000000       0.40625000000000000        0.0000000000000000     
  0.31250000000000000       0.40625000000000000        0.0000000000000000     
  0.34375000000000000       0.40625000000000000        0.0000000000000000     
  0.37500000000000000       0.40625000000000000        0.0000000000000000     
  0.25000000000000000       0.43750000000000000        0.0000000000000000     
  0.28125000000000000       0.43750000000000000        0.0000000000000000     
  0.31250000000000000       0.43750000000000000        0.0000000000000000     
  0.34375000000000000       0.43750000000000000        0.0000000000000000     
  0.37500000000000000       0.43750000000000000        0.0000000000000000     
  0.25000000000000000       0.46875000000000000        0.0000000000000000     
  0.28125000000000000       0.46875000000000000        0.0000000000000000     
  0.31250000000000000       0.46875000000000000        0.0000000000000000     
  0.34375000000000000       0.46875000000000000        0.0000000000000000     
  0.37500000000000000       0.46875000000000000        0.0000000000000000     
  0.25000000000000000       0.50000000000000000        0.0000000000000000     
  0.28125000000000000       0.50000000000000000        0.0000000000000000     
  0.31250000000000000       0.50000000000000000        0.0000000000000000     
  0.34375000000000000       0.50000000000000000        0.0000000000000000     
  0.37500000000000000       0.50000000000000000        0.0000000000000000     
  0.37500000000000000       0.37500000000000000        0.0000000000000000     
  0.40625000000000000       0.37500000000000000        0.0000000000000000     
  0.43750000000000000       0.37500000000000000        0.0000000000000000     
  0.46875000000000000       0.37500000000000000        0.0000000000000000     
  0.50000000000000000       0.37500000000000000        0.0000000000000000     
  0.37500000000000000       0.40625000000000000        0.0000000000000000     
  0.40625000000000000       0.40625000000000000        0.0000000000000000     
  0.43750000000000000       0.40625000000000000        0.0000000000000000     
  0.46875000000000000       0.40625000000000000        0.0000000000000000     
  0.50000000000000000       0.40625000000000000        0.0000000000000000     
  0.37500000000000000       0.43750000000000000        0.0000000000000000     
  0.40625000000000000       0.43750000000000000        0.0000000000000000     
  0.43750000000000000       0.43750000000000000        0.0000000000000000     
  0.46875000000000000       0.43750000000000000        0.0000000000000000     
  0.50000000000000000       0.43750000000000000        0.0000000000000000     
  0.37500000000000000       0.46875000000000000        0.0000000000000000     
  0.40625000000000000       0.46875000000000000        0.0000000000000000     
  0.43750000000000000       0.46875000000000000        0.0000000000000000     
  0.46875000000000000       0.46875000000000000        0.0000000000000000     
  0.50000000000000000       0.46875000000000000        0.0000000000000000     
  0.37500000000000000       0.50000000000000000        0.0000000000000000     
  0.40625000000000000       0.50000000000000000        0.0000000000000000     
  0.43750000000000000       0.50000000000000000        0.0000000000000000     
  0.46875000000000000       0.50000000000000000        0.0000000000000000     
  0.50000000000000000       0.50000000000000000        0.0000000000000000     
  0.50000000000000000       0.37500000000000000        0.0000000000000000     
  0.53125000000000000       0.37500000000000000        0.0000000000000000     
  0.56250000000000000       0.37500000000000000        0.0000000000000000     
  0.59375000000000000       0.37500000000000000        0.0000000000000000     
  0.62500000000000000       0.37500000000000000        0.0000000000000000     
  0.50000000000000000       0.40625000000000000        0.0000000000000000     
  0.53125000000000000       0.40625000000000000        0.0000000000000000     
  0.56250000000000000       0.40625000000000000        0.0000000000000000     
  0.59375000000000000       0.40625000000000000        0.0000000000000000     
  0.62500000000000000       0.40625000000000000        0.0000000000000000     
  0.50000000000000000       0.43750000000000000        0.0000000000000000     
  0.53125000000000000       0.43750000000000000        0.0000000000000000     
  0.56250000000000000       0.43750000000000000        0.0000000000000000     
  0.59375000000000000       0.43750000000000000        0.0000000000000000     
  0.62500000000000000       0.43750000000000000        0.0000000000000000     
  0.50000000000000000       0.46875000000000000        0.0000000000000000     
  0.53125000000000000       0.46875000000000000        0.0000000000000000     
  0.56250000000000000       0.46875000000000000        0.0000000000000000     
  0.59375000000000000       0.46875000000000000        0.0000000000000000     
  0.62500000000000000       0.46875000000000000        0.0000000000000000     
  0.50000000000000000       0.50000000000000000        0.0000000000000000     
  0.53125000000000000       0.50000000000000000        0.0000000000000000     
  0.56250000000000000       0.50000000000000000        0.0000000000000000     
  0.59375000000000000       0.50000000000000000        0.0000000000000000     
  0.62500000000000000       0.50000000000000000        0.0000000000000000     
  0.62500000000000000       0.37500000000000000        0.0000000000000000     
  0.65625000000000000       0.37500000000000000        0.0000000000000000     
  0.68750000000000000       0.37500000000000000        0.0000000000000000     
  0.71875000000000000       0.37500000000000000        0.0000000000000000     
  0.75000000000000000       0.37500000000000000        0.0000000000000000     
  0.62500000000000000       0.40625000000000000        0.0000000000000000     
  0.65625000000000000       0.40625000000000000        0.0000000000000000     
  0.68750000000000000       0.40625000000000000        0.0000000000000000     
  0.71875000000000000       0.40625000000000000        0.0000000000000000     
  0.75000000000000000       0.40625000000000000        0.0000000000000000     
  0.62500000000000000       0.43750000000000000        0.0000000000000000     
  0.65625000000000000       0.43750000000000000        0.0000000000000000     
  0.68750000000000000       0.43750000000000000        0.0000000000000000     
  0.71875000000000000       0.43750000000000000        0.0000000000000000     
  0.75000000000000000       0.43750000000000000        0.0000000000000000     
  0.62500000000000000       0.46875000000000000        0.0000000000000000     
  0.65625000000000000       0.46875000000000000        0.0000000000000000     
  0.68750000000000000       0.46875000000000000        0.0000000000000000     
  0.71875000000000000       0.46875000000000000        0.0000000000000000     
  0.75000000000000000       0.46875000000000000        0.0000000000000000     
  0.62500000000000000       0.50000000000000000        0.0000000000000000     
  0.65625000000000000       0.50000000000000000        0.0000000000000000     
  0.68750000000000000       0.50000000000000000        0.0000000000000000     
  0.71875000000000000       0.50000000000000000        0.0000000000000000     
  0.75000000000000000       0.50000000000000000        0.0000000000000000     
  0.75000000000000000       0.37500000000000000        0.0000000000000000     
  0.78125000000000000       0.37500000000000000        0.0000000000000000     
  0.81250000000000000       0.37500000000000000        0.0000000000000000     
  0.84375000000000000       0.37500000000000000        0.0000000000000000     
  0.87500000000000000       0.37500000000000000        0.0000000000000000     
  0.75000000000000000       0.40625000000000000        0.0000000000000000     
  0.78125000000000000       0.40625000000000000        0.0000000000000000     
  0.81250000000000000       0.40625000000000000        0.0000000000000000     
  0.84375000000000000       0.40625000000000000        0.0000000000000000     
  0.87500000000000000       0.40625000000000000        0.0000000000000000     
  0.75000000000000000       0.43750000000000000        0.0000000000000000     
  0.78125000000000000       0.43750000000000000        0.0000000000000000     
  0.81250000000000000       0.43750000000000000        0.0000000000000000     
  0.84375000000000000       0.43750000000000000        0.0000000000000000     
  0.87500000000000000       0.43750000000000000        0.0000000000000000     
  0.75000000000000000       0.46875000000000000        0.0000000000000000     
  0.78125000000000000       0.46875000000000000        0.0000000000000000     
  0.81250000000000000       0.46875000000000000        0.0000000000000000     
  0.84375000000000000       0.46875000000000000        0.0000000000000000     
  0.87500000000000000       0.46875000000000000        0.0000000000000000     
  0.75000000000000000       0.50000000000000000        0.0000000000000000     
  0.78125000000000000       0.50000000000000000        0.0000000000000000     
  0.81250000000000000       0.50000000000000000        0.0000000000000000     
  0.84375000000000000       0.50000000000000000        0.0000000000000000     
  0.87500000000000000       0.50000000000000000        0.0000000000000000     
  0.87500000000000000       0.37500000000000000        0.0000000000000000     
  0.90625000000000000       0.37500000000000000        0.0000000000000000     
  0.93750000000000000       0.37500000000000000        0.0000000000000000     
  0.96875000000000000       0.37500000000000000        0.0000000000000000     
   1.0000000000000000       0.37500000000000000        0.0000000000000000     
  0.87500000000000000       0.40625000000000000        0.0000000000000000     
  0.90625000000000000       0.40625000000000000        0.0000000000000000     
  0.93750000000000000       0.40625000000000000        0.0000000000000000     
  0.96875000000000000       0.40625000000000000        0.0000000000000000     
   1.0000000000000000       0.40625000000000000        0.0000000000000000     
  0.87500000000000000       0.43750000000000000        0.0000000000000000     
  0.90625000000000000       0.43750000000000000        0.0000000000000000     
  0.93750000000000000       0.43750000000000000        0.0000000000000000     
  0.96875000000000000       0.43750000000000000        0.0000000000000000     
   1.0000000000000000       0.43750000000000000        0.0000000000000000     
  0.87500000000000000       0.46875000000000000        0.0000000000000000     
  0.90625000000000000       0.46875000000000000        0.0000000000000000     
  0.93750000000000000       0.46875000000000000        0.0000000000000000     
  0.96875000000000000       0.46875000000000000        0.0000000000000000     
   1.0000000000000000       0.46875000000000000        0.0000000000000000     
  0.87500000000000000       0.50000000000000000        0.0000000000000000     
  0.90625000000000000       0.50000000000000000        0.0000000000000000     
  0.93750000000000000       0.50000000000000000        0.0000000000000000     
  0.96875000000000000       0.50000000000000000        0.0000000000000000     
   1.0000000000000000       0.50000000000000000        0.0000000000000000     
   0.0000000000000000       0.50000000000000000        0.0000000000000000     
   3.1250000000000000E-002  0.50000000000000000        0.0000000000000000     
   6.2500000000000000E-002  0.50000000000000000        0.0000000000000000     
   9.3750000000000000E-002  0.50000000000000000        0.0000000000000000     
  0.12500000000000000       0.50000000000000000        0.0000000000000000     
   0.0000000000000000       0.53125000000000000        0.0000000000000000     
   3.1250000000000000E-002  0.53125000000000000        0.0000000000000000     
   6.2500000000000000E-002  0.53125000000000000        0.0000000000000000     
   9.3750000000000000E-002  0.53125000000000000        0.0000000000000000     
  0.12500000000000000       0.53125000000000000        0.0000000000000000     
   0.0000000000000000       0.56250000000000000        0.0000000000000000     
   3.1250000000000000E-002  0.56250000000000000        0.0000000000000000     
   6.2500000000000000E-002  0.56250000000000000        0.0000000000000000     
   9.3750000000000000E-002  0.56250000000000000        0.0000000000000000     
  0.12500000000000000       0.56250000000000000        0.0000000000000000     
   0.0000000000000000       0.59375000000000000        0.0000000000000000     
   3.1250000000000000E-002  0.59375000000000000        0.0000000000000000     
   6.2500000000000000E-002  0.59375000000000000        0.0000000000000000     
   9.3750000000000000E-002  0.59375000000000000        0.0000000000000000     
  0.12500000000000000       0.59375000000000000        0.0000000000000000     
   0.0000000000000000       0.62500000000000000        0.0000000000000000     
   3.1250000000000000E-002  0.62500000000000000        0.0000000000000000     
   6.2500000000000000E-002  0.62500000000000000        0.0000000000000000     
   9.3750000000000000E-002  0.62500000000000000        0.0000000000000000     
  0.12500000000000000       0.62500000000000000        0.0000000000000000     
  0.12500000000000000       0.50000000000000000        0.0000000000000000     
  0.15625000000000000       0.50000000000000000        0.0000000000000000     
  0.18750000000000000       0.50000000000000000        0.0000000000000000     
  0.21875000000000000       0.50000000000000000        0.0000000000000000     
  0.25000000000000000       0.50000000000000000        0.0000000000000000     
  0.12500000000000000       0.53125000000000000        0.0000000000000000     
  0.15625000000000000       0.53125000000000000        0.0000000000000000     
  0.18750000000000000       0.53125000000000000        0.0000000000000000     
  0.21875000000000000       0.53125000000000000        0.0000000000000000     
  0.25000000000000000       0.53125000000000000        0.0000000000000000     
  0.12500000000000000       0.56250000000000000        0.0000000000000000     
  0.15625000000000000       0.56250000000000000        0.0000000000000000     
  0.18750000000000000       0.56250000000000000        0.0000000000000000     
  0.21875000000000000       0.56250000000000000        0.0000000000000000     
  0.25000000000000000       0.56250000000000000        0.0000000000000000     
  0.12500000000000000       0.59375000000000000        0.0000000000000000     
  0.15625000000000000       0.59375000000000000        0.0000000000000000     
  0.18750000000000000       0.59375000000000000        0.0000000000000000     
  0.21875000000000000       0.59375000000000000        0.0000000000000000     
  0.25000000000000000       0.59375000000000000        0.0000000000000000     
  0.12500000000000000       0.62500000000000000        0.0000000000000000     
  0.15625000000000000       0.62500000000000000        0.0000000000000000     
  0.18750000000000000       0.62500000000000000        0.0000000000000000     
  0.21875000000000000       0.62500000000000000        0.0000000000000000     
  0.25000000000000000       0.62500000000000000        0.0000000000000000     
  0.25000000000000000       0.50000000000000000        0.0000000000000000     
  0.28125000000000000       0.50000000000000000        0.0000000000000000     
  0.31250000000000000       0.50000000000000000        0.0000000000000000     
  0.34375000000000000       0.50000000000000000        0.0000000000000000     
  0.37500000000000000       0.50000000000000000        0.0000000000000000     
  0.25000000000000000       0.53125000000000000        0.0000000000000000     
  0.28125000000000000       0.53125000000000000        0.0000000000000000     
  0.31250000000000000       0.53125000000000000        0.0000000000000000     
  0.34375000000000000       0.53125000000000000        0.0000000000000000     
  0.37500000000000000       0.53125000000000000        0.0000000000000000     
  0.25000000000000000       0.56250000000000000        0.0000000000000000     
  0.28125000000000000       0.56250000000000000        0.0000000000000000     
  0.31250000000000000       0.56250000000000000        0.0000000000000000     
  0.34375000000000000       0.56250000000000000        0.0000000000000000     
  0.37500000000000000       0.56250000000000000        0.0000000000000000     
  0.25000000000000000       0.59375000000000000        0.0000000000000000     
  0.28125000000000000       0.59375000000000000        0.0000000000000000     
  0.31250000000000000       0.59375000000000000        0.0000000000000000     
  0.34375000000000000       0.59375000000000000        0.0000000000000000     
  0.37500000000000000       0.59375000000000000        0.0000000000000000     
  0.25000000000000000       0.62500000000000000        0.0000000000000000     
  0.28125000000000000       0.62500000000000000        0.0000000000000000     
  0.31250000000000000       0.62500000000000000        0.0000000000000000     
  0.34375000000000000       0.62500000000000000        0.0000000000000000     
  0.37500000000000000       0.62500000000000000        0.0000000000000000     
  0.37500000000000000       0.50000000000000000        0.0000000000000000     
  0.40625000000000000       0.50000000000000000        0.0000000000000000     
  0.43750000000000000       0.50000000000000000        0.0000000000000000     
  0.46875000000000000       0.50000000000000000        0.0000000000000000     
  0.50000000000000000       0.50000000000000000        0.0000000000000000     
  0.37500000000000000       0.53125000000000000        0.0000000000000000     
  0.40625000000000000       0.53125000000000000        0.0000000000000000     
  0.43750000000000000       0.53125000000000000        0.0000000000000000     
  0.46875000000000000       0.53125000000000000        0.0000000000000000     
  0.50000000000000000       0.53125000000000000        0.0000000000000000     
  0.37500000000000000       0.56250000000000000        0.0000000000000000     
  0.40625000000000000       0.56250000000000000        0.0000000000000000     
  0.43750000000000000       0.56250000000000000        0.0000000000000000     
  0.46875000000000000       0.56250000000000000        0.0000000000000000     
  0.50000000000000000       0.56250000000000000        0.0000000000000000     
  0.37500000000000000       0.59375000000000000        0.0000000000000000     
  0.40625000000000000       0.59375000000000000        0.0000000000000000     
  0.43750000000000000       0.59375000000000000        0.0000000000000000     
  0.46875000000000000       0.59375000000000000        0.0000000000000000     
  0.50000000000000000       0.59375000000000000        0.0000000000000000     
  0.37500000000000000       0.62500000000000000        0.0000000000000000     
  0.40625000000000000       0.62500000000000000        0.0000000000000000     
  0.43750000000000000       0.62500000000000000        0.0000000000000000     
  0.46875000000000000       0.62500000000000000        0.0000000000000000     
  0.50000000000000000       0.62500000000000000        0.0000000000000000     
  0.50000000000000000       0.50000000000000000        0.0000000000000000     
  0.53125000000000000       0.50000000000000000        0.0000000000000000     
  0.56250000000000000       0.50000000000000000        0.0000000000000000     
  0.59375000000000000       0.50000000000000000        0.0000000000000000     
  0.62500000000000000       0.50000000000000000        0.0000000000000000     
  0.50000000000000000       0.53125000000000000        0.0000000000000000     
  0.53125000000000000       0.53125000000000000        0.0000000000000000     
  0.56250000000000000       0.53125000000000000        0.0000000000000000     
  0.59375000000000000       0.53125000000000000        0.0000000000000000     
  0.62500000000000000       0.53125000000000000        0.0000000000000000     
  0.50000000000000000       0.56250000000000000        0.0000000000000000     
  0.53125000000000000       0.56250000000000000        0.0000000000000000     
  0.56250000000000000       0.56250000000000000        0.0000000000000000     
  0.59375000000000000       0.56250000000000000        0.0000000000000000     
  0.62500000000000000       0.56250000000000000        0.0000000000000000     
  0.50000000000000000       0.59375000000000000        0.0000000000000000     
  0.53125000000000000       0.59375000000000000        0.0000000000000000     
  0.56250000000000000       0.59375000000000000        0.0000000000000000     
  0.59375000000000000       0.59375000000000000        0.0000000000000000     
  0.62500000000000000       0.59375000000000000        0.0000000000000000     
  0.50000000000000000       0.62500000000000000        0.0000000000000000     
  0.53125000000000000       0.62500000000000000        0.0000000000000000     
  0.56250000000000000       0.62500000000000000        0.0000000000000000     
  0.59375000000000000       0.62500000000000000        0.0000000000000000     
  0.62500000000000000       0.62500000000000000        0.0000000000000000     
  0.62500000000000000       0.50000000000000000        0.0000000000000000     
  0.65625000000000000       0.50000000000000000        0.0000000000000000     
  0.68750000000000000       0.50000000000000000        0.0000000000000000     
  0.71875000000000000       0.50000000000000000        0.0000000000000000     
  0.75000000000000000       0.50000000000000000        0.0000000000000000     
  0.62500000000000000       0.53125000000000000        0.0000000000000000     
  0.65625000000000000       0.53125000000000000        0.0000000000000000     
  0.68750000000000000       0.53125000000000000        0.0000000000000000     
  0.71875000000000000       0.53125000000000000        0.0000000000000000     
  0.75000000000000000       0.53125000000000000        0.0000000000000000     
  0.62500000000000000       0.56250000000000000        0.0000000000000000     
  0.65625000000000000       0.56250000000000000        0.0000000000000000     
  0.68750000000000000       0.56250000000000000        0.0000000000000000     
  0.71875000000000000       0.56250000000000000        0.0000000000000000     
  0.75000000000000000       0.56250000000000000        0.0000000000000000     
  0.62500000000000000       0.59375000000000000        0.0000000000000000     
  0.65625000000000000       0.59375000000000000        0.0000000000000000     
  0.68750000000000000       0.59375000000000000        0.0000000000000000     
  0.71875000000000000       0.59375000000000000        0.0000000000000000     
  0.75000000000000000       0.59375000000000000        0.0000000000000000     
  0.62500000000000000       0.62500000000000000        0.0000000000000000     
  0.65625000000000000       0.62500000000000000        0.0000000000000000     
  0.68750000000000000       0.62500000000000000        0.0000000000000000     
  0.71875000000000000       0.62500000000000000        0.0000000000000000     
  0.75000000000000000       0.62500000000000000        0.0000000000000000     
  0.75000000000000000       0.50000000000000000        0.0000000000000000     
  0.78125000000000000       0.50000000000000000        0.0000000000000000     
  0.81250000000000000       0.50000000000000000        0.0000000000000000     
  0.84375000000000000       0.50000000000000000        0.0000000000000000     
  0.87500000000000000       0.50000000000000000        0.0000000000000000     
  0.75000000000000000       0.53125000000000000        0.0000000000000000     
  0.78125000000000000       0.53125000000000000        0.0000000000000000     
  0.81250000000000000       0.53125000000000000        0.0000000000000000     
  0.84375000000000000       0.53125000000000000        0.0000000000000000     
  0.87500000000000000       0.53125000000000000        0.0000000000000000     
  0.75000000000000000       0.56250000000000000        0.0000000000000000     
  0.78125000000000000       0.56250000000000000        0.0000000000000000     
  0.81250000000000000       0.56250000000000000        0.0000000000000000     
  0.84375000000000000       0.56250000000000000        0.0000000000000000     
  0.87500000000000000       0.56250000000000000        0.0000000000000000     
  0.75000000000000000       0.59375000000000000        0.0000000000000000     
  0.78125000000000000       0.59375000000000000        0.0000000000000000     
  0.81250000000000000       0.59375000000000000        0.0000000000000000     
  0.84375000000000000       0.59375000000000000        0.0000000000000000     
  0.87500000000000000       0.59375000000000000        0.0000000000000000     
  0.75000000000000000       0.62500000000000000        0.0000000000000000     
  0.78125000000000000       0.62500000000000000        0.0000000000000000     
  0.81250000000000000       0.62500000000000000        0.0000000000000000     
  0.84375000000000000       0.62500000000000000        0.0000000000000000     
  0.87500000000000000       0.62500000000000000        0.0000000000000000     
  0.87500000000000000       0.50000000000000000        0.0000000000000000     
  0.90625000000000000       0.50000000000000000        0.0000000000000000     
  0.93750000000000000       0.50000000000000000        0.0000000000000000     
  0.96875000000000000       0.50000000000000000        0.0000000000000000     
   1.0000000000000000       0.50000000000000000        0.0000000000000000     
  0.87500000000000000       0.53125000000000000        0.0000000000000000     
  0.90625000000000000       0.53125000000000000        0.0000000000000000     
  0.93750000000000000       0.53125000000000000        0.0000000000000000     
  0.96875000000000000       0.53125000000000000        0.0000000000000000     
   1.0000000000000000       0.53125000000000000        0.0000000000000000     
  0.87500000000000000       0.56250000000000000        0.0000000000000000     
  0.90625000000000000       0.56250000000000000        0.0000000000000000     
  0.93750000000000000       0.56250000000000000        0.0000000000000000     
  0.96875000000000000       0.56250000000000000        0.0000000000000000     
   1.0000000000000000       0.56250000000000000        0.0000000000000000     
  0.87500000000000000       0.59375000000000000        0.0000000000000000     
  0.90625000000000000       0.59375000000000000        0.0000000000000000     
  0.93750000000000000       0.59375000000000000        0.0000000000000000     
  0.96875000000000000       0.59375000000000000        0.0000000000000000     
   1.0000000000000000       0.59375000000000000        0.0000000000000000     
  0.87500000000000000       0.62500000000000000        0.0000000000000000     
  0.90625000000000000       0.62500000000000000        0.0000000000000000     
  0.93750000000000000       0.62500000000000000        0.0000000000000000     
  0.96875000000000000       0.62500000000000000        0.0000000000000000     
   1.0000000000000000       0.62500000000000000        0.0000000000000000     
   0.0000000000000000       0.62500000000000000        0.0000000000000000     
   3.1250000000000000E-002  0.62500000000000000        0.0000000000000000     
   6.2500000000000000E-002  0.62500000000000000        0.0000000000000000     
   9.3750000000000000E-002  0.62500000000000000        0.0000000000000000     
  0.12500000000000000       0.62500000000000000        0.0000000000000000     
   0.0000000000000000       0.65625000000000000        0.0000000000000000     
   3.1250000000000000E-002  0.65625000000000000        0.0000000000000000     
   6.2500000000000000E-002  0.65625000000000000        0.0000000000000000     
   9.3750000000000000E-002  0.65625000000000000        0.0000000000000000     
  0.12500000000000000       0.65625000000000000        0.0000000000000000     
   0.0000000000000000       0.68750000000000000        0.0000000000000000     
   3.1250000000000000E-002  0.68750000000000000        0.0000000000000000     
   6.2500000000000000E-002  0.68750000000000000        0.0000000000000000     
   9.3750000000000000E-002  0.68750000000000000        0.0000000000000000     
  0.12500000000000000       0.68750000000000000        0.0000000000000000     
   0.0000000000000000       0.71875000000000000        0.0000000000000000     
   3.1250000000000000E-002  0.71875000000000000        0.0000000000000000     
   6.2500000000000000E-002  0.71875000000000000        0.0000000000000000     
   9.3750000000000000E-002  0.71875000000000000        0.0000000000000000     
  0.12500000000000000       0.71875000000000000        0.0000000000000000     
   0.0000000000000000       0.75000000000000000        0.0000000000000000     
   3.1250000000000000E-002  0.75000000000000000        0.0000000000000000     
   6.2500000000000000E-002  0.75000000000000000        0.0000000000000000     
   9.3750000000000000E-002  0.75000000000000000        0.0000000000000000     
  0.12500000000000000       0.75000000000000000        0.0000000000000000     
  0.12500000000000000       0.62500000000000000        0.0000000000000000     
  0.15625000000000000       0.62500000000000000        0.0000000000000000     
  0.18750000000000000       0.62500000000000000        0.0000000000000000     
  0.21875000000000000       0.62500000000000000        0.0000000000000000     
  0.25000000000000000       0.62500000000000000        0.0000000000000000     
  0.12500000000000000       0.65625000000000000        0.0000000000000000     
  0.15625000000000000       0.65625000000000000        0.0000000000000000     
  0.18750000000000000       0.65625000000000000        0.0000000000000000     
  0.21875000000000000       0.65625000000000000        0.0000000000000000     
  0.25000000000000000       0.65625000000000000        0.0000000000000000     
  0.12500000000000000       0.68750000000000000        0.0000000000000000     
  0.15625000000000000       0.68750000000000000        0.0000000000000000     
  0.18750000000000000       0.68750000000000000        0.0000000000000000     
  0.21875000000000000       0.68750000000000000        0.0000000000000000     
  0.25000000000000000       0.68750000000000000        0.0000000000000000     
  0.12500000000000000       0.71875000000000000        0.0000000000000000     
  0.15625000000000000       0.71875000000000000        0.0000000000000000     
  0.18750000000000000       0.71875000000000000        0.0000000000000000     
  0.21875000000000000       0.71875000000000000        0.0000000000000000     
  0.25000000000000000       0.71875000000000000        0.0000000000000000     
  0.12500000000000000       0.75000000000000000        0.0000000000000000     
  0.15625000000000000       0.75000000000000000        0.0000000000000000     
  0.18750000000000000       0.75000000000000000        0.0000000000000000     
  0.21875000000000000       0.75000000000000000        0.0000000000000000     
  0.25000000000000000       0.75000000000000000        0.0000000000000000     
  0.25000000000000000       0.62500000000000000        0.0000000000000000     
  0.28125000000000000       0.62500000000000000        0.0000000000000000     
  0.31250000000000000       0.62500000000000000        0.0000000000000000     
  0.34375000000000000       0.62500000000000000        0.0000000000000000     
  0.37500000000000000       0.62500000000000000        0.0000000000000000     
  0.25000000000000000       0.65625000000000000        0.0000000000000000     
  0.28125000000000000       0.65625000000000000        0.0000000000000000     
  0.31250000000000000       0.65625000000000000        0.0000000000000000     
  0.34375000000000000       0.65625000000000000        0.0000000000000000     
  0.37500000000000000       0.65625000000000000        0.0000000000000000     
  0.25000000000000000       0.68750000000000000        0.0000000000000000     
  0.28125000000000000       0.68750000000000000        0.0000000000000000     
  0.31250000000000000       0.68750000000000000        0.0000000000000000     
  0.34375000000000000       0.68750000000000000        0.0000000000000000     
  0.37500000000000000       0.68750000000000000        0.0000000000000000     
  0.25000000000000000       0.71875000000000000        0.0000000000000000     
  0.28125000000000000       0.71875000000000000        0.0000000000000000     
  0.31250000000000000       0.71875000000000000        0.0000000000000000     
  0.34375000000000000       0.71875000000000000        0.0000000000000000     
  0.37500000000000000       0.71875000000000000        0.0000000000000000     
  0.25000000000000000       0.75000000000000000        0.0000000000000000     
  0.28125000000000000       0.75000000000000000        0.0000000000000000     
  0.31250000000000000       0.75000000000000000        0.0000000000000000     
  0.34375000000000000       0.75000000000000000        0.0000000000000000     
  0.37500000000000000       0.75000000000000000        0.0000000000000000     
  0.37500000000000000       0.62500000000000000        0.0000000000000000     
  0.40625000000000000       0.62500000000000000        0.0000000000000000     
  0.43750000000000000       0.62500000000000000        0.0000000000000000     
  0.46875000000000000       0.62500000000000000        0.0000000000000000     
  0.50000000000000000       0.62500000000000000        0.0000000000000000     
  0.37500000000000000       0.65625000000000000        0.0000000000000000     
  0.40625000000000000       0.65625000000000000        0.0000000000000000     
  0.43750000000000000       0.65625000000000000        0.0000000000000000     
  0.46875000000000000       0.65625000000000000        0.0000000000000000     
  0.50000000000000000       0.65625000000000000        0.0000000000000000     
  0.37500000000000000       0.68750000000000000        0.0000000000000000     
  0.40625000000000000       0.68750000000000000        0.0000000000000000     
  0.43750000000000000       0.68750000000000000        0.0000000000000000     
  0.46875000000000000       0.68750000000000000        0.0000000000000000     
  0.50000000000000000       0.68750000000000000        0.0000000000000000     
  0.37500000000000000       0.71875000000000000        0.0000000000000000     
  0.40625000000000000       0.71875000000000000        0.0000000000000000     
  0.43750000000000000       0.71875000000000000        0.0000000000000000     
  0.46875000000000000       0.71875000000000000        0.0000000000000000     
  0.50000000000000000       0.71875000000000000        0.0000000000000000     
  0.37500000000000000       0.75000000000000000        0.0000000000000000     
  0.40625000000000000       0.75000000000000000        0.0000000000000000     
  0.43750000000000000       0.75000000000000000        0.0000000000000000     
  0.46875000000000000       0.75000000000000000        0.0000000000000000     
  0.50000000000000000       0.75000000000000000        0.0000000000000000     
  0.50000000000000000       0.62500000000000000        0.0000000000000000     
  0.53125000000000000       0.62500000000000000        0.0000000000000000     
  0.56250000000000000       0.62500000000000000        0.0000000000000000     
  0.59375000000000000       0.62500000000000000        0.0000000000000000     
  0.62500000000000000       0.62500000000000000        0.0000000000000000     
  0.50000000000000000       0.65625000000000000        0.0000000000000000     
  0.53125000000000000       0.65625000000000000        0.0000000000000000     
  0.56250000000000000       0.65625000000000000        0.0000000000000000     
  0.59375000000000000       0.65625000000000000        0.0000000000000000     
  0.62500000000000000       0.65625000000000000        0.0000000000000000     
  0.50000000000000000       0.68750000000000000        0.0000000000000000     
  0.53125000000000000       0.68750000000000000        0.0000000000000000     
  0.56250000000000000       0.68750000000000000        0.0000000000000000     
  0.59375000000000000       0.68750000000000000        0.0000000000000000     
  0.62500000000000000       0.68750000000000000        0.0000000000000000     
  0.50000000000000000       0.71875000000000000        0.0000000000000000     
  0.53125000000000000       0.71875000000000000        0.0000000000000000     
  0.56250000000000000       0.71875000000000000        0.0000000000000000     
  0.59375000000000000       0.71875000000000000        0.0000000000000000     
  0.62500000000000000       0.71875000000000000        0.0000000000000000     
  0.50000000000000000       0.75000000000000000        0.0000000000000000     
  0.53125000000000000       0.75000000000000000        0.0000000000000000     
  0.56250000000000000       0.75000000000000000        0.0000000000000000     
  0.59375000000000000       0.75000000000000000        0.0000000000000000     
  0.62500000000000000       0.75000000000000000        0.0000000000000000     
  0.62500000000000000       0.62500000000000000        0.0000000000000000     
  0.65625000000000000       0.62500000000000000        0.0000000000000000     
  0.68750000000000000       0.62500000000000000        0.0000000000000000     
  0.71875000000000000       0.62500000000000000        0.0000000000000000     
  0.75000000000000000       0.62500000000000000        0.0000000000000000     
  0.62500000000000000       0.65625000000000000        0.0000000000000000     
  0.65625000000000000       0.65625000000000000        0.0000000000000000     
  0.68750000000000000       0.65625000000000000        0.0000000000000000     
  0.71875000000000000       0.65625000000000000        0.0000000000000000     
  0.75000000000000000       0.65625000000000000        0.0000000000000000     
  0.62500000000000000       0.68750000000000000        0.0000000000000000     
  0.65625000000000000       0.68750000000000000        0.0000000000000000     
  0.68750000000000000       0.68750000000000000        0.0000000000000000     
  0.71875000000000000       0.68750000000000000        0.0000000000000000     
  0.75000000000000000       0.68750000000000000        0.0000000000000000     
  0.62500000000000000       0.71875000000000000        0.0000000000000000     
  0.65625000000000000       0.71875000000000000        0.0000000000000000     
  0.68750000000000000       0.71875000000000000        0.0000000000000000     
  0.71875000000000000       0.71875000000000000        0.0000000000000000     
  0.75000000000000000       0.71875000000000000        0.0000000000000000     
  0.62500000000000000       0.75000000000000000        0.0000000000000000     
  0.65625000000000000       0.75000000000000000        0.0000000000000000     
  0.68750000000000000       0.75000000000000000        0.0000000000000000     
  0.71875000000000000       0.75000000000000000        0.0000000000000000     
  0.75000000000000000       0.75000000000000000        0.0000000000000000     
  0.75000000000000000       0.62500000000000000        0.0000000000000000     
  0.78125000000000000       0.62500000000000000        0.0000000000000000     
  0.81250000000000000       0.62500000000000000        0.0000000000000000     
  0.84375000000000000       0.62500000000000000        0.0000000000000000     
  0.87500000000000000       0.62500000000000000        0.0000000000000000     
  0.75000000000000000       0.65625000000000000        0.0000000000000000     
  0.78125000000000000       0.65625000000000000        0.0000000000000000     
  0.81250000000000000       0.65625000000000000        0.0000000000000000     
  0.84375000000000000       0.65625000000000000        0.0000000000000000     
  0.87500000000000000       0.65625000000000000        0.0000000000000000     
  0.75000000000000000       0.68750000000000000        0.0000000000000000     
  0.78125000000000000       0.68750000000000000        0.0000000000000000     
  0.81250000000000000       0.68750000000000000        0.0000000000000000     
  0.84375000000000000       0.68750000000000000        0.0000000000000000     
  0.87500000000000000       0.68750000000000000        0.0000000000000000     
  0.75000000000000000       0.71875000000000000        0.0000000000000000     
  0.78125000000000000       0.71875000000000000        0.0000000000000000     
  0.81250000000000000       0.71875000000000000        0.0000000000000000     
  0.84375000000000000       0.71875000000000000        0.0000000000000000     
  0.87500000000000000       0.71875000000000000        0.0000000000000000     
  0.75000000000000000       0.75000000000000000        0.0000000000000000     
  0.78125000000000000       0.75000000000000000        0.0000000000000000     
  0.81250000000000000       0.75000000000000000        0.0000000000000000     
  0.84375000000000000       0.75000000000000000        0.0000000000000000     
  0.87500000000000000       0.75000000000000000        0.0000000000000000     
  0.87500000000000000       0.62500000000000000        0.0000000000000000     
  0.90625000000000000       0.62500000000000000        0.0000000000000000     
  0.93750000000000000       0.62500000000000000        0.0000000000000000     
  0.96875000000000000       0.62500000000000000        0.0000000000000000     
   1.0000000000000000       0.62500000000000000        0.0000000000000000     
  0.87500000000000000       0.65625000000000000        0.0000000000000000     
  0.90625000000000000       0.65625000000000000        0.0000000000000000     
  0.93750000000000000       0.65625000000000000        0.0000000000000000     
  0.96875000000000000       0.65625000000000000        0.0000000000000000     
   1.0000000000000000       0.65625000000000000        0.0000000000000000     
  0.87500000000000000       0.68750000000000000        0.0000000000000000     
  0.90625000000000000       0.68750000000000000        0.0000000000000000     
  0.93750000000000000       0.68750000000000000        0.0000000000000000     
  0.96875000000000000       0.68750000000000000        0.0000000000000000     
   1.0000000000000000       0.68750000000000000        0.0000000000000000     
  0.87500000000000000       0.71875000000000000        0.0000000000000000     
  0.90625000000000000       0.71875000000000000        0.0000000000000000     
  0.93750000000000000       0.71875000000000000        0.0000000000000000     
  0.96875000000000000       0.71875000000000000        0.0000000000000000     
   1.0000000000000000       0.71875000000000000        0.0000000000000000     
  0.87500000000000000       0.75000000000000000        0.0000000000000000     
  0.90625000000000000       0.75000000000000000        0.0000000000000000     
  0.93750000000000000       0.75000000000000000        0.0000000000000000     
  0.96875000000000000       0.75000000000000000        0.0000000000000000     
   1.0000000000000000       0.75000000000000000        0.0000000000000000     
   0.0000000000000000       0.75000000000000000        0.0000000000000000     
   3.1250000000000000E-002  0.75000000000000000        0.0000000000000000     
   6.2500000000000000E-002  0.75000000000000000        0.0000000000000000     
   9.3750000000000000E-002  0.75000000000000000        0.0000000000000000     
  0.12500000000000000       0.75000000000000000        0.0000000000000000     
   0.0000000000000000       0.78125000000000000        0.0000000000000000     
   3.1250000000000000E-002  0.78125000000000000        0.0000000000000000     
   6.2500000000000000E-002  0.78125000000000000        0.0000000000000000     
   9.3750000000000000E-002  0.78125000000000000        0.0000000000000000     
  0.12500000000000000       0.78125000000000000        0.0000000000000000     
   0.0000000000000000       0.81250000000000000        0.0000000000000000     
   3.1250000000000000E-002  0.81250000000000000        0.0000000000000000     
   6.2500000000000000E-002  0.81250000000000000        0.0000000000000000     
   9.3750000000000000E-002  0.81250000000000000        0.0000000000000000     
  0.12500000000000000       0.81250000000000000        0.0000000000000000     
   0.0000000000000000       0.84375000000000000        0.0000000000000000     
   3.1250000000000000E-002  0.84375000000000000        0.0000000000000000     
   6.2500000000000000E-002  0.84375000000000000        0.0000000000000000     
   9.3750000000000000E-002  0.84375000000000000        0.0000000000000000     
  0.12500000000000000       0.84375000000000000        0.0000000000000000     
   0.0000000000000000       0.87500000000000000        0.0000000000000000     
   3.1250000000000000E-002  0.87500000000000000        0.0000000000000000     
   6.2500000000000000E-002  0.87500000000000000        0.0000000000000000     
   9.3750000000000000E-002  0.87500000000000000        0.0000000000000000     
  0.12500000000000000       0.87500000000000000        0.0000000000000000     
  0.12500000000000000       0.75000000000000000        0.0000000000000000     
  0.15625000000000000       0.75000000000000000        0.0000000000000000     
  0.18750000000000000       0.75000000000000000        0.0000000000000000     
  0.21875000000000000       0.75000000000000000        0.0000000000000000     
  0.25000000000000000       0.75000000000000000        0.0000000000000000     
  0.12500000000000000       0.78125000000000000        0.0000000000000000     
  0.15625000000000000       0.78125000000000000        0.0000000000000000     
  0.18750000000000000       0.78125000000000000        0.0000000000000000     
  0.21875000000000000       0.78125000000000000        0.0000000000000000     
  0.25000000000000000       0.78125000000000000        0.0000000000000000     
  0.12500000000000000       0.81250000000000000        0.0000000000000000     
  0.15625000000000000       0.81250000000000000        0.0000000000000000     
  0.18750000000000000       0.81250000000000000        0.0000000000000000     
  0.21875000000000000       0.81250000000000000        0.0000000000000000     
  0.25000000000000000       0.81250000000000000        0.0000000000000000     
  0.12500000000000000       0.84375000000000000        0.0000000000000000     
  0.15625000000000000       0.84375000000000000        0.0000000000000000     
  0.18750000000000000       0.84375000000000000        0.0000000000000000     
  0.21875000000000000       0.84375000000000000        0.0000000000000000     
  0.25000000000000000       0.84375000000000000        0.0000000000000000     
  0.12500000000000000       0.87500000000000000        0.0000000000000000     
  0.15625000000000000       0.87500000000000000        0.0000000000000000     
  0.18750000000000000       0.87500000000000000        0.0000000000000000     
  0.21875000000000000       0.87500000000000000        0.0000000000000000     
  0.25000000000000000       0.87500000000000000        0.0000000000000000     
  0.25000000000000000       0.75000000000000000        0.0000000000000000     
  0.28125000000000000       0.75000000000000000        0.0000000000000000     
  0.31250000000000000       0.75000000000000000        0.0000000000000000     
  0.34375000000000000       0.75000000000000000        0.0000000000000000     
  0.37500000000000000       0.75000000000000000        0.0000000000000000     
  0.25000000000000000       0.78125000000000000        0.0000000000000000     
  0.28125000000000000       0.78125000000000000        0.0000000000000000     
  0.31250000000000000       0.78125000000000000        0.0000000000000000     
  0.34375000000000000       0.78125000000000000        0.0000000000000000     
  0.37500000000000000       0.78125000000000000        0.0000000000000000     
  0.25000000000000000       0.81250000000000000        0.0000000000000000     
  0.28125000000000000       0.81250000000000000        0.0000000000000000     
  0.31250000000000000       0.81250000000000000        0.0000000000000000     
  0.34375000000000000       0.81250000000000000        0.0000000000000000     
  0.37500000000000000       0.81250000000000000        0.0000000000000000     
  0.25000000000000000       0.84375000000000000        0.0000000000000000     
  0.28125000000000000       0.84375000000000000        0.0000000000000000     
  0.31250000000000000       0.84375000000000000        0.0000000000000000     
  0.34375000000000000       0.84375000000000000        0.0000000000000000     
  0.37500000000000000       0.84375000000000000        0.0000000000000000     
  0.25000000000000000       0.87500000000000000        0.0000000000000000     
  0.28125000000000000       0.87500000000000000        0.0000000000000000     
  0.31250000000000000       0.87500000000000000        0.0000000000000000     
  0.34375000000000000       0.87500000000000000        0.0000000000000000     
  0.37500000000000000       0.87500000000000000        0.0000000000000000     
  0.37500000000000000       0.75000000000000000        0.0000000000000000     
  0.40625000000000000       0.75000000000000000        0.0000000000000000     
  0.43750000000000000       0.75000000000000000        0.0000000000000000     
  0.46875000000000000       0.75000000000000000        0.0000000000000000     
  0.50000000000000000       0.75000000000000000        0.0000000000000000     
  0.37500000000000000       0.78125000000000000        0.0000000000000000     
  0.40625000000000000       0.78125000000000000        0.0000000000000000     
  0.43750000000000000       0.78125000000000000        0.0000000000000000     
  0.46875000000000000       0.78125000000000000        0.0000000000000000     
  0.50000000000000000       0.78125000000000000        0.0000000000000000     
  0.37500000000000000       0.81250000000000000        0.0000000000000000     
  0.40625000000000000       0.81250000000000000        0.0000000000000000     
  0.43750000000000000       0.81250000000000000        0.0000000000000000     
  0.46875000000000000       0.81250000000000000        0.0000000000000000     
  0.50000000000000000       0.81250000000000000        0.0000000000000000     
  0.37500000000000000       0.84375000000000000        0.0000000000000000     
  0.40625000000000000       0.84375000000000000        0.0000000000000000     
  0.43750000000000000       0.84375000000000000        0.0000000000000000     
  0.46875000000000000       0.84375000000000000        0.0000000000000000     
  0.50000000000000000       0.84375000000000000        0.0000000000000000     
  0.37500000000000000       0.87500000000000000        0.0000000000000000     
  0.40625000000000000       0.87500000000000000        0.0000000000000000     
  0.43750000000000000       0.87500000000000000        0.0000000000000000     
  0.46875000000000000       0.87500000000000000        0.0000000000000000     
  0.50000000000000000       0.87500000000000000        0.0000000000000000     
  0.50000000000000000       0.75000000000000000        0.0000000000000000     
  0.53125000000000000       0.75000000000000000        0.0000000000000000     
  0.56250000000000000       0.75000000000000000        0.0000000000000000     
  0.59375000000000000       0.75000000000000000        0.0000000000000000     
  0.62500000000000000       0.75000000000000000        0.0000000000000000     
  0.50000000000000000       0.78125000000000000        0.0000000000000000     
  0.53125000000000000       0.78125000000000000        0.0000000000000000     
  0.56250000000000000       0.78125000000000000        0.0000000000000000     
  0.59375000000000000       0.78125000000000000        0.0000000000000000     
  0.62500000000000000       0.78125000000000000        0.0000000000000000     
  0.50000000000000000       0.81250000000000000        0.0000000000000000     
  0.53125000000000000       0.81250000000000000        0.0000000000000000     
  0.56250000000000000       0.81250000000000000        0.0000000000000000     
  0.59375000000000000       0.81250000000000000        0.0000000000000000     
  0.62500000000000000       0.81250000000000000        0.0000000000000000     
  0.50000000000000000       0.84375000000000000        0.0000000000000000     
  0.53125000000000000       0.84375000000000000        0.0000000000000000     
  0.56250000000000000       0.84375000000000000        0.0000000000000000     
  0.59375000000000000       0.84375000000000000        0.0000000000000000     
  0.62500000000000000       0.84375000000000000        0.0000000000000000     
  0.50000000000000000       0.87500000000000000        0.0000000000000000     
  0.53125000000000000       0.87500000000000000        0.0000000000000000     
  0.56250000000000000       0.87500000000000000        0.0000000000000000     
  0.59375000000000000       0.87500000000000000        0.0000000000000000     
  0.62500000000000000       0.87500000000000000        0.0000000000000000     
  0.62500000000000000       0.75000000000000000        0.0000000000000000     
  0.65625000000000000       0.75000000000000000        0.0000000000000000     
  0.68750000000000000       0.75000000000000000        0.0000000000000000     
  0.71875000000000000       0.75000000000000000        0.0000000000000000     
  0.75000000000000000       0.75000000000000000        0.0000000000000000     
  0.62500000000000000       0.78125000000000000        0.0000000000000000     
  0.65625000000000000       0.78125000000000000        0.0000000000000000     
  0.68750000000000000       0.78125000000000000        0.0000000000000000     
  0.71875000000000000       0.78125000000000000        0.0000000000000000     
  0.75000000000000000       0.78125000000000000        0.0000000000000000     
  0.62500000000000000       0.81250000000000000        0.0000000000000000     
  0.65625000000000000       0.81250000000000000        0.0000000000000000     
  0.68750000000000000       0.81250000000000000        0.0000000000000000     
  0.71875000000000000       0.81250000000000000        0.0000000000000000     
  0.75000000000000000       0.81250000000000000        0.0000000000000000     
  0.62500000000000000       0.84375000000000000        0.0000000000000000     
  0.65625000000000000       0.84375000000000000        0.0000000000000000     
  0.68750000000000000       0.84375000000000000        0.0000000000000000     
  0.71875000000000000       0.84375000000000000        0.0000000000000000     
  0.75000000000000000       0.84375000000000000        0.0000000000000000     
  0.62500000000000000       0.87500000000000000        0.0000000000000000     
  0.65625000000000000       0.87500000000000000        0.0000000000000000     
  0.68750000000000000       0.87500000000000000        0.0000000000000000     
  0.71875000000000000       0.87500000000000000        0.0000000000000000     
  0.75000000000000000       0.87500000000000000        0.0000000000000000     
  0.75000000000000000       0.75000000000000000        0.0000000000000000     
  0.78125000000000000       0.75000000000000000        0.0000000000000000     
  0.81250000000000000       0.75000000000000000        0.0000000000000000     
  0.84375000000000000       0.75000000000000000        0.0000000000000000     
  0.87500000000000000       0.75000000000000000        0.0000000000000000     
  0.75000000000000000       0.78125000000000000        0.0000000000000000     
  0.78125000000000000       0.78125000000000000        0.0000000000000000     
  0.81250000000000000       0.78125000000000000        0.0000000000000000     
  0.84375000000000000       0.78125000000000000        0.0000000000000000     
  0.87500000000000000       0.78125000000000000        0.0000000000000000     
  0.75000000000000000       0.81250000000000000        0.0000000000000000     
  0.78125000000000000       0.81250000000000000        0.0000000000000000     
  0.81250000000000000       0.81250000000000000        0.0000000000000000     
  0.84375000000000000       0.81250000000000000        0.0000000000000000     
  0.87500000000000000       0.81250000000000000        0.0000000000000000     
  0.75000000000000000       0.84375000000000000        0.0000000000000000     
  0.78125000000000000       0.84375000000000000        0.0000000000000000     
  0.81250000000000000       0.84375000000000000        0.0000000000000000     
  0.84375000000000000       0.84375000000000000        0.0000000000000000     
  0.87500000000000000       0.84375000000000000        0.0000000000000000     
  0.75000000000000000       0.87500000000000000        0.0000000000000000     
  0.78125000000000000       0.87500000000000000        0.0000000000000000     
  0.81250000000000000       0.87500000000000000        0.0000000000000000     
  0.84375000000000000       0.87500000000000000        0.0000000000000000     
  0.87500000000000000       0.87500000000000000        0.0000000000000000     
  0.87500000000000000       0.75000000000000000        0.0000000000000000     
  0.90625000000000000       0.75000000000000000        0.0000000000000000     
  0.93750000000000000       0.75000000000000000        0.0000000000000000     
  0.96875000000000000       0.75000000000000000        0.0000000000000000     
   1.0000000000000000       0.75000000000000000        0.0000000000000000     
  0.87500000000000000       0.78125000000000000        0.0000000000000000     
  0.90625000000000000       0.78125000000000000        0.0000000000000000     
  0.93750000000000000       0.78125000000000000        0.0000000000000000     
  0.96875000000000000       0.78125000000000000        0.0000000000000000     
   1.0000000000000000       0.78125000000000000        0.0000000000000000     
  0.87500000000000000       0.81250000000000000        0.0000000000000000     
  0.90625000000000000       0.81250000000000000        0.0000000000000000     
  0.93750000000000000       0.81250000000000000        0.0000000000000000     
  0.96875000000000000       0.81250000000000000        0.0000000000000000     
   1.0000000000000000       0.81250000000000000        0.0000000000000000     
  0.87500000000000000       0.84375000000000000        0.0000000000000000     
  0.90625000000000000       0.84375000000000000        0.0000000000000000     
  0.93750000000000000       0.84375000000000000        0.0000000000000000     
  0.96875000000000000       0.84375000000000000        0.0000000000000000     
   1.0000000000000000       0.84375000000000000        0.0000000000000000     
  0.87500000000000000       0.87500000000000000        0.0000000000000000     
  0.90625000000000000       0.87500000000000000        0.0000000000000000     
  0.93750000000000000       0.87500000000000000        0.0000000000000000     
  0.96875000000000000       0.87500000000000000        0.0000000000000000     
   1.0000000000000000       0.87500000000000000        0.0000000000000000     
   0.0000000000000000       0.87500000000000000        0.0000000000000000     
   3.1250000000000000E-002  0.87500000000000000        0.0000000000000000     
   6.2500000000000000E-002  0.87500000000000000        0.0000000000000000     
   9.3750000000000000E-002  0.87500000000000000        0.0000000000000000     
  0.12500000000000000       0.87500000000000000        0.0000000000000000     
   0.0000000000000000       0.90625000000000000        0.0000000000000000     
   3.1250000000000000E-002  0.90625000000000000        0.0000000000000000     
   6.2500000000000000E-002  0.90625000000000000        0.0000000000000000     
   9.3750000000000000E-002  0.90625000000000000        0.0000000000000000     
  0.12500000000000000       0.90625000000000000        0.0000000000000000     
   0.0000000000000000       0.93750000000000000        0.0000000000000000     
   3.1250000000000000E-002  0.93750000000000000        0.0000000000000000     
   6.2500000000000000E-002  0.93750000000000000        0.0000000000000000     
   9.3750000000000000E-002  0.93750000000000000        0.0000000000000000     
  0.12500000000000000       0.93750000000000000        0.0000000000000000     
   0.0000000000000000       0.96875000000000000        0.0000000000000000     
   3.1250000000000000E-002  0.96875000000000000        0.0000000000000000     
   6.2500000000000000E-002  0.96875000000000000        0.0000000000000000     
   9.3750000000000000E-002  0.96875000000000000        0.0000000000000000     
  0.12500000000000000       0.96875000000000000        0.0000000000000000     
   0.0000000000000000        1.0000000000000000        0.0000000000000000     
   3.1250000000000000E-002   1.0000000000000000        0.0000000000000000     
   6.2500000000000000E-002   1.0000000000000000        0.0000000000000000     
   9.3750000000000000E-002   1.0000000000000000        0.0000000000000000     
  0.12500000000000000        1.0000000000000000        0.0000000000000000     
  0.12500000000000000       0.87500000000000000        0.0000000000000000     
  0.15625000000000000       0.87500000000000000        0.0000000000000000     
  0.18750000000000000       0.87500000000000000        0.0000000000000000     
  0.21875000000000000       0.87500000000000000        0.0000000000000000     
  0.25000000000000000       0.87500000000000000        0.0000000000000000     
  0.12500000000000000       0.90625000000000000        0.0000000000000000     
  0.15625000000000000       0.90625000000000000        0.0000000000000000     
  0.18750000000000000       0.90625000000000000        0.0000000000000000     
  0.21875000000000000       0.90625000000000000        0.0000000000000000     
  0.25000000000000000       0.90625000000000000        0.0000000000000000     
  0.12500000000000000       0.93750000000000000        0.0000000000000000     
  0.15625000000000000       0.93750000000000000        0.0000000000000000     
  0.18750000000000000       0.93750000000000000        0.0000000000000000     
  0.21875000000000000       0.93750000000000000        0.0000000000000000     
  0.25000000000000000       0.93750000000000000        0.0000000000000000     
  0.12500000000000000       0.96875000000000000        0.0000000000000000     
  0.15625000000000000       0.96875000000000000        0.0000000000000000     
  0.18750000000000000       0.96875000000000000        0.0000000000000000     
  0.21875000000000000       0.96875000000000000        0.0000000000000000     
  0.25000000000000000       0.96875000000000000        0.0000000000000000     
  0.12500000000000000        1.0000000000000000        0.0000000000000000     
  0.15625000000000000        1.0000000000000000        0.0000000000000000     
  0.18750000000000000        1.0000000000000000        0.0000000000000000     
  0.21875000000000000        1.0000000000000000        0.0000000000000000     
  0.25000000000000000        1.0000000000000000        0.0000000000000000     
  0.25000000000000000       0.87500000000000000        0.0000000000000000     
  0.28125000000000000       0.87500000000000000        0.0000000000000000     
  0.31250000000000000       0.87500000000000000        0.0000000000000000     
  0.34375000000000000       0.87500000000000000        0.0000000000000000     
  0.37500000000000000       0.87500000000000000        0.0000000000000000     
  0.25000000000000000       0.90625000000000000        0.0000000000000000     
  0.28125000000000000       0.90625000000000000        0.0000000000000000     
  0.31250000000000000       0.90625000000000000        0.0000000000000000     
  0.34375000000000000       0.90625000000000000        0.0000000000000000     
  0.37500000000000000       0.90625000000000000        0.0000000000000000     
  0.25000000000000000       0.93750000000000000        0.0000000000000000     
  0.28125000000000000       0.93750000000000000        0.0000000000000000     
  0.31250000000000000       0.93750000000000000        0.0000000000000000     
  0.34375000000000000       0.93750000000000000        0.0000000000000000     
  0.37500000000000000       0.93750000000000000        0.0000000000000000     
  0.25000000000000000       0.96875000000000000        0.0000000000000000     
  0.28125000000000000       0.96875000000000000        0.0000000000000000     
  0.31250000000000000       0.96875000000000000        0.0000000000000000     
  0.34375000000000000       0.96875000000000000        0.0000000000000000     
  0.37500000000000000       0.96875000000000000        0.0000000000000000     
  0.25000000000000000        1.0000000000000000        0.0000000000000000     
  0.28125000000000000        1.0000000000000000        0.0000000000000000     
  0.31250000000000000        1.0000000000000000        0.0000000000000000     
  0.34375000000000000        1.0000000000000000        0.0000000000000000     
  0.37500000000000000        1.0000000000000000        0.0000000000000000     
  0.37500000000000000       0.87500000000000000        0.0000000000000000     
  0.40625000000000000       0.87500000000000000        0.0000000000000000     
  0.43750000000000000       0.87500000000000000        0.0000000000000000     
  0.46875000000000000       0.87500000000000000        0.0000000000000000     
  0.50000000000000000       0.87500000000000000        0.0000000000000000     
  0.37500000000000000       0.90625000000000000        0.0000000000000000     
  0.40625000000000000       0.90625000000000000        0.0000000000000000     
  0.43750000000000000       0.90625000000000000        0.0000000000000000     
  0.46875000000000000       0.90625000000000000        0.0000000000000000     
  0.50000000000000000       0.90625000000000000        0.0000000000000000     
  0.37500000000000000       0.93750000000000000        0.0000000000000000     
  0.40625000000000000       0.93750000000000000        0.0000000000000000     
  0.43750000000000000       0.93750000000000000        0.0000000000000000     
  0.46875000000000000       0.93750000000000000        0.0000000000000000     
  0.50000000000000000       0.93750000000000000        0.0000000000000000     
  0.37500000000000000       0.96875000000000000        0.0000000000000000     
  0.40625000000000000       0.96875000000000000        0.0000000000000000     
  0.43750000000000000       0.96875000000000000        0.0000000000000000     
  0.46875000000000000       0.96875000000000000        0.0000000000000000     
  0.50000000000000000       0.96875000000000000        0.0000000000000000     
  0.37500000000000000        1.0000000000000000        0.0000000000000000     
  0.40625000000000000        1.0000000000000000        0.0000000000000000     
  0.43750000000000000        1.0000000000000000        0.0000000000000000     
  0.46875000000000000        1.0000000000000000        0.0000000000000000     
  0.50000000000000000        1.0000000000000000        0.0000000000000000     
  0.50000000000000000       0.87500000000000000        0.0000000000000000     
  0.53125000000000000       0.87500000000000000        0.0000000000000000     
  0.56250000000000000       0.87500000000000000        0.0000000000000000     
  0.59375000000000000       0.87500000000000000        0.0000000000000000     
  0.62500000000000000       0.87500000000000000        0.0000000000000000     
  0.50000000000000000       0.90625000000000000        0.0000000000000000     
  0.53125000000000000       0.90625000000000000        0.0000000000000000     
  0.56250000000000000       0.90625000000000000        0.0000000000000000     
  0.59375000000000000       0.90625000000000000        0.0000000000000000     
  0.62500000000000000       0.90625000000000000        0.0000000000000000     
  0.50000000000000000       0.93750000000000000        0.0000000000000000     
  0.53125000000000000       0.93750000000000000        0.0000000000000000     
  0.56250000000000000       0.93750000000000000        0.0000000000000000     
  0.59375000000000000       0.93750000000000000        0.0000000000000000     
  0.62500000000000000       0.93750000000000000        0.0000000000000000     
  0.50000000000000000       0.96875000000000000        0.0000000000000000     
  0.53125000000000000       0.96875000000000000        0.0000000000000000     
  0.56250000000000000       0.96875000000000000        0.0000000000000000     
  0.59375000000000000       0.96875000000000000        0.0000000000000000     
  0.62500000000000000       0.96875000000000000        0.0000000000000000     
  0.50000000000000000        1.0000000000000000        0.0000000000000000     
  0.53125000000000000        1.0000000000000000        0.0000000000000000     
  0.56250000000000000        1.0000000000000000        0.0000000000000000     
  0.59375000000000000        1.0000000000000000        0.0000000000000000     
  0.62500000000000000        1.0000000000000000        0.0000000000000000     
  0.62500000000000000       0.87500000000000000        0.0000000000000000     
  0.65625000000000000       0.87500000000000000        0.0000000000000000     
  0.68750000000000000       0.87500000000000000        0.0000000000000000     
  0.71875000000000000       0.87500000000000000        0.0000000000000000     
  0.75000000000000000       0.87500000000000000        0.0000000000000000     
  0.62500000000000000       0.90625000000000000        0.0000000000000000     
  0.65625000000000000       0.90625000000000000        0.0000000000000000     
  0.68750000000000000       0.90625000000000000        0.0000000000000000     
  0.71875000000000000       0.90625000000000000        0.0000000000000000     
  0.75000000000000000       0.90625000000000000        0.0000000000000000     
  0.62500000000000000       0.93750000000000000        0.0000000000000000     
  0.65625000000000000       0.93750000000000000        0.0000000000000000     
  0.68750000000000000       0.93750000000000000        0.0000000000000000     
  0.71875000000000000       0.93750000000000000        0.0000000000000000     
  0.75000000000000000       0.93750000000000000        0.0000000000000000     
  0.62500000000000000       0.96875000000000000        0.0000000000000000     
  0.65625000000000000       0.96875000000000000        0.0000000000000000     
  0.68750000000000000       0.96875000000000000        0.0000000000000000     
  0.71875000000000000       0.96875000000000000        0.0000000000000000     
  0.75000000000000000       0.96875000000000000        0.0000000000000000     
  0.62500000000000000        1.0000000000000000        0.0000000000000000     
  0.65625000000000000        1.0000000000000000        0.0000000000000000     
  0.68750000000000000        1.0000000000000000        0.0000000000000000     
  0.71875000000000000        1.0000000000000000        0.0000000000000000     
  0.75000000000000000        1.0000000000000000        0.0000000000000000     
  0.75000000000000000       0.87500000000000000        0.0000000000000000     
  0.78125000000000000       0.87500000000000000        0.0000000000000000     
  0.81250000000000000       0.87500000000000000        0.0000000000000000     
  0.84375000000000000       0.87500000000000000        0.0000000000000000     
  0.87500000000000000       0.87500000000000000        0.0000000000000000     
  0.75000000000000000       0.90625000000000000        0.0000000000000000     
  0.78125000000000000       0.90625000000000000        0.0000000000000000     
  0.81250000000000000       0.90625000000000000        0.0000000000000000     
  0.84375000000000000       0.90625000000000000        0.0000000000000000     
  0.87500000000000000       0.90625000000000000        0.0000000000000000     
  0.75000000000000000       0.93750000000000000        0.0000000000000000     
  0.78125000000000000       0.93750000000000000        0.0000000000000000     
  0.81250000000000000       0.93750000000000000        0.0000000000000000     
  0.84375000000000000       0.93750000000000000        0.0000000000000000     
  0.87500000000000000       0.93750000000000000        0.0000000000000000     
  0.75000000000000000       0.96875000000000000        0.0000000000000000     
  0.78125000000000000       0.96875000000000000        0.0000000000000000     
  0.81250000000000000       0.96875000000000000        0.0000000000000000     
  0.84375000000000000       0.96875000000000000        0.0000000000000000     
  0.87500000000000000       0.96875000000000000        0.0000000000000000     
  0.75000000000000000        1.0000000000000000        0.0000000000000000     
  0.78125000000000000        1.0000000000000000        0.0000000000000000     
  0.81250000000000000        1.0000000000000000        0.0000000000000000     
  0.84375000000000000        1.0000000000000000        0.0000000000000000     
  0.87500000000000000        1.0000000000000000        0.0000000000000000     
  0.87500000000000000       0.87500000000000000        0.0000000000000000     
  0.90625000000000000       0.87500000000000000        0.0000000000000000     
  0.93750000000000000       0.87500000000000000        0.0000000000000000     
  0.96875000000000000       0.87500000000000000        0.0000000000000000     
   1.0000000000000000       0.87500000000000000        0.0000000000000000     
  0.87500000000000000       0.90625000000000000        0.0000000000000000     
  0.90625000000000000       0.90625000000000000        0.0000000000000000     
  0.93750000000000000       0.90625000000000000        0.0000000000000000     
  0.96875000000000000       0.90625000000000000        0.0000000000000000     
   1.0000000000000000       0.90625000000000000        0.0000000000000000     
  0.87500000000000000       0.93750000000000000        0.0000000000000000     
  0.90625000000000000       0.93750000000000000        0.0000000000000000     
  0.93750000000000000       0.93750000000000000        0.0000000000000000     
  0.96875000000000000       0.93750000000000000        0.0000000000000000     
   1.0000000000000000       0.93750000000000000        0.0000000000000000     
  0.87500000000000000       0.96875000000000000        0.0000000000000000     
  0.90625000000000000       0.96875000000000000        0.0000000000000000     
  0.93750000000000000       0.96875000000000000        0.0000000000000000     
  0.96875000000000000       0.96875000000000000        0.0000000000000000     
   1.0000000000000000       0.96875000000000000        0.0000000000000000     
  0.87500000000000000        1.0000000000000000        0.0000000000000000     
  0.90625000000000000        1.0000000000000000        0.0000000000000000     
  0.93750000000000000        1.0000000000000000        0.0000000000000000     
  0.96875000000000000        1.0000000000000000        0.0000000000000000     
   1.0000000000000000        1.0000000000000000        0.0000000000000000     
 </DataArray>
 </Points>
 <Cells>
 <DataArray  type="Int32"  Name="connectivity"  format="ascii">
           0           1           6           5
           1           2           7           6
           2           3           8           7
           3           4           9           8
           5           6          11          10
           6           7          12          11
           7           8          13          12
           8           9          14          13
          10          11          16          15
          11          12          17          16
          12          13          18          17
          13          14          19          18
          15          16          21          20
          16          17          22          21
          17          18          23          22
          18          19          24          23
          25          26          31          30
          26          27          32          31
          27          28          33          32
          28          29          34          33
          30          31          36          35
          31          32          37          36
          32          33          38          37
          33          34          39          38
          35          36          41          40
          36          37          42          41
          37          38          43          42
          38          39          44          43
          40          41          46          45
          41          42          47          46
          42          43          48          47
          43          44          49          48
          50          51          56          55
          51          52          57          56
          52          53          58          57
          53          54          59          58
          55          56          61          60
          56          57          62          61
          57          58          63          62
          58          59          64          63
          60          61          66          65
          61          62          67          66
          62          63          68          67
          63          64          69          68
          65          66          71          70
          66          67          72          71
          67          68          73          72
          68          69          74          73
          75          76          81          80
          76          77          82          81
          77          78          83          82
          78          79          84          83
          80          81          86          85
          81          82          87          86
          82          83          88          87
          83          84          89          88
          85          86          91          90
          86          87          92          91
          87          88          93          92
          88          89          94          93
          90          91          96          95
          91          92          97          96
          92          93          98          97
          93          94          99          98
         100         101         106         105
         101         102         107         106
         102         103         108         107
         103         104         109         108
         105         106         111         110
         106         107         112         111
         107         108         113         112
         108         109         114         113
         110         111         116         115
         111         112         117         116
         112         113         118         117
         113         114         119         118
         115         116         121         120
         116         117         122         121
         117         118         123         122
         118         119         124         123
         125         126         131         130
         126         127         132         131
         127         128         133         132
         128         129         134         133
         130         131         136         135
         131         132         137         136
         132         133         138         137
         133         134         139         138
         135         136         141         140
         136         137         142         141
         137         138         143         142
         138         139         144         143
         140         141         146         145
         141         142         147         146
         142         143         148         147
         143         144         149         148
         150         151         156         155
         151         152         157         156
         152         153         158         157
         153         154         159         158
         155         156         161         160
         156         157         162         161
         157         158         163         162
         158         159         164         163
         160         161         166         165
         161         162         167         166
         162         163         168         167
         163         164         169         168
         165         166         171         170
         166         167         172         171
         167         168         173         172
         168         169         174         173
         175         176         181         180
         176         177         182         181
         177         178         183         182
         178         179         184         183
         180         181         186         185
         181         182         187         186
         182         183         188         187
         183         184         189         188
         185         186         191         190
         186         187         192         191
         187         188         193         192
         188         189         194         193
         190         191         196         195
         191         192         197         196
         192         193         198         197
         193         194         199         198
         200         201         206         205
         201         202         207         206
         202         203         208         207
         203         204         209         208
         205         206         211         210
         206         207         212         211
         207         208         213         212
         208         209         214         213
         210         211         216         215
         211         212         217         216
         212         213         218         217
         213         214         219         218
         215         216         221         220
         216         217         222         221
         217         218         223         222
         218         219         224         223
         225         226         231         230
         226         227         232         231
         227         228         233         232
         228         229         234         233
         230         231         236         235
         231         232         237         236
         232         233         238         237
         233         234         239         238
         235         236         241         240
         236         237         242         241
         237         238         243         242
         238         239         244         243
         240         241         246         245
         241         242         247         246
         242         243         248         247
         243         244         249         248
         250         251         256         255
         251         252         257         256
         252         253         258         257
         253         254         259         258
         255         256         261         260
         256         257         262         261
         257         258         263         262
         258         259         264         263
         260         261         266         265
         261         262         267         266
         262         263         268         267
         263         264         269         268
         265         266         271         270
         266         267         272         271
         267         268         273         272
         268         269         274         273
         275         276         281         280
         276         277         282         281
         277         278         283         282
         278         279         284         283
         280         281         286         285
         281         282         287         286
         282         283         288         287
         283         284         289         288
         285         286         291         290
         286         287         292         291
         287         288         293         292
         288         289         294         293
         290         291         296         295
         291         292         297         296
         292         293         298         297
         293         294         299         298
         300         301         306         305
         301         302         307         306
         302         303         308         307
         303         304         309         308
         305         306         311         310
         306         307         312         311
         307         308         313         312
         308         309         314         313
         310         311         316         315
         311         312         317         316
         312         313         318         317
         313         314         319         318
         315         316         321         320
         316         317         322         321
         317         318         323         322
         318         319         324         323
         325         326         331         330
         326         327         332         331
         327         328         333         332
         328         329         334         333
         330         331         336         335
         331         332         337         336
         332         333         338         337
         333         334         339         338
         335         336         341         340
         336         337         342         341
         337         338         343         342
         338         339         344         343
         340         341         346         345
         341         342         347         346
         342         343         348         347
         343         344         349         348
         350         351         356         355
         351         352         357         356
         352         353         358         357
         353         354         359         358
         355         356         361         360
         356         357         362         361
         357         358         363         362
         358         359         364         363
         360         361         366         365
         361         362         367         366
         362         363         368         367
         363         364         369         368
         365         366         371         370
         366         367         372         371
         367         368         373         372
         368         369         374         373
         375         376         381         380
         376         377         382         381
         377         378         383         382
         378         379         384         383
         380         381         386         385
         381         382         387         386
         382         383         388         387
         383         384         389         388
         385         386         391         390
         386         387         392         391
         387         388         393         392
         388         389         394         393
         390         391         396         395
         391         392         397         396
         392         393         398         397
         393         394         399         398
         400         401         406         405
         401         402         407         406
         402         403         408         407
         403         404         409         408
         405         406         411         410
         406         407         412         411
         407         408         413         412
         408         409         414         413
         410         411         416         415
         411         412         417         416
         412         413         418         417
         413         414         419         418
         415         416         421         420
         416         417         422         421
         417         418         423         422
         418         419         424         423
         425         426         431         430
         426         427         432         431
         427         428         433         432
         428         429         434         433
         430         431         436         435
         431         432         437         436
         432         433         438         437
         433         434         439         438
         435         436         441         440
         436         437         442         441
         437         438         443         442
         438         439         444         443
         440         441         446         445
         441         442         447         446
         442         443         448         447
         443         444         449         448
         450         451         456         455
         451         452         457         456
         452         453         458         457
         453         454         459         458
         455         456         461         460
         456         457         462         461
         457         458         463         462
         458         459         464         463
         460         461         466         465
         461         462         467         466
         462         463         468         467
         463         464         469         468
         465         466         471         470
         466         467         472         471
         467         468         473         472
         468         469         474         473
         475         476         481         480
         476         477         482         481
         477         478         483         482
         478         479         484         483
         480         481         486         485
         481         482         487         486
         482         483         488         487
         483         484         489         488
         485         486         491         490
         486         487         492         491
         487         488         493         492
         488         489         494         493
         490         491         496         495
         491         492         497         496
         492         493         498         497
         493         494         499         498
         500         501         506         505
         501         502         507         506
         502         503         508         507
         503         504         509         508
         505         506         511         510
         506         507         512         511
         507         508         513         512
         508         509         514         513
         510         511         516         515
         511         512         517         516
         512         513         518         517
         513         514         519         518
         515         516         521         520
         516         517         522         521
         517         518         523         522
         518         519         524         523
         525         526         531         530
         526         527         532         531
         527         528         533         532
         528         529         534         533
         530         531         536         535
         531         532         537         536
         532         533         538         537
         533         534         539         538
         535         536         541         540
         536         537         542         541
         537         538         543         542
         538         539         544         543
         540         541         546         545
         541         542         547         546
         542         543         548         547
         543         544         549         548
         550         551         556         555
         551         552         557         556
         552         553         558         557
         553         554         559         558
         555         556         561         560
         556         557         562         561
         557         558         563         562
         558         559         564         563
         560         561         566         565
         561         562         567         566
         562         563         568         567
         563         564         569         568
         565         566         571         570
         566         567         572         571
         567         568         573         572
         568         569         574         573
         575         576         581         580
         576         577         582         581
         577         578         583         582
         578         579         584         583
         580         581         586         585
         581         582         587         586
         582         583         588         587
         583         584         589         588
         585         586         591         590
         586         587         592         591
         587         588         593         592
         588         589         594         593
         590         591         596         595
         591         592         597         596
         592         593         598         597
         593         594         599         598
         600         601         606         605
         601         602         607         606
         602         603         608         607
         603         604         609         608
         605         606         611         610
         606         607         612         611
         607         608         613         612
         608         609         614         613
         610         611         616         615
         611         612         617         616
         612         613         618         617
         613         614         619         618
         615         616         621         620
         616         617         622         621
         617         618         623         622
         618         619         624         623
         625         626         631         630
         626         627         632         631
         627         628         633         632
         628         629         634         633
         630         631         636         635
         631         632         637         636
         632         633         638         637
         633         634         639         638
         635         636         641         640
         636         637         642         641
         637         638         643         642
         638         639         644         643
         640         641         646         645
         641         642         647         646
         642         643         648         647
         643         644         649         648
         650         651         656         655
         651         652         657         656
         652         653         658         657
         653         654         659         658
         655         656         661         660
         656         657         662         661
         657         658         663         662
         658         659         664         663
         660         661         666         665
         661         662         667         666
         662         663         668         667
         663         664         669         668
         665         666         671         670
         666         667         672         671
         667         668         673         672
         668         669         674         673
         675         676         681         680
         676         677         682         681
         677         678         683         682
         678         679         684         683
         680         681         686         685
         681         682         687         686
         682         683         688         687
         683         684         689         688
         685         686         691         690
         686         687         692         691
         687         688         693         692
         688         689         694         693
         690         691         696         695
         691         692         697         696
         692         693         698         697
         693         694         699         698
         700         701         706         705
         701         702         707         706
         702         703         708         707
         703         704         709         708
         705         706         711         710
         706         707         712         711
         707         708         713         712
         708         709         714         713
         710         711         716         715
         711         712         717         716
         712         713         718         717
         713         714         719         718
         715         716         721         720
         716         717         722         721
         717         718         723         722
         718         719         724         723
         725         726         731         730
         726         727         732         731
         727         728         733         732
         728         729         734         733
         730         731         736         735
         731         732         737         736
         732         733         738         737
         733         734         739         738
         735         736         741         740
         736         737         742         741
         737         738         743         742
         738         739         744         743
         740         741         746         745
         741         742         747         746
         742         743         748         747
         743         744         749         748
         750         751         756         755
         751         752         757         756
         752         753         758         757
         753         754         759         758
         755         756         761         760
         756         757         762         761
         757         758         763         762
         758         759         764         763
         760         761         766         765
         761         762         767         766
         762         763         768         767
         763         764         769         768
         765         766         771         770
         766         767         772         771
         767         768         773         772
         768         769         774         773
         775         776         781         780
         776         777         782         781
         777         778         783         782
         778         779         784         783
         780         781         786         785
         781         782         787         786
         782         783         788         787
         783         784         789         788
         785         786         791         790
         786         787         792         791
         787         788         793         792
         788         789         794         793
         790         791         796         795
         791         792         797         796
         792         793         798         797
         793         794         799         798
         800         801         806         805
         801         802         807         806
         802         803         808         807
         803         804         809         808
         805         806         811         810
         806         807         812         811
         807         808         813         812
         808         809         814         813
         810         811         816         815
         811         812         817         816
         812         813         818         817
         813         814         819         818
         815         816         821         820
         816         817         822         821
         817         818         823         822
         818         819         824         823
         825         826         831         830
         826         827         832         831
         827         828         833         832
         828         829         834         833
         830         831         836         835
         831         832         837         836
         832         833         838         837
         833         834         839         838
         835         836         841         840
         836         837         842         841
         837         838         843         842
         838         839         844         843
         840         841         846         845
         841         842         847         846
         842         843         848         847
         843         844         849         848
         850         851         856         855
         851         852         857         856
         852         853         858         857
         853         854         859         858
         855         856         861         860
         856         857         862         861
         857         858         863         862
         858         859         864         863
         860         861         866         865
         861         862         867         866
         862         863         868         867
         863         864         869         868
         865         866         871         870
         866         867         872         871
         867         868         873         872
         868         869         874         873
         875         876         881         880
         876         877         882         881
         877         878         883         882
         878         879         884         883
         880         881         886         885
         881         882         887         886
         882         883         888         887
         883         884         889         888
         885         886         891         890
         886         887         892         891
         887         888         893         892
         888         889         894         893
         890         891         896         895
         891         892         897         896
         892         893         898         897
         893         894         899         898
         900         901         906         905
         901         902         907         906
         902         903         908         907
         903         904         909         908
         905         906         911         910
         906         907         912         911
         907         908         913         912
         908         909         914         913
         910         911         916         915
         911         912         917         916
         912         913         918         917
         913         914         919         918
         915         916         921         920
         916         917         922         921
         917         918         923         922
         918         919         924         923
         925         926         931         930
         926         927         932         931
         927         928         933         932
         928         929         934         933
         930         931         936         935
         931         932         937         936
         932         933         938         937
         933         934         939         938
         935         936         941         940
         936         937         942         941
         937         938         943         942
         938         939         944         943
         940         941         946         945
         941         942         947         946
         942         943         948         947
         943         944         949         948
         950         951         956         955
         951         952         957         956
         952         953         958         957
         953         954         959         958
         955         956         961         960
         956         957         962         961
         957         958         963         962
         958         959         964         963
         960         961         966         965
         961         962         967         966
         962         963         968         967
         963         964         969         968
         965         966         971         970
         966         967         972         971
         967         968         973         972
         968         969         974         973
         975         976         981         980
         976         977         982         981
         977         978         983         982
         978         979         984         983
         980         981         986         985
         981         982         987         986
         982         983         988         987
         983         984         989         988
         985         986         991         990
         986         987         992         991
         987         988         993         992
         988         989         994         993
         990         991         996         995
         991         992         997         996
         992         993         998         997
         993         994         999         998
        1000        1001        1006        1005
        1001        1002        1007        1006
        1002        1003        1008        1007
        1003        1004        1009        1008
        1005        1006        1011        1010
        1006        1007        1012        1011
        1007        1008        1013        1012
        1008        1009        1014        1013
        1010        1011        1016        1015
        1011        1012        1017        1016
        1012        1013        1018        1017
        1013        1014        1019        1018
        1015        1016        1021        1020
        1016        1017        1022        1021
        1017        1018        1023        1022
        1018        1019        1024        1023
        1025        1026        1031        1030
        1026        1027        1032        1031
        1027        1028        1033        1032
        1028        1029        1034        1033
        1030        1031        1036        1035
        1031        1032        1037        1036
        1032        1033        1038        1037
        1033        1034        1039        1038
        1035        1036        1041        1040
        1036        1037        1042        1041
        1037        1038        1043        1042
        1038        1039        1044        1043
        1040        1041        1046        1045
        1041        1042        1047        1046
        1042        1043        1048        1047
        1043        1044        1049        1048
        1050        1051        1056        1055
        1051        1052        1057        1056
        1052        1053        1058        1057
        1053        1054        1059        1058
        1055        1056        1061        1060
        1056        1057        1062        1061
        1057        1058        1063        1062
        1058        1059        1064        1063
        1060        1061        1066        1065
        1061        1062        1067        1066
        1062        1063        1068        1067
        1063        1064        1069        1068
        1065        1066        1071        1070
        1066        1067        1072        1071
        1067        1068        1073        1072
        1068        1069        1074        1073
        1075        1076        1081        1080
        1076        1077        1082        1081
        1077        1078        1083        1082
        1078        1079        1084        1083
        1080        1081        1086        1085
        1081        1082        1087        1086
        1082        1083        1088        1087
        1083        1084        1089        1088
        1085        1086        1091        1090
        1086        1087        1092        1091
        1087        1088        1093        1092
        1088        1089        1094        1093
        1090        1091        1096        1095
        1091        1092        1097        1096
        1092        1093        1098        1097
        1093        1094        1099        1098
        1100        1101        1106        1105
        1101        1102        1107        1106
        1102        1103        1108        1107
        1103        1104        1109        1108
        1105        1106        1111        1110
        1106        1107        1112        1111
        1107        1108        1113        1112
        1108        1109        1114        1113
        1110        1111        1116        1115
        1111        1112        1117        1116
        1112        1113        1118        1117
        1113        1114        1119        1118
        1115        1116        1121        1120
        1116        1117        1122        1121
        1117        1118        1123        1122
        1118        1119        1124        1123
        1125        1126        1131        1130
        1126        1127        1132        1131
        1127        1128        1133        1132
        1128        1129        1134        1133
        1130        1131        1136        1135
        1131        1132        1137        1136
        1132        1133        1138        1137
        1133        1134        1139        1138
        1135        1136        1141        1140
        1136        1137        1142        1141
        1137        1138        1143        1142
        1138        1139        1144        1143
        1140        1141        1146        1145
        1141        1142        1147        1146
        1142        1143        1148        1147
        1143        1144        1149        1148
        1150        1151        1156        1155
        1151        1152        1157        1156
        1152        1153        1158        1157
        1153        1154        1159        1158
        1155        1156        1161        1160
        1156        1157        1162        1161
        1157        1158        1163        1162
        1158        1159        1164        1163
        1160        1161        1166        1165
        1161        1162        1167        1166
        1162        1163        1168        1167
        1163        1164        1169        1168
        1165        1166        1171        1170
        1166        1167        1172        1171
        1167        1168        1173        1172
        1168        1169        1174        1173
        1175        1176        1181        1180
        1176        1177        1182        1181
        1177        1178        1183        1182
        1178        1179        1184        1183
        1180        1181        1186        1185
        1181        1182        1187        1186
        1182        1183        1188        1187
        1183        1184        1189        1188
        1185        1186        1191        1190
        1186        1187        1192        1191
        1187        1188        1193        1192
        1188        1189        1194        1193
        1190        1191        1196        1195
        1191        1192        1197        1196
        1192        1193        1198        1197
        1193        1194        1199        1198
        1200        1201        1206        1205
        1201        1202        1207        1206
        1202        1203        1208        1207
        1203        1204        1209        1208
        1205        1206        1211        1210
        1206        1207        1212        1211
        1207        1208        1213        1212
        1208        1209        1214        1213
        1210        1211        1216        1215
        1211        1212        1217        1216
        1212        1213        1218        1217
        1213        1214        1219        1218
        1215        1216        1221        1220
        1216        1217        1222        1221
        1217        1218        1223        1222
        1218        1219        1224        1223
        1225        1226        1231        1230
        1226        1227        1232        1231
        1227        1228        1233        1232
        1228        1229        1234        1233
        1230        1231        1236        1235
        1231        1232        1237        1236
        1232        1233        1238        1237
        1233        1234        1239        1238
        1235        1236        1241        1240
        1236        1237        1242        1241
        1237        1238        1243        1242
        1238        1239        1244        1243
        1240        1241        1246        1245
        1241        1242        1247        1246
        1242        1243        1248        1247
        1243        1244        1249        1248
        1250        1251        1256        1255
        1251        1252        1257        1256
        1252        1253        1258        1257
        1253        1254        1259        1258
        1255        1256        1261        1260
        1256        1257        1262        1261
        1257        1258        1263        1262
        1258        1259        1264        1263
        1260        1261        1266        1265
        1261        1262        1267        1266
        1262        1263        1268        1267
        1263        1264        1269        1268
        1265        1266        1271        1270
        1266        1267        1272        1271
        1267        1268        1273        1272
        1268        1269        1274        1273
        1275        1276        1281        1280
        1276        1277        1282        1281
        1277        1278        1283        1282
        1278        1279        1284        1283
        1280        1281        1286        1285
        1281        1282        1287        1286
        1282        1283        1288        1287
        1283        1284        1289        1288
        1285        1286        1291        1290
        1286        1287        1292        1291
        1287        1288        1293        1292
        1288        1289        1294        1293
        1290        1291        1296        1295
        1291        1292        1297        1296
        1292        1293        1298        1297
        1293        1294        1299        1298
        1300        1301        1306        1305
        1301        1302        1307        1306
        1302        1303        1308        1307
        1303        1304        1309        1308
        1305        1306        1311        1310
        1306        1307        1312        1311
        1307        1308        1313        1312
        1308        1309        1314        1313
        1310        1311        1316        1315
        1311        1312        1317        1316
        1312        1313        1318        1317
        1313        1314        1319        1318
        1315        1316        1321        1320
        1316        1317        1322        1321
        1317        1318        1323        1322
        1318        1319        1324        1323
        1325        1326        1331        1330
        1326        1327        1332        1331
        1327        1328        1333        1332
        1328        1329        1334        1333
        1330        1331        1336        1335
        1331        1332        1337        1336
        1332        1333        1338        1337
        1333        1334        1339        1338
        1335        1336        1341        1340
        1336        1337        1342        1341
        1337        1338        1343        1342
        1338        1339        1344        1343
        1340        1341        1346        1345
        1341        1342        1347        1346
        1342        1343        1348        1347
        1343        1344        1349        1348
        1350        1351        1356        1355
        1351        1352        1357        1356
        1352        1353        1358        1357
        1353        1354        1359        1358
        1355        1356        1361        1360
        1356        1357        1362        1361
        1357        1358        1363        1362
        1358        1359        1364        1363
        1360        1361        1366        1365
        1361        1362        1367        1366
        1362        1363        1368        1367
        1363        1364        1369        1368
        1365        1366        1371        1370
        1366        1367        1372        1371
        1367        1368        1373        1372
        1368        1369        1374        1373
        1375        1376        1381        1380
        1376        1377        1382        1381
        1377        1378        1383        1382
        1378        1379        1384        1383
        1380        1381        1386        1385
        1381        1382        1387        1386
        1382        1383        1388        1387
        1383        1384        1389        1388
        1385        1386        1391        1390
        1386        1387        1392        1391
        1387        1388        1393        1392
        1388        1389        1394        1393
        1390        1391        1396        1395
        1391        1392        1397        1396
        1392        1393        1398        1397
        1393        1394        1399        1398
        1400        1401        1406        1405
        1401        1402        1407        1406
        1402        1403        1408        1407
        1403        1404        1409        1408
        1405        1406        1411        1410
        1406        1407        1412        1411
        1407        1408        1413        1412
        1408        1409        1414        1413
        1410        1411        1416        1415
        1411        1412        1417        1416
        1412        1413        1418        1417
        1413        1414        1419        1418
        1415        1416        1421        1420
        1416        1417        1422        1421
        1417        1418        1423        1422
        1418        1419        1424        1423
        1425        1426        1431        1430
        1426        1427        1432        1431
        1427        1428        1433        1432
        1428        1429        1434        1433
        1430        1431        1436        1435
        1431        1432        1437        1436
        1432        1433        1438        1437
        1433        1434        1439        1438
        1435        1436        1441        1440
        1436        1437        1442        1441
        1437        1438        1443        1442
        1438        1439        1444        1443
        1440        1441        1446        1445
        1441        1442        1447        1446
        1442        1443        1448        1447
        1443        1444        1449        1448
        1450        1451        1456        1455
        1451        1452        1457        1456
        1452        1453        1458        1457
        1453        1454        1459        1458
        1455        1456        1461        1460
        1456        1457        1462        1461
        1457        1458        1463        1462
        1458        1459        1464        1463
        1460        1461        1466        1465
        1461        1462        1467        1466
        1462        1463        1468        1467
        1463        1464        1469        1468
        1465        1466        1471        1470
        1466        1467        1472        1471
        1467        1468        1473        1472
        1468        1469        1474        1473
        1475        1476        1481        1480
        1476        1477        1482        1481
        1477        1478        1483        1482
        1478        1479        1484        1483
        1480        1481        1486        1485
        1481        1482        1487        1486
        1482        1483        1488        1487
        1483        1484        1489        1488
        1485        1486        1491        1490
        1486        1487        1492        1491
        1487        1488        1493        1492
        1488        1489        1494        1493
        1490        1491        1496        1495
        1491        1492        1497        1496
        1492        1493        1498        1497
        1493        1494        1499        1498
        1500        1501        1506        1505
        1501        1502        1507        1506
        1502        1503        1508        1507
        1503        1504        1509        1508
        1505        1506        1511        1510
        1506        1507        1512        1511
        1507        1508        1513        1512
        1508        1509        1514        1513
        1510        1511        1516        1515
        1511        1512        1517        1516
        1512        1513        1518        1517
        1513        1514        1519        1518
        1515        1516        1521        1520
        1516        1517        1522        1521
        1517        1518        1523        1522
        1518        1519        1524        1523
        1525        1526        1531        1530
        1526        1527        1532        1531
        1527        1528        1533        1532
        1528        1529        1534        1533
        1530        1531        1536        1535
        1531        1532        1537        1536
        1532        1533        1538        1537
        1533        1534        1539        1538
        1535        1536        1541        1540
        1536        1537        1542        1541
        1537        1538        1543        1542
        1538        1539        1544        1543
        1540        1541        1546        1545
        1541        1542        1547        1546
        1542        1543        1548        1547
        1543        1544        1549        1548
        1550        1551        1556        1555
        1551        1552        1557        1556
        1552        1553        1558        1557
        1553        1554        1559        1558
        1555        1556        1561        1560
        1556        1557        1562        1561
        1557        1558        1563        1562
        1558        1559        1564        1563
        1560        1561        1566        1565
        1561        1562        1567        1566
        1562        1563        1568        1567
        1563        1564        1569        1568
        1565        1566        1571        1570
        1566        1567        1572        1571
        1567        1568        1573        1572
        1568        1569        1574        1573
        1575        1576        1581        1580
        1576        1577        1582        1581
        1577        1578        1583        1582
        1578        1579        1584        1583
        1580        1581        1586        1585
        1581        1582        1587        1586
        1582        1583        1588        1587
        1583        1584        1589        1588
        1585        1586        1591        1590
        1586        1587        1592        1591
        1587        1588        1593        1592
        1588        1589        1594        1593
        1590        1591        1596        1595
        1591        1592        1597        1596
        1592        1593        1598        1597
        1593        1594        1599        1598
 </DataArray>
 <DataArray  type="Int32"  Name="offsets"  format="ascii"> 
           4
           8
          12
          16
          20
          24
          28
          32
          36
          40
          44
          48
          52
          56
          60
          64
          68
          72
          76
          80
          84
          88
          92
          96
         100
         104
         108
         112
         116
         120
         124
         128
         132
         136
         140
         144
         148
         152
         156
         160
         164
         168
         172
         176
         180
         184
         188
         192
         196
         200
         204
         208
         212
         216
         220
         224
         228
         232
         236
         240
         244
         248
         252
         256
         260
         264
         268
         272
         276
         280
         284
         288
         292
         296
         300
         304
         308
         312
         316
         320
         324
         328
         332
         336
         340
         344
         348
         352
         356
         360
         364
         368
         372
         376
         380
         384
         388
         392
         396
         400
         404
         408
         412
         416
         420
         424
         428
         432
         436
         440
         444
         448
         452
         456
         460
         464
         468
         472
         476
         480
         484
         488
         492
         496
         500
         504
         508
         512
         516
         520
         524
         528
         532
         536
         540
         544
         548
         552
         556
         560
         564
         568
         572
         576
         580
         584
         588
         592
         596
         600
         604
         608
         612
         616
         620
         624
         628
         632
         636
         640
         644
         648
         652
         656
         660
         664
         668
         672
         676
         680
         684
         688
         692
         696
         700
         704
         708
         712
         716
         720
         724
         728
         732
         736
         740
         744
         748
         752
         756
         760
         764
         768
         772
         776
         780
         784
         788
         792
         796
         800
         804
         808
         812
         816
         820
         824
         828
         832
         836
         840
         844
         848
         852
         856
         860
         864
         868
         872
         876
         880
         884
         888
         892
         896
         900
         904
         908
         912
         916
         920
         924
         928
         932
         936
         940
         944
         948
         952
         956
         960
         964
         968
         972
         976
         980
         984
         988
         992
         996
        1000
        1004
        1008
        1012
        1016
        1020
        1024
        1028
        1032
        1036
        1040
        1044
        1048
        1052
        1056
        1060
        1064
        1068
        1072
        1076
        1080
        1084
        1088
        1092
        1096
        1100
        1104
        1108
        1112
        1116
        1120
        1124
        1128
        1132
        1136
        1140
        1144
        1148
        1152
        1156
        1160
        1164
        1168
        1172
        1176
        1180
        1184
        1188
        1192
        1196
        1200
        1204
        1208
        1212
        1216
        1220
        1224
        1228
        1232
        1236
        1240
        1244
        1248
        1252
        1256
        1260
        1264
        1268
        1272
        1276
        1280
        1284
        1288
        1292
        1296
        1300
        1304
        1308
        1312
        1316
        1320
        1324
        1328
        1332
        1336
        1340
        1344
        1348
        1352
        1356
        1360
        1364
        1368
        1372
        1376
        1380
        1384
        1388
        1392
        1396
        1400
        1404
        1408
        1412
        1416
        1420
        1424
        1428
        1432
        1436
        1440
        1444
        1448
        1452
        1456
        1460
        1464
        1468
        1472
        1476
        1480
        1484
        1488
        1492
        1496
        1500
        1504
        1508
        1512
        1516
        1520
        1524
        1528
        1532
        1536
        1540
        1544
        1548
        1552
        1556
        1560
        1564
        1568
        1572
        1576
        1580
        1584
        1588
        1592
        1596
        1600
        1604
        1608
        1612
        1616
        1620
        1624
        1628
        1632
        1636
        1640
        1644
        1648
        1652
        1656
        1660
        1664
        1668
        1672
        1676
        1680
        1684
        1688
        1692
        1696
        1700
        1704
        1708
        1712
        1716
        1720
        1724
        1728
        1732
        1736
        1740
        1744
        1748
        1752
        1756
        1760
        1764
        1768
        1772
        1776
        1780
        1784
        1788
        1792
        1796
        1800
        1804
        1808
        1812
        1816
        1820
        1824
        1828
        1832
        1836
        1840
        1844
        1848
        1852
        1856
        1860
        1864
        1868
        1872
        1876
        1880
        1884
        1888
        1892
        1896
        1900
        1904
        1908
        1912
        1916
        1920
        1924
        1928
        1932
        1936
        1940
        1944
        1948
        1952
        1956
        1960
        1964
        1968
        1972
        1976
        1980
        1984
        1988
        1992
        1996
        2000
        2004
        2008
        2012
        2016
        2020
        2024
        2028
        2032
        2036
        2040
        2044
        2048
        2052
        2056
        2060
        2064
        2068
        2072
        2076
        2080
        2084
        2088
        2092
        2096
        2100
        2104
        2108
        2112
        2116
        2120
        2124
        2128
        2132
        2136
        2140
        2144
        2148
        2152
        2156
        2160
        2164
        2168
        2172
        2176
        2180
        2184
        2188
        2192
        2196
        2200
        2204
        2208
        2212
        2216
        2220
        2224
        2228
        2232
        2236
        2240
        2244
        2248
        2252
        2256
        2260
        2264
        2268
        2272
        2276
        2280
        2284
        2288
        2292
        2296
        2300
        2304
        2308
        2312
        2316
        2320
        2324
        2328
        2332
        2336
        2340
        2344
        2348
        2352
        2356
        2360
        2364
        2368
        2372
        2376
        2380
        2384
        2388
        2392
        2396
        2400
        2404
        2408
        2412
        2416
        2420
        2424
        2428
        2432
        2436
        2440
        2444
        2448
        2452
        2456
        2460
        2464
        2468
        2472
        2476
        2480
        2484
        2488
        2492
        2496
        2500
        2504
        2508
        2512
        2516
        2520
        2524
        2528
        2532
        2536
        2540
        2544
        2548
        2552
        2556
        2560
        2564
        2568
        2572
        2576
        2580
        2584
        2588
        2592
        2596
        2600
        2604
        2608
        2612
        2616
        2620
        2624
        2628
        2632
        2636
        2640
        2644
        2648
        2652
        2656
        2660
        2664
        2668
        2672
        2676
        2680
        2684
        2688
        2692
        2696
        2700
        2704
        2708
        2712
        2716
        2720
        2724
        2728
        2732
        2736
        2740
        2744
        2748
        2752
        2756
        2760
        2764
        2768
        2772
        2776
        2780
        2784
        2788
        2792
        2796
        2800
        2804
        2808
        2812
        2816
        2820
        2824
        2828
        2832
        2836
        2840
        2844
        2848
        2852
        2856
        2860
        2864
        2868
        2872
        2876
        2880
        2884
        2888
        2892
        2896
        2900
        2904
        2908
        2912
        2916
        2920
        2924
        2928
        2932
        2936
        2940
        2944
        2948
        2952
        2956
        2960
        2964
        2968
        2972
        2976
        2980
        2984
        2988
        2992
        2996
        3000
        3004
        3008
        3012
        3016
        3020
        3024
        3028
        3032
        3036
        3040
        3044
        3048
        3052
        3056
        3060
        3064
        3068
        3072
        3076
        3080
        3084
        3088
        3092
        3096
        3100
        3104
        3108
        3112
        3116
        3120
        3124
        3128
        3132
        3136
        3140
        3144
        3148
        3152
        3156
        3160
        3164
        3168
        3172
        3176
        3180
        3184
        3188
        3192
        3196
        3200
        3204
        3208
        3212
        3216
        3220
        3224
        3228
        3232
        3236
        3240
        3244
        3248
        3252
        3256
        3260
        3264
        3268
        3272
        3276
        3280
        3284
        3288
        3292
        3296
        3300
        3304
        3308
        3312
        3316
        3320
        3324
        3328
        3332
        3336
        3340
        3344
        3348
        3352
        3356
        3360
        3364
        3368
        3372
        3376
        3380
        3384
        3388
        3392
        3396
        3400
        3404
        3408
        3412
        3416
        3420
        3424
        3428
        3432
        3436
        3440
        3444
        3448
        3452
        3456
        3460
        3464
        3468
        3472
        3476
        3480
        3484
        3488
        3492
        3496
        3500
        3504
        3508
        3512
        3516
        3520
        3524
        3528
        3532
        3536
        3540
        3544
        3548
        3552
        3556
        3560
        3564
        3568
        3572
        3576
        3580
        3584
        3588
        3592
        3596
        3600
        3604
        3608
        3612
        3616
        3620
        3624
        3628
        3632
        3636
        3640
        3644
        3648
        3652
        3656
        3660
        3664
        3668
        3672
        3676
        3680
        3684
        3688
        3692
        3696
        3700
        3704
        3708
        3712
        3716
        3720
        3724
        3728
        3732
        3736
        3740
        3744
        3748
        3752
        3756
        3760
        3764
        3768
        3772
        3776
        3780
        3784
        3788
        3792
        3796
        3800
        3804
        3808
        3812
        3816
        3820
        3824
        3828
        3832
        3836
        3840
        3844
        3848
        3852
        3856
        3860
        3864
        3868
        3872
        3876
        3880
        3884
        3888
        3892
        3896
        3900
        3904
        3908
        3912
        3916
        3920
        3924
        3928
        3932
        3936
        3940
        3944
        3948
        3952
        3956
        3960
        3964
        3968
        3972
        3976
        3980
        3984
        3988
        3992
        3996
        4000
        4004
        4008
        4012
        4016
        4020
        4024
        4028
        4032
        4036
        4040
        4044
        4048
        4052
        4056
        4060
        4064
        4068
        4072
        4076
        4080
        4084
        4088
        4092
        4096
 </DataArray>
 <DataArray  type="UInt8"  Name="types"  format="ascii">
 9
 9
 9
 9
 9
 9
 9
 9
 9
 9
 9
 9
 9
 9
 9
 9
 9
 9
 9
 9
 9
 9
 9
 9
 9
 9
 9
 9
 9
 9
 9
 9
 9
 9
 9
 9
 9
 9
 9
 9
 9
 9
 9
 9
 9
 9
 9
 9
 9
 9
 9
 9
 9
 9
 9
 9
 9
 9
 9
 9
 9
 9
 9
 9
 9
 9
 9
 9
 9
 9
 9
 9
 9
 9
 9
 9
 9
 9
 9
 9
 9
 9
 9
 9
 9
 9
 9
 9
 9
 9
 9
 9
 9
 9
 9
 9
 9
 9
 9
 9
 9
 9
 9
 9
 9
 9
 9
 9
 9
 9
 9
 9
 9
 9
 9
 9
 9
 9
 9
 9
 9
 9
 9
 9
 9
 9
 9
 9
 9
 9
 9
 9
 9
 9
 9
 9
 9
 9
 9
 9
 9
 9
 9
 9
 9
 9
 9
 9
 9
 9
 9
 9
 9
 9
 9
 9
 9
 9
 9
 9
 9
 9
 9
 9
 9
 9
 9
 9
 9
 9
 9
 9
 9
 9
 9
 9
 9
 9
 9
 9
 9
 9
 9
 9
 9
 9
 9
 9
 9
 9
 9
 9
 9
 9
 9
 9
 9
 9
 9
 9
 9
 9
 9
 9
 9
 9
 9
 9
 9
 9
 9
 9
 9
 9
 9
 9
 9
 9
 9
 9
 9
 9
 9
 9
 9
 9
 9
 9
 9
 9
 9
 9
 9
 9
 9
 9
 9
 9
 9
 9
 9
 9
 9
 9
 9
 9
 9
 9
 9
 9
 9
 9
 9
 9
 9
 9
 9
 9
 9
 9
 9
 9
 9
 9
 9
 9
 9
 9
 9
 9
 9
 9
 9
 9
 9
 9
 9
 9
 9
 9
 9
 9
 9
 9
 9
 9
 9
 9
 9
 9
 9
 9
 9
 9
 9
 9
 9
 9
 9
 9
 9
 9
 9
 9
 9
 9
 9
 9
 9
 9
 9
 9
 9
 9
 9
 9
 9
 9
 9
 9
 9
 9
 9
 9
 9
 9
 9
 9
 9
 9
 9
 9
 9
 9
 9
 9
 9
 9
 9
 9
 9
 9
 9
 9
 9
 9
 9
 9
 9
 9
 9
 9
 9
 9
 9
 9
 9
 9
 9
 9
 9
 9
 9
 9
 9
 9
 9
 9
 9
 9
 9
 9
 9
 9
 9
 9
 9
 9
 9
 9
 9
 9
 9
 9
 9
 9
 9
 9
 9
 9
 9
 9
 9
 9
 9
 9
 9
 9
 9
 9
 9
 9
 9
 9
 9
 9
 9
 9
 9
 9
 9
 9
 9
 9
 9
 9
 9
 9
 9
 9
 9
 9
 9
 9
 9
 9
 9
 9
 9
 9
 9
 9
 9
 9
 9
 9
 9
 9
 9
 9
 9
 9
 9
 9
 9
 9
 9
 9
 9
 9
 9
 9
 9
 9
 9
 9
 9
 9
 9
 9
 9
 9
 9
 9
 9
 9
 9
 9
 9
 9
 9
 9
 9
 9
 9
 9
 9
 9
 9
 9
 9
 9
 9
 9
 9
 9
 9
 9
 9
 9
 9
 9
 9
 9
 9
 9
 9
 9
 9
 9
 9
 9
 9
 9
 9
 9
 9
 9
 9
 9
 9
 9
 9
 9
 9
 9
 9
 9
 9
 9
 9
 9
 9
 9
 9
 9
 9
 9
 9
 9
 9
 9
 9
 9
 9
 9
 9
 9
 9
 9
 9
 9
 9
 9
 9
 9
 9
 9
 9
 9
 9
 9
 9
 9
 9
 9
 9
 9
 9
 9
 9
 9
 9
 9
 9
 9
 9
 9
 9
 9
 9
 9
 9
 9
 9
 9
 9
 9
 9
 9
 9
 9
 9
 9
 9
 9
 9
 9
 9
 9
 9
 9
 9
 9
 9
 9
 9
 9
 9
 9
 9
 9
 9
 9
 9
 9
 9
 9
 9
 9
 9
 9
 9
 9
 9
 9
 9
 9
 9
 9
 9
 9
 9
 9
 9
 9
 9
 9
 9
 9
 9
 9
 9
 9
 9
 9
 9
 9
 9
 9
 9
 9
 9
 9
 9
 9
 9
 9
 9
 9
 9
 9
 9
 9
 9
 9
 9
 9
 9
 9
 9
 9
 9
 9
 9
 9
 9
 9
 9
 9
 9
 9
 9
 9
 9
 9
 9
 9
 9
 9
 9
 9
 9
 9
 9
 9
 9
 9
 9
 9
 9
 9
 9
 9
 9
 9
 9
 9
 9
 9
 9
 9
 9
 9
 9
 9
 9
 9
 9
 9
 9
 9
 9
 9
 9
 9
 9
 9
 9
 9
 9
 9
 9
 9
 9
 9
 9
 9
 9
 9
 9
 9
 9
 9
 9
 9
 9
 9
 9
 9
 9
 9
 9
 9
 9
 9
 9
 9
 9
 9
 9
 9
 9
 9
 9
 9
 9
 9
 9
 9
 9
 9
 9
 9
 9
 9
 9
 9
 9
 9
 9
 9
 9
 9
 9
 9
 9
 9
 9
 9
 9
 9
 9
 9
 9
 9
 9
 9
 9
 9
 9
 9
 9
 9
 9
 9
 9
 9
 9
 9
 9
 9
 9
 9
 9
 9
 9
 9
 9
 9
 9
 9
 9
 9
 9
 9
 9
 9
 9
 9
 9
 9
 9
 9
 9
 9
 9
 9
 9
 9
 9
 9
 9
 9
 9
 9
 9
 9
 9
 9
 9
 9
 9
 9
 9
 9
 9
 9
 9
 9
 9
 9
 9
 9
 9
 9
 9
 9
 9
 9
 9
 9
 9
 9
 9
 9
 9
 9
 9
 9
 9
 9
 9
 9
 9
 9
 9
 9
 9
 9
 9
 9
 9
 9
 9
 9
 9
 9
 9
 9
 9
 9
 9
 9
 9
 9
 9
 9
 9
 9
 9
 9
 9
 9
 9
 9
 9
 9
 9
 9
 9
 9
 9
 9
 9
 9
 9
 9
 9
 9
 9
 9
 9
 9
 9
 9
 9
 9
 9
 9
 9
 9
 9
 9
 9
 9
 9
 9
 9
 9
 9
 9
 9
 9
 9
 9
 9
 9
 9
 9
 9
 9
 9
 9
 9
 9
 9
 9
 9
 9
 9
 9
 9
 9
 9
 9
 9
 9
 9
 9
 9
 9
 9
 9
 9
 9
 9
 9
 9
 9
 9
 9
 9
 9
 9
 9
 9
 9
 9
 9
 9
 9
 9
 9
 9
 9
 9
 9
 9
 9
 9
 9
 9
 9
 9
 9
 9
 9
 9
 9
 9
 9
 9
 9
 9
 9
 9
 9
 9
 9
 9
 9
 9
 9
 </DataArray>
 </Cells> 
 <PointData>
 <DataArray  type="Float64" Name="disp" NumberOfComponents="3" format="ascii">
   0.0000000000000000        0.0000000000000000        0.0000000000000000     
   6.0959644623033498E-003   3.7906166864860166E-003   0.0000000000000000     
   1.1665941552984713E-002   7.3241843868319442E-003   0.0000000000000000     
   1.6709931272044086E-002   1.0600703101037782E-002   0.0000000000000000     
   2.1227933619481471E-002   1.3620172829103529E-002   0.0000000000000000     
   0.0000000000000000        0.0000000000000000        0.0000000000000000     
   4.8911053492880245E-003   3.0223334531015709E-003   0.0000000000000000     
   9.5735015908998897E-003   6.0608949866158401E-003   0.0000000000000000     
   1.4047188724835600E-002   9.1156846005428054E-003   0.0000000000000000     
   1.8312166751095153E-002   1.2186702294882470E-002   0.0000000000000000     
   0.0000000000000000        0.0000000000000000        0.0000000000000000     
   3.9534982214723124E-003   2.4253045359588776E-003   0.0000000000000000     
   7.9104629305551104E-003   5.0632637436781400E-003   0.0000000000000000     
   1.1870894127248396E-002   7.9138776231577855E-003   0.0000000000000000     
   1.5834791811552163E-002   1.0977146174397814E-002   0.0000000000000000     
   0.0000000000000000        0.0000000000000000        0.0000000000000000     
   3.2831430788562133E-003   1.9995299350579372E-003   0.0000000000000000     
   6.6768255719503707E-003   4.3312906580188432E-003   0.0000000000000000     
   1.0181047479282470E-002   6.9952821688827197E-003   0.0000000000000000     
   1.3795808800852514E-002   9.9915044676495649E-003   0.0000000000000000     
   0.0000000000000000        0.0000000000000000        0.0000000000000000     
   2.8800399214397275E-003   1.7450096503987488E-003   0.0000000000000000     
   5.8725895150856695E-003   3.8649757296379513E-003   0.0000000000000000     
   8.9776487809378261E-003   6.3598982377176087E-003   0.0000000000000000     
   1.2195217718996197E-002   9.2297771746377190E-003   0.0000000000000000     
   2.1227933619481471E-002   1.3620172829103529E-002   0.0000000000000000     
   2.5432812916978461E-002   1.6613247712654568E-002   0.0000000000000000     
   2.9537433486216645E-002   1.9810581893316272E-002   0.0000000000000000     
   3.3541795327196026E-002   2.3212175371088647E-002   0.0000000000000000     
   3.7445898439916608E-002   2.6818028145971687E-002   0.0000000000000000     
   1.8312166751095153E-002   1.2186702294882470E-002   0.0000000000000000     
   2.2406626423793246E-002   1.5342329008242932E-002   0.0000000000000000     
   2.6368758497044575E-002   1.8650945679232291E-002   0.0000000000000000     
   3.0198562970849146E-002   2.2112552307850548E-002   0.0000000000000000     
   3.3896039845206949E-002   2.5727148894097700E-002   0.0000000000000000     
   1.5834791811552163E-002   1.0977146174397814E-002   0.0000000000000000     
   1.9730356289767676E-002   1.4211902389513966E-002   0.0000000000000000     
   2.3485787868196190E-002   1.7576979260621978E-002   0.0000000000000000     
   2.7101086546837704E-002   2.1072376787721850E-002   0.0000000000000000     
   3.0576252325692221E-002   2.4698094970813583E-002   0.0000000000000000     
   1.3795808800852514E-002   9.9915044676495649E-003   0.0000000000000000     
   1.7404002514901769E-002   1.3221967856467674E-002   0.0000000000000000     
   2.0888521599671504E-002   1.6588682637485336E-002   0.0000000000000000     
   2.4249366055161720E-002   2.0091648810702557E-002   0.0000000000000000     
   2.7486535881372415E-002   2.3730866376119326E-002   0.0000000000000000     
   1.2195217718996197E-002   9.2297771746377190E-003   0.0000000000000000     
   1.5427565099195512E-002   1.2372525409104052E-002   0.0000000000000000     
   1.8576959691470510E-002   1.5686055809822363E-002   0.0000000000000000     
   2.1643401495821182E-002   1.9170368376792660E-002   0.0000000000000000     
   2.4626890512247538E-002   2.2825463110014942E-002   0.0000000000000000     
   3.7445898439916608E-002   2.6818028145971687E-002   0.0000000000000000     
   4.1253941341861278E-002   3.0623321519785085E-002   0.0000000000000000     
   4.4970122550512935E-002   3.4623236794348526E-002   0.0000000000000000     
   4.8594442065871594E-002   3.8817773969662003E-002   0.0000000000000000     
   5.2126899887937242E-002   4.3206933045725524E-002   0.0000000000000000     
   3.3896039845206949E-002   2.5727148894097700E-002   0.0000000000000000     
   3.7484272600914179E-002   2.9523477183609953E-002   0.0000000000000000     
   4.0986344718767012E-002   3.3530278922023489E-002   0.0000000000000000     
   4.4402256198765457E-002   3.7747554109338326E-002   0.0000000000000000     
   4.7732007040909491E-002   4.2175302745554463E-002   0.0000000000000000     
   3.0576252325692221E-002   2.4698094970813583E-002   0.0000000000000000     
   3.3940669907362928E-002   2.8498657256152506E-002   0.0000000000000000     
   3.7223723994453013E-002   3.2518587089993965E-002   0.0000000000000000     
   4.0425414586962499E-002   3.6757884472337951E-002   0.0000000000000000     
   4.3545741684891379E-002   4.1216549403184470E-002   0.0000000000000000     
   2.7486535881372415E-002   2.3730866376119326E-002   0.0000000000000000     
   3.0623133261207521E-002   2.7548861737412757E-002   0.0000000000000000     
   3.3682260377570966E-002   3.1588161298259941E-002   0.0000000000000000     
   3.6663917230462757E-002   3.5848765058660859E-002   0.0000000000000000     
   3.9568103819882884E-002   4.0330673018615544E-002   0.0000000000000000     
   2.4626890512247538E-002   2.2825463110014942E-002   0.0000000000000000     
   2.7531662662447970E-002   2.6674090627390692E-002   0.0000000000000000     
   3.0361953868120850E-002   3.0739001546821410E-002   0.0000000000000000     
   3.3117764129266210E-002   3.5020195868307076E-002   0.0000000000000000     
   3.5799093445884007E-002   3.9517673591847699E-002   0.0000000000000000     
   5.2126899887937242E-002   4.3206933045725524E-002   0.0000000000000000     
   5.5565224643574856E-002   4.7795274083533061E-002   0.0000000000000000     
   5.8907144959649410E-002   5.2587357144078584E-002   0.0000000000000000     
   6.2152660836160917E-002   5.7583182227362084E-002   0.0000000000000000     
   6.5301772273109362E-002   6.2782749333383583E-002   0.0000000000000000     
   4.7732007040909491E-002   4.2175302745554463E-002   0.0000000000000000     
   5.0971420235431344E-002   4.6806885186782658E-002   0.0000000000000000     
   5.4116318772563177E-002   5.1635661789133688E-002   0.0000000000000000     
   5.7166702652305015E-002   5.6661632552607540E-002   0.0000000000000000     
   6.0122571874656854E-002   6.1884797477204240E-002   0.0000000000000000     
   4.3545741684891379E-002   4.1216549403184470E-002   0.0000000000000000     
   4.6580211070037868E-002   4.5881838645705622E-002   0.0000000000000000     
   4.9524328524200252E-002   5.0741008963073514E-002   0.0000000000000000     
   5.2378094047378490E-002   5.5794060355288146E-002   0.0000000000000000     
   5.5141507639572609E-002   6.1040992822349524E-002   0.0000000000000000     
   3.9568103819882884E-002   4.0330673018615544E-002   0.0000000000000000     
   4.2391597147394454E-002   4.5020134460301960E-002   0.0000000000000000     
   4.5131174214560615E-002   4.9903398665898081E-002   0.0000000000000000     
   4.7786835021381348E-002   5.4980465635403902E-002   0.0000000000000000     
   5.0358579567856658E-002   6.0251335368819429E-002   0.0000000000000000     
   3.5799093445884007E-002   3.9517673591847699E-002   0.0000000000000000     
   3.8405578467501096E-002   4.4221772630571678E-002   0.0000000000000000     
   4.0936855843644288E-002   4.9122830897607377E-002   0.0000000000000000     
   4.3392925574313575E-002   5.4220848392954803E-002   0.0000000000000000     
   4.5773787659508972E-002   5.9515825116613963E-002   0.0000000000000000     
   6.5301772273109362E-002   6.2782749333383583E-002   0.0000000000000000     
   6.8357702645712823E-002   6.8172950203593624E-002   0.0000000000000000     
   7.1323675329189359E-002   7.3740676579442777E-002   0.0000000000000000     
   7.4199690323538986E-002   7.9485928460931041E-002   0.0000000000000000     
   7.6985747628761703E-002   8.5408705848058417E-002   0.0000000000000000     
   6.0122571874656854E-002   6.1884797477204240E-002   0.0000000000000000     
   6.2988719472470173E-002   6.7296766611121522E-002   0.0000000000000000     
   6.5769938478596468E-002   7.2889150002557107E-002   0.0000000000000000     
   6.8466228893035733E-002   7.8661947651511036E-002   0.0000000000000000     
   7.1077590715787967E-002   8.4615159557983266E-002   0.0000000000000000     
   5.5141507639572609E-002   6.1040992822349524E-002   0.0000000000000000     
   5.7819686293810915E-002   6.6475888356707480E-002   0.0000000000000000     
   6.0417747003121677E-002   7.2092828950811788E-002   0.0000000000000000     
   6.2935689767504910E-002   7.7891814604662504E-002   0.0000000000000000     
   6.5373514586960613E-002   8.3872845318259601E-002   0.0000000000000000     
   5.0358579567856658E-002   6.0251335368819429E-002   0.0000000000000000     
   5.2850603109735037E-002   6.5710315440351469E-002   0.0000000000000000     
   5.5267100902765001E-002   7.1351713424206820E-002   0.0000000000000000     
   5.7608072946946524E-002   7.7175529320385447E-002   0.0000000000000000     
   5.9873519242279641E-002   8.3181763128887448E-002   0.0000000000000000     
   4.5773787659508972E-002   5.9515825116613963E-002   0.0000000000000000     
   4.8081469920242551E-002   6.5000047862053517E-002   0.0000000000000000     
   5.0318000177526419E-002   7.0665803422742174E-002   0.0000000000000000     
   5.2483378431360583E-002   7.6513091798679947E-002   0.0000000000000000     
   5.4577604681745037E-002   8.2541912989866795E-002   0.0000000000000000     
   7.6985747628761703E-002   8.5408705848058417E-002   0.0000000000000000     
   7.9673679799045202E-002   9.1500051911708430E-002   0.0000000000000000     
   8.2255319388577205E-002   9.7751009822764606E-002   0.0000000000000000     
   8.4730666397357726E-002  0.10416157958122695        0.0000000000000000     
   8.7099720825386751E-002  0.11073176118709546        0.0000000000000000     
   7.1077590715787967E-002   8.4615159557983266E-002   0.0000000000000000     
   7.3596602603571620E-002   9.0737554337493032E-002   0.0000000000000000     
   7.6015843213105158E-002   9.7017900605559579E-002   0.0000000000000000     
   7.8335312544388580E-002  0.10345619836218287        0.0000000000000000     
   8.0555010597421886E-002  0.11005244760736294        0.0000000000000000     
   6.5373514586960613E-002   8.3872845318259601E-002   0.0000000000000000     
   6.7724710003572691E-002   9.0023378736270282E-002   0.0000000000000000     
   6.9982764559425106E-002   9.6330872503361684E-002   0.0000000000000000     
   7.2147678254517816E-002  0.10279532661953387        0.0000000000000000     
   7.4219451088850835E-002  0.10941674108478683        0.0000000000000000     
   5.9873519242279641E-002   8.3181763128887448E-002   0.0000000000000000     
   6.2058001999048429E-002   8.9357525108040167E-002   0.0000000000000000     
   6.4156083427537022E-002   9.5689925516171004E-002   0.0000000000000000     
   6.6167763527745393E-002  0.10217896435328003        0.0000000000000000     
   6.8093042299673570E-002  0.10882464161936720        0.0000000000000000     
   5.4577604681745037E-002   8.2541912989866795E-002   0.0000000000000000     
   5.6596478589998805E-002   8.8739993452802673E-002   0.0000000000000000     
   5.8535799817440906E-002   9.5095059643987512E-002   0.0000000000000000     
   6.0395568364071346E-002  0.10160711156342127        0.0000000000000000     
   6.2175784229890119E-002  0.10827614921110400        0.0000000000000000     
   8.7099720825386751E-002  0.11073176118709546        0.0000000000000000     
   8.9376062296197156E-002  0.11744783313718092        0.0000000000000000     
   9.1573270433321752E-002  0.12429607392829414        0.0000000000000000     
   9.3691345236760551E-002  0.13127648356043509        0.0000000000000000     
   9.5730286706513582E-002  0.13838906203360377        0.0000000000000000     
   8.0555010597421886E-002  0.11005244760736294        0.0000000000000000     
   8.2686124718447801E-002  0.11679435594852619        0.0000000000000000     
   8.4739842253709091E-002  0.12366963099309908        0.0000000000000000     
   8.6716163203205743E-002  0.13067827274108160        0.0000000000000000     
   8.8615087566937756E-002  0.13782028119247372        0.0000000000000000     
   7.4219451088850835E-002  0.10941674108478683        0.0000000000000000     
   7.6207573561144493E-002  0.11618369021539622        0.0000000000000000     
   7.8121536170119132E-002  0.12308474832763767        0.0000000000000000     
   7.9961338915774824E-002  0.13011991542151122        0.0000000000000000     
   8.1726981798111470E-002  0.13728919149701688        0.0000000000000000     
   6.8093042299673570E-002  0.10882464161936720        0.0000000000000000     
   6.9940408824287190E-002  0.11561583593779101        0.0000000000000000     
   7.1718352182551931E-002  0.12254142593190996        0.0000000000000000     
   7.3426872374467780E-002  0.12960141160172406        0.0000000000000000     
   7.5065969400034752E-002  0.13679579294723329        0.0000000000000000     
   6.2175784229890119E-002  0.10827614921110400        0.0000000000000000     
   6.3884630507875920E-002  0.11509079311571058        0.0000000000000000     
   6.5530290291007431E-002  0.12203966380591592        0.0000000000000000     
   6.7112763579284640E-002  0.12912276128172001        0.0000000000000000     
   6.8632050372707559E-002  0.13634008554312294        0.0000000000000000     
   9.5730286706513582E-002  0.13838906203360377        0.0000000000000000     
   9.7675068318169689E-002  0.14562375338348782        0.0000000000000000     
   9.9510663547317718E-002  0.15297050164577491        0.0000000000000000     
  0.10123707239395771       0.16042930682046500        0.0000000000000000     
  0.10285429485808963       0.16800016890755809        0.0000000000000000     
   8.8615087566937756E-002  0.13782028119247372        0.0000000000000000     
   9.0423455517259915E-002  0.14508387040751952        0.0000000000000000     
   9.2128107226527048E-002  0.15245725444646302        0.0000000000000000     
   9.3729042694739126E-002  0.15994043330930424        0.0000000000000000     
   9.5226261921896149E-002  0.16753340699604319        0.0000000000000000     
   8.1726981798111470E-002  0.13728919149701688        0.0000000000000000     
   8.3406589723737920E-002  0.14457977377875558        0.0000000000000000     
   8.4988287599262954E-002  0.15197885949132825        0.0000000000000000     
   8.6472075424686573E-002  0.15948644863473493        0.0000000000000000     
   8.7857953200008776E-002  0.16710254120897561        0.0000000000000000     
   7.5065969400034752E-002  0.13679579294723329        0.0000000000000000     
   7.6624470937603661E-002  0.14411146349719603        0.0000000000000000     
   7.8091204665525452E-002  0.15153531678037058        0.0000000000000000     
   7.9466170583800066E-002  0.15906735279675704        0.0000000000000000     
   8.0749368692427548E-002  0.16670757154635540        0.0000000000000000     
   6.8632050372707559E-002  0.13634008554312294        0.0000000000000000     
   7.0077099158857181E-002  0.14367893956284086        0.0000000000000000     
   7.1436858425314539E-002  0.15112662631359011        0.0000000000000000     
   7.2711328172079620E-002  0.15868314579537063        0.0000000000000000     
   7.3900508399152409E-002  0.16634849800818252        0.0000000000000000     
   0.0000000000000000        0.0000000000000000        0.0000000000000000     
   2.8800399214397275E-003   1.7450096503987488E-003   0.0000000000000000     
   5.8725895150856695E-003   3.8649757296379513E-003   0.0000000000000000     
   8.9776487809378261E-003   6.3598982377176087E-003   0.0000000000000000     
   1.2195217718996197E-002   9.2297771746377190E-003   0.0000000000000000     
   0.0000000000000000        0.0000000000000000        0.0000000000000000     
   2.6103299950690963E-003   1.5890820813118183E-003   0.0000000000000000     
   5.2897468808577545E-003   3.5570031664622337E-003   0.0000000000000000     
   8.0382506573659761E-003   5.9037632554512463E-003   0.0000000000000000     
   1.0855841324593761E-002   8.6293623482788552E-003   0.0000000000000000     
   0.0000000000000000        0.0000000000000000        0.0000000000000000     
   2.3401545455905585E-003   1.4590856271276510E-003   0.0000000000000000     
   4.7202897901633695E-003   3.3000571764184592E-003   0.0000000000000000     
   7.1404057337184348E-003   5.5229146478724253E-003   0.0000000000000000     
   9.6005023762557509E-003   8.1276580414895473E-003   0.0000000000000000     
   0.0000000000000000        0.0000000000000000        0.0000000000000000     
   2.0695135730041153E-003   1.3550202878462466E-003   0.0000000000000000     
   4.1642182430025156E-003   3.0941377595066289E-003   0.0000000000000000     
   6.2841140099952003E-003   5.2173524149811456E-003   0.0000000000000000     
   8.4292008739821709E-003   7.7246642542697988E-003   0.0000000000000000     
   0.0000000000000000        0.0000000000000000        0.0000000000000000     
   1.7984070773097664E-003   1.2768860634676054E-003   0.0000000000000000     
   3.6215322393751913E-003   2.9392449157267415E-003   0.0000000000000000     
   5.4693754861962762E-003   4.9870765567774098E-003   0.0000000000000000     
   7.3419368177730180E-003   7.4203809866196079E-003   0.0000000000000000     
   1.2195217718996197E-002   9.2297771746377190E-003   0.0000000000000000     
   1.5427565099195512E-002   1.2372525409104052E-002   0.0000000000000000     
   1.8576959691470510E-002   1.5686055809822363E-002   0.0000000000000000     
   2.1643401495821182E-002   1.9170368376792660E-002   0.0000000000000000     
   2.4626890512247538E-002   2.2825463110014942E-002   0.0000000000000000     
   1.0855841324593761E-002   8.6293623482788552E-003   0.0000000000000000     
   1.3689206047252005E-002   1.1651515781790500E-002   0.0000000000000000     
   1.6485031990051611E-002   1.4887938892831614E-002   0.0000000000000000     
   1.9243319152992575E-002   1.8338631681402200E-002   0.0000000000000000     
   2.1964067536074904E-002   2.2003594147502258E-002   0.0000000000000000     
   9.6005023762557509E-003   8.1276580414895473E-003   0.0000000000000000     
   1.2077087363674336E-002   1.1046879708894423E-002   0.0000000000000000     
   1.4546668341873207E-002   1.4213172001711643E-002   0.0000000000000000     
   1.7009245310852360E-002   1.7626534919941199E-002   0.0000000000000000     
   1.9464818270611799E-002   2.1286968463583106E-002   0.0000000000000000     
   8.4292008739821709E-003   7.7246642542697988E-003   0.0000000000000000     
   1.0591209048462509E-002   1.0558617190415821E-002   0.0000000000000000     
   1.2761868746935301E-002   1.3661755136462441E-002   0.0000000000000000     
   1.4941179969400541E-002   1.7034078092409664E-002   0.0000000000000000     
   1.7129142715858237E-002   2.0675586058257488E-002   0.0000000000000000     
   7.3419368177730180E-003   7.4203809866196079E-003   0.0000000000000000     
   9.2315711016165217E-003   1.0186728226354694E-002   0.0000000000000000     
   1.1130633205237888E-002   1.3233688297084023E-002   0.0000000000000000     
   1.3039123128637120E-002   1.6561261198807596E-002   0.0000000000000000     
   1.4957040871814212E-002   2.0169446931525409E-002   0.0000000000000000     
   2.4626890512247538E-002   2.2825463110014942E-002   0.0000000000000000     
   2.7531662662447970E-002   2.6674090627390692E-002   0.0000000000000000     
   3.0361953868120850E-002   3.0739001546821410E-002   0.0000000000000000     
   3.3117764129266210E-002   3.5020195868307076E-002   0.0000000000000000     
   3.5799093445884007E-002   3.9517673591847699E-002   0.0000000000000000     
   2.1964067536074904E-002   2.2003594147502258E-002   0.0000000000000000     
   2.4630797400584645E-002   2.5880870508277063E-002   0.0000000000000000     
   2.7227029007807879E-002   2.9968504980871901E-002   0.0000000000000000     
   2.9752762357744589E-002   3.4266497565286769E-002   0.0000000000000000     
   3.2207997450394786E-002   3.8774848261521666E-002   0.0000000000000000     
   1.9464818270611799E-002   2.1286968463583106E-002   0.0000000000000000     
   2.1885076765117948E-002   2.5175727962262601E-002   0.0000000000000000     
   2.4241710338337236E-002   2.9274068745604950E-002   0.0000000000000000     
   2.6534718990269660E-002   3.3581990813610144E-002   0.0000000000000000     
   2.8764102720915223E-002   3.8099494166278176E-002   0.0000000000000000     
   1.7129142715858237E-002   2.0675586058257488E-002   0.0000000000000000     
   1.9294500756047866E-002   2.4558662989347314E-002   0.0000000000000000     
   2.1405997859708929E-002   2.8655692841020545E-002   0.0000000000000000     
   2.3463634026841412E-002   3.2966675613277180E-002   0.0000000000000000     
   2.5467409257445318E-002   3.7491611306117223E-002   0.0000000000000000     
   1.4957040871814212E-002   2.0169446931525409E-002   0.0000000000000000     
   1.6859069373374412E-002   2.4029675589531199E-002   0.0000000000000000     
   1.8719891571922952E-002   2.8113377267118704E-002   0.0000000000000000     
   2.0539507467459844E-002   3.2420551964287905E-002   0.0000000000000000     
   2.2317917059985072E-002   3.6951199681038820E-002   0.0000000000000000     
   3.5799093445884007E-002   3.9517673591847699E-002   0.0000000000000000     
   3.8405578467501096E-002   4.4221772630571678E-002   0.0000000000000000     
   4.0936855843644288E-002   4.9122830897607377E-002   0.0000000000000000     
   4.3392925574313575E-002   5.4220848392954803E-002   0.0000000000000000     
   4.5773787659508972E-002   5.9515825116613963E-002   0.0000000000000000     
   3.2207997450394786E-002   3.8774848261521666E-002   0.0000000000000000     
   3.4594965917448581E-002   4.3488930471698155E-002   0.0000000000000000     
   3.6915899390596099E-002   4.8404117597937779E-002   0.0000000000000000     
   3.9170797869837341E-002   5.3520409640240525E-002   0.0000000000000000     
   4.1359661355172314E-002   5.8837806598606414E-002   0.0000000000000000     
   2.8764102720915223E-002   3.8099494166278176E-002   0.0000000000000000     
   3.0932570384327708E-002   4.2823785298864776E-002   0.0000000000000000     
   3.3042830834560916E-002   4.7752070706625620E-002   0.0000000000000000     
   3.5094884071614818E-002   5.2884350389560748E-002   0.0000000000000000     
   3.7088730095489436E-002   5.8220624347670127E-002   0.0000000000000000     
   2.5467409257445318E-002   3.7491611306117223E-002   0.0000000000000000     
   2.7418391868138471E-002   4.2226337112071521E-002   0.0000000000000000     
   2.9317650175538695E-002   4.7166690223670933E-002   0.0000000000000000     
   3.1165184179645995E-002   5.2312670640915458E-002   0.0000000000000000     
   3.2960993880460358E-002   5.7664278363805090E-002   0.0000000000000000     
   2.2317917059985072E-002   3.6951199681038820E-002   0.0000000000000000     
   2.4052430368880877E-002   4.1696585911318432E-002   0.0000000000000000     
   2.5740357413529480E-002   4.6647976149073712E-002   0.0000000000000000     
   2.7381698193930874E-002   5.1805370394304676E-002   0.0000000000000000     
   2.8976452710085074E-002   5.7168768647011314E-002   0.0000000000000000     
   4.5773787659508972E-002   5.9515825116613963E-002   0.0000000000000000     
   4.8081469920242551E-002   6.5000047862053517E-002   0.0000000000000000     
   5.0318000177526419E-002   7.0665803422742174E-002   0.0000000000000000     
   5.2483378431360583E-002   7.6513091798679947E-002   0.0000000000000000     
   5.4577604681745037E-002   8.2541912989866795E-002   0.0000000000000000     
   4.1359661355172314E-002   5.8837806598606414E-002   0.0000000000000000     
   4.3482251197463032E-002   6.4345959769562283E-002   0.0000000000000000     
   4.5538328747571549E-002   7.0034520449634943E-002   0.0000000000000000     
   4.7527894005497874E-002   7.5903488638824429E-002   0.0000000000000000     
   4.9450946971241985E-002   8.1952864337130713E-002   0.0000000000000000     
   3.7088730095489436E-002   5.8220624347670127E-002   0.0000000000000000     
   3.9022911413526061E-002   6.3748925310626398E-002   0.0000000000000000     
   4.0895970533065970E-002   6.9457286008102165E-002   0.0000000000000000     
   4.2707907454109177E-002   7.5345706440097443E-002   0.0000000000000000     
   4.4458722176655668E-002   8.1414186606612232E-002   0.0000000000000000     
   3.2960993880460358E-002   5.7664278363805090E-002   0.0000000000000000     
   3.4703450568431639E-002   6.3208944485245888E-002   0.0000000000000000     
   3.6390925534009681E-002   6.8934100098143838E-002   0.0000000000000000     
   3.8023418777194486E-002   7.4839745202499017E-002   0.0000000000000000     
   3.9600930297986059E-002   8.0925879798311354E-002   0.0000000000000000     
   2.8976452710085074E-002   5.7168768647011314E-002   0.0000000000000000     
   3.0523868662179779E-002   6.2726017293420713E-002   0.0000000000000000     
   3.2023193750402690E-002   6.8464962719759978E-002   0.0000000000000000     
   3.3474427974753827E-002   7.4385604926029109E-002   0.0000000000000000     
   3.4877571335233185E-002   8.0487943912228105E-002   0.0000000000000000     
   5.4577604681745037E-002   8.2541912989866795E-002   0.0000000000000000     
   5.6596478589998805E-002   8.8739993452802673E-002   0.0000000000000000     
   5.8535799817440906E-002   9.5095059643987512E-002   0.0000000000000000     
   6.0395568364071346E-002  0.10160711156342127        0.0000000000000000     
   6.2175784229890119E-002  0.10827614921110400        0.0000000000000000     
   4.9450946971241985E-002   8.1952864337130713E-002   0.0000000000000000     
   5.1304352588062520E-002   8.8171222298264185E-002   0.0000000000000000     
   5.3084975799218073E-002   9.4547137275935236E-002   0.0000000000000000     
   5.4792816604708638E-002  0.10108060927014388        0.0000000000000000     
   5.6427875004534216E-002  0.10777163828089009        0.0000000000000000     
   4.4458722176655668E-002   8.1414186606612232E-002   0.0000000000000000     
   4.6145836804878271E-002   8.7651650172131015E-002   0.0000000000000000     
   4.7766673442949791E-002   9.4047020801138276E-002   0.0000000000000000     
   4.9321232090870241E-002  0.10060029849363408        0.0000000000000000     
   5.0809512748639610E-002  0.10731148324961834        0.0000000000000000     
   3.9600930297986059E-002   8.0925879798311354E-002   0.0000000000000000     
   4.1120931240446038E-002   8.7181277074403152E-002   0.0000000000000000     
   4.2580892748636065E-002   9.3594710219596644E-002   0.0000000000000000     
   4.3980814822556141E-002  0.10016617923389184        0.0000000000000000     
   4.5320697462206266E-002  0.10689568411728875        0.0000000000000000     
   3.4877571335233185E-002   8.0487943912228105E-002   0.0000000000000000     
   3.6229635894765841E-002   8.6760103005080608E-002   0.0000000000000000     
   3.7527633716276904E-002   9.3190205531310327E-002   0.0000000000000000     
   3.8771564799766359E-002   9.9778251490917208E-002   0.0000000000000000     
   3.9961429145234206E-002  0.10652424088390131        0.0000000000000000     
   6.2175784229890119E-002  0.10827614921110400        0.0000000000000000     
   6.3884630507875920E-002  0.11509079311571058        0.0000000000000000     
   6.5530290291007431E-002  0.12203966380591592        0.0000000000000000     
   6.7112763579284640E-002  0.12912276128172001        0.0000000000000000     
   6.8632050372707559E-002  0.13634008554312294        0.0000000000000000     
   5.6427875004534216E-002  0.10777163828089009        0.0000000000000000     
   5.7998198724330430E-002  0.11460842930706602        0.0000000000000000     
   5.9511835489732816E-002  0.12157918734756387        0.0000000000000000     
   6.0968785300741402E-002  0.12868391240238358        0.0000000000000000     
   6.2369048157356194E-002  0.13592260447152515        0.0000000000000000     
   5.0809512748639610E-002  0.10731148324961834        0.0000000000000000     
   5.2239073586070432E-002  0.11416861206976855        0.0000000000000000     
   5.3617472772975266E-002  0.12115972195476213        0.0000000000000000     
   5.4944710309354092E-002  0.12828481290459906        0.0000000000000000     
   5.6220786195206915E-002  0.13554388491927941        0.0000000000000000     
   4.5320697462206266E-002  0.10689568411728875        0.0000000000000000     
   4.6607255093095976E-002  0.11377134140381810        0.0000000000000000     
   4.7847202140734769E-002  0.12078126762751071        0.0000000000000000     
   4.9040538605122697E-002  0.12792546278836653        0.0000000000000000     
   5.0187264486259708E-002  0.13520392688638558        0.0000000000000000     
   3.9961429145234206E-002  0.10652424088390131        0.0000000000000000     
   4.1102743245407018E-002  0.11341661730921472        0.0000000000000000     
   4.2201023593011353E-002  0.12044382436580961        0.0000000000000000     
   4.3256270188047216E-002  0.12760586205368599        0.0000000000000000     
   4.4268483030514602E-002  0.13490273037284378        0.0000000000000000     
   6.8632050372707559E-002  0.13634008554312294        0.0000000000000000     
   7.0077099158857181E-002  0.14367893956284086        0.0000000000000000     
   7.1436858425314539E-002  0.15112662631359011        0.0000000000000000     
   7.2711328172079620E-002  0.15868314579537063        0.0000000000000000     
   7.3900508399152409E-002  0.16634849800818252        0.0000000000000000     
   6.2369048157356194E-002  0.13592260447152515        0.0000000000000000     
   6.3701489676310910E-002  0.14328317344471694        0.0000000000000000     
   6.4954975474339302E-002  0.15075352921168725        0.0000000000000000     
   6.6129505551441370E-002  0.15833367177243599        0.0000000000000000     
   6.7225079907617113E-002  0.16602360112696327        0.0000000000000000     
   5.6220786195206915E-002  0.13554388491927941        0.0000000000000000     
   5.7434657778777300E-002  0.14292513661185119        0.0000000000000000     
   5.8575282408308837E-002  0.15041676659536249        0.0000000000000000     
   5.9642660083801521E-002  0.15801877486981344        0.0000000000000000     
   6.0636790805255344E-002  0.16573116143520386        0.0000000000000000     
   5.0187264486259708E-002  0.13520392688638558        0.0000000000000000     
   5.1276603466256357E-002  0.14260482906424352        0.0000000000000000     
   5.2297779227223132E-002  0.15011633846461594        0.0000000000000000     
   5.3250791769160047E-002  0.15773845508750287        0.0000000000000000     
   5.4135641092067095E-002  0.16547117893290433        0.0000000000000000     
   4.4268483030514602E-002  0.13490273037284378        0.0000000000000000     
   4.5227326738748075E-002  0.14232225080189403        0.0000000000000000     
   4.6122465931082192E-002  0.14985224481944756        0.0000000000000000     
   4.6953900607516960E-002  0.15749271242550442        0.0000000000000000     
   4.7721630768052380E-002  0.16524365362006460        0.0000000000000000     
   0.0000000000000000        0.0000000000000000        0.0000000000000000     
   1.7984070773097664E-003   1.2768860634676054E-003   0.0000000000000000     
   3.6215322393751913E-003   2.9392449157267415E-003   0.0000000000000000     
   5.4693754861962762E-003   4.9870765567774098E-003   0.0000000000000000     
   7.3419368177730180E-003   7.4203809866196079E-003   0.0000000000000000     
   0.0000000000000000        0.0000000000000000        0.0000000000000000     
   1.5351120603233968E-003   1.2175694419039214E-003   0.0000000000000000     
   3.0995869434066658E-003   2.8208723189361851E-003   0.0000000000000000     
   4.6934246492498066E-003   4.8099086310967910E-003   0.0000000000000000     
   6.3166251778528212E-003   7.1846783783857402E-003   0.0000000000000000     
   0.0000000000000000        0.0000000000000000        0.0000000000000000     
   1.2879055238608913E-003   1.1699569110673888E-003   0.0000000000000000     
   2.6057375192222059E-003   2.7245136429923443E-003   0.0000000000000000     
   3.9534959860839450E-003   4.6636701957748676E-003   0.0000000000000000     
   5.3311809244461069E-003   6.9874265694149585E-003   0.0000000000000000     
   0.0000000000000000        0.0000000000000000        0.0000000000000000     
   1.0567874679222504E-003   1.1340484709580067E-003   0.0000000000000000     
   2.1399839668218134E-003   2.6501688878952196E-003   0.0000000000000000     
   3.2495894966986893E-003   4.5483612508116387E-003   0.0000000000000000     
   4.3856040575528769E-003   6.8286255597072645E-003   0.0000000000000000     
   0.0000000000000000        0.0000000000000000        0.0000000000000000     
   8.4175789250747358E-004   1.1098441215757762E-003   0.0000000000000000     
   1.7023262862054865E-003   2.5978380536448107E-003   0.0000000000000000     
   2.5817051810940387E-003   4.4639817962071043E-003   0.0000000000000000     
   3.4798945771731303E-003   6.7082753492626566E-003   0.0000000000000000     
   7.3419368177730180E-003   7.4203809866196079E-003   0.0000000000000000     
   9.2315711016165217E-003   1.0186728226354694E-002   0.0000000000000000     
   1.1130633205237888E-002   1.3233688297084023E-002   0.0000000000000000     
   1.3039123128637120E-002   1.6561261198807596E-002   0.0000000000000000     
   1.4957040871814212E-002   2.0169446931525409E-002   0.0000000000000000     
   6.3166251778528212E-003   7.1846783783857402E-003   0.0000000000000000     
   7.9564999885186911E-003   9.8956169057976880E-003   0.0000000000000000     
   9.6003605405504035E-003   1.2893159558327288E-002   0.0000000000000000     
   1.1248206833947958E-002   1.6177306335974546E-002   0.0000000000000000     
   1.2900038868711355E-002   1.9748057238739458E-002   0.0000000000000000     
   5.3311809244461069E-003   6.9874265694149585E-003   0.0000000000000000     
   6.7243221745513365E-003   9.6496873178314423E-003   0.0000000000000000     
   8.1184495766422754E-003   1.2604356994943149E-002   0.0000000000000000     
   9.5135631307189262E-003   1.5851435600750079E-002   0.0000000000000000     
   1.0909662836781284E-002   1.9390923135252230E-002   0.0000000000000000     
   4.3856040575528769E-003   6.8286255597072645E-003   0.0000000000000000     
   5.5350376597144554E-003   9.4489394624559641E-003   0.0000000000000000     
   6.6849003135135030E-003   1.2367280606931605E-002   0.0000000000000000     
   7.8351920189500216E-003   1.5583648993134193E-002   0.0000000000000000     
   8.9859127760240076E-003   1.9098044621063716E-002   0.0000000000000000     
   3.4798945771731303E-003   6.7082753492626566E-003   0.0000000000000000     
   4.3886464440080512E-003   9.2933733396712483E-003   0.0000000000000000     
   5.2997127511640882E-003   1.2181930394292658E-002   0.0000000000000000     
   6.2130934986412449E-003   1.5373946513126886E-002   0.0000000000000000     
   7.1287886864395168E-003   1.8869421696173932E-002   0.0000000000000000     
   1.4957040871814212E-002   2.0169446931525409E-002   0.0000000000000000     
   1.6859069373374412E-002   2.4029675589531199E-002   0.0000000000000000     
   1.8719891571922952E-002   2.8113377267118704E-002   0.0000000000000000     
   2.0539507467459844E-002   3.2420551964287905E-002   0.0000000000000000     
   2.2317917059985072E-002   3.6951199681038820E-002   0.0000000000000000     
   1.2900038868711355E-002   1.9748057238739458E-002   0.0000000000000000     
   1.4539498324484080E-002   2.3579264116297394E-002   0.0000000000000000     
   1.6150226880909627E-002   2.7644778818323727E-002   0.0000000000000000     
   1.7732224537987989E-002   3.1944601344818455E-002   0.0000000000000000     
   1.9285491295719166E-002   3.6478731695781572E-002   0.0000000000000000     
   1.0909662836781284E-002   1.9390923135252230E-002   0.0000000000000000     
   1.2296503316763385E-002   2.3197926923129043E-002   0.0000000000000000     
   1.3663839192599251E-002   2.7247554289059957E-002   0.0000000000000000     
   1.5011670464288885E-002   3.1539805233044976E-002   0.0000000000000000     
   1.6339997131832287E-002   3.6074679755084098E-002   0.0000000000000000     
   8.9859127760240076E-003   1.9098044621063716E-002   0.0000000000000000     
   1.0130084350212320E-002   2.2885664010026140E-002   0.0000000000000000     
   1.1260728506991830E-002   2.6921703679327391E-002   0.0000000000000000     
   1.2377845246362530E-002   3.1206163628967484E-002   0.0000000000000000     
   1.3481434568324423E-002   3.5739043858946419E-002   0.0000000000000000     
   7.1287886864395168E-003   1.8869421696173932E-002   0.0000000000000000     
   8.0402414248308945E-003   2.2642475376988682E-002   0.0000000000000000     
   8.9408948240873656E-003   2.6667226989126033E-002   0.0000000000000000     
   9.8307488842089251E-003   3.0943676532585972E-002   0.0000000000000000     
   1.0709803605195578E-002   3.5471824007368508E-002   0.0000000000000000     
   2.2317917059985072E-002   3.6951199681038820E-002   0.0000000000000000     
   2.4052430368880877E-002   4.1696585911318432E-002   0.0000000000000000     
   2.5740357413529480E-002   4.6647976149073712E-002   0.0000000000000000     
   2.7381698193930874E-002   5.1805370394304676E-002   0.0000000000000000     
   2.8976452710085074E-002   5.7168768647011314E-002   0.0000000000000000     
   1.9285491295719166E-002   3.6478731695781572E-002   0.0000000000000000     
   2.0803528541541234E-002   4.1233087265902711E-002   0.0000000000000000     
   2.2279837662892241E-002   4.6193585449871483E-002   0.0000000000000000     
   2.3714418659772200E-002   5.1360226247687893E-002   0.0000000000000000     
   2.5107271532181091E-002   5.6733009659351921E-002   0.0000000000000000     
   1.6339997131832287E-002   3.6074679755084098E-002   0.0000000000000000     
   1.7640529041105853E-002   4.0834396745121612E-002   0.0000000000000000     
   1.8904976037985986E-002   4.5801175093101783E-002   0.0000000000000000     
   2.0133338122472685E-002   5.0975014799024602E-002   0.0000000000000000     
   2.1325615294565947E-002   5.6355915862890078E-002   0.0000000000000000     
   1.3481434568324423E-002   3.5739043858946419E-002   0.0000000000000000     
   1.4563431867574739E-002   4.0500514348975149E-002   0.0000000000000000     
   1.5615772538810713E-002   4.5470745078764606E-002   0.0000000000000000     
   1.6638456582032345E-002   5.0649736048314832E-002   0.0000000000000000     
   1.7631483997239628E-002   5.6037487257625793E-002   0.0000000000000000     
   1.0709803605195578E-002   3.5471824007368508E-002   0.0000000000000000     
   1.1572237020947888E-002   4.0231440077463293E-002   0.0000000000000000     
   1.2412227165366418E-002   4.5202295406859966E-002   0.0000000000000000     
   1.3229774038451173E-002   5.0384389995558554E-002   0.0000000000000000     
   1.4024877640202146E-002   5.5777723843559043E-002   0.0000000000000000     
   2.8976452710085074E-002   5.7168768647011314E-002   0.0000000000000000     
   3.0523868662179779E-002   6.2726017293420713E-002   0.0000000000000000     
   3.2023193750402690E-002   6.8464962719759978E-002   0.0000000000000000     
   3.3474427974753827E-002   7.4385604926029109E-002   0.0000000000000000     
   3.4877571335233185E-002   8.0487943912228105E-002   0.0000000000000000     
   2.5107271532181091E-002   5.6733009659351921E-002   0.0000000000000000     
   2.6458708778094368E-002   6.2300417910417544E-002   0.0000000000000000     
   2.7769042895487456E-002   6.8050933226438681E-002   0.0000000000000000     
   2.9038273884360349E-002   7.3984555607415348E-002   0.0000000000000000     
   3.0266401744713053E-002   8.0101285053347543E-002   0.0000000000000000     
   2.1325615294565947E-002   5.6355915862890078E-002   0.0000000000000000     
   2.2482513999499340E-002   6.1932420511502988E-002   0.0000000000000000     
   2.3604740682506432E-002   6.7693070971668060E-002   0.0000000000000000     
   2.4692295343587217E-002   7.3637867243385349E-002   0.0000000000000000     
   2.5745177982741705E-002   7.9766809326654808E-002   0.0000000000000000     
   1.7631483997239628E-002   5.6037487257625793E-002   0.0000000000000000     
   1.8595284326394689E-002   6.1622025096677059E-002   0.0000000000000000     
   1.9530287111459616E-002   6.7391375955448141E-002   0.0000000000000000     
   2.0436492352434436E-002   7.3345539833939086E-002   0.0000000000000000     
   2.1313900049319132E-002   7.9484516732149832E-002   0.0000000000000000     
   1.4024877640202146E-002   5.5777723843559043E-002   0.0000000000000000     
   1.4797019758780410E-002   6.1369231665939723E-002   0.0000000000000000     
   1.5545682182347028E-002   6.7145848177778897E-002   0.0000000000000000     
   1.6270864910902006E-002   7.3107573379076543E-002   0.0000000000000000     
   1.6972567944445342E-002   7.9254407269832683E-002   0.0000000000000000     
   3.4877571335233185E-002   8.0487943912228105E-002   0.0000000000000000     
   3.6229635894765841E-002   8.6760103005080608E-002   0.0000000000000000     
   3.7527633716276904E-002   9.3190205531310327E-002   0.0000000000000000     
   3.8771564799766359E-002   9.9778251490917208E-002   0.0000000000000000     
   3.9961429145234206E-002  0.10652424088390131        0.0000000000000000     
   3.0266401744713053E-002   8.0101285053347543E-002   0.0000000000000000     
   3.1449948574404758E-002   8.6388486143928744E-002   0.0000000000000000     
   3.2585436471294645E-002   9.2833523458852485E-002   0.0000000000000000     
   3.3672865435382726E-002   9.9436396998118737E-002   0.0000000000000000     
   3.4712235466668982E-002  0.10619710676172749        0.0000000000000000     
   2.5745177982741705E-002   7.9766809326654808E-002   0.0000000000000000     
   2.6759867085929857E-002   8.6066784670712937E-002   0.0000000000000000     
   2.7732841139111643E-002   9.2524680724796332E-002   0.0000000000000000     
   2.8664100142287069E-002   9.9140497488904952E-002   0.0000000000000000     
   2.9553644095456136E-002  0.10591423496303880        0.0000000000000000     
   2.1313900049319132E-002   7.9484516732149832E-002   0.0000000000000000     
   2.2159391429341143E-002   8.5794998585433185E-002   0.0000000000000000     
   2.2969847719727900E-002   9.2263677329141855E-002   0.0000000000000000     
   2.3745268920479408E-002   9.8890552963275855E-002   0.0000000000000000     
   2.4485655031595673E-002  0.10567562548783516        0.0000000000000000     
   1.6972567944445342E-002   7.9254407269832683E-002   0.0000000000000000     
   1.7648521604638617E-002   8.5573127888089476E-002   0.0000000000000000     
   1.8296456213143415E-002   9.2050513271889067E-002   0.0000000000000000     
   1.8916371769959740E-002   9.8686563421231444E-002   0.0000000000000000     
   1.9508268275087587E-002  0.10548127833611665        0.0000000000000000     
   3.9961429145234206E-002  0.10652424088390131        0.0000000000000000     
   4.1102743245407018E-002  0.11341661730921472        0.0000000000000000     
   4.2201023593011353E-002  0.12044382436580961        0.0000000000000000     
   4.3256270188047216E-002  0.12760586205368599        0.0000000000000000     
   4.4268483030514602E-002  0.13490273037284378        0.0000000000000000     
   3.4712235466668982E-002  0.10619710676172749        0.0000000000000000     
   3.5707867538607024E-002  0.11310445126540056        0.0000000000000000     
   3.6664082624650429E-002  0.12014722902485968        0.0000000000000000     
   3.7580880724799211E-002  0.12732544004010490        0.0000000000000000     
   3.8458261839053376E-002  0.13463908431113619        0.0000000000000000     
   2.9553644095456136E-002  0.10591423496303880        0.0000000000000000     
   3.0404957468299403E-002  0.11283485475181775        0.0000000000000000     
   3.1221524730497441E-002  0.11989131845986180        0.0000000000000000     
   3.2003345882050255E-002  0.12708362608717086        0.0000000000000000     
   3.2750420922957831E-002  0.13441177763374501        0.0000000000000000     
   2.4485655031595673E-002  0.10567562548783516        0.0000000000000000     
   2.5194013034484163E-002  0.11260782776846634        0.0000000000000000     
   2.5873349910552377E-002  0.11967609267081591        0.0000000000000000     
   2.6523665659800310E-002  0.12688042019488385        0.0000000000000000     
   2.7144960282227966E-002  0.13422081034067024        0.0000000000000000     
   1.9508268275087587E-002  0.10548127833611665        0.0000000000000000     
   2.0075034237161310E-002  0.11242337031534630        0.0000000000000000     
   2.0619558164815248E-002  0.11950155165772205        0.0000000000000000     
   2.1141840058049404E-002  0.12671582236324394        0.0000000000000000     
   2.1641879916863786E-002  0.13406618243191190        0.0000000000000000     
   4.4268483030514602E-002  0.13490273037284378        0.0000000000000000     
   4.5227326738748075E-002  0.14232225080189403        0.0000000000000000     
   4.6122465931082192E-002  0.14985224481944756        0.0000000000000000     
   4.6953900607516960E-002  0.15749271242550442        0.0000000000000000     
   4.7721630768052380E-002  0.16524365362006460        0.0000000000000000     
   3.8458261839053376E-002  0.13463908431113619        0.0000000000000000     
   3.9286513375873661E-002  0.14207558910692761        0.0000000000000000     
   4.0055922743720836E-002  0.14962238169645320        0.0000000000000000     
   4.0766489942594908E-002  0.15727946207971294        0.0000000000000000     
   4.1418214972495870E-002  0.16504683025670688        0.0000000000000000     
   3.2750420922957831E-002  0.13441177763374501        0.0000000000000000     
   3.3453849157254328E-002  0.14186303126146926        0.0000000000000000     
   3.4104729888973895E-002  0.14942464513222872        0.0000000000000000     
   3.4703063118116523E-002  0.15709661924602342        0.0000000000000000     
   3.5248848844682226E-002  0.16487895360285329        0.0000000000000000     
   2.7144960282227966E-002  0.13422081034067024        0.0000000000000000     
   2.7729334082890071E-002  0.14168457726551897        0.0000000000000000     
   2.8268887366841352E-002  0.14925903512677419        0.0000000000000000     
   2.8763620134081815E-002  0.15694418392443579        0.0000000000000000     
   2.9213532384611465E-002  0.16474002365850376        0.0000000000000000     
   2.1641879916863786E-002  0.13406618243191190        0.0000000000000000     
   2.2112968152780889E-002  0.14154022711907682        0.0000000000000000     
   2.2548395177323224E-002  0.14912555168008956        0.0000000000000000     
   2.2948160990490785E-002  0.15682215611495007        0.0000000000000000     
   2.3312265592283575E-002  0.16463004042365839        0.0000000000000000     
   0.0000000000000000        0.0000000000000000        0.0000000000000000     
   8.4175789250747358E-004   1.1098441215757762E-003   0.0000000000000000     
   1.7023262862054865E-003   2.5978380536448107E-003   0.0000000000000000     
   2.5817051810940387E-003   4.4639817962071043E-003   0.0000000000000000     
   3.4798945771731303E-003   6.7082753492626566E-003   0.0000000000000000     
   0.0000000000000000        0.0000000000000000        0.0000000000000000     
   6.3390902284078839E-004   1.0937858555741709E-003   0.0000000000000000     
   1.2782235847306712E-003   2.5616796640728647E-003   0.0000000000000000     
   1.9329436856696481E-003   4.4036814254960824E-003   0.0000000000000000     
   2.5980693256577197E-003   6.6197911398438213E-003   0.0000000000000000     
   0.0000000000000000        0.0000000000000000        0.0000000000000000     
   4.2433308414642197E-004   1.0823156656066656E-003   0.0000000000000000     
   8.5313496975481244E-004   2.5358522430111280E-003   0.0000000000000000     
   1.2864056568251713E-003   4.3606097322133877E-003   0.0000000000000000     
   1.7241451453574985E-003   6.5565881332134432E-003   0.0000000000000000     
   0.0000000000000000        0.0000000000000000        0.0000000000000000     
   2.1303007642437446E-004   1.0754335516732607E-003   0.0000000000000000     
   4.2706044127791020E-004   2.5203557904596012E-003   0.0000000000000000     
   6.4209109456060708E-004   4.3347667163590219E-003   0.0000000000000000     
   8.5812203627246562E-004   6.5186663293715233E-003   0.0000000000000000     
   0.0000000000000000        0.0000000000000000        0.0000000000000000     
  -3.2535424549819114E-013   1.0731395137739555E-003   0.0000000000000000     
  -7.0003540724589142E-013   2.5151903064182836E-003   0.0000000000000000     
  -1.1240434581380465E-012   4.3261523779329850E-003   0.0000000000000000     
  -1.5973785065948737E-012   6.5060257283180599E-003   0.0000000000000000     
   3.4798945771731303E-003   6.7082753492626566E-003   0.0000000000000000     
   4.3886464440080512E-003   9.2933733396712483E-003   0.0000000000000000     
   5.2997127511640882E-003   1.2181930394292658E-002   0.0000000000000000     
   6.2130934986412449E-003   1.5373946513126886E-002   0.0000000000000000     
   7.1287886864395168E-003   1.8869421696173932E-002   0.0000000000000000     
   2.5980693256577197E-003   6.6197911398438213E-003   0.0000000000000000     
   3.2706476165172056E-003   9.1770199902926567E-003   0.0000000000000000     
   3.9477256700704254E-003   1.2042379160019157E-002   0.0000000000000000     
   4.6293034863173774E-003   1.5215868649023322E-002   0.0000000000000000     
   5.3153810652580664E-003   1.8697488457305154E-002   0.0000000000000000     
   1.7241451453574985E-003   6.5565881332134432E-003   0.0000000000000000     
   2.1665402663270067E-003   9.0939104551355492E-003   0.0000000000000000     
   2.6137778507089094E-003   1.1942699707103956E-002   0.0000000000000000     
   3.0658578985032071E-003   1.5102955889118667E-002   0.0000000000000000     
   3.5227804097098989E-003   1.8574679001179678E-002   0.0000000000000000     
   8.5812203627246562E-004   6.5186663293715233E-003   0.0000000000000000     
   1.0763243934374541E-003   9.0440447341999294E-003   0.0000000000000000     
   1.2978692930795423E-003   1.1882892035547056E-002   0.0000000000000000     
   1.5227567351987297E-003   1.5035208233412914E-002   0.0000000000000000     
   1.7509867197950167E-003   1.8500993327797494E-002   0.0000000000000000     
  -1.5973785065948737E-012   6.5060257283180599E-003   0.0000000000000000     
  -2.1514525729536549E-012   9.0274228274857884E-003   0.0000000000000000     
  -2.8176773319622296E-012   1.1862956145348458E-002   0.0000000000000000     
  -3.5960534493884944E-012   1.5012625681906068E-002   0.0000000000000000     
  -4.4865808117300343E-012   1.8476431437158613E-002   0.0000000000000000     
   7.1287886864395168E-003   1.8869421696173932E-002   0.0000000000000000     
   8.0402414248308945E-003   2.2642475376988682E-002   0.0000000000000000     
   8.9408948240873656E-003   2.6667226989126033E-002   0.0000000000000000     
   9.8307488842089251E-003   3.0943676532585972E-002   0.0000000000000000     
   1.0709803605195578E-002   3.5471824007368508E-002   0.0000000000000000     
   5.3153810652580664E-003   1.8697488457305154E-002   0.0000000000000000     
   5.9990601568408655E-003   2.2459905320715665E-002   0.0000000000000000     
   6.6734425110141554E-003   2.6475785975105859E-002   0.0000000000000000     
   7.3385281277779371E-003   3.0745130420475733E-002   0.0000000000000000     
   7.9943170071322088E-003   3.5267938656825301E-002   0.0000000000000000     
   3.5227804097098989E-003   1.8574679001179678E-002   0.0000000000000000     
   3.9786261624639952E-003   2.2329498137906047E-002   0.0000000000000000     
   4.4274759349005053E-003   2.6339042393916851E-002   0.0000000000000000     
   4.8693297270194303E-003   3.0603311769212067E-002   0.0000000000000000     
   5.3041875388207685E-003   3.5122306263791717E-002   0.0000000000000000     
   1.7509867197950167E-003   1.8500993327797494E-002   0.0000000000000000     
   1.9789394417002839E-003   2.2251253828559844E-002   0.0000000000000000     
   2.2029950957464135E-003   2.6256996245559008E-002   0.0000000000000000     
   2.4231536819334042E-003   3.0518220578794990E-002   0.0000000000000000     
   2.6394152002612577E-003   3.5034926828267775E-002   0.0000000000000000     
  -4.4865808117300343E-012   1.8476431437158613E-002   0.0000000000000000     
  -5.4502669196397624E-012   2.2225172392677052E-002   0.0000000000000000     
  -6.4481191111402658E-012   2.6229647530032339E-002   0.0000000000000000     
  -7.4801380774104295E-012   3.0489856849224471E-002   0.0000000000000000     
  -8.5463240217381609E-012   3.5005800350253455E-002   0.0000000000000000     
   1.0709803605195578E-002   3.5471824007368508E-002   0.0000000000000000     
   1.1572237020947888E-002   4.0231440077463293E-002   0.0000000000000000     
   1.2412227165366418E-002   4.5202295406859966E-002   0.0000000000000000     
   1.3229774038451173E-002   5.0384389995558554E-002   0.0000000000000000     
   1.4024877640202146E-002   5.5777723843559043E-002   0.0000000000000000     
   7.9943170071322088E-003   3.5267938656825301E-002   0.0000000000000000     
   8.6377894441369060E-003   4.0024353644506877E-002   0.0000000000000000     
   9.2659257338519613E-003   4.4994518343872789E-002   0.0000000000000000     
   9.8787258762773767E-003   5.0178432754923050E-002   0.0000000000000000     
   1.0476189871413152E-002   5.5576096877657626E-002   0.0000000000000000     
   5.3041875388207685E-003   3.5122306263791717E-002   0.0000000000000000     
   5.7309340800533997E-003   3.9876434764026719E-002   0.0000000000000000     
   6.1484540604661983E-003   4.4846106156287993E-002   0.0000000000000000     
   6.5567474800591686E-003   5.0031320440575532E-002   0.0000000000000000     
   6.9558143388323062E-003   5.5432077616889348E-002   0.0000000000000000     
   2.6394152002612577E-003   3.5034926828267775E-002   0.0000000000000000     
   2.8516709286973679E-003   3.9787683436022805E-002   0.0000000000000000     
   3.0598121452091297E-003   4.4757058844105573E-002   0.0000000000000000     
   3.2638388497965450E-003   4.9943053052516027E-002   0.0000000000000000     
   3.4637510424596128E-003   5.5345666061254198E-002   0.0000000000000000     
  -8.5463240217381609E-012   3.5005800350253455E-002   0.0000000000000000     
  -9.9311889007608345E-012   3.9758099660495178E-002   0.0000000000000000     
  -1.1919244725325934E-011   4.4727376407325534E-002   0.0000000000000000     
  -1.4510492322137615E-011   4.9913630590744537E-002   0.0000000000000000     
  -1.7704930837386668E-011   5.5316862210752181E-002   0.0000000000000000     
   1.4024877640202146E-002   5.5777723843559043E-002   0.0000000000000000     
   1.4797019758780410E-002   6.1369231665939723E-002   0.0000000000000000     
   1.5545682182347028E-002   6.7145848177778897E-002   0.0000000000000000     
   1.6270864910902006E-002   7.3107573379076543E-002   0.0000000000000000     
   1.6972567944445342E-002   7.9254407269832683E-002   0.0000000000000000     
   1.0476189871413152E-002   5.5576096877657626E-002   0.0000000000000000     
   1.1056869511360923E-002   6.1173238282431944E-002   0.0000000000000000     
   1.1619316588222330E-002   6.6955584539601348E-002   0.0000000000000000     
   1.2163531101997372E-002   7.2923135649165832E-002   0.0000000000000000     
   1.2689513052686053E-002   7.9075891611125410E-002   0.0000000000000000     
   6.9558143388323062E-003   5.5432077616889348E-002   0.0000000000000000     
   7.3439827988406418E-003   6.1033243009294608E-002   0.0000000000000000     
   7.7195810221392007E-003   6.6819681941856501E-002   0.0000000000000000     
   8.0826090087279881E-003   7.2791394414575009E-002   0.0000000000000000     
   8.4330667586069979E-003   7.8948380427450143E-002   0.0000000000000000     
   3.4637510424596128E-003   5.5345666061254198E-002   0.0000000000000000     
   3.6583596212195675E-003   6.0949245846527771E-002   0.0000000000000000     
   3.8464754840976463E-003   6.6738140384544384E-002   0.0000000000000000     
   4.0280986310938481E-003   7.2712349675304086E-002   0.0000000000000000     
   4.2032290622081719E-003   7.8871873718806843E-002   0.0000000000000000     
  -1.7704930837386668E-011   5.5316862210752181E-002   0.0000000000000000     
  -2.1502299615318299E-011   6.0921246794131363E-002   0.0000000000000000     
  -2.5902338108597933E-011   6.6710959867664982E-002   0.0000000000000000     
  -3.0905045802229539E-011   7.2686001431353023E-002   0.0000000000000000     
  -3.6510422289637301E-011   7.8846371485195521E-002   0.0000000000000000     
   1.6972567944445342E-002   7.9254407269832683E-002   0.0000000000000000     
   1.7648521604638617E-002   8.5573127888089476E-002   0.0000000000000000     
   1.8296456213143415E-002   9.2050513271889067E-002   0.0000000000000000     
   1.8916371769959740E-002   9.8686563421231444E-002   0.0000000000000000     
   1.9508268275087587E-002  0.10548127833611665        0.0000000000000000     
   1.2689513052686053E-002   7.9075891611125410E-002   0.0000000000000000     
   1.3195938820123706E-002   8.5400829010601642E-002   0.0000000000000000     
   1.3681484784145662E-002   9.1884924432716009E-002   0.0000000000000000     
   1.4146150944751927E-002   9.8528177877468537E-002   0.0000000000000000     
   1.4589937301942498E-002  0.10533058934485923        0.0000000000000000     
   8.4330667586069979E-003   7.8948380427450143E-002   0.0000000000000000     
   8.7703242840978402E-003   8.5277758384889532E-002   0.0000000000000000     
   9.0937515975221261E-003   9.1766646691300774E-002   0.0000000000000000     
   9.4033486988798522E-003   9.8415045346683910E-002   0.0000000000000000     
   9.6991155881710183E-003  0.10522295435103893        0.0000000000000000     
   4.2032290622081719E-003   7.8871873718806843E-002   0.0000000000000000     
   4.3716779965610230E-003   8.5203916010953118E-002   0.0000000000000000     
   4.5332566532728016E-003   9.1695680047643377E-002   0.0000000000000000     
   4.6879650323435103E-003   9.8347165828877564E-002   0.0000000000000000     
   4.8358031337731476E-003  0.10515837335465573        0.0000000000000000     
  -3.6510422289637301E-011   7.8846371485195521E-002   0.0000000000000000     
  -4.2486749144907132E-011   8.5179301888792427E-002   0.0000000000000000     
  -4.8602307291603641E-011   9.1672024501743762E-002   0.0000000000000000     
  -5.4857096458676285E-011   9.8324539324049498E-002   0.0000000000000000     
  -6.1251114857191480E-011  0.10513684635570966        0.0000000000000000     
   1.9508268275087587E-002  0.10548127833611665        0.0000000000000000     
   2.0075034237161310E-002  0.11242337031534630        0.0000000000000000     
   2.0619558164815248E-002  0.11950155165772205        0.0000000000000000     
   2.1141840058049404E-002  0.12671582236324394        0.0000000000000000     
   2.1641879916863786E-002  0.13406618243191190        0.0000000000000000     
   1.4589937301942498E-002  0.10533058934485923        0.0000000000000000     
   1.5015597608855454E-002  0.11228059421290984        0.0000000000000000     
   1.5425885618628879E-002  0.11936662785964212        0.0000000000000000     
   1.5820801331262766E-002  0.12658869028505607        0.0000000000000000     
   1.6200344746757123E-002  0.13394678148915173        0.0000000000000000     
   9.6991155881710183E-003  0.10522295435103893        0.0000000000000000     
   9.9832796820912336E-003  0.11217861128160918        0.0000000000000000     
   1.0258068397336104E-002  0.11927025371563800        0.0000000000000000     
   1.0523481733905628E-002  0.12649788165312545        0.0000000000000000     
   1.0779519691799808E-002  0.13386149509407147        0.0000000000000000     
   4.8358031337731476E-003  0.10515837335465573        0.0000000000000000     
   4.9780804568686412E-003  0.11211742152144430        0.0000000000000000     
   5.1161065009369218E-003  0.11921242922570970        0.0000000000000000     
   5.2498812659779893E-003  0.12644339646745201        0.0000000000000000     
   5.3794047519918420E-003  0.13381032324667108        0.0000000000000000     
  -6.1251114857191480E-011  0.10513684635570966        0.0000000000000000     
  -6.6812319999415282E-011  0.11209702493241523        0.0000000000000000     
  -7.0568665494485927E-011  0.11919315438985728        0.0000000000000000     
  -7.2520150041360809E-011  0.12642523472803574        0.0000000000000000     
  -7.2666775808444273E-011  0.13379326594695068        0.0000000000000000     
   2.1641879916863786E-002  0.13406618243191190        0.0000000000000000     
   2.2112968152780889E-002  0.14154022711907682        0.0000000000000000     
   2.2548395177323224E-002  0.14912555168008956        0.0000000000000000     
   2.2948160990490785E-002  0.15682215611495007        0.0000000000000000     
   2.3312265592283575E-002  0.16463004042365839        0.0000000000000000     
   1.6200344746757123E-002  0.13394678148915173        0.0000000000000000     
   1.6559189120439022E-002  0.14142884117146770        0.0000000000000000     
   1.6892007707635541E-002  0.14902280903154275        0.0000000000000000     
   1.7198800508346684E-002  0.15672868506937676        0.0000000000000000     
   1.7479567522572452E-002  0.16454646928496985        0.0000000000000000     
   1.0779519691799808E-002  0.13386149509407147        0.0000000000000000     
   1.1022434739376698E-002  0.14134927977201667        0.0000000000000000     
   1.1248479344994356E-002  0.14894942142050158        0.0000000000000000     
   1.1457653508652785E-002  0.15666192003952631        0.0000000000000000     
   1.1649957230351980E-002  0.16448677562909084        0.0000000000000000     
   5.3794047519918420E-003  0.13381032324667108        0.0000000000000000     
   5.5027050095939204E-003  0.14130154292072361        0.0000000000000000     
   5.6178100893996673E-003  0.14890538884696616        0.0000000000000000     
   5.7247199914090838E-003  0.15662186102539874        0.0000000000000000     
   5.8234347156221637E-003  0.16445095945602134        0.0000000000000000     
  -7.2666775808444273E-011  0.13379326594695068        0.0000000000000000     
  -6.8909311633572057E-011  0.14128563061758867        0.0000000000000000     
  -5.9148527980883159E-011  0.14889071131093648        0.0000000000000000     
  -4.3384423739070352E-011  0.15660850802699405        0.0000000000000000     
  -2.1616999856810537E-011  0.16443902076576139        0.0000000000000000     
   0.0000000000000000        0.0000000000000000        0.0000000000000000     
  -3.2535424549819114E-013   1.0731395137739555E-003   0.0000000000000000     
  -7.0003540724589142E-013   2.5151903064182836E-003   0.0000000000000000     
  -1.1240434581380465E-012   4.3261523779329850E-003   0.0000000000000000     
  -1.5973785065948737E-012   6.5060257283180599E-003   0.0000000000000000     
   0.0000000000000000        0.0000000000000000        0.0000000000000000     
  -2.1303007706126244E-004   1.0754335518979561E-003   0.0000000000000000     
  -4.2706044265048858E-004   2.5203557908706712E-003   0.0000000000000000     
  -6.4209109676767852E-004   4.3347667169181450E-003   0.0000000000000000     
  -8.5812203941283195E-004   6.5186663300403772E-003   0.0000000000000000     
   0.0000000000000000        0.0000000000000000        0.0000000000000000     
  -4.2433308474184857E-004   1.0823156660344690E-003   0.0000000000000000     
  -8.5313497104491350E-004   2.5358522438002590E-003   0.0000000000000000     
  -1.2864056589091946E-003   4.3606097332973704E-003   0.0000000000000000     
  -1.7241451483346927E-003   6.5565881345258032E-003   0.0000000000000000     
   0.0000000000000000        0.0000000000000000        0.0000000000000000     
  -6.3390902336711260E-004   1.0937858561834940E-003   0.0000000000000000     
  -1.2782235858833104E-003   2.5616796652070477E-003   0.0000000000000000     
  -1.9329436875485933E-003   4.4036814270706631E-003   0.0000000000000000     
  -2.5980693283629611E-003   6.6197911417743361E-003   0.0000000000000000     
   0.0000000000000000        0.0000000000000000        0.0000000000000000     
  -8.4175789293705464E-004   1.1098441223450308E-003   0.0000000000000000     
  -1.7023262871656789E-003   2.5978380550910375E-003   0.0000000000000000     
  -2.5817051826858735E-003   4.4639817982380196E-003   0.0000000000000000     
  -3.4798945794976368E-003   6.7082753517859776E-003   0.0000000000000000     
  -1.5973785065948737E-012   6.5060257283180599E-003   0.0000000000000000     
  -2.1514525729536549E-012   9.0274228274857884E-003   0.0000000000000000     
  -2.8176773319622296E-012   1.1862956145348458E-002   0.0000000000000000     
  -3.5960534493884944E-012   1.5012625681906068E-002   0.0000000000000000     
  -4.4865808117300343E-012   1.8476431437158613E-002   0.0000000000000000     
  -8.5812203941283195E-004   6.5186663300403772E-003   0.0000000000000000     
  -1.0763243976687925E-003   9.0440447349810320E-003   0.0000000000000000     
  -1.2978692986184042E-003   1.1882892036483777E-002   0.0000000000000000     
  -1.5227567422616661E-003   1.5035208234548606E-002   0.0000000000000000     
  -1.7509867285985799E-003   1.8500993329175524E-002   0.0000000000000000     
  -1.7241451483346927E-003   6.5565881345258032E-003   0.0000000000000000     
  -2.1665402703436457E-003   9.0939104566735568E-003   0.0000000000000000     
  -2.6137778559582919E-003   1.1942699708928627E-002   0.0000000000000000     
  -3.0658579051786325E-003   1.5102955891291014E-002   0.0000000000000000     
  -3.5227804180046657E-003   1.8574679003760721E-002   0.0000000000000000     
  -2.5980693283629611E-003   6.6197911417743361E-003   0.0000000000000000     
  -3.2706476201760110E-003   9.1770199925633560E-003   0.0000000000000000     
  -3.9477256748373423E-003   1.2042379162683008E-002   0.0000000000000000     
  -4.6293034923469509E-003   1.5215868652133292E-002   0.0000000000000000     
  -5.3153810727048405E-003   1.8697488460914211E-002   0.0000000000000000     
  -3.4798945794976368E-003   6.7082753517859776E-003   0.0000000000000000     
  -4.3886464471658906E-003   9.2933733426504364E-003   0.0000000000000000     
  -5.2997127552555532E-003   1.2181930397746924E-002   0.0000000000000000     
  -6.2130935037666233E-003   1.5373946517075437E-002   0.0000000000000000     
  -7.1287886926991026E-003   1.8869421700635984E-002   0.0000000000000000     
  -4.4865808117300343E-012   1.8476431437158613E-002   0.0000000000000000     
  -5.4502669196397624E-012   2.2225172392677052E-002   0.0000000000000000     
  -6.4481191111402658E-012   2.6229647530032339E-002   0.0000000000000000     
  -7.4801380774104295E-012   3.0489856849224471E-002   0.0000000000000000     
  -8.5463240217381609E-012   3.5005800350253455E-002   0.0000000000000000     
  -1.7509867285985799E-003   1.8500993329175524E-002   0.0000000000000000     
  -1.9789394523869242E-003   2.2251253830139036E-002   0.0000000000000000     
  -2.2029951083844821E-003   2.6256996247213643E-002   0.0000000000000000     
  -2.4231536965912521E-003   3.0518220580399345E-002   0.0000000000000000     
  -2.6394152170072351E-003   3.5034926829696146E-002   0.0000000000000000     
  -3.5227804180046657E-003   1.8574679003760721E-002   0.0000000000000000     
  -3.9786261725089558E-003   2.2329498140827152E-002   0.0000000000000000     
  -4.4274759467640640E-003   2.6339042396979720E-002   0.0000000000000000     
  -4.8693297407699909E-003   3.0603311772218415E-002   0.0000000000000000     
  -5.3041875545267354E-003   3.5122306266543238E-002   0.0000000000000000     
  -5.3153810727048405E-003   1.8697488460914211E-002   0.0000000000000000     
  -5.9990601658163620E-003   2.2459905324741417E-002   0.0000000000000000     
  -6.6734425215868656E-003   2.6475785979330573E-002   0.0000000000000000     
  -7.3385281400163505E-003   3.0745130424681681E-002   0.0000000000000000     
  -7.9943170211048218E-003   3.5267938660794744E-002   0.0000000000000000     
  -7.1287886926991026E-003   1.8869421700635984E-002   0.0000000000000000     
  -8.0402414323091399E-003   2.2642475381881820E-002   0.0000000000000000     
  -8.9408948328528852E-003   2.6667226994266203E-002   0.0000000000000000     
  -9.8307488943303392E-003   3.0943676537789146E-002   0.0000000000000000     
  -1.0709803616741497E-002   3.5471824012450644E-002   0.0000000000000000     
  -8.5463240217381609E-012   3.5005800350253455E-002   0.0000000000000000     
  -9.9311889007608345E-012   3.9758099660495178E-002   0.0000000000000000     
  -1.1919244725325934E-011   4.4727376407325534E-002   0.0000000000000000     
  -1.4510492322137615E-011   4.9913630590744537E-002   0.0000000000000000     
  -1.7704930837386668E-011   5.5316862210752181E-002   0.0000000000000000     
  -2.6394152170072351E-003   3.5034926829696146E-002   0.0000000000000000     
  -2.8516709481377052E-003   3.9787683437421992E-002   0.0000000000000000     
  -3.0598121684879405E-003   4.4757058845894829E-002   0.0000000000000000     
  -3.2638388780579391E-003   4.9943053055114664E-002   0.0000000000000000     
  -3.4637510768476998E-003   5.5345666065081491E-002   0.0000000000000000     
  -5.3041875545267354E-003   3.5122306266543238E-002   0.0000000000000000     
  -5.7309340982276188E-003   3.9876434766781474E-002   0.0000000000000000     
  -6.1484540820659706E-003   4.4846106159760396E-002   0.0000000000000000     
  -6.5567475060417874E-003   5.0031320445480011E-002   0.0000000000000000     
  -6.9558143701550701E-003   5.5432077623940305E-002   0.0000000000000000     
  -7.9943170211048218E-003   3.5267938660794744E-002   0.0000000000000000     
  -8.6377894602009311E-003   4.0024353648573645E-002   0.0000000000000000     
  -9.2659257526533367E-003   4.4994518348922249E-002   0.0000000000000000     
  -9.8787258984620405E-003   5.0178432761840600E-002   0.0000000000000000     
  -1.0476189897627041E-002   5.5576096887328640E-002   0.0000000000000000     
  -1.0709803616741497E-002   3.5471824012450644E-002   0.0000000000000000     
  -1.1572237034057636E-002   4.0231440082798456E-002   0.0000000000000000     
  -1.2412227180250037E-002   4.5202295413380375E-002   0.0000000000000000     
  -1.3229774055318694E-002   5.0384390004196387E-002   0.0000000000000000     
  -1.4024877659263607E-002   5.5777723855246507E-002   0.0000000000000000     
  -1.7704930837386668E-011   5.5316862210752181E-002   0.0000000000000000     
  -2.1502299615318299E-011   6.0921246794131363E-002   0.0000000000000000     
  -2.5902338108597933E-011   6.6710959867664982E-002   0.0000000000000000     
  -3.0905045802229539E-011   7.2686001431353023E-002   0.0000000000000000     
  -3.6510422289637301E-011   7.8846371485195521E-002   0.0000000000000000     
  -3.4637510768476998E-003   5.5345666065081491E-002   0.0000000000000000     
  -3.6583596628772148E-003   6.0949245851625741E-002   0.0000000000000000     
  -3.8464755341664730E-003   6.6738140390577877E-002   0.0000000000000000     
  -4.0280986907154761E-003   7.2712349681937877E-002   0.0000000000000000     
  -4.2032291325242227E-003   7.8871873725705754E-002   0.0000000000000000     
  -6.9558143701550701E-003   5.5432077623940305E-002   0.0000000000000000     
  -7.3439828364574283E-003   6.1033243018531212E-002   0.0000000000000000     
  -7.7195810670004803E-003   6.6819681952642651E-002   0.0000000000000000     
  -8.0826090617842246E-003   7.2791394426274622E-002   0.0000000000000000     
  -8.4330668208086636E-003   7.8948380439427160E-002   0.0000000000000000     
  -1.0476189897627041E-002   5.5576096887328640E-002   0.0000000000000000     
  -1.1056869542242940E-002   6.1173238294847776E-002   0.0000000000000000     
  -1.1619316624404361E-002   6.6955584553859318E-002   0.0000000000000000     
  -1.2163531144111296E-002   7.2923135664363273E-002   0.0000000000000000     
  -1.2689513101363747E-002   7.9075891626359654E-002   0.0000000000000000     
  -1.4024877659263607E-002   5.5777723855246507E-002   0.0000000000000000     
  -1.4797019780233754E-002   6.1369231680575412E-002   0.0000000000000000     
  -1.5545682206378116E-002   6.7145848194227864E-002   0.0000000000000000     
  -1.6270864937696684E-002   7.3107573396203829E-002   0.0000000000000000     
  -1.6972567974189466E-002   7.9254407286503292E-002   0.0000000000000000     
  -3.6510422289637301E-011   7.8846371485195521E-002   0.0000000000000000     
  -4.2486749144907132E-011   8.5179301888792427E-002   0.0000000000000000     
  -4.8602307291603641E-011   9.1672024501743762E-002   0.0000000000000000     
  -5.4857096458676285E-011   9.8324539324049498E-002   0.0000000000000000     
  -6.1251114857191480E-011  0.10513684635570966        0.0000000000000000     
  -4.2032291325242227E-003   7.8871873725705754E-002   0.0000000000000000     
  -4.3716780782542767E-003   8.5203916017421513E-002   0.0000000000000000     
  -4.5332567465671998E-003   9.1695680052625100E-002   0.0000000000000000     
  -4.6879651374629946E-003   9.8347165831316544E-002   0.0000000000000000     
  -4.8358032509416577E-003  0.10515837335349582        0.0000000000000000     
  -8.4330668208086636E-003   7.8948380439427160E-002   0.0000000000000000     
  -8.7703243559503589E-003   8.5277758395854358E-002   0.0000000000000000     
  -9.0937516790858732E-003   9.1766646699310478E-002   0.0000000000000000     
  -9.4033487902152116E-003   9.8415045349795477E-002   0.0000000000000000     
  -9.6991156893383671E-003  0.10522295434730934        0.0000000000000000     
  -1.2689513101363747E-002   7.9075891626359654E-002   0.0000000000000000     
  -1.3195938875574994E-002   8.5400829024091005E-002   0.0000000000000000     
  -1.3681484846158328E-002   9.1884924441799881E-002   0.0000000000000000     
  -1.4146151013113742E-002   9.8528177879486298E-002   0.0000000000000000     
  -1.4589937376441245E-002  0.10533058933715020        0.0000000000000000     
  -1.6972567974189466E-002   7.9254407286503292E-002   0.0000000000000000     
  -1.7648521637128184E-002   8.5573127902131410E-002   0.0000000000000000     
  -1.8296456247784559E-002   9.2050513280093324E-002   0.0000000000000000     
  -1.8916371806158593E-002   9.8686563420388992E-002   0.0000000000000000     
  -1.9508268312250283E-002  0.10548127832301847        0.0000000000000000     
  -6.1251114857191480E-011  0.10513684635570966        0.0000000000000000     
  -6.6812319999415282E-011  0.11209702493241523        0.0000000000000000     
  -7.0568665494485927E-011  0.11919315438985728        0.0000000000000000     
  -7.2520150041360809E-011  0.12642523472803574        0.0000000000000000     
  -7.2666775808444273E-011  0.13379326594695068        0.0000000000000000     
  -4.8358032509416577E-003  0.10515837335349582        0.0000000000000000     
  -4.9780805845076638E-003  0.11211742151436202        0.0000000000000000     
  -5.1161066356654895E-003  0.11921242920911421        0.0000000000000000     
  -5.2498814044151312E-003  0.12644339643775240        0.0000000000000000     
  -5.3794048907565908E-003  0.13381032320027658        0.0000000000000000     
  -9.6991156893383671E-003  0.10522295434730934        0.0000000000000000     
  -9.9832797917734032E-003  0.11217861126712471        0.0000000000000000     
  -1.0258068512838382E-002  0.11927025368451416        0.0000000000000000     
  -1.0523481852533295E-002  0.12649788159947770        0.0000000000000000     
  -1.0779519810858149E-002  0.13386149501201533        0.0000000000000000     
  -1.4589937376441245E-002  0.10533058933715020        0.0000000000000000     
  -1.5015597688609536E-002  0.11228059419070328        0.0000000000000000     
  -1.5425885702087336E-002  0.11936662781605707        0.0000000000000000     
  -1.5820801416874641E-002  0.12658869021321162        0.0000000000000000     
  -1.6200344832971451E-002  0.13394678138216687        0.0000000000000000     
  -1.9508268312250283E-002  0.10548127832301847        0.0000000000000000     
  -2.0075034275016064E-002  0.11242337028509777        0.0000000000000000     
  -2.0619558203412360E-002  0.11950155160374301        0.0000000000000000     
  -2.1141840097439173E-002  0.12671582227895412        0.0000000000000000     
  -2.1641879957096502E-002  0.13406618231073122        0.0000000000000000     
  -7.2666775808444273E-011  0.13379326594695068        0.0000000000000000     
  -6.8909311633572057E-011  0.14128563061758867        0.0000000000000000     
  -5.9148527980883159E-011  0.14889071131093648        0.0000000000000000     
  -4.3384423739070352E-011  0.15660850802699405        0.0000000000000000     
  -2.1616999856810537E-011  0.16443902076576139        0.0000000000000000     
  -5.3794048907565908E-003  0.13381032320027658        0.0000000000000000     
  -5.5027051411742417E-003  0.14130154286775040        0.0000000000000000     
  -5.6178102021524502E-003  0.14890538881123744        0.0000000000000000     
  -5.7247200736912267E-003  0.15662186103073775        0.0000000000000000     
  -5.8234347557905644E-003  0.16445095952625133        0.0000000000000000     
  -1.0779519810858149E-002  0.13386149501201533        0.0000000000000000     
  -1.1022434852242108E-002  0.14134927967634731        0.0000000000000000     
  -1.1248479441114335E-002  0.14894942134669401        0.0000000000000000     
  -1.1457653577474827E-002  0.15666192002305537        0.0000000000000000     
  -1.1649957261323583E-002  0.16448677570543141        0.0000000000000000     
  -1.6200344832971451E-002  0.13394678138216687        0.0000000000000000     
  -1.6559189202112915E-002  0.14142884104337949        0.0000000000000000     
  -1.6892007776034175E-002  0.14902280891730621        0.0000000000000000     
  -1.7198800554735216E-002  0.15672868500394693        0.0000000000000000     
  -1.7479567538216056E-002  0.16454646930330172        0.0000000000000000     
  -2.1641879957096502E-002  0.13406618231073122        0.0000000000000000     
  -2.2112968190786661E-002  0.14154022696884694        0.0000000000000000     
  -2.2548395206911962E-002  0.14912555152307402        0.0000000000000000     
  -2.2948161005472402E-002  0.15682215597341242        0.0000000000000000     
  -2.3312265586467987E-002  0.16463004031986217        0.0000000000000000     
   0.0000000000000000        0.0000000000000000        0.0000000000000000     
  -8.4175789293705464E-004   1.1098441223450308E-003   0.0000000000000000     
  -1.7023262871656789E-003   2.5978380550910375E-003   0.0000000000000000     
  -2.5817051826858735E-003   4.4639817982380196E-003   0.0000000000000000     
  -3.4798945794976368E-003   6.7082753517859776E-003   0.0000000000000000     
   0.0000000000000000        0.0000000000000000        0.0000000000000000     
  -1.0567874682396701E-003   1.1340484718652226E-003   0.0000000000000000     
  -2.1399839675551417E-003   2.6501688896138093E-003   0.0000000000000000     
  -3.2495894979464148E-003   4.5483612532457611E-003   0.0000000000000000     
  -4.3856040594134893E-003   6.8286255627610778E-003   0.0000000000000000     
   0.0000000000000000        0.0000000000000000        0.0000000000000000     
  -1.2879055240629547E-003   1.1699569120902113E-003   0.0000000000000000     
  -2.6057375197148206E-003   2.7245136449369468E-003   0.0000000000000000     
  -3.9534959869555976E-003   4.6636701985402068E-003   0.0000000000000000     
  -5.3311809257852874E-003   6.9874265728999884E-003   0.0000000000000000     
   0.0000000000000000        0.0000000000000000        0.0000000000000000     
  -1.5351120604069084E-003   1.2175694430199974E-003   0.0000000000000000     
  -3.0995869436447163E-003   2.8208723210604485E-003   0.0000000000000000     
  -4.6934246497134227E-003   4.8099086341213543E-003   0.0000000000000000     
  -6.3166251786130299E-003   7.1846783822027130E-003   0.0000000000000000     
   0.0000000000000000        0.0000000000000000        0.0000000000000000     
  -1.7984070772715313E-003   1.2768860646545804E-003   0.0000000000000000     
  -3.6215322393448280E-003   2.9392449179843154E-003   0.0000000000000000     
  -5.4693754862198893E-003   4.9870765599892052E-003   0.0000000000000000     
  -7.3419368178967177E-003   7.4203809906692479E-003   0.0000000000000000     
  -3.4798945794976368E-003   6.7082753517859776E-003   0.0000000000000000     
  -4.3886464471658906E-003   9.2933733426504364E-003   0.0000000000000000     
  -5.2997127552555532E-003   1.2181930397746924E-002   0.0000000000000000     
  -6.2130935037666233E-003   1.5373946517075437E-002   0.0000000000000000     
  -7.1287886926991026E-003   1.8869421700635984E-002   0.0000000000000000     
  -4.3856040594134893E-003   6.8286255627610778E-003   0.0000000000000000     
  -5.5350376622604032E-003   9.4489394660700575E-003   0.0000000000000000     
  -6.6849003167911954E-003   1.2367280611083002E-002   0.0000000000000000     
  -7.8351920230058641E-003   1.5583648997799911E-002   0.0000000000000000     
  -8.9859127809044110E-003   1.9098044626220785E-002   0.0000000000000000     
  -5.3311809257852874E-003   6.9874265728999884E-003   0.0000000000000000     
  -6.7243221764066727E-003   9.6496873219574838E-003   0.0000000000000000     
  -8.1184495790225398E-003   1.2604356999653876E-002   0.0000000000000000     
  -9.5135631336328921E-003   1.5851435605989166E-002   0.0000000000000000     
  -1.0909662840237725E-002   1.9390923140963356E-002   0.0000000000000000     
  -6.3166251786130299E-003   7.1846783822027130E-003   0.0000000000000000     
  -7.9564999896046956E-003   9.8956169103127153E-003   0.0000000000000000     
  -9.6003605419495899E-003   1.2893159563459544E-002   0.0000000000000000     
  -1.1248206835647702E-002   1.6177306341643206E-002   0.0000000000000000     
  -1.2900038870699041E-002   1.9748057244863695E-002   0.0000000000000000     
  -7.3419368178967177E-003   7.4203809906692479E-003   0.0000000000000000     
  -9.2315711018544789E-003   1.0186728231135750E-002   0.0000000000000000     
  -1.1130633205572341E-002   1.3233688302500008E-002   0.0000000000000000     
  -1.3039123129050303E-002   1.6561261204762021E-002   0.0000000000000000     
  -1.4957040872288364E-002   2.0169446937921800E-002   0.0000000000000000     
  -7.1287886926991026E-003   1.8869421700635984E-002   0.0000000000000000     
  -8.0402414323091399E-003   2.2642475381881820E-002   0.0000000000000000     
  -8.9408948328528852E-003   2.6667226994266203E-002   0.0000000000000000     
  -9.8307488943303392E-003   3.0943676537789146E-002   0.0000000000000000     
  -1.0709803616741497E-002   3.5471824012450644E-002   0.0000000000000000     
  -8.9859127809044110E-003   1.9098044626220785E-002   0.0000000000000000     
  -1.0130084355974768E-002   2.2885664015595365E-002   0.0000000000000000     
  -1.1260728513704871E-002   2.6921703685173402E-002   0.0000000000000000     
  -1.2377845254094716E-002   3.1206163634954896E-002   0.0000000000000000     
  -1.3481434577144302E-002   3.5739043864939840E-002   0.0000000000000000     
  -1.0909662840237725E-002   1.9390923140963356E-002   0.0000000000000000     
  -1.2296503320800721E-002   2.3197926929229076E-002   0.0000000000000000     
  -1.3663839197285565E-002   2.7247554295438965E-002   0.0000000000000000     
  -1.5011670469692250E-002   3.1539805239593016E-002   0.0000000000000000     
  -1.6339997138020781E-002   3.6074679761691243E-002   0.0000000000000000     
  -1.2900038870699041E-002   1.9748057244863695E-002   0.0000000000000000     
  -1.4539498326787000E-002   2.3579264122782943E-002   0.0000000000000000     
  -1.6150226883594968E-002   2.7644778825062884E-002   0.0000000000000000     
  -1.7732224541122943E-002   3.1944601351703530E-002   0.0000000000000000     
  -1.9285491299370936E-002   3.6478731702704853E-002   0.0000000000000000     
  -1.4957040872288364E-002   2.0169446937921800E-002   0.0000000000000000     
  -1.6859069373933600E-002   2.4029675596256968E-002   0.0000000000000000     
  -1.8719891572633079E-002   2.8113377274045167E-002   0.0000000000000000     
  -2.0539507468386800E-002   3.2420551971286404E-002   0.0000000000000000     
  -2.2317917061194764E-002   3.6951199687980663E-002   0.0000000000000000     
  -1.0709803616741497E-002   3.5471824012450644E-002   0.0000000000000000     
  -1.1572237034057636E-002   4.0231440082798456E-002   0.0000000000000000     
  -1.2412227180250037E-002   4.5202295413380375E-002   0.0000000000000000     
  -1.3229774055318694E-002   5.0384390004196387E-002   0.0000000000000000     
  -1.4024877659263607E-002   5.5777723855246507E-002   0.0000000000000000     
  -1.3481434577144302E-002   3.5739043864939840E-002   0.0000000000000000     
  -1.4563431877407189E-002   4.0500514355341286E-002   0.0000000000000000     
  -1.5615772549436928E-002   4.5470745086372277E-002   0.0000000000000000     
  -1.6638456593233524E-002   5.0649736058032788E-002   0.0000000000000000     
  -1.7631484008796966E-002   5.6037487270322858E-002   0.0000000000000000     
  -1.6339997138020781E-002   3.6074679761691243E-002   0.0000000000000000     
  -1.7640529047859031E-002   4.0834396752087450E-002   0.0000000000000000     
  -1.8904976044794873E-002   4.5801175101135412E-002   0.0000000000000000     
  -2.0133338128828292E-002   5.0975014808835158E-002   0.0000000000000000     
  -2.1325615299959307E-002   5.6355915875186673E-002   0.0000000000000000     
  -1.9285491299370936E-002   3.6478731702704853E-002   0.0000000000000000     
  -2.0803528545413168E-002   4.1233087273036942E-002   0.0000000000000000     
  -2.2279837666323854E-002   4.6193585457669807E-002   0.0000000000000000     
  -2.3714418662103009E-002   5.1360226256603490E-002   0.0000000000000000     
  -2.5107271532750622E-002   5.6733009669837957E-002   0.0000000000000000     
  -2.2317917061194764E-002   3.6951199687980663E-002   0.0000000000000000     
  -2.4052430370069589E-002   4.1696585918189755E-002   0.0000000000000000     
  -2.5740357414023890E-002   4.6647976155975455E-002   0.0000000000000000     
  -2.7381698193057667E-002   5.1805370401337772E-002   0.0000000000000000     
  -2.8976452707170922E-002   5.7168768654276711E-002   0.0000000000000000     
  -1.4024877659263607E-002   5.5777723855246507E-002   0.0000000000000000     
  -1.4797019780233754E-002   6.1369231680575412E-002   0.0000000000000000     
  -1.5545682206378116E-002   6.7145848194227864E-002   0.0000000000000000     
  -1.6270864937696684E-002   7.3107573396203829E-002   0.0000000000000000     
  -1.6972567974189466E-002   7.9254407286503292E-002   0.0000000000000000     
  -1.7631484008796966E-002   5.6037487270322858E-002   0.0000000000000000     
  -1.8595284338063324E-002   6.1622025112138705E-002   0.0000000000000000     
  -1.9530287122968663E-002   6.7391375972376572E-002   0.0000000000000000     
  -2.0436492363512970E-002   7.3345539851036465E-002   0.0000000000000000     
  -2.1313900059696259E-002   7.9484516748118364E-002   0.0000000000000000     
  -2.1325615299959307E-002   5.6355915875186673E-002   0.0000000000000000     
  -2.2482514003365112E-002   6.1932420525962130E-002   0.0000000000000000     
  -2.3604740684222924E-002   6.7693070986933696E-002   0.0000000000000000     
  -2.4692295342532727E-002   7.3637867258101369E-002   0.0000000000000000     
  -2.5745177978294537E-002   7.9766809339465186E-002   0.0000000000000000     
  -2.5107271532750622E-002   5.6733009669837957E-002   0.0000000000000000     
  -2.6458708776139116E-002   6.2300417922045728E-002   0.0000000000000000     
  -2.7769042890140892E-002   6.8050933237899250E-002   0.0000000000000000     
  -2.9038273874755955E-002   7.3984555617398584E-002   0.0000000000000000     
  -3.0266401729984307E-002   8.0101285060543675E-002   0.0000000000000000     
  -2.8976452707170922E-002   5.7168768654276711E-002   0.0000000000000000     
  -3.0523868656385334E-002   6.2726017300389472E-002   0.0000000000000000     
  -3.2023193740722579E-002   6.8464962725273262E-002   0.0000000000000000     
  -3.3474427960182657E-002   7.4385604928928067E-002   0.0000000000000000     
  -3.4877571314765564E-002   8.0487943911353887E-002   0.0000000000000000     
  -1.6972567974189466E-002   7.9254407286503292E-002   0.0000000000000000     
  -1.7648521637128184E-002   8.5573127902131410E-002   0.0000000000000000     
  -1.8296456247784559E-002   9.2050513280093324E-002   0.0000000000000000     
  -1.8916371806158593E-002   9.8686563420388992E-002   0.0000000000000000     
  -1.9508268312250283E-002  0.10548127832301847        0.0000000000000000     
  -2.1313900059696259E-002   7.9484516748118364E-002   0.0000000000000000     
  -2.2159391438414288E-002   8.5794998597877939E-002   0.0000000000000000     
  -2.2969847726562836E-002   9.2263677334570762E-002   0.0000000000000000     
  -2.3745268924141898E-002   9.8890552958196834E-002   0.0000000000000000     
  -2.4485655031151479E-002  0.10567562546875617        0.0000000000000000     
  -2.5745177978294537E-002   7.9766809339465186E-002   0.0000000000000000     
  -2.6759867077237657E-002   8.6066784679232816E-002   0.0000000000000000     
  -2.7732841125091411E-002   9.2524680725612082E-002   0.0000000000000000     
  -2.8664100121855794E-002   9.9140497478602929E-002   0.0000000000000000     
  -2.9553644067530808E-002  0.10591423493820543        0.0000000000000000     
  -3.0266401729984307E-002   8.0101285060543675E-002   0.0000000000000000     
  -3.1449948553598298E-002   8.6388486146196070E-002   0.0000000000000000     
  -3.2585436443370280E-002   9.2833523453217284E-002   0.0000000000000000     
  -3.3672865399300284E-002   9.9436396981607347E-002   0.0000000000000000     
  -3.4712235421388273E-002  0.10619710673136622        0.0000000000000000     
  -3.4877571314765564E-002   8.0487943911353887E-002   0.0000000000000000     
  -3.6229635867496210E-002   8.6760102998767699E-002   0.0000000000000000     
  -3.7527633681399462E-002   9.3190205517386424E-002   0.0000000000000000     
  -3.8771564756475356E-002   9.9778251467210033E-002   0.0000000000000000     
  -3.9961429092723863E-002  0.10652424084823855        0.0000000000000000     
  -1.9508268312250283E-002  0.10548127832301847        0.0000000000000000     
  -2.0075034275016064E-002  0.11242337028509777        0.0000000000000000     
  -2.0619558203412360E-002  0.11950155160374301        0.0000000000000000     
  -2.1141840097439173E-002  0.12671582227895412        0.0000000000000000     
  -2.1641879957096502E-002  0.13406618231073122        0.0000000000000000     
  -2.4485655031151479E-002  0.10567562546875617        0.0000000000000000     
  -2.5194013030208996E-002  0.11260782773087930        0.0000000000000000     
  -2.5873349903931864E-002  0.11967609260919669        0.0000000000000000     
  -2.6523665652320075E-002  0.12688042010370842        0.0000000000000000     
  -2.7144960275373647E-002  0.13422081021441448        0.0000000000000000     
  -2.9553644067530808E-002  0.10591423493820543        0.0000000000000000     
  -3.0404957433404333E-002  0.11283485470861895        0.0000000000000000     
  -3.1221524690764245E-002  0.11989131839404302        0.0000000000000000     
  -3.2003345839610557E-002  0.12708362599447759        0.0000000000000000     
  -3.2750420879943253E-002  0.13441177750992270        0.0000000000000000     
  -3.4712235421388273E-002  0.10619710673136622        0.0000000000000000     
  -3.5707867484602078E-002  0.11310445121831676        0.0000000000000000     
  -3.6664082563909524E-002  0.12014722895828189        0.0000000000000000     
  -3.7580880659310596E-002  0.12732543995126161        0.0000000000000000     
  -3.8458261770805316E-002  0.13463908419725590        0.0000000000000000     
  -3.9961429092723863E-002  0.10652424084823855        0.0000000000000000     
  -4.1102743183802234E-002  0.11341661725997276        0.0000000000000000     
  -4.2201023523367687E-002  0.12044382430191342        0.0000000000000000     
  -4.3256270111420213E-002  0.12760586197406051        0.0000000000000000     
  -4.4268482947959827E-002  0.13490273027641406        0.0000000000000000     
  -2.1641879957096502E-002  0.13406618231073122        0.0000000000000000     
  -2.2112968190786661E-002  0.14154022696884694        0.0000000000000000     
  -2.2548395206911962E-002  0.14912555152307402        0.0000000000000000     
  -2.2948161005472402E-002  0.15682215597341242        0.0000000000000000     
  -2.3312265586467987E-002  0.16463004031986217        0.0000000000000000     
  -2.7144960275373647E-002  0.13422081021441448        0.0000000000000000     
  -2.7729334076060271E-002  0.14168457710458371        0.0000000000000000     
  -2.8268887357347623E-002  0.14925903493748502        0.0000000000000000     
  -2.8763620119235715E-002  0.15694418371311841        0.0000000000000000     
  -2.9213532361724550E-002  0.16474002343148389        0.0000000000000000     
  -3.2750420879943253E-002  0.13441177750992270        0.0000000000000000     
  -3.3453849115730655E-002  0.14186303110242390        0.0000000000000000     
  -3.4104729850941068E-002  0.14942464493402685        0.0000000000000000     
  -3.4703063085574491E-002  0.15709661900473146        0.0000000000000000     
  -3.5248848819630932E-002  0.16487895331453781        0.0000000000000000     
  -3.8458261770805316E-002  0.13463908419725590        0.0000000000000000     
  -3.9286513309797821E-002  0.14207558896236755        0.0000000000000000     
  -4.0055922687692300E-002  0.14962238151269946        0.0000000000000000     
  -4.0766489904488730E-002  0.15727946184825162        0.0000000000000000     
  -4.1418214960187119E-002  0.16504682996902398        0.0000000000000000     
  -4.4268482947959827E-002  0.13490273027641406        0.0000000000000000     
  -4.5227326658261763E-002  0.14232225068441465        0.0000000000000000     
  -4.6122465867601305E-002  0.14985224467350289        0.0000000000000000     
  -4.6953900575978424E-002  0.15749271224367883        0.0000000000000000     
  -4.7721630783393129E-002  0.16524365339494237        0.0000000000000000     
   0.0000000000000000        0.0000000000000000        0.0000000000000000     
  -1.7984070772715313E-003   1.2768860646545804E-003   0.0000000000000000     
  -3.6215322393448280E-003   2.9392449179843154E-003   0.0000000000000000     
  -5.4693754862198893E-003   4.9870765599892052E-003   0.0000000000000000     
  -7.3419368178967177E-003   7.4203809906692479E-003   0.0000000000000000     
   0.0000000000000000        0.0000000000000000        0.0000000000000000     
  -2.0695135728434812E-003   1.3550202890713020E-003   0.0000000000000000     
  -4.1642182427002600E-003   3.0941377618372502E-003   0.0000000000000000     
  -6.2841140095703345E-003   5.2173524182978423E-003   0.0000000000000000     
  -8.4292008734537065E-003   7.7246642584530810E-003   0.0000000000000000     
   0.0000000000000000        0.0000000000000000        0.0000000000000000     
  -2.3401545453094175E-003   1.4590856283475031E-003   0.0000000000000000     
  -4.7202897895961167E-003   3.3000571787479538E-003   0.0000000000000000     
  -7.1404057328600980E-003   5.5229146512013527E-003   0.0000000000000000     
  -9.6005023751013600E-003   8.1276580457076975E-003   0.0000000000000000     
   0.0000000000000000        0.0000000000000000        0.0000000000000000     
  -2.6103299946693389E-003   1.5890820824831834E-003   0.0000000000000000     
  -5.2897468800323973E-003   3.5570031687164280E-003   0.0000000000000000     
  -8.0382506560891746E-003   5.9037632586997311E-003   0.0000000000000000     
  -1.0855841322839670E-002   8.6293623524330964E-003   0.0000000000000000     
   0.0000000000000000        0.0000000000000000        0.0000000000000000     
  -2.8800399209232466E-003   1.7450096514783431E-003   0.0000000000000000     
  -5.8725895140091027E-003   3.8649757317426713E-003   0.0000000000000000     
  -8.9776487792575677E-003   6.3598982407929829E-003   0.0000000000000000     
  -1.2195217716668642E-002   9.2297771786292795E-003   0.0000000000000000     
  -7.3419368178967177E-003   7.4203809906692479E-003   0.0000000000000000     
  -9.2315711018544789E-003   1.0186728231135750E-002   0.0000000000000000     
  -1.1130633205572341E-002   1.3233688302500008E-002   0.0000000000000000     
  -1.3039123129050303E-002   1.6561261204762021E-002   0.0000000000000000     
  -1.4957040872288364E-002   2.0169446937921800E-002   0.0000000000000000     
  -8.4292008734537065E-003   7.7246642584530810E-003   0.0000000000000000     
  -1.0591209047831160E-002   1.0558617195352376E-002   0.0000000000000000     
  -1.2761868746183477E-002   1.3661755142045139E-002   0.0000000000000000     
  -1.4941179968510654E-002   1.7034078098531368E-002   0.0000000000000000     
  -1.7129142714812695E-002   2.0675586064811066E-002   0.0000000000000000     
  -9.6005023751013600E-003   8.1276580457076975E-003   0.0000000000000000     
  -1.2077087362209893E-002   1.1046879713888385E-002   0.0000000000000000     
  -1.4546668340075683E-002   1.4213172007364811E-002   0.0000000000000000     
  -1.7009245308698732E-002   1.7626534926136975E-002   0.0000000000000000     
  -1.9464818268079043E-002   2.1286968470204878E-002   0.0000000000000000     
  -1.0855841322839670E-002   8.6293623524330964E-003   0.0000000000000000     
  -1.3689206044990672E-002   1.1651515786743779E-002   0.0000000000000000     
  -1.6485031987248957E-002   1.4887938898459026E-002   0.0000000000000000     
  -1.9243319149614534E-002   1.8338631687578849E-002   0.0000000000000000     
  -2.1964067532087402E-002   2.2003594154103238E-002   0.0000000000000000     
  -1.2195217716668642E-002   9.2297771786292795E-003   0.0000000000000000     
  -1.5427565096173497E-002   1.2372525413918551E-002   0.0000000000000000     
  -1.8576959687703308E-002   1.5686055815327785E-002   0.0000000000000000     
  -2.1643401491258065E-002   1.9170368382856986E-002   0.0000000000000000     
  -2.4626890506837782E-002   2.2825463116506149E-002   0.0000000000000000     
  -1.4957040872288364E-002   2.0169446937921800E-002   0.0000000000000000     
  -1.6859069373933600E-002   2.4029675596256968E-002   0.0000000000000000     
  -1.8719891572633079E-002   2.8113377274045167E-002   0.0000000000000000     
  -2.0539507468386800E-002   3.2420551971286404E-002   0.0000000000000000     
  -2.2317917061194764E-002   3.6951199687980663E-002   0.0000000000000000     
  -1.7129142714812695E-002   2.0675586064811066E-002   0.0000000000000000     
  -1.9294500754865797E-002   2.4558662996197089E-002   0.0000000000000000     
  -2.1405997858446133E-002   2.8655692848002300E-002   0.0000000000000000     
  -2.3463634025553719E-002   3.2966675620226704E-002   0.0000000000000000     
  -2.5467409256188553E-002   3.7491611312870286E-002   0.0000000000000000     
  -1.9464818268079043E-002   2.1286968470204878E-002   0.0000000000000000     
  -2.1885076762208844E-002   2.5175727969149232E-002   0.0000000000000000     
  -2.4241710335080366E-002   2.9274068752550762E-002   0.0000000000000000     
  -2.6534718986693621E-002   3.3581990820409469E-002   0.0000000000000000     
  -2.8764102717048594E-002   3.8099494172725332E-002   0.0000000000000000     
  -2.1964067532087402E-002   2.2003594154103238E-002   0.0000000000000000     
  -2.4630797395962759E-002   2.5880870515113404E-002   0.0000000000000000     
  -2.7227029002535784E-002   2.9968504987690551E-002   0.0000000000000000     
  -2.9752762351806496E-002   3.4266497571834691E-002   0.0000000000000000     
  -3.2207997443774894E-002   3.8774848267545806E-002   0.0000000000000000     
  -2.4626890506837782E-002   2.2825463116506149E-002   0.0000000000000000     
  -2.7531662656127526E-002   2.6674090634089601E-002   0.0000000000000000     
  -3.0361953860812380E-002   3.0739001553421682E-002   0.0000000000000000     
  -3.3117764120892346E-002   3.5020195874502384E-002   0.0000000000000000     
  -3.5799093436367425E-002   3.9517673597331701E-002   0.0000000000000000     
  -2.2317917061194764E-002   3.6951199687980663E-002   0.0000000000000000     
  -2.4052430370069589E-002   4.1696585918189755E-002   0.0000000000000000     
  -2.5740357414023890E-002   4.6647976155975455E-002   0.0000000000000000     
  -2.7381698193057667E-002   5.1805370401337772E-002   0.0000000000000000     
  -2.8976452707170922E-002   5.7168768654276711E-002   0.0000000000000000     
  -2.5467409256188553E-002   3.7491611312870286E-002   0.0000000000000000     
  -2.7418391866635212E-002   4.2226337118419270E-002   0.0000000000000000     
  -2.9317650173178292E-002   4.7166690229359855E-002   0.0000000000000000     
  -3.1165184175817782E-002   5.2312670645692040E-002   0.0000000000000000     
  -3.2960993874553687E-002   5.7664278367415826E-002   0.0000000000000000     
  -2.8764102717048594E-002   3.8099494172725332E-002   0.0000000000000000     
  -3.0932570379916959E-002   4.2823785304598856E-002   0.0000000000000000     
  -3.3042830829070391E-002   4.7752070711130509E-002   0.0000000000000000     
  -3.5094884064508877E-002   5.2884350392320284E-002   0.0000000000000000     
  -3.7088730086232424E-002   5.8220624348168187E-002   0.0000000000000000     
  -3.2207997443774894E-002   3.8774848267545806E-002   0.0000000000000000     
  -3.4594965909914815E-002   4.3488930476728506E-002   0.0000000000000000     
  -3.6915899381700173E-002   4.8404117601287412E-002   0.0000000000000000     
  -3.9170797859130940E-002   5.3520409641222497E-002   0.0000000000000000     
  -4.1359661342207130E-002   5.8837806596533794E-002   0.0000000000000000     
  -3.5799093436367425E-002   3.9517673597331701E-002   0.0000000000000000     
  -3.8405578456628800E-002   4.4221772634808226E-002   0.0000000000000000     
  -4.0936855831067653E-002   4.9122830899830570E-002   0.0000000000000000     
  -4.3392925559683979E-002   5.4220848392398706E-002   0.0000000000000000     
  -4.5773787642477790E-002   5.9515825112512660E-002   0.0000000000000000     
  -2.8976452707170922E-002   5.7168768654276711E-002   0.0000000000000000     
  -3.0523868656385334E-002   6.2726017300389472E-002   0.0000000000000000     
  -3.2023193740722579E-002   6.8464962725273262E-002   0.0000000000000000     
  -3.3474427960182657E-002   7.4385604928928067E-002   0.0000000000000000     
  -3.4877571314765564E-002   8.0487943911353887E-002   0.0000000000000000     
  -3.2960993874553687E-002   5.7664278367415826E-002   0.0000000000000000     
  -3.4703450559620541E-002   6.3208944487066557E-002   0.0000000000000000     
  -3.6390925521252858E-002   6.8934100097179568E-002   0.0000000000000000     
  -3.8023418759450651E-002   7.4839745197754867E-002   0.0000000000000000     
  -3.9600930274213922E-002   8.0925879788792468E-002   0.0000000000000000     
  -3.7088730086232424E-002   5.8220624348168187E-002   0.0000000000000000     
  -3.9022911401361514E-002   6.3748925308150156E-002   0.0000000000000000     
  -4.0895970517016648E-002   6.9457286001742113E-002   0.0000000000000000     
  -4.2707907433197800E-002   7.5345706428944073E-002   0.0000000000000000     
  -4.4458722149904976E-002   8.1414186589756063E-002   0.0000000000000000     
  -4.1359661342207130E-002   5.8837806596533794E-002   0.0000000000000000     
  -4.3482251181608277E-002   6.4345959763640270E-002   0.0000000000000000     
  -4.5538328728013923E-002   7.0034520438960898E-002   0.0000000000000000     
  -4.7527893981424069E-002   7.5903488622495671E-002   0.0000000000000000     
  -4.9450946941838748E-002   8.1952864314244603E-002   0.0000000000000000     
  -4.5773787642477790E-002   5.9515825112512660E-002   0.0000000000000000     
  -4.8081469900360788E-002   6.5000047853536899E-002   0.0000000000000000     
  -5.0318000154244688E-002   7.0665803408835895E-002   0.0000000000000000     
  -5.2483378404129505E-002   7.6513091778409648E-002   0.0000000000000000     
  -5.4577604650015210E-002   8.2541912962258171E-002   0.0000000000000000     
  -3.4877571314765564E-002   8.0487943911353887E-002   0.0000000000000000     
  -3.6229635867496210E-002   8.6760102998767699E-002   0.0000000000000000     
  -3.7527633681399462E-002   9.3190205517386424E-002   0.0000000000000000     
  -3.8771564756475356E-002   9.9778251467210033E-002   0.0000000000000000     
  -3.9961429092723863E-002  0.10652424084823855        0.0000000000000000     
  -3.9600930274213922E-002   8.0925879788792468E-002   0.0000000000000000     
  -4.1120931209860954E-002   8.7181277058980655E-002   0.0000000000000000     
  -4.2580892710710048E-002   9.3594710197007727E-002   0.0000000000000000     
  -4.3980814776761197E-002  0.10016617920287368        0.0000000000000000     
  -4.5320697408014421E-002  0.10689568407657854        0.0000000000000000     
  -4.4458722149904976E-002   8.1414186589756063E-002   0.0000000000000000     
  -4.6145836771622116E-002   8.7651650148867916E-002   0.0000000000000000     
  -4.7766673402833124E-002   9.4047020770969561E-002   0.0000000000000000     
  -4.9321232043538013E-002  0.10060029845606100        0.0000000000000000     
  -5.0809512693736764E-002  0.10731148320414224        0.0000000000000000     
  -4.9450946941838748E-002   8.1952864314244603E-002   0.0000000000000000     
  -5.1304352552779688E-002   8.8171222268429439E-002   0.0000000000000000     
  -5.3084975757768701E-002   9.4547137239271897E-002   0.0000000000000000     
  -5.4792816556805769E-002  0.10108060922677198        0.0000000000000000     
  -5.6427874949890898E-002  0.10777163823092964        0.0000000000000000     
  -5.4577604650015210E-002   8.2541912962258171E-002   0.0000000000000000     
  -5.6596478553333697E-002   8.8739993417665280E-002   0.0000000000000000     
  -5.8535799775516782E-002   9.5095059601914736E-002   0.0000000000000000     
  -6.0395568316564487E-002  0.10160711151500659        0.0000000000000000     
  -6.2175784176476817E-002  0.10827614915694078        0.0000000000000000     
  -3.9961429092723863E-002  0.10652424084823855        0.0000000000000000     
  -4.1102743183802234E-002  0.11341661725997276        0.0000000000000000     
  -4.2201023523367687E-002  0.12044382430191342        0.0000000000000000     
  -4.3256270111420213E-002  0.12760586197406051        0.0000000000000000     
  -4.4268482947959827E-002  0.13490273027641406        0.0000000000000000     
  -4.5320697408014421E-002  0.10689568407657854        0.0000000000000000     
  -4.6607255030276261E-002  0.11377134135310275        0.0000000000000000     
  -4.7847202069353299E-002  0.12078126756742678        0.0000000000000000     
  -4.9040538525245515E-002  0.12792546271955066        0.0000000000000000     
  -5.0187264397952916E-002  0.13520392680947441        0.0000000000000000     
  -5.0809512693736764E-002  0.10731148320414224        0.0000000000000000     
  -5.2239073523295668E-002  0.11416861201722257        0.0000000000000000     
  -5.3617472702080955E-002  0.12115972189731135        0.0000000000000000     
  -5.4944710230092619E-002  0.12828481284440857        0.0000000000000000     
  -5.6220786107330688E-002  0.13554388485851421        0.0000000000000000     
  -5.6427874949890898E-002  0.10777163823092964        0.0000000000000000     
  -5.7998198662860406E-002  0.11460842925233226        0.0000000000000000     
  -5.9511835421550613E-002  0.12157918729156711        0.0000000000000000     
  -6.0968785225961532E-002  0.12868391234863416        0.0000000000000000     
  -6.2369048076093156E-002  0.13592260442353349        0.0000000000000000     
  -6.2175784176476817E-002  0.10827614915694078        0.0000000000000000     
  -6.3884630448970511E-002  0.11509079305843180        0.0000000000000000     
  -6.5530290227762328E-002  0.12203966375019405        0.0000000000000000     
  -6.7112763512852253E-002  0.12912276123222749        0.0000000000000000     
  -6.8632050304240300E-002  0.13634008550453217        0.0000000000000000     
  -4.4268482947959827E-002  0.13490273027641406        0.0000000000000000     
  -4.5227326658261763E-002  0.14232225068441465        0.0000000000000000     
  -4.6122465867601305E-002  0.14985224467350289        0.0000000000000000     
  -4.6953900575978424E-002  0.15749271224367883        0.0000000000000000     
  -4.7721630783393129E-002  0.16524365339494237        0.0000000000000000     
  -5.0187264397952916E-002  0.13520392680947441        0.0000000000000000     
  -5.1276603379516013E-002  0.14260482897739293        0.0000000000000000     
  -5.2297779161975338E-002  0.15011633836350119        0.0000000000000000     
  -5.3250791745330872E-002  0.15773845496779915        0.0000000000000000     
  -5.4135641129582635E-002  0.16547117879028683        0.0000000000000000     
  -5.6220786107330688E-002  0.13554388485851421        0.0000000000000000     
  -5.7434657691954064E-002  0.14292513655013020        0.0000000000000000     
  -5.8575282342121615E-002  0.15041676652975836        0.0000000000000000     
  -5.9642660057833377E-002  0.15801877479739865        0.0000000000000000     
  -6.0636790839089350E-002  0.16573116135305116        0.0000000000000000     
  -6.2369048076093156E-002  0.13592260442353349        0.0000000000000000     
  -6.3701489595575880E-002  0.14328317340262636        0.0000000000000000     
  -6.4954975408040128E-002  0.15075352917227436        0.0000000000000000     
  -6.6129505513485926E-002  0.15833367173247739        0.0000000000000000     
  -6.7225079911913260E-002  0.16602360108323538        0.0000000000000000     
  -6.8632050304240300E-002  0.13634008550453217        0.0000000000000000     
  -7.0077099090381498E-002  0.14367893953488159        0.0000000000000000     
  -7.1436858359730931E-002  0.15112662629104931        0.0000000000000000     
  -7.2711328112288545E-002  0.15868314577303524        0.0000000000000000     
  -7.3900508348054367E-002  0.16634849798083950        0.0000000000000000     
   0.0000000000000000        0.0000000000000000        0.0000000000000000     
  -2.8800399209232466E-003   1.7450096514783431E-003   0.0000000000000000     
  -5.8725895140091027E-003   3.8649757317426713E-003   0.0000000000000000     
  -8.9776487792575677E-003   6.3598982407929829E-003   0.0000000000000000     
  -1.2195217716668642E-002   9.2297771786292795E-003   0.0000000000000000     
   0.0000000000000000        0.0000000000000000        0.0000000000000000     
  -3.2831430782740791E-003   1.9995299360232163E-003   0.0000000000000000     
  -6.6768255707175860E-003   4.3312906599324774E-003   0.0000000000000000     
  -1.0181047477330521E-002   6.9952821717277833E-003   0.0000000000000000     
  -1.3795808798112881E-002   9.9915044714091357E-003   0.0000000000000000     
   0.0000000000000000        0.0000000000000000        0.0000000000000000     
  -3.9534982209247773E-003   2.4253045368080373E-003   0.0000000000000000     
  -7.9104629293492018E-003   5.0632637453916418E-003   0.0000000000000000     
  -1.1870894125273276E-002   7.9138776257508137E-003   0.0000000000000000     
  -1.5834791808696992E-002   1.0977146177885550E-002   0.0000000000000000     
   0.0000000000000000        0.0000000000000000        0.0000000000000000     
  -4.8911053488753398E-003   3.0223334538328063E-003   0.0000000000000000     
  -9.5735015899039502E-003   6.0608949881201636E-003   0.0000000000000000     
  -1.4047188723085831E-002   9.1156846028620717E-003   0.0000000000000000     
  -1.8312166748420979E-002   1.2186702298058532E-002   0.0000000000000000     
   0.0000000000000000        0.0000000000000000        0.0000000000000000     
  -6.0959644621257671E-003   3.7906166870975222E-003   0.0000000000000000     
  -1.1665941552381830E-002   7.3241843881180421E-003   0.0000000000000000     
  -1.6709931270768190E-002   1.0600703103061559E-002   0.0000000000000000     
  -2.1227933617284842E-002   1.3620172831928071E-002   0.0000000000000000     
  -1.2195217716668642E-002   9.2297771786292795E-003   0.0000000000000000     
  -1.5427565096173497E-002   1.2372525413918551E-002   0.0000000000000000     
  -1.8576959687703308E-002   1.5686055815327785E-002   0.0000000000000000     
  -2.1643401491258065E-002   1.9170368382856986E-002   0.0000000000000000     
  -2.4626890506837782E-002   2.2825463116506149E-002   0.0000000000000000     
  -1.3795808798112881E-002   9.9915044714091357E-003   0.0000000000000000     
  -1.7404002511300996E-002   1.3221967861064403E-002   0.0000000000000000     
  -2.0888521595131194E-002   1.6588682642781460E-002   0.0000000000000000     
  -2.4249366049603472E-002   2.0091648816560320E-002   0.0000000000000000     
  -2.7486535874717829E-002   2.3730866382400961E-002   0.0000000000000000     
  -1.5834791808696992E-002   1.0977146177885550E-002   0.0000000000000000     
  -1.9730356285915789E-002   1.4211902393833036E-002   0.0000000000000000     
  -2.3485787863225090E-002   1.7576979265630444E-002   0.0000000000000000     
  -2.7101086540624899E-002   2.1072376793277774E-002   0.0000000000000000     
  -3.0576252318115213E-002   2.4698094976775029E-002   0.0000000000000000     
  -1.8312166748420979E-002   1.2186702298058532E-002   0.0000000000000000     
  -2.2406626420017877E-002   1.5342329012224445E-002   0.0000000000000000     
  -2.6368758491985004E-002   1.8650945683874719E-002   0.0000000000000000     
  -3.0198562964322356E-002   2.2112552313009359E-002   0.0000000000000000     
  -3.3896039837029934E-002   2.5727148899628360E-002   0.0000000000000000     
  -2.1227933617284842E-002   1.3620172831928071E-002   0.0000000000000000     
  -2.5432812913607265E-002   1.6613247716238632E-002   0.0000000000000000     
  -2.9537433481410927E-002   1.9810581897514300E-002   0.0000000000000000     
  -3.3541795320695837E-002   2.3212175375755074E-002   0.0000000000000000     
  -3.7445898431461989E-002   2.6818028150960953E-002   0.0000000000000000     
  -2.4626890506837782E-002   2.2825463116506149E-002   0.0000000000000000     
  -2.7531662656127526E-002   2.6674090634089601E-002   0.0000000000000000     
  -3.0361953860812380E-002   3.0739001553421682E-002   0.0000000000000000     
  -3.3117764120892346E-002   3.5020195874502384E-002   0.0000000000000000     
  -3.5799093436367425E-002   3.9517673597331701E-002   0.0000000000000000     
  -2.7486535874717829E-002   2.3730866382400961E-002   0.0000000000000000     
  -3.0623133253347479E-002   2.7548861743870050E-002   0.0000000000000000     
  -3.3682260368365649E-002   3.1588161304534262E-002   0.0000000000000000     
  -3.6663917219772309E-002   3.5848765064393572E-002   0.0000000000000000     
  -3.9568103807567492E-002   4.0330673023447991E-002   0.0000000000000000     
  -3.0576252318115213E-002   2.4698094976775029E-002   0.0000000000000000     
  -3.3940669898266961E-002   2.8498657262246985E-002   0.0000000000000000     
  -3.7223723983651064E-002   3.2518587095818410E-002   0.0000000000000000     
  -4.0425414574267536E-002   3.6757884477489289E-002   0.0000000000000000     
  -4.3545741670116357E-002   4.1216549407259655E-002   0.0000000000000000     
  -3.3896039837029934E-002   2.5727148899628360E-002   0.0000000000000000     
  -3.7484272590885957E-002   2.9523477189220399E-002   0.0000000000000000     
  -4.0986344706668641E-002   3.3530278927274129E-002   0.0000000000000000     
  -4.4402256184378000E-002   3.7747554113789571E-002   0.0000000000000000     
  -4.7732007024014013E-002   4.2175302748766713E-002   0.0000000000000000     
  -3.7445898431461989E-002   2.6818028150960953E-002   0.0000000000000000     
  -4.1253941331204469E-002   3.0623321524790286E-002   0.0000000000000000     
  -4.4970122537418389E-002   3.4623236798901426E-002   0.0000000000000000     
  -4.8594442050103714E-002   3.8817773973294376E-002   0.0000000000000000     
  -5.2126899869260467E-002   4.3206933047969132E-002   0.0000000000000000     
  -3.5799093436367425E-002   3.9517673597331701E-002   0.0000000000000000     
  -3.8405578456628800E-002   4.4221772634808226E-002   0.0000000000000000     
  -4.0936855831067653E-002   4.9122830899830570E-002   0.0000000000000000     
  -4.3392925559683979E-002   5.4220848392398706E-002   0.0000000000000000     
  -4.5773787642477790E-002   5.9515825112512660E-002   0.0000000000000000     
  -3.9568103807567492E-002   4.0330673023447991E-002   0.0000000000000000     
  -4.2391597133255431E-002   4.5020134463667108E-002   0.0000000000000000     
  -4.5131174198340354E-002   4.9903398667020510E-002   0.0000000000000000     
  -4.7786835002822305E-002   5.4980465633508210E-002   0.0000000000000000     
  -5.0358579546701261E-002   6.0251335363130182E-002   0.0000000000000000     
  -4.3545741670116357E-002   4.1216549407259655E-002   0.0000000000000000     
  -4.6580211052991233E-002   4.5881838648134242E-002   0.0000000000000000     
  -4.9524328504685855E-002   5.0741008963117791E-002   0.0000000000000000     
  -5.2378094025200231E-002   5.5794060352210295E-002   0.0000000000000000     
  -5.5141507614534360E-002   6.1040992815411782E-002   0.0000000000000000     
  -4.7732007024014013E-002   4.2175302748766713E-002   0.0000000000000000     
  -5.0971420215836227E-002   4.6806885188209621E-002   0.0000000000000000     
  -5.4116318750104128E-002   5.1635661788122386E-002   0.0000000000000000     
  -5.7166702626817764E-002   5.6661632548504988E-002   0.0000000000000000     
  -6.0122571845977094E-002   6.1884797469357447E-002   0.0000000000000000     
  -5.2126899869260467E-002   4.3206933047969132E-002   0.0000000000000000     
  -5.5565224621790373E-002   4.7795274083893259E-002   0.0000000000000000     
  -5.8907144934595181E-002   5.2587357142034302E-002   0.0000000000000000     
  -6.2152660807674877E-002   5.7583182222392282E-002   0.0000000000000000     
  -6.5301772241029468E-002   6.2782749324967191E-002   0.0000000000000000     
  -4.5773787642477790E-002   5.9515825112512660E-002   0.0000000000000000     
  -4.8081469900360788E-002   6.5000047853536899E-002   0.0000000000000000     
  -5.0318000154244688E-002   7.0665803408835895E-002   0.0000000000000000     
  -5.2483378404129505E-002   7.6513091778409648E-002   0.0000000000000000     
  -5.4577604650015210E-002   8.2541912962258171E-002   0.0000000000000000     
  -5.0358579546701261E-002   6.0251335363130182E-002   0.0000000000000000     
  -5.2850603085727713E-002   6.5710315429937757E-002   0.0000000000000000     
  -5.5267100875652182E-002   7.1351713407982215E-002   0.0000000000000000     
  -5.7608072916474663E-002   7.7175529297263568E-002   0.0000000000000000     
  -5.9873519208195163E-002   8.3181763097781830E-002   0.0000000000000000     
  -5.5141507614534360E-002   6.1040992815411782E-002   0.0000000000000000     
  -5.7819686265817669E-002   6.6475888344940559E-002   0.0000000000000000     
  -6.0417746972179609E-002   7.2092828933014955E-002   0.0000000000000000     
  -6.2935689733620168E-002   7.7891814579635010E-002   0.0000000000000000     
  -6.5373514550139358E-002   8.3872845284800698E-002   0.0000000000000000     
  -6.0122571845977094E-002   6.1884797469357447E-002   0.0000000000000000     
  -6.2988719440630656E-002   6.7296766598545305E-002   0.0000000000000000     
  -6.5769938443826975E-002   7.2889149983934143E-002   0.0000000000000000     
  -6.8466228855566025E-002   7.8661947625523948E-002   0.0000000000000000     
  -7.1077590675847804E-002   8.4615159523314734E-002   0.0000000000000000     
  -6.5301772241029468E-002   6.2782749324967191E-002   0.0000000000000000     
  -6.8357702610166687E-002   6.8172950190751994E-002   0.0000000000000000     
  -7.1323675290594274E-002   7.3740676560739737E-002   0.0000000000000000     
  -7.4199690282312214E-002   7.9485928434930395E-002   0.0000000000000000     
  -7.6985747585320508E-002   8.5408705813323965E-002   0.0000000000000000     
  -5.4577604650015210E-002   8.2541912962258171E-002   0.0000000000000000     
  -5.6596478553333697E-002   8.8739993417665280E-002   0.0000000000000000     
  -5.8535799775516782E-002   9.5095059601914736E-002   0.0000000000000000     
  -6.0395568316564487E-002  0.10160711151500659        0.0000000000000000     
  -6.2175784176476817E-002  0.10827614915694078        0.0000000000000000     
  -5.9873519208195163E-002   8.3181763097781830E-002   0.0000000000000000     
  -6.2058001961146345E-002   8.9357525068892718E-002   0.0000000000000000     
  -6.4156083385660881E-002   9.5689925469951920E-002   0.0000000000000000     
  -6.6167763481738778E-002  0.10217896430095949        0.0000000000000000     
  -6.8093042249380009E-002  0.10882464156191536        0.0000000000000000     
  -6.5373514550139358E-002   8.3872845284800698E-002   0.0000000000000000     
  -6.7724709964079907E-002   9.0023378694429085E-002   0.0000000000000000     
  -6.9982764517784513E-002   9.6330872454437250E-002   0.0000000000000000     
  -7.2147678211253202E-002  0.10279532656482525        0.0000000000000000     
  -7.4219451044485962E-002  0.10941674102559301        0.0000000000000000     
  -7.1077590675847804E-002   8.4615159523314734E-002   0.0000000000000000     
  -7.3596602562134364E-002   9.0737554294274353E-002   0.0000000000000000     
  -7.6015843171887698E-002   9.7017900555370767E-002   0.0000000000000000     
  -7.8335312505107793E-002  0.10345619830660388        0.0000000000000000     
  -8.0555010561794663E-002  0.11005244754797379        0.0000000000000000     
  -7.6985747585320508E-002   8.5408705813323965E-002   0.0000000000000000     
  -7.9673679755309729E-002   9.1500051868428606E-002   0.0000000000000000     
  -8.2255319347970396E-002   9.7751009772752417E-002   0.0000000000000000     
  -8.4730666363302537E-002  0.10416157952629547        0.0000000000000000     
  -8.7099720801306124E-002  0.11073176112905769        0.0000000000000000     
  -6.2175784176476817E-002  0.10827614915694078        0.0000000000000000     
  -6.3884630448970511E-002  0.11509079305843180        0.0000000000000000     
  -6.5530290227762328E-002  0.12203966375019405        0.0000000000000000     
  -6.7112763512852253E-002  0.12912276123222749        0.0000000000000000     
  -6.8632050304240300E-002  0.13634008550453217        0.0000000000000000     
  -6.8093042249380009E-002  0.10882464156191536        0.0000000000000000     
  -6.9940408770627002E-002  0.11561583587842053        0.0000000000000000     
  -7.1718352127522172E-002  0.12254142587607596        0.0000000000000000     
  -7.3426872320065492E-002  0.12960141155488164        0.0000000000000000     
  -7.5065969348257003E-002  0.13679579291483759        0.0000000000000000     
  -7.4219451044485962E-002  0.10941674102559301        0.0000000000000000     
  -7.6207573516830926E-002  0.11618369015519776        0.0000000000000000     
  -7.8121536127636268E-002  0.12308474827209669        0.0000000000000000     
  -7.9961338876902030E-002  0.13011991537628975        0.0000000000000000     
  -8.1726981764628129E-002  0.13728919146777702        0.0000000000000000     
  -8.0555010561794663E-002  0.11005244754797379        0.0000000000000000     
  -8.2686124687582283E-002  0.11679435588876355        0.0000000000000000     
  -8.4739842228104670E-002  0.12366963093825624        0.0000000000000000     
  -8.6716163183361811E-002  0.13067827269645185        0.0000000000000000     
  -8.8615087553353677E-002  0.13782028116335041        0.0000000000000000     
  -8.7099720801306124E-002  0.11073176112905769        0.0000000000000000     
  -8.9376062282881086E-002  0.11744783307911782        0.0000000000000000     
  -9.1573270428927322E-002  0.12429607387455457        0.0000000000000000     
  -9.3691345239444848E-002  0.13127648351536789        0.0000000000000000     
  -9.5730286714433649E-002  0.13838906200155782        0.0000000000000000     
  -6.8632050304240300E-002  0.13634008550453217        0.0000000000000000     
  -7.0077099090381498E-002  0.14367893953488159        0.0000000000000000     
  -7.1436858359730931E-002  0.15112662629104931        0.0000000000000000     
  -7.2711328112288545E-002  0.15868314577303524        0.0000000000000000     
  -7.3900508348054367E-002  0.16634849798083950        0.0000000000000000     
  -7.5065969348257003E-002  0.13679579291483759        0.0000000000000000     
  -7.6624470885481244E-002  0.14411146347767462        0.0000000000000000     
  -7.8091204605122796E-002  0.15153531676512363        0.0000000000000000     
  -7.9466170507181660E-002  0.15906735277718462        0.0000000000000000     
  -8.0749368591657822E-002  0.16670757151385748        0.0000000000000000     
  -8.1726981764628129E-002  0.13728919146777702        0.0000000000000000     
  -8.3406589689985391E-002  0.14457977376178441        0.0000000000000000     
  -8.4988287552144590E-002  0.15197885947353790        0.0000000000000000     
  -8.6472075351105709E-002  0.15948644860303762        0.0000000000000000     
  -8.7857953086868751E-002  0.16710254115028339        0.0000000000000000     
  -8.8615087553353677E-002  0.13782028116335041        0.0000000000000000     
  -9.0423455503893982E-002  0.14508387038721085        0.0000000000000000     
  -9.2128107200796311E-002  0.15245725441629215        0.0000000000000000     
  -9.3729042644060720E-002  0.15994043325059429        0.0000000000000000     
  -9.5226261833687195E-002  0.16753340689011723        0.0000000000000000     
  -9.5730286714433649E-002  0.13838906200155782        0.0000000000000000     
  -9.7675068327206960E-002  0.14562375335395406        0.0000000000000000     
  -9.9510663551077960E-002  0.15297050159338632        0.0000000000000000     
 -0.10123707238604669       0.16042930671985461        0.0000000000000000     
 -0.10285429483211311       0.16800016873335896        0.0000000000000000     
 </DataArray>
 <DataArray  type="Float64" Name="stress" NumberOfComponents="3" format="ascii">
   13416702905.911581        4025010871.7734742        2894135024.9029374     
   11766430225.668415        1890421116.0103066        1715894464.8375430     
   10313454828.055439        413488969.01444435        810758838.88323057     
   9057776713.0726547       -405785569.21411276        178728147.04000130     
   7999395880.7200651       -567402498.67536306       -180197610.69214857     
   10539871443.958372        3161961433.1875114        2225885104.9072409     
   9667419371.3319550        1589526146.8935330        1446804459.9820807     
   8943620764.0630512        512602411.79126358        863214470.77352655     
   8368475622.1516609       -68809772.119298458        475115137.28157747     
   7941983945.5977821       -154710404.83815098        282506459.50623560     
   8337789842.9898596        2501336952.8969579        1712475470.8273370     
   8021403296.8531199        1424529611.7340474        1275803620.8909521     
   7805026398.8012123        681087764.18724728        957008148.27669632     
   7688659148.8341398        271011410.25655937        756089052.98457122     
   7672301546.9519005        194300549.94198084        673046335.01457489     
   6810458103.0060492        2043137430.9018147        1353906122.6632261     
   6828382002.2319107        1395431510.5318494        1202891947.5641572     
   6897671732.2699261        918945026.20239758        1092139871.3927412     
   7018327293.1200953        613677977.91345882        1021649894.1489795     
   7190348684.7824192        479630365.66503429        991422015.83287072     
   5957876224.0069361        1787362867.2020807        1150177060.4149082     
   6088355487.4683237        1502231843.2869377        1228069440.0016961     
   6221556764.4691877        1226174197.8367114        1268609640.1216612     
   6357480055.0095253        959189930.85140097        1271797660.7748039     
   6496125359.0893383        701279042.33100677        1237633501.9611239     
   7999395880.7200651       -567402498.67536306       -180197610.69214857     
   7917152722.6901731       -199890497.91865253       -78232719.255637035     
   7793406322.4176626        29277362.029331684       -8908312.7016960476     
   7628156679.9025335        120101081.16858578        27775608.969669346     
   7421403795.1447859        72580659.499109745        31819045.758465629     
   7941983945.5977821       -154710404.83815098        282506459.50623560     
   7739275409.9417067        16491112.767536640        281275110.32825965     
   7513166513.1403332        109691426.55557632        265320990.12449005     
   7263657255.1936722        124890536.52597713        234644098.89492568     
   6990747636.1017160        62088442.678732872        189244436.63956431     
   7672301546.9519005        194300549.94198084        673046335.01457489     
   7400321101.8318577        184549624.84530926        589738773.16899347     
   7123043176.6638489        157140432.92207813        509626154.15439284     
   6840467771.4478712        112072974.17228675        432708477.97077519     
   6552594886.1839275        49347248.595939875        358985744.61813986     
   7190348684.7824192        479630365.66503429        991422015.83287072     
   6900289798.3606319        304285038.31466889        847158269.26656199     
   6623036312.9882021        171624381.12882948        724007179.38801241     
   6358588228.6651297        81648394.107516766        621968746.19722056     
   6106945545.3914156        34357077.250730515        541042969.69418836     
   6496125359.0893383        701279042.33100677        1237633501.9611239     
   6239181499.5280266        375697353.17561555        1053533598.6209680     
   6013145922.1133957        153143271.17583418        908464065.82534659     
   5818018626.8454485        33616796.331664562        802424903.57426345     
   5653799613.7241859        17117928.643105507        735416111.86771393     
   7421403795.1447859        72580659.499109745        31819045.758465629     
   7217733822.8845139       -18404410.959887505        14697274.739737637     
   7026299275.8083344       -68604730.805236816        2119266.0749977175     
   6847100153.9162493       -78020300.036942005       -5914980.2357498072     
   6680136457.2082577       -46651118.655003071       -9405464.1925070193     
   6990747636.1017160        62088442.678732872        189244436.63956431     
   6807460846.9137115        2560560.9868407249        180870865.26551795     
   6632005647.3440752       -30862021.977157116        176373551.87758553     
   6464382037.3928137       -38179306.213243246        175752496.47576535     
   6304590017.0599174       -19391291.721439362        179007699.06006500     
   6552594886.1839275        49347248.595939875        358985744.61813986     
   6387784124.7314014        20704409.070111752        354222564.72876060     
   6226401117.3315258        3487416.3864421844        352668138.45762533     
   6068445863.9842968       -2303729.4550750256        354322465.80473047     
   5913918364.6897078        3330971.5455567837        359185546.77007109     
   6106945545.3914156        34357077.250730515        541042969.69418836     
   5958703656.3375912        36027133.289935589        534752373.12947077     
   5809485685.7706852        34443584.285547256        531003025.81511718     
   5659291633.6907063        29606430.237572193        529794927.75113010     
   5508121500.0976467        21515671.146000624        531128078.93751121     
   5653799613.7241859        17117928.643105507        735416111.86771393     
   5520219441.7322712        48528733.646305561        722460290.46764362     
   5381259352.6615553        62006481.720169067        711378213.95006597     
   5236919346.5120401        57551172.864699364        702169882.31497490     
   5087199423.2837229        35162807.079887152        694835295.56237781     
   6680136457.2082577       -46651118.655003071       -9405464.1925070193     
   6507121610.8588161       -6378859.9495720863       -3611062.4064111807     
   6328938430.8962116        16665620.045315027        2739629.8830483905     
   6145586917.3204527        22482321.329682827        9646612.6758748982     
   5957067070.1315250        11071243.903491259        17109885.972067699     
   6304590017.0599174       -19391291.721439362        179007699.06006500     
   6129527314.6079569        1960174.0680506229        175512173.55405456     
   5951343784.6915083        12908881.642587423        174251420.44642153     
   5770039427.3105850        13454831.002195597        175225439.73715806     
   5585614242.4651737        3598022.1468620300        178434231.42626977     
   5913918364.6897078        3330971.5455567837        359185546.77007109     
   5741603468.6923990        7200343.1862566471        348788851.14541298     
   5568215251.3792801        7491977.1076061726        342305409.81413972     
   5393753712.7503605        4205873.3096151352        339735222.77624661     
   5218218852.8056345       -2657968.2077260017        341078290.03174102     
   5508121500.0976467        21515671.146000624        531128078.93751121     
   5343350073.1121473        9341647.4050614834        516218970.36766559     
   5179552830.9595251        414906.44036817551        506901597.98620844     
   5016729773.6397753       -5264551.7480781078        503175961.79314762     
   4854880901.1528969       -7696727.1602785587        505042061.78847098     
   5087199423.2837229        35162807.079887152        694835295.56237781     
   4934767127.8672047        8384086.7244570255        677802531.22079992     
   4785356523.4322405       -8322330.3591282368        668039984.96262121     
   4638967609.9788265       -14956444.170878410        665547656.78784406     
   4495600387.5069685       -11518254.710783958        670325546.69646549     
   5957067070.1315250        11071243.903491259        17109885.972067699     
   5780678293.6397200       -1162133.9902579784        7388641.8426525835     
   5606516122.1830349       -5973495.1002840996        1461851.4585282935     
   5434580555.7614536       -3362839.4266321659       -670485.18030421017     
   5264871594.3749847        6669833.0307404995        991631.92616243870     
   5585614242.4651737        3598022.1468620300        178434231.42626977     
   5420569371.2954035       -3008561.6220822334        172185664.04343382     
   5256954864.5024290       -4847264.1350159645        169570232.98036298     
   5094770722.0862637       -1918085.3919146061        170587938.23707274     
   4934016944.0469112        5778974.6072068214        175238779.81354856     
   5218218852.8056345       -2657968.2077260017        341078290.03174102     
   5064056980.0278215       -3776029.9309055805        337373451.96078664     
   4910529230.9685183       -2780345.9257333279        337140432.78408682     
   4757635605.6277161        329083.80778813362        340379232.50163794     
   4605376104.0054131        5552259.2696454525        347089851.11344510     
   4854880901.1528969       -7696727.1602785587        505042061.78847098     
   4711141119.8369980       -3464538.9166934490        502952005.59471494     
   4567239221.5812988        227259.52756333351        504172450.86969644     
   4423175206.3857965        3378668.1724796295        508703397.61340719     
   4278949074.2504988        5989687.0180592537        516544845.82585049     
   4495600387.5069685       -11518254.710783958        670325546.69646549     
   4361821790.7229223       -2074088.5794570446        668921324.94522357     
   4227084836.3407717        4175552.2248551846        670666287.23718917     
   4091389524.3605232        7230667.7021677494        675560433.57237291     
   3954735854.7821622        7091257.8524429798        683603763.95076811     
   5264871594.3749847        6669833.0307404995        991631.92616243870     
   5061179734.5636787        7969483.8025994301       -6289850.4796058917     
   4856225125.4372072        5059970.1905927658       -8795890.4187800642     
   4650007766.9955807       -2058707.8052737713       -6526487.8913741708     
   4442527659.2387962       -13386550.185001850        518357.10263356753     
   4934016944.0469112        5778974.6072068214        175238779.81354856     
   4742242332.8553038        5066451.4359676838        167546308.46909794     
   4549628566.1497116        1556743.2181086540        164709856.81392607     
   4356175643.9301605       -4750150.0462961197        166729424.84804538     
   4161883566.1966243       -13854228.357294559        173605012.57142997     
   4605376104.0054131        5552259.2696454525        347089851.11344510     
   4425748962.0697613        2896628.3461670876        339480583.59836090     
   4245706258.4213181       -1144208.2866113186        336807912.99524957     
   4065247993.0600801       -6570250.6287031174        339071839.30410266     
   3884374165.9860587       -13381498.680085421        346272362.52492636     
   4278949074.2504988        5989687.0180592537        516544845.82585049     
   4111699622.2070494        1460014.5332314968        509512974.90818554     
   3944458202.2519960       -3042884.3236336708        507498278.12517202     
   3777224814.3853412       -7519009.5525047779        510500755.47681814     
   3609999458.6070676       -11968361.153413773        518520406.96312141     
   3954735854.7821622        7091257.8524429798        683603763.95076811     
   3800094313.2671733        756609.99713182449        677643482.39856207     
   3645884397.6417651       -4139284.8929190636        676780952.20370185     
   3492106107.9059377       -7596426.8177049160        681016173.36618817     
   3338759444.0596743       -9614815.7772598267        690349145.88601768     
   4442527659.2387962       -13386550.185001850        518357.10263356753     
   4292170399.7377229       -8124079.5995485783       -9950338.9831539635     
   4142715532.5112324        146365.23452258110       -19690350.274662677     
   3994163057.5593410        11424784.317264795       -28701676.771899626     
   3846512974.8820329        25711177.648595333       -36984318.474866726     
   4161883566.1966243       -13854228.357294559        173605012.57142997     
   4014687064.3535376       -9171085.6072540283        165671871.02159345     
   3868104585.0313826       -2441201.1207764149        159575087.76103544     
   3722136128.2301636        6335425.1021492481        155314662.78974923     
   3576781693.9498897        17158793.061560392        152890596.10773706     
   3884374165.9860587       -13381498.680085421        346272362.52492636     
   3743503203.2152405       -8328249.3411929607        340538344.13177401     
   3602957893.2117047       -2189490.7780237198        337748357.52290338     
   3462738235.9754448        5034777.0093977451        337902402.69830364     
   3322844231.5064840        13344554.021146536        341000479.65798497     
   3609999458.6070676       -11968361.153413773        518520406.96312141     
   3478618816.3228121       -5595570.8013780117        514649080.34739870     
   3347275457.0521908        901496.26276469231        514829459.01094925     
   3215969380.7951941        7522840.0390003920        519061542.95378435     
   3084700587.5518308        14268460.527338505        527345332.17588466     
   3338759444.0596743       -9614815.7772598267        690349145.88601768     
   3220033903.6762724       -973049.98779308796        688004079.66845870     
   3101057276.5528493        6831760.0016083717        690818392.22517097     
   2981829562.6893969        13799614.190916419        698792083.55616283     
   2862350762.0859351        19930512.580181122        711925153.66144252     
   3846512974.8820329        25711177.648595333       -36984318.474866726     
   3635035939.5817132        19580574.699118376       -57796798.905647323     
   3421819867.7250967        7653183.2286512852       -74693870.079055846     
   3206864759.3121920       -10070996.762776852       -87675531.995095506     
   2990170614.3429899       -33591965.275195122       -96741784.653736189     
   3576781693.9498897        17158793.061560392        152890596.10773706     
   3375640381.3657508        10471693.866757870        136059566.60585871     
   3173374450.4388933        35866.862869739532        123392105.99259926     
   2969983901.1693201       -14148687.950062513        114888214.26794714     
   2765468733.5570154       -32081970.572077513        110547891.43189853     
   3322844231.5064840        13344554.021146536        341000479.65798497     
   3132747669.1563349        6313666.8363612890        328867722.33419651     
   2942140906.6770296       -2417887.4455960989        321146693.53025067     
   2751023944.0685768       -12850108.824723125        317837393.24614203     
   2559396781.3309803       -24982997.300978541        318939821.48186898     
   3084700587.5518308        14268460.527338505        527345332.17588466     
   2906357802.9534559        7106493.6078993082        520627668.27935833     
   2728119236.4395103        291920.30321443081        518569892.53389937     
   2549984888.0099931       -6175259.3866958618        521172004.93950665     
   2371954757.6648908       -12295045.461889029        528434005.49616748     
   2862350762.0859351        19930512.580181122        711925153.66144252     
   2696470782.7571340        12850174.181427479        711339404.44133651     
   2531309439.7263379        8165290.1093499660        715661703.00353289     
   2366866732.9935393        5875860.3639323711        724892049.34802091     
   2203142662.5587358        5981884.9451808929        739030443.47480679     
   5957876224.0069361        1787362867.2020807        1150177060.4149082     
   6088355487.4683237        1502231843.2869377        1228069440.0016961     
   6221556764.4691877        1226174197.8367114        1268609640.1216612     
   6357480055.0095253        959189930.85140097        1271797660.7748039     
   6496125359.0893383        701279042.33100677        1237633501.9611239     
   5434626566.4196529        1630387969.9258957        1033596981.7052451     
   5489902073.5399647        1372483559.7217355        1114012722.6879008     
   5547370651.0744963        1121889384.2316358        1167648535.0955551     
   5607032299.0232439        878605443.45559704        1194504418.9282086     
   5668887017.3862114        642631737.39361906        1194580374.1858602     
   4895291490.6713295        1468587447.2013988        936474584.15709925     
   4905569672.5700550        1246971580.0440676        1018796586.2228227     
   4917511981.7577429        1030902803.8499422        1084910910.6053669     
   4931118418.2343941        820381118.61902261        1134817557.3047316     
   4946388982.0000038        615406524.35130775        1168516526.3209171     
   4339870996.7619638        1301961299.0285890        858809867.77047050     
   4335358284.5585957        1125695904.2539351        942421030.60646296     
   4331980756.5189314        953214456.69163096        1020396766.6510972     
   4329738412.6429720        784516956.34167671        1092737075.9043736     
   4328631252.9307194        619603403.20407307        1159441958.3662927     
   3768365084.6915588        1130509525.4074676        800602832.54535854     
   3779267909.5055852        1008656532.3513372        884886055.83882046     
   3790776975.3580589        888824342.75670159        974106103.23274577     
   3802892282.2489810        771012956.62356007        1068262974.7271351     
   3815613830.1783528        655222373.95191360        1167356670.3219876     
   6496125359.0893383        701279042.33100677        1237633501.9611239     
   6239181499.5280266        375697353.17561555        1053533598.6209680     
   6013145922.1133957        153143271.17583418        908464065.82534659     
   5818018626.8454485        33616796.331664562        802424903.57426345     
   5653799613.7241859        17117928.643105507        735416111.86771393     
   5668887017.3862114        642631737.39361906        1194580374.1858602     
   5518941843.0540285        383062680.71496654        1073759560.2578144     
   5393140708.5440207        203973756.77691293        980981372.31300867     
   5291483613.8561945        105364965.57945704        916245810.35144043     
   5213970558.9905491        87236307.122601032        879552874.37310982     
   4946388982.0000038        615406524.35130775        1168516526.3209171     
   4872048937.0075274        412432033.38256741        1103083185.7597280     
   4815088689.5127277        267390200.73941541        1054704726.6204803     
   4775508239.5156021        180281026.42184997        1023381148.9031744     
   4753307587.0161543        151104510.42987037        1009112452.6078113     
   4328631252.9307194        619603403.20407307        1159441958.3662927     
   4298502781.3885298        463805411.17841899        1141504475.1267059     
   4278989865.0195131        343392603.06334150        1129634128.7477636     
   4270092503.8236718        258364978.85883904        1123830919.2294662     
   4271810697.8009996        208722538.56491232        1124094846.5718131     
   3815613830.1783528        655222373.95191360        1167356670.3219876     
   3798303376.1970325        537182814.10252059        1189023428.3587492     
   3784844235.0643806        431980963.74869215        1205769578.6948586     
   3775236406.7803993        339616822.89042926        1217595121.3303146     
   3769479891.3450861        260090391.52772510        1224500056.2651200     
   5653799613.7241859        17117928.643105507        735416111.86771393     
   5520219441.7322712        48528733.646305561        722460290.46764362     
   5381259352.6615553        62006481.720169067        711378213.95006597     
   5236919346.5120401        57551172.864699364        702169882.31497490     
   5087199423.2837229        35162807.079887152        694835295.56237781     
   5213970558.9905491        87236307.122601032        879552874.37310982     
   5077928093.7437010        84950269.600143909        855996899.46078551     
   4939764518.8167086        75593866.477215767        836449302.36040151     
   4799479834.2095747        59167097.753814459        820910083.07195938     
   4657074039.9223042        35669963.429945230        809379241.59546101     
   4753307587.0161543        151104510.42987037        1009112452.6078113     
   4620901779.7413750        116951315.74985647        978758266.14833033     
   4489633670.1851139        86590446.798235416        954547090.43024743     
   4359503258.3473721        60021903.575011015        936478925.45355582     
   4230510544.2281485        37245686.080179930        924553771.21825933     
   4271810697.8009996        208722538.56491232        1124094846.5718131     
   4149140499.7252951        144531872.09544134        1090744390.5302844     
   4030866806.7667670        94996222.683228254        1065671578.1596012     
   3916989618.9254193        60115590.328280926        1048876409.4597641     
   3807508936.2012486        39889975.030591726        1040358884.4307737     
   3769479891.3450861        260090391.52772510        1224500056.2651200     
   3662644253.6954613        167691938.63690209        1191955272.6066437     
   3563463928.5616741        100811194.13220286        1169822765.5484655     
   3471938915.9437251        59448158.013630629        1158102535.0905833     
   3388069215.8416133        43602830.281183600        1156794581.2330000     
   5087199423.2837229        35162807.079887152        694835295.56237781     
   4934767127.8672047        8384086.7244570255        677802531.22079992     
   4785356523.4322405       -8322330.3591282368        668039984.96262121     
   4638967609.9788265       -14956444.170878410        665547656.78784406     
   4495600387.5069685       -11518254.710783958        670325546.69646549     
   4657074039.9223042        35669963.429945230        809379241.59546101     
   4524137924.2436008        15173538.834448814        796158001.19730914     
   4393428284.9345789        2098702.1378893852        789213843.49255168     
   4264945121.9952378       -3554546.6597230434        788546768.48118746     
   4138688435.4255824       -1786207.5583989620        794156776.16322017     
   4230510544.2281485        37245686.080179930        924553771.21825933     
   4114233078.6015272        22180298.338897705        914216304.38301647     
   3999386874.7327194        11885783.123655796        909162784.85116386     
   3885971932.6217256        6362140.4344542027        909393212.62270367     
   3773988252.2685423        5609370.2712922096        914907587.69763052     
   3807508936.2012486        39889975.030591726        1040358884.4307737     
   3705052590.9409876        29404365.237807512        1031977440.7779249     
   3603232292.8266702        21038912.598165274        1027886809.0384632     
   3502048041.8582911        14793617.111658096        1028086989.2123870     
   3401499838.0358553        10668478.778286695        1032577981.2996951     
   3388069215.8416133        43602830.281183600        1156794581.2330000     
   3296596461.2619820        36845739.531176925        1149441410.3820343     
   3204964539.2164207        29558090.561406493        1145385916.0544457     
   3113173449.7049322        21739883.371879339        1144628098.2502391     
   3021223192.7275167        13391117.962590218        1147167956.9694147     
   4495600387.5069685       -11518254.710783958        670325546.69646549     
   4361821790.7229223       -2074088.5794570446        668921324.94522357     
   4227084836.3407717        4175552.2248551846        670666287.23718917     
   4091389524.3605232        7230667.7021677494        675560433.57237291     
   3954735854.7821622        7091257.8524429798        683603763.95076811     
   4138688435.4255824       -1786207.5583989620        794156776.16322017     
   4012304837.2442465        2613801.8032374382        789472742.51521635     
   3885455033.2935424        5459791.9336485863        788492021.46524107     
   3758139023.5734777        6751762.8328490257        791214613.01329780     
   3630356808.0840416        6489714.5008225441        797640517.15938509     
   3773988252.2685423        5609370.2712922096        914907587.69763052     
   3656582877.1322489        5440190.1959271431        907517919.28639495     
   3539203448.0553322        5357496.9851424694        904385692.02800596     
   3421849965.0377884        5361290.6389355659        905510905.92246723     
   3304522428.0796161        5451571.1573085785        910893560.96977329     
   3401499838.0358553        10668478.778286695        1032577981.2996951     
   3294655910.3869429        6405076.5986268520        1023056855.2587577     
   3188330080.6261382        3868667.3793388605        1018347298.9254823     
   3082522348.7534513        3059251.1204283237        1018449312.2998765     
   2977232714.7688723        3976827.8218952417        1023362895.3819323     
   3021223192.7275167        13391117.962590218        1147167956.9694147     
   2926523937.0083151        5508461.0113300085        1136089550.4323022     
   2832834931.0059671        993303.11624598503        1130376842.1576746     
   2740156174.7204700       -154355.72266948223        1130029832.1455269     
   2648487668.1518278        2065484.4945985079        1135048520.3958657     
   3954735854.7821622        7091257.8524429798        683603763.95076811     
   3800094313.2671733        756609.99713182449        677643482.39856207     
   3645884397.6417651       -4139284.8929190636        676780952.20370185     
   3492106107.9059377       -7596426.8177049160        681016173.36618817     
   3338759444.0596743       -9614815.7772598267        690349145.88601768     
   3630356808.0840416        6489714.5008225441        797640517.15938509     
   3489258032.9929600        1967860.4530854225        791494579.82178223     
   3348450845.3183494       -1582035.5397400856        790250066.72808695     
   3207935245.0602136       -4159973.4776549339        793906977.87830210     
   3067711232.2185497       -5765953.3606604338        802465313.27242649     
   3304522428.0796161        5451571.1573085785        910893560.96977329     
   3176405484.8026142        2574230.5341917276        904398589.62815404     
   3048440090.4689856        202053.05564832687        902608715.41700375     
   2920626245.0787296       -1664961.2783262730        905523938.33632731     
   2792963948.6318369       -3026812.4677393436        913144258.38612461     
   2977232714.7688723        3976827.8218952417        1023362895.3819323     
   2861536668.6961417        2575720.2404674292        1016355511.8176733     
   2745852133.0936742        1212980.8932555914        1013856898.2704499     
   2630179107.9614768       -111390.21972393990        1015867054.7402655     
   2514517593.2995396       -1397393.0984911919        1022385981.2271141     
   2648487668.1518278        2065484.4945985079        1135048520.3958657     
   2544651584.6735392        1972329.5718953609        1127365346.3903472     
   2440686973.1924152        1450747.9730769396        1123994615.2884300     
   2336593833.7084546        500739.69813358784        1124936327.0901141     
   2232372166.2216611       -877695.25292062759        1130190481.7953930     
   3338759444.0596743       -9614815.7772598267        690349145.88601768     
   3220033903.6762724       -973049.98779308796        688004079.66845870     
   3101057276.5528493        6831760.0016083717        690818392.22517097     
   2981829562.6893969        13799614.190916419        698792083.55616283     
   2862350762.0859351        19930512.580181122        711925153.66144252     
   3067711232.2185497       -5765953.3606604338        802465313.27242649     
   2961553763.2520270        3172324.8712718487        798274022.72059965     
   2855318527.7167606        11851381.207390547        798522674.68998659     
   2749005525.6127524        20271215.647699594        803211269.18058693     
   2642614756.9400024        28431828.192209363        812339806.19240165     
   2792963948.6318369       -3026812.4677393436        913144258.38612461     
   2697319018.9305859        5591318.5611697435        907308950.36652505     
   2601769642.8318663        14527961.598534107        905194148.61507273     
   2506315820.3356810        23783116.644348025        906799853.13177264     
   2410957551.4420419        33356783.698630810        912126063.91662002     
   2514517593.2995396       -1397393.0984911919        1022385981.2271141     
   2427329670.7119436        6283931.0819115639        1015108862.6062320     
   2340410621.8981667        14861501.175037742        1010832814.0004356     
   2253760446.8582025        24335317.180884480        1009557835.4097304     
   2167379145.5920587        34705379.099454641        1011283926.8341094     
   2232372166.2216611       -877695.25292062759        1130190481.7953930     
   2151585718.5961132        5250162.4334985018        1121673759.4397256     
   2071241464.9156580        12851999.936892986        1115438670.8460782     
   1991339405.1802971        21927817.257272840        1111485216.0144558     
   1911879539.3900359        32477614.394649744        1109813394.9448555     
   2862350762.0859351        19930512.580181122        711925153.66144252     
   2696470782.7571340        12850174.181427479        711339404.44133651     
   2531309439.7263379        8165290.1093499660        715661703.00353289     
   2366866732.9935393        5875860.3639323711        724892049.34802091     
   2203142662.5587358        5981884.9451808929        739030443.47480679     
   2642614756.9400024        28431828.192209363        812339806.19240165     
   2489445026.8338041        23182675.100044250        808055394.49188018     
   2336764440.9623046        19564002.790205479        808217468.57108510     
   2184572999.3255019        17575811.262685537        812826028.43000960     
   2032870701.9233899        17218100.517489433        821881074.06866348     
   2410957551.4420419        33356783.698630810        912126063.91662002     
   2269179321.9796772        29543191.339424133        903875248.99516189     
   2127660744.6887021        26595106.218189716        899609357.85085487     
   1986401819.5691245        24512528.334943295        899328390.48370016     
   1845402546.6209447        23295457.689674973        903032346.89370835     
   2167379145.5920587        34705379.099454641        1011283926.8341094     
   2035673668.1947451        31931722.899554491        998798967.95118701     
   1903998350.9055357        29258600.393305063        989837370.84284747     
   1772353193.7244174        26686011.580708861        984399135.50909245     
   1640738196.6513803        24213956.461724699        982484261.94992816     
   1911879539.3900359        32477614.394649744        1109813394.9448555     
   1788928065.4790275        30348269.780466199        1092826551.3599463     
   1665777259.6127968        27554485.315547884        1078901507.5470624     
   1542427121.7913663        24096260.999949455        1068038263.5061969     
   1418877652.0147152        19973596.833637536        1060236819.2373343     
   3768365084.6915588        1130509525.4074676        800602832.54535854     
   3779267909.5055852        1008656532.3513372        884886055.83882046     
   3790776975.3580589        888824342.75670159        974106103.23274577     
   3802892282.2489810        771012956.62356007        1068262974.7271351     
   3815613830.1783528        655222373.95191360        1167356670.3219876     
   3207941588.9796095        962382476.69388282        756703550.28166175     
   3236052604.1528974        868163794.94166112        853059974.94916070     
   3263887339.3646679        773024179.98437870        951339496.26088059     
   3291445794.6149197        676963631.82203579        1051542114.2168210     
   3318727969.9036536        579982150.45463169        1153667828.8169823     
   2685768344.1456094        805730503.24368274        721962092.77927744     
   2722476899.8031807        736562937.83287609        829362110.98751938     
   2758026654.4992676        663532702.55045319        935671498.38373899     
   2792417608.2338686        586639797.39641404        1040890254.9679365     
   2825649761.0069847        505884222.37075859        1145018380.7401123     
   2201845350.1895614        660553605.05686843        696378460.03820586     
   2238540796.4564357        613853961.02498269        813792463.95389605     
   2273194920.7618585        560349910.45492530        927102109.60132146     
   2305807723.1058302        500041453.34669644        1036307396.9804815     
   2336379203.4883499        432928589.70029563        1141408326.0913765     
   1756172607.1114631        526851782.13343894        679952652.05844688     
   1784244294.1126611        500036864.51798046        806351033.84829104     
   1809392138.1524410        463475803.69779456        925631329.91362739     
   1831616139.2308028        417168599.67288220        1037793540.2544559     
   1850916297.3477464        361115252.44324219        1142837664.8707767     
   3815613830.1783528        655222373.95191360        1167356670.3219876     
   3798303376.1970325        537182814.10252059        1189023428.3587492     
   3784844235.0643806        431980963.74869215        1205769578.6948586     
   3775236406.7803993        339616822.89042926        1217595121.3303146     
   3769479891.3450861        260090391.52772510        1224500056.2651200     
   3318727969.9036536        579982150.45463169        1153667828.8169823     
   3294195787.4010806        472699464.03800225        1181993447.2158878     
   3273396875.3796968        377861012.55867064        1207202142.1223063     
   3256331233.8395023        295466796.01663506        1229293913.5362370     
   3242998862.7804956        225516814.41189384        1248268761.4576812     
   2825649761.0069847        505884222.37075859        1145018380.7401123     
   2799049233.4350605        410904424.42246383        1179865143.4057682     
   2776063933.9768443        327975386.85319746        1213398666.7871025     
   2756693862.6323380        257097109.66296101        1245618950.8841138     
   2740939019.4015388        198269592.85175252        1276525995.6968029     
   2336379203.4883499        432928589.70029563        1141408326.0913765     
   2312863714.2989726        351797695.25590378        1182638516.9283900     
   2292845410.8558245        282324086.63227439        1224359152.6892462     
   2276324293.1589050        224507763.82940710        1266570233.3739438     
   2263300361.2082133        178348726.84730029        1309271758.9824855     
   1850916297.3477464        361115252.44324219        1142837664.8707767     
   1835639229.9928172        295379276.53832501        1190313567.7837532     
   1823741306.0166359        240907111.89590091        1240083599.8287375     
   1815222525.4192033        197698758.51597250        1292147761.0057292     
   1810082888.2005191        165754216.39853746        1346506051.3147292     
   3769479891.3450861        260090391.52772510        1224500056.2651200     
   3662644253.6954613        167691938.63690209        1191955272.6066437     
   3563463928.5616741        100811194.13220286        1169822765.5484655     
   3471938915.9437251        59448158.013630629        1158102535.0905833     
   3388069215.8416133        43602830.281183600        1156794581.2330000     
   3242998862.7804956        225516814.41189384        1248268761.4576812     
   3165535028.3368325        151181788.75497615        1231072808.4824278     
   3094132029.9811373        97049550.057951689        1221889790.4728701     
   3028789867.7134089        63120098.320813537        1220719707.4290049     
   2969508541.5336456        49393433.543568254        1227562559.3508368     
   2740939019.4015388        198269592.85175252        1276525995.6968029     
   2685991726.3506866        139941415.88479900        1272818650.9055901     
   2635510792.9599304        96501104.451498866        1274724899.4454682     
   2589496219.2292705        67948658.551853180        1282244741.3164399     
   2547948005.1587071        54284078.185860157        1295378176.5185015     
   2263300361.2082133        178348726.84730029        1309271758.9824855     
   2224014347.7370205        133970820.02636325        1317192799.8761303     
   2187600217.4980536        99165857.312846661        1328328092.4662633     
   2154057970.4913125        73933838.706745982        1342677636.7528856     
   2123387606.7167945        58274764.208060741        1360241432.7359955     
   1810082888.2005191        165754216.39853746        1346506051.3147292     
   1779602892.4958358        133270001.17967355        1364195255.3940477     
   1750400303.5955067        105043808.64199162        1382699369.5352528     
   1722475121.4995322        81075638.785491586        1402018393.7383432     
   1695827346.2079120        61365491.610170245        1422152328.0033202     
   3388069215.8416133        43602830.281183600        1156794581.2330000     
   3296596461.2619820        36845739.531176925        1149441410.3820343     
   3204964539.2164207        29558090.561406493        1145385916.0544457     
   3113173449.7049322        21739883.371879339        1144628098.2502391     
   3021223192.7275167        13391117.962590218        1147167956.9694147     
   2969508541.5336456        49393433.543568254        1227562559.3508368     
   2886002233.6499653        38099070.546048641        1219551665.1008790     
   2802830559.7602253        27920154.195006967        1215418193.0738530     
   2719993519.8644361        18856684.490462661        1215162143.2697546     
   2637491113.9625912        10908661.432400823        1218783515.6885874     
   2547948005.1587071        54284078.185860157        1295378176.5185015     
   2474064560.2553992        38949367.826152682        1287285660.5727425     
   2401009550.8059101        26376108.979176402        1283650312.5494609     
   2328782976.8102422        16564301.644935846        1284472132.4486599     
   2257384838.2683930        9513945.8234286308        1289751120.2703366     
   2123387606.7167945        58274764.208060741        1360241432.7359955     
   2060783441.0782862        39396631.371491671        1352643396.7976222     
   1999501512.3534720        24925954.913908124        1350082274.4812741     
   1939541820.5423524        14862734.835302472        1352558065.7869542     
   1880904365.6449273        9206971.1356784105        1360070770.7146606     
   1695827346.2079120        61365491.610170245        1422152328.0033202     
   1646158876.1186283        39440861.182072997        1415624873.7755172     
   1598306444.4029109        23569691.999196470        1414714078.8692904     
   1552270051.0607646        13751984.061555326        1419419943.2846394     
   1508049696.0921855        9987737.3691419363        1429742467.0215638     
   3021223192.7275167        13391117.962590218        1147167956.9694147     
   2926523937.0083151        5508461.0113300085        1136089550.4323022     
   2832834931.0059671        993303.11624598503        1130376842.1576746     
   2740156174.7204700       -154355.72266948223        1130029832.1455269     
   2648487668.1518278        2065484.4945985079        1135048520.3958657     
   2637491113.9625912        10908661.432400823        1218783515.6885874     
   2556862236.9030786        5205760.4299061298        1209810057.0115664     
   2477008437.9833746        2086453.2267785072        1205791247.6682646     
   2397929717.2034836        1550739.8230264187        1206727087.6586759     
   2319626074.5634060        3598620.2186489105        1212617576.9828048     
   2257384838.2683930        9513945.8234286308        1289751120.2703366     
   2189651914.3578048        5638473.1164644957        1282608242.6135273     
   2122458897.0099847        3562688.9520699978        1280008965.3616705     
   2055805786.2249365        3286593.3302474022        1281953288.5147614     
   1989692582.0026622        4810186.2510011196        1288441212.0727997     
   1880904365.6449273        9206971.1356784105        1360070770.7146606     
   1824892969.3724964        6806599.0710134506        1354484107.2381852     
   1769186308.0857980        5422010.2921216488        1353029995.2378917     
   1713784381.7848299        5053204.7990006208        1355708434.7137804     
   1658687190.4695969        5700182.5916577578        1362519425.6658506     
   1508049696.0921855        9987737.3691419363        1429742467.0215638     
   1462585401.9471557        8710138.2935558558        1425437650.8855383     
   1417190671.2108154        7664417.2469386458        1424854337.2969294     
   1371865503.8831666        6850574.2292903066        1427992526.2557359     
   1326609899.9642098        6268609.2406178713        1434852217.7619565     
   2648487668.1518278        2065484.4945985079        1135048520.3958657     
   2544651584.6735392        1972329.5718953609        1127365346.3903472     
   2440686973.1924152        1450747.9730769396        1123994615.2884300     
   2336593833.7084546        500739.69813358784        1124936327.0901141     
   2232372166.2216611       -877695.25292062759        1130190481.7953930     
   2319626074.5634060        3598620.2186489105        1212617576.9828048     
   2227030392.5499344        2523516.7720230818        1204604158.7700741     
   2134427518.9701276        1424441.4376100302        1201151363.8245111     
   2041817453.8239865        301394.21540963650        1202259192.1461103     
   1949200197.1115055       -845624.89457595348        1207927643.7348797     
   1989692582.0026622        4810186.2510011196        1288441212.0727997     
   1909046388.2070551        2965860.3063724041        1280239108.8287740     
   1828514339.2816095        1502017.2622772455        1276845809.2154768     
   1748096435.2263279        418657.11873209476        1278261313.2329116     
   1667792676.0412078       -284220.12427747250        1284485620.8810790     
   1658687190.4695969        5700182.5916577578        1362519425.6658506     
   1590699571.6448970        3299360.1749276519        1354270196.5664413     
   1522947434.1268585        1683475.4470712543        1351077951.4613278     
   1455430777.9154837        852528.40809035301        1352942690.3505147     
   1388149603.0107720        806519.05798631907        1359864413.2339931     
   1326609899.9642098        6268609.2406178713        1434852217.7619565     
   1271989942.8634653        3524016.3777141571        1426697421.9830790     
   1217726803.5058773        1968815.9919978380        1423847790.5620654     
   1163820481.8914547        1603008.0834994912        1426303323.4989150     
   1110270978.0201900        2426592.6521928906        1434064020.7936273     
   2232372166.2216611       -877695.25292062759        1130190481.7953930     
   2151585718.5961132        5250162.4334985018        1121673759.4397256     
   2071241464.9156580        12851999.936892986        1115438670.8460782     
   1991339405.1802971        21927817.257272840        1111485216.0144558     
   1911879539.3900359        32477614.394649744        1109813394.9448555     
   1949200197.1115055       -845624.89457595348        1207927643.7348797     
   1874973247.3976574        3999919.1182107925        1200862702.5321460     
   1801066986.6280606        9914426.2785066366        1196857813.7318492     
   1727481414.8027208        16897896.586322188        1195912977.3339787     
   1654216531.9216347        24950330.041653454        1198028193.3385427     
   1667792676.0412078       -284220.12427747250        1284485620.8810790     
   1602349277.4973609        3946226.1923602819        1278730704.9969780     
   1537105062.8969278        8840618.9870457649        1276814260.1557145     
   1472060032.2399104        14398958.259787858        1278736286.3572888     
   1407214185.5263097        20621244.010578454        1284496783.6016955     
   1388149603.0107720        806519.05798631907        1359864413.2339931     
   1333713808.8952310        5089083.6559733152        1355277766.8342085     
   1279355693.7222593        9630578.0625211596        1355308010.1176665     
   1225075257.4918716        14431002.277688324        1359955143.0843694     
   1170872500.2040598        19490356.301433206        1369219165.7343123     
   1110270978.0201900        2426592.6521928906        1434064020.7936273     
   1069066841.5912589        7428491.5090170503        1430503888.0438416     
   1027818879.1040627        12284303.504954755        1432339063.6177104     
   986527090.55860496        16994028.640021384        1439569547.5152245     
   945191475.95487881        21557666.914192259        1452195339.7363920     
   1911879539.3900359        32477614.394649744        1109813394.9448555     
   1788928065.4790275        30348269.780466199        1092826551.3599463     
   1665777259.6127968        27554485.315547884        1078901507.5470624     
   1542427121.7913663        24096260.999949455        1068038263.5061969     
   1418877652.0147152        19973596.833637536        1060236819.2373343     
   1654216531.9216347        24950330.041653454        1198028193.3385427     
   1540109055.8664179        21181957.952175021        1185164235.2578180     
   1425965707.8388774        17294012.621606171        1176419789.7884448     
   1311786487.8390026        13286494.049923062        1171794856.9304283     
   1197571395.8668032        9159402.2371688485        1171289436.6837721     
   1407214185.5263097        20621244.010578454        1284496783.6016955     
   1304972744.0107114        16120455.450959861        1275946414.3385146     
   1202858890.5056667        12044960.259854019        1272573270.5260224     
   1100872625.0111799        8394758.4372656345        1274377352.1642280     
   999013947.52724147        5169849.9831917882        1281358659.2531199     
   1170872500.2040598        19490356.301433206        1369219165.7343123     
   1083519129.9118969        15163762.276813209        1365173088.6020341     
   996456807.61317837        11807328.230333269        1367361949.7597935     
   909685533.30789173        9421054.1619618535        1375785749.2075725     
   823205306.99604774        8004940.0717351735        1390444486.9453864     
   945191475.95487881        21557666.914192259        1452195339.7363920     
   875748213.56998169        18311878.429742932        1452844258.0483837     
   806759459.16140544        16581116.533023149        1460785827.4897451     
   738225212.72914350        16365381.224022329        1476020048.0604746     
   670145474.27320957        17664672.502778500        1498546919.7605631     
   1756172607.1114631        526851782.13343894        679952652.05844688     
   1784244294.1126611        500036864.51798046        806351033.84829104     
   1809392138.1524410        463475803.69779456        925631329.91362739     
   1831616139.2308028        417168599.67288220        1037793540.2544559     
   1850916297.3477464        361115252.44324219        1142837664.8707767     
   1326501105.8980033        397950331.76940101        669586618.42110229     
   1339743347.2772973        375495686.45284331        791724869.80128491     
   1350792706.4320931        345731433.72129273        908567724.35861051     
   1359649183.3623915        308657573.57474953        1020115182.0930791     
   1366312778.0681922        264274106.01321366        1126367243.0046906     
   890581837.53586864        267174551.26076058        662182308.70727432     
   894202315.86940408        250642483.01594734        780913217.20420218     
   896360872.71536195        229237343.14587557        896171417.77992380     
   897057508.07374215        202959131.65054542        1007956910.4344397     
   896292221.94454491        171807848.52995682        1116269695.1677492     
   448414802.02505952        134524440.60751784        657739722.91696274     
   447621199.88898152        125477254.20729253        773916076.05704308     
   446096637.00224644        113993531.97154316        888442410.17756820     
   443841113.36485398        100073273.90026945        1001318725.2785379     
   440854628.97680438        83716479.993471712        1112545021.3599529     
 -0.63442451841428371      -0.19032735552428512        656258861.05016780     
 -0.66397028671875102        2.6879014124349232E-002   770733446.35980725     
 -0.70725298614421761       0.19829565673773902        885380701.55154288     
 -0.76427260668266372       0.32392236715147316        1000200626.6253738     
 -0.83502916692041196       0.40375945203988034        1115193221.5813005     
   1850916297.3477464        361115252.44324219        1142837664.8707767     
   1835639229.9928172        295379276.53832501        1190313567.7837532     
   1823741306.0166359        240907111.89590091        1240083599.8287375     
   1815222525.4192033        197698758.51597250        1292147761.0057292     
   1810082888.2005191        165754216.39853746        1346506051.3147292     
   1366312778.0681922        264274106.01321366        1126367243.0046906     
   1360686571.3075998        216721602.23800969        1181716372.6132765     
   1357594722.0855165        177616956.92450154        1237998926.1324875     
   1357037230.4019425        146960170.07269198        1295214903.5623245     
   1359014096.2568772        124751241.68257791        1353364304.9027855     
   896292221.94454491        171807848.52995682        1116269695.1677492     
   896429146.57433951        141272498.12328178        1178506467.9916651     
   898255642.90240371        116369053.37750548        1240315959.5048246     
   901771710.92873776        97097514.292628318        1301698169.7072258     
   906977350.65334117        83457880.868649691        1362653098.5988708     
   440854628.97680438        83716479.993471712        1112545021.3599529     
   442866955.79303598        69031964.194140822        1180683853.9189203     
   445724068.46729815        57163401.254911751        1247034699.9457479     
   449425966.99958998        48110791.175781652        1311597559.4404352     
   453972651.38991231        41874133.956753418        1374372432.4029820     
 -0.83502916692041196       0.40375945203988034        1115193221.5813005     
  -1.0363111124728268       0.45058671194381039        1188248530.3950398     
  -1.2198015205511958       0.55671844623992339        1258155147.4552562     
  -1.3855014184072911       0.72215220653759937        1324913072.7619507     
  -1.5334100061143678       0.94689033399867173        1388522306.3151228     
   1810082888.2005191        165754216.39853746        1346506051.3147292     
   1779602892.4958358        133270001.17967355        1364195255.3940477     
   1750400303.5955067        105043808.64199162        1382699369.5352528     
   1722475121.4995322        81075638.785491586        1402018393.7383432     
   1695827346.2079120        61365491.610170245        1422152328.0033202     
   1359014096.2568772        124751241.68257791        1353364304.9027855     
   1333628069.3077440        99630271.272992253        1372313448.1601722     
   1309200097.4498284        77702817.834131777        1392666908.5193400     
   1285730180.6831298        58968881.365995884        1414424685.9802876     
   1263218319.0076473        43428461.868579805        1437586780.5430160     
   906977350.65334117        83457880.868649691        1362653098.5988708     
   888369312.57374382        66205361.302539319        1382489604.0356646     
   870399977.87222564        51081852.996694863        1404319833.6141343     
   853069346.54878783        38087355.951115787        1428143787.3342786     
   836377418.60342896        27221870.165801704        1453961465.1960998     
   453972651.38991231        41874133.956753418        1374372432.4029820     
   443826622.29383522        32995271.268314287        1394723723.0205247     
   433999944.86269993        25180914.129680961        1417658144.8196356     
   424492619.09650737        18431062.540857479        1443175697.8003173     
   415304644.99525666        12745716.501839042        1471276381.9625692     
  -1.5334100061143678       0.94689033399867173        1388522306.3151228     
  -1.5319825421980666        1.1703147780085752        1409015805.1147513     
  -1.5787500885354877        1.2330890143670574        1432681842.1358442     
  -1.6737122934162119        1.1352147358592244        1459520417.3784027     
  -1.8168705093526634       0.87668656674859013        1489531530.8424253     
   1695827346.2079120        61365491.610170245        1422152328.0033202     
   1646158876.1186283        39440861.182072997        1415624873.7755172     
   1598306444.4029109        23569691.999196470        1414714078.8692904     
   1552270051.0607646        13751984.061555326        1419419943.2846394     
   1508049696.0921855        9987737.3691419363        1429742467.0215638     
   1263218319.0076473        43428461.868579805        1437586780.5430160     
   1229124008.1112432        27932101.534267128        1434563721.6564932     
   1196391726.0330999        16975837.260825336        1436420678.9597340     
   1165021472.7732208        10559669.048265040        1443157652.4527411     
   1135013248.3316042        8683596.8965790868        1454774642.1355131     
   836377418.60342896        27221870.165801704        1453961465.1960998     
   815752572.23758829        17522371.526583135        1453913123.8363314     
   796035745.13470256        10849603.763881654        1458008155.5345170     
   777226937.29477429        7203566.8777046204        1466246560.2906578     
   759326148.71780264        6584260.8680485487        1478628338.1047535     
   415304644.99525666        12745716.501839042        1471276381.9625692     
   406044568.49766243        8211671.1590156257        1473673080.3150311     
   397238501.70771855        5190991.5083603114        1479476508.5936391     
   388886444.62542528        3683677.5498739481        1488686666.7983880     
   380988397.25078130        3689729.2835520208        1501303554.9292822     
  -1.8168705093526634       0.87668656674859013        1489531530.8424253     
  -3.1085328908012229       0.43156977533778207        1493843591.0925956     
  -4.2478521387203498       0.49426377596977655        1500825738.1370993     
  -5.2348277384118713        1.0647697638881111        1510477971.9759355     
  -6.0694591294266633        2.1430897807288773        1522800292.6091046     
   1508049696.0921855        9987737.3691419363        1429742467.0215638     
   1462585401.9471557        8710138.2935558558        1425437650.8855383     
   1417190671.2108154        7664417.2469386458        1424854337.2969294     
   1371865503.8831666        6850574.2292903066        1427992526.2557359     
   1326609899.9642098        6268609.2406178713        1434852217.7619565     
   1135013248.3316042        8683596.8965790868        1454774642.1355131     
   1099601005.5198040        7331191.2766402364        1449766413.0476084     
   1064240935.2366447        6152694.0855046511        1448786291.6403947     
   1028933037.4821248        5148105.3231661916        1451834277.9138710     
   993677312.25624466        4317424.9896270037        1458910371.8680382     
   759326148.71780264        6584260.8680485487        1478628338.1047535     
   734841971.90573120        5419853.1037056744        1472896406.7049110     
   710392576.74225187        4371384.1680001020        1471499188.1190333     
   685977963.22736001        3438854.0609200597        1474436682.3471169     
   661598131.36105883        2622262.7824766338        1481708889.3891692     
   380988397.25078130        3689729.2835520208        1501303554.9292822     
   368308301.10494035        2976123.7747603208        1494827631.8574426     
   355645595.72763681        2320487.4944274575        1492993026.7328415     
   343000281.11887521        1722820.4425687790        1495799739.5554798     
   330372357.27864939        1183122.6191608459        1503247770.3253565     
  -6.0694591294266633        2.1430897807288773        1522800292.6091046     
  -6.8825731743863381        3.2897923396435611        1515560088.5052073     
  -7.8071977911846204        4.0647943802083386        1513267807.4818244     
  -8.8433353931840575        4.4680861231578968        1515923449.5389547     
  -9.9909848709241444        4.4996709197492386        1523527014.6765985     
   1326609899.9642098        6268609.2406178713        1434852217.7619565     
   1271989942.8634653        3524016.3777141571        1426697421.9830790     
   1217726803.5058773        1968815.9919978380        1423847790.5620654     
   1163820481.8914547        1603008.0834994912        1426303323.4989150     
   1110270978.0201900        2426592.6521928906        1434064020.7936273     
   993677312.25624466        4317424.9896270037        1458910371.8680382     
   952996093.71388686        2344105.0422075987        1451385415.7722397     
   912582488.38864636        1262829.1518443227        1449099415.8445332     
   872436496.28051782        1073597.3185198307        1452052372.0849221     
   832558117.38950038        1776409.5422369838        1460244284.4934034     
   661598131.36105883        2622262.7824766338        1481708889.3891692     
   634666485.12060404        1363465.8736030161        1474709701.0293996     
   607913247.57121563        699364.60161748528        1472883260.6479487     
   581338418.71289814        629958.96653541923        1476229568.2448225     
   554941998.54564631        1155248.9683399498        1484748623.8200197     
   330372357.27864939        1183122.6191608459        1503247770.3253565     
   317001117.08360845        582098.87187960744        1496670277.7545588     
   303719081.05359304        278422.34134976566        1495199324.9723134     
   290526249.18859428        272093.02754235268        1498834911.9786198     
   277422621.48862129        563110.93048746884        1507577038.7734787     
  -9.9909848709241444        4.4996709197492386        1523527014.6765985     
  -10.397096141909659        4.0370434788146463        1517267145.9477196     
  -11.164232313346231        2.3710003969325828        1516047608.8176234     
  -12.292388329754017      -0.49844286207625110        1519868403.2863078     
  -13.781573501451103       -4.5713159448266900        1528729529.3537731     
   1110270978.0201900        2426592.6521928906        1434064020.7936273     
   1069066841.5912589        7428491.5090170503        1430503888.0438416     
   1027818879.1040627        12284303.504954755        1432339063.6177104     
   986527090.55860496        16994028.640021384        1439569547.5152245     
   945191475.95487881        21557666.914192259        1452195339.7363920     
   832558117.38950038        1776409.5422369838        1460244284.4934034     
   804417343.18970776        6356530.5692741275        1456351000.5093482     
   776243699.11078787        10827085.332559437        1457208481.7232378     
   748037185.15273976        15188073.832083970        1462816728.1350691     
   719797801.31556237        19439496.067841411        1473175739.7448525     
   554941998.54564631        1155248.9683399498        1484748623.8200197     
   538023034.78726351        4761126.6292733252        1480534970.8106844     
   521082157.32889086        8293958.6235740781        1480427539.8735886     
   504119366.17052573        11753744.951231927        1484426331.0087347     
   487134661.31216991        15140485.612256080        1492531344.2161231     
   277422621.48862129        563110.93048746884        1507577038.7734787     
   269883916.38392711        2642279.6890098155        1503055798.9478528     
   262334253.75837430        4684923.3780045658        1501996238.0687659     
   254773633.61196566        6691041.9974777550        1504398356.1362159     
   247202055.94470575        8660635.5474484414        1510262153.1502056     
  -13.781573501451103       -4.5713159448266900        1528729529.3537731     
  -12.020311806355103       -10.251546063509622        1523913484.9208555     
  -11.600762886939712       -20.404152795017296        1521914576.3087716     
  -12.522937540428845       -35.029171436206717        1522732803.5175183     
  -14.786827348647922       -54.126573232606560        1526368166.5470977     
   945191475.95487881        21557666.914192259        1452195339.7363920     
   875748213.56998169        18311878.429742932        1452844258.0483837     
   806759459.16140544        16581116.533023149        1460785827.4897451     
   738225212.72914350        16365381.224022329        1476020048.0604746     
   670145474.27320957        17664672.502778500        1498546919.7605631     
   719797801.31556237        19439496.067841411        1473175739.7448525     
   669234732.40653777        17460966.544182271        1471567063.0105157     
   619012546.84618473        16618714.849421591        1476896516.5219171     
   569131244.63449430        16912740.983543336        1489164100.2790580     
   519590825.77147359        18343044.946562916        1508369814.2819333     
   487134661.31216991        15140485.612256080        1492531344.2161231     
   454438869.06865501        14125340.006290019        1488532510.3698649     
   421970335.54615456        13867723.470374376        1491117285.8857150     
   389729060.74466932        14367636.004505068        1500285670.7636743     
   357715044.66420138        15625077.608699754        1516037665.0037453     
   247202055.94470575        8660635.5474484414        1510262153.1502056     
   231360623.55633032        8304998.8160585016        1503740600.1264303     
   215632825.26132202        8328142.3958911896        1503448135.5811341     
   200018661.05966893        8730066.2869074792        1509384759.5143137     
   184518130.95138690        9510770.4891639203        1521550471.9259822     
  -14.786827348647922       -54.126573232606560        1526368166.5470977     
  -4.1304274561055472       -57.026486303270865        1517191332.2802105     
   15.991678905999487       -28.374045169282351        1513889065.6081717     
   45.579496381388481        31.830767383153450        1516461366.5309901     
   84.633032084333976        123.58797263966548        1524908235.0486584     
 -0.63442451841428371      -0.19032735552428512        656258861.05016780     
 -0.66397028671875102        2.6879014124349232E-002   770733446.35980725     
 -0.70725298614421761       0.19829565673773902        885380701.55154288     
 -0.76427260668266372       0.32392236715147316        1000200626.6253738     
 -0.83502916692041196       0.40375945203988034        1115193221.5813005     
  -448414803.26459211       -134524440.97937763        657739723.09704137     
  -447621201.20158356       -125477254.19038190        773916076.22923446     
  -446096638.40895635       -113993531.63599019        888442410.34165311     
  -443841114.88671035       -100073273.31620267        1001318725.4342972     
  -440854630.63484538       -83716479.231019199        1112545021.5071666     
  -890581838.68745232       -267174551.60623571        662182309.04773545     
  -894202317.10866153       -250642483.01848221        780913217.53639734     
  -896360874.05689657       -229237342.85414720        896171418.10341394     
  -897057509.53215694       -202959131.11323050        1007956910.7487860     
  -896292223.53444314       -171807847.79573229        1116269695.4725134     
  -1326501106.9030051       -397950332.07090151        669586618.90225017     
  -1339743348.3852046       -375495686.45742202        791724870.28129542     
  -1350792707.6510739       -345731433.45617515        908567724.83682573     
  -1359649184.7006130       -308657573.06716132        1020115182.5688409     
  -1366312779.5338221       -264274105.29037955        1126367243.4773402     
  -1756172607.9112504       -526851782.37337512        679952652.66058564     
  -1784244295.0312121       -500036864.50720114        806351034.46392941     
  -1809392139.1914880       -463475803.44207412        925631330.54188788     
  -1831616140.3920782       -417168599.17799437        1037793540.8944608     
  -1850916298.6329825       -361115251.71496141        1142837665.5216484     
 -0.83502916692041196       0.40375945203988034        1115193221.5813005     
  -1.0363111124728268       0.45058671194381039        1188248530.3950398     
  -1.2198015205511958       0.55671844623992339        1258155147.4552562     
  -1.3855014184072911       0.72215220653759937        1324913072.7619507     
  -1.5334100061143678       0.94689033399867173        1388522306.3151228     
  -440854630.63484538       -83716479.231019199        1112545021.5071666     
  -442866957.83656347       -69031963.330713272        1180683854.1235220     
  -445724070.87700027       -57163400.226138011        1247034700.2191846     
  -449425969.75615734       -48110789.917296305        1311597559.7941549     
  -453972654.47403318       -41874132.404184014        1374372432.8484328     
  -896292223.53444314       -171807847.79573229        1116269695.4725134     
  -896429148.49994075       -141272497.27095163        1178506468.3922231     
  -898255645.16066825       -116369052.39693686        1240315960.0240695     
  -901771713.51662600       -97097513.173689514        1301698170.3680537     
  -906977353.56781304       -83457879.601207167        1362653099.4241743     
  -1366312779.5338221       -264274105.29037955        1126367243.4773402     
  -1360686573.0264432       -216721601.37012705        1181716373.2011423     
  -1357594724.0708046       -177616955.95567507        1237998926.8699112     
  -1357037232.6669073       -146960169.04702520        1295214904.4836469     
  -1359014098.8147488       -124751240.64417499        1353364306.0423489     
  -1850916298.6329825       -361115251.71496141        1142837665.5216484     
  -1835639231.4160707       -295379275.62824017        1190313568.5502806     
  -1823741307.6074104       -240907110.90235507        1240083600.7567091     
  -1815222527.2070005       -197698757.53730589        1292147762.1409335     
  -1810082890.2148411       -165754215.53309226        1346506052.7029550     
  -1.5334100061143678       0.94689033399867173        1388522306.3151228     
  -1.5319825421980666        1.1703147780085752        1409015805.1147513     
  -1.5787500885354877        1.2330890143670574        1432681842.1358442     
  -1.6737122934162119        1.1352147358592244        1459520417.3784027     
  -1.8168705093526634       0.87668656674859013        1489531530.8424253     
  -453972654.47403318       -41874132.404184014        1374372432.8484328     
  -443826625.41454583       -32995269.400264665        1394723723.4385579     
  -433999948.08275741       -25180912.155342266        1417658145.2102277     
  -424492622.47866720       -18431060.669414371        1443175698.1634405     
  -415304648.60227621       -12745714.942482010        1471276382.2981977     
  -906977353.56781304       -83457879.601207167        1362653099.4241743     
  -888369315.56432509       -66205359.851010531        1382489604.8453765     
  -870399980.96803987       -51081851.458156943        1404319834.4082007     
  -853069349.77895641       -38087354.422643781        1428143788.1126490     
  -836377421.99707556       -27221868.744471192        1453961465.9587188     
  -1359014098.8147488       -124751240.64417499        1353364306.0423489     
  -1333628071.9813199       -99630270.181921065        1372313449.3352051     
  -1309200100.2345974       -77702816.675354183        1392666909.7297637     
  -1285730183.5745800       -58968880.124472678        1414424687.2260261     
  -1263218322.0012689       -43428460.529278159        1437586781.8239889     
  -1810082890.2148411       -165754215.53309226        1346506052.7029550     
  -1779602894.6655300       -133270000.39299494        1364195256.9080458     
  -1750400305.8824286       -105043807.80693251        1382699371.1749179     
  -1722475123.8655376       -81075637.774902463        1402018395.5035717     
  -1695827348.6148553       -61365490.296902061        1422152329.8940074     
  -1.8168705093526634       0.87668656674859013        1489531530.8424253     
  -3.1085328908012229       0.43156977533778207        1493843591.0925956     
  -4.2478521387203498       0.49426377596977655        1500825738.1370993     
  -5.2348277384118713        1.0647697638881111        1510477971.9759355     
  -6.0694591294266633        2.1430897807288773        1522800292.6091046     
  -415304648.60227621       -12745714.942482010        1471276382.2981977     
  -406044574.51760548       -8211670.3204279393        1473673081.0716002     
  -397238509.91448510       -5190990.6368745118        1479476509.8631179     
  -388886454.79291523       -3683675.8918216228        1488686668.6727490     
  -380988409.15289503       -3689726.0852690339        1501303557.5004942     
  -836377421.99707556       -27221868.744471192        1453961465.9587188     
  -815752577.61098242       -17522370.577717394        1453913125.3491452     
  -796035752.34033239       -10849602.795773804        1458008157.9814656     
  -777226946.18512738       -7203565.3986470699        1466246563.8556814     
  -759326159.14536667       -6584258.3863344193        1478628342.9717939     
  -1263218322.0012689       -43428460.529278159        1437586781.8239889     
  -1229124012.3886638       -27932100.340295374        1434563723.9252279     
  -1196391731.5253961       -16975835.982441306        1436420682.4921420     
  -1165021479.4114664       -10559667.455713093        1443157657.5247357     
  -1135013256.0468745       -8683594.7601101995        1454774649.0230026     
  -1695827348.6148553       -61365490.296902061        1422152329.8940074     
  -1646158878.8506489       -39440859.608166635        1415624876.7998490     
  -1598306447.4696736       -23569690.196869493        1414714083.3951490     
  -1552270054.4719312       -13751982.063012600        1419419949.6799080     
  -1508049699.8574216       -9987735.2066011429        1429742475.6541226     
  -6.0694591294266633        2.1430897807288773        1522800292.6091046     
  -6.8825731743863381        3.2897923396435611        1515560088.5052073     
  -7.8071977911846204        4.0647943802083386        1513267807.4818244     
  -8.8433353931840575        4.4680861231578968        1515923449.5389547     
  -9.9909848709241444        4.4996709197492386        1523527014.6765985     
  -380988409.15289503       -3689726.0852690339        1501303557.5004942     
  -368308314.72402954       -2976118.9933554679        1494827634.6613889     
  -355645611.26501161       -2320481.8009351045        1492993029.8636291     
  -343000298.77584523       -1722814.5080176741        1495799743.1072154     
  -330372377.25653070       -1183117.1146092713        1503247774.3921444     
  -759326159.14536667       -6584258.3863344193        1478628342.9717939     
  -734841983.87214422       -5419849.6684945226        1472896412.0627520     
  -710392590.42710996       -4371380.3779468238        1471499194.1558871     
  -685977978.81026483       -3438850.5146977305        1474436689.2511995     
  -661598149.02160978       -2622260.0787477791        1481708897.3486872     
  -1135013256.0468745       -8683594.7601101995        1454774649.0230026     
  -1099601014.3269215       -7331188.7356363535        1449766420.7092955     
  -1064240945.2934930       -6152691.6662454605        1448786300.3585975     
  -1028933048.9465948       -5148103.5519526005        1451834287.9709086     
  -993677325.28622162       -4317424.3927469850        1458910383.5462255     
  -1508049699.8574216       -9987735.2066011429        1429742475.6541226     
  -1462585406.0883596       -8710136.1947746873        1425437660.6010218     
  -1417190675.8641617       -7664415.6658286452        1424854348.4717607     
  -1371865509.1848319       -6850573.6197751760        1427992539.2663405     
  -1326609906.0503685       -6268610.0566099286        1434852232.9847603     
  -9.9909848709241444        4.4996709197492386        1523527014.6765985     
  -10.397096141909659        4.0370434788146463        1517267145.9477196     
  -11.164232313346231        2.3710003969325828        1516047608.8176234     
  -12.292388329754017      -0.49844286207625110        1519868403.2863078     
  -13.781573501451103       -4.5713159448266900        1528729529.3537731     
  -330372377.25653070       -1183117.1146092713        1503247774.3921444     
  -317001137.85431308       -582094.57684943080        1496670281.8913424     
  -303719103.23204291       -278421.30558179319        1495199329.2596159     
  -290526273.38971812       -272097.30079716444        1498834916.4969647     
  -277422648.32734311       -563122.56251412630        1507577043.6033828     
  -661598149.02160978       -2622260.0787477791        1481708897.3486872     
  -634666503.32451344       -1363464.5946407318        1474709709.2538857     
  -607913266.82628489       -699366.44009298086        1472883269.2984502     
  -581338439.52692795       -629965.61511534452        1476229577.4823847     
  -554942021.42644048       -1155262.1197039783        1484748633.8056841     
  -993677325.28622162       -4317424.3927469850        1458910383.5462255     
  -952996106.80769289       -2344106.0163174272        1451385428.0353441     
  -912582501.94695735       -1262833.0325301886        1449099428.9341283     
  -872436510.70401692       -1073605.4413939714        1452052386.2425690     
  -832558133.07886744       -1776423.2428944111        1460244299.9606693     
  -1326609906.0503685       -6268610.0566099286        1434852232.9847603     
  -1271989948.3038592       -3524018.8419017792        1426697438.2357261     
  -1217726808.5940614       -1968821.0828976631        1423847808.1666460     
  -1163820486.9209847       -1603016.7796332240        1426303342.7775183     
  -1110270983.2846243       -2426605.9320871234        1434064042.0683427     
  -13.781573501451103       -4.5713159448266900        1528729529.3537731     
  -12.020311806355103       -10.251546063509622        1523913484.9208555     
  -11.600762886939712       -20.404152795017296        1521914576.3087716     
  -12.522937540428845       -35.029171436206717        1522732803.5175183     
  -14.786827348647922       -54.126573232606560        1526368166.5470977     
  -277422648.32734311       -563122.56251412630        1507577043.6033828     
  -269883939.49291801       -2642300.5267991871        1503055802.0888553     
  -262334274.99998251       -4684959.6293805689        1501996239.1830173     
  -254773654.84854624       -6691099.8702953607        1504398354.8858654     
  -247202079.03859827       -8660721.2495044470        1510262149.1974077     
  -554942021.42644048       -1155262.1197039783        1484748633.8056841     
  -538023054.69640565       -4761147.1213091910        1480534978.3764720     
  -521082175.30763745       -8293989.9271381199        1480427544.3438072     
  -504119383.26014256       -11753790.537208676        1484426331.7076883     
  -487134678.55391359       -15140548.951502293        1492531340.4681151     
  -832558133.07886744       -1776423.2428944111        1460244299.9606693     
  -804417357.63077712       -6356550.0350898206        1456351013.7837052     
  -776243712.52372956       -10827111.297425568        1457208491.7911429     
  -748037197.75772989       -15188107.029922754        1462816733.9829834     
  -719797813.33277023       -19439537.232554257        1473175740.3592255     
  -1110270983.2846243       -2426605.9320871234        1434064042.0683427     
  -1069066848.2960315       -7428509.2681319118        1430503908.3105543     
  -1027818886.6482552       -12284323.740236342        1432339081.5250232     
  -986527098.34130716       -16994049.348432958        1439569561.7117498     
  -945191483.37517560       -21557686.092684090        1452195348.8707354     
  -14.786827348647922       -54.126573232606560        1526368166.5470977     
  -4.1304274561055472       -57.026486303270865        1517191332.2802105     
   15.991678905999487       -28.374045169282351        1513889065.6081717     
   45.579496381388481        31.830767383153450        1516461366.5309901     
   84.633032084333976        123.58797263966548        1524908235.0486584     
  -247202079.03859827       -8660721.2495044470        1510262149.1974077     
  -231360626.39289901       -8305091.5095743388        1503740613.2780526     
  -215632796.61333805       -8328204.6567695215        1503448165.3002694     
  -200018589.69991651       -8730060.6910975873        1509384805.2640529     
  -184518005.65264034       -9510659.6125734597        1521550533.1694014     
  -487134678.55391359       -15140548.951502293        1492531340.4681151     
  -454438868.64257818       -14125411.988809675        1488532531.8424666     
  -421970313.92923331       -13867792.352750674        1491117331.5051053     
  -389729014.41388565       -14367690.043352738        1500285739.4560308     
  -357714970.09652537       -15625105.060576662        1516037755.6952302     
  -719797813.33277023       -19439537.232554257        1473175740.3592255     
  -669234730.87946939       -17461018.464209467        1471567087.9734590     
  -619012535.95601237       -16618791.462010324        1476896564.2226911     
  -569131228.56239867       -16912856.225952774        1489164169.1069310     
  -519590808.69862831       -18343212.756048590        1508369902.6261604     
  -945191483.37517560       -21557686.092684090        1452195348.8707354     
  -875748213.10357845       -18311910.935787857        1452844281.6710207     
  -806759462.69366527       -16581201.984508783        1460785863.4530244     
  -738225232.14546323       -16365559.238934040        1476020094.2167397     
  -670145521.45895076       -17664982.698986322        1498546973.9621756     
  -1756172607.9112504       -526851782.37337512        679952652.66058564     
  -1784244295.0312121       -500036864.50720114        806351034.46392941     
  -1809392139.1914880       -463475803.44207412        925631330.54188788     
  -1831616140.3920782       -417168599.17799437        1037793540.8944608     
  -1850916298.6329825       -361115251.71496141        1142837665.5216484     
  -2201845350.7553811       -660553605.22661436        696378460.74353731     
  -2238540797.1498065       -613853960.98956883        813792464.67245889     
  -2273194921.5855527       -560349910.22359312        927102110.33774662     
  -2305807724.0626197       -500041452.92868674        1036307397.7394004     
  -2336379204.5810084       -432928589.10485095        1141408326.8774207     
  -2685768344.4785910       -805730503.34357727        721962093.57190096     
  -2722476900.2567606       -736562937.76844454        829362111.79189217     
  -2758026655.0772595       -663532702.33440435        935671499.21000123     
  -2792417608.9400845       -586639797.04145634        1040890255.8262277     
  -2825649761.8452368       -505884221.88960093        1145018381.6405723     
  -3207941589.0808797       -962382476.72426391        756703551.14567649     
  -3236052604.3520761       -868163794.84382844        853059975.82222974     
  -3263887339.6666069       -773024179.77450800        951339497.15865195     
  -3291445795.0244722       -676963631.51630294        1051542115.1549435     
  -3318727970.4256716       -579982150.06921303        1153667829.8111045     
  -3768365084.5622478       -1130509525.3686743        800602833.46486390     
  -3779267909.4357505       -1008656532.2157202        884886056.76347101     
  -3790776975.3535953       -888824342.54390395        974106104.18369865     
  -3802892282.3157816       -771012956.35322523        1068262975.7255473     
  -3815613830.3223095       -655222373.64368534        1167356671.3890166     
  -1850916298.6329825       -361115251.71496141        1142837665.5216484     
  -1835639231.4160707       -295379275.62824017        1190313568.5502806     
  -1823741307.6074104       -240907110.90235507        1240083600.7567091     
  -1815222527.2070005       -197698757.53730589        1292147762.1409335     
  -1810082890.2148411       -165754215.53309226        1346506052.7029550     
  -2336379204.5810084       -432928589.10485095        1141408326.8774207     
  -2312863715.4309535       -351797694.49452078        1182638517.8145757     
  -2292845412.0510330       -282324085.78463566        1224359153.7093656     
  -2276324294.4412470       -224507762.97519642        1266570234.5617900     
  -2263300362.6015925       -178348726.06620097        1309271760.3718481     
  -2825649761.8452368       -505884221.88960093        1145018381.6405723     
  -2799049234.2482190       -410904423.80151606        1179865144.3973880     
  -2776063934.7832155       -327975386.15348470        1213398667.8916759     
  -2756693863.4502287       -257097108.94550812        1245618952.1234357     
  -2740939020.2492585       -198269592.17758596        1276525997.0926683     
  -3318727970.4256716       -579982150.06921303        1153667829.8111045     
  -3294195787.8678646       -472699463.54922569        1181993448.2987175     
  -3273396875.8039556       -377861012.00890136        1207202143.3036399     
  -3256331234.2339478       -295466795.44824004        1229293914.8258727     
  -3242998863.1578379       -225516813.86724520        1248268762.8654153     
  -3815613830.3223095       -655222373.64368534        1167356671.3890166     
  -3798303376.2898917       -537182813.73764896        1189023429.5185633     
  -3784844235.1132565       -431980963.35088468        1205769579.9452572     
  -3775236406.7924032       -339616822.48339510        1217595122.6690993     
  -3769479891.3273301       -260090391.13517690        1224500057.6900895     
  -1810082890.2148411       -165754215.53309226        1346506052.7029550     
  -1779602894.6655300       -133270000.39299494        1364195256.9080458     
  -1750400305.8824286       -105043807.80693251        1382699371.1749179     
  -1722475123.8655376       -81075637.774902463        1402018395.5035717     
  -1695827348.6148553       -61365490.296902061        1422152329.8940074     
  -2263300362.6015925       -178348726.06620097        1309271760.3718481     
  -2224014349.2883840       -133970819.33314812        1317192801.4009988     
  -2187600219.1839485       -99165856.629335880        1328328094.1268373     
  -2154057972.2882853       -73933837.954764247        1342677638.5493634     
  -2123387608.6013932       -58274763.309435010        1360241434.6685767     
  -2740939020.2492585       -198269592.17758596        1276525997.0926683     
  -2685991727.3581362       -139941415.30736852        1272818652.4295564     
  -2635510794.1183481       -96501103.941601634        1274724901.0980375     
  -2589496220.5298967       -67948658.080284715        1282244743.0981114     
  -2547948006.5927801       -54284077.723422050        1295378178.4297793     
  -3242998863.1578379       -225516813.86724520        1248268762.8654153     
  -3165535028.8747835       -151181788.31565821        1231072809.9937170     
  -3094132030.6856289       -97049549.743731499        1221889792.0885177     
  -3028789868.5903721       -63120098.151466370        1220719709.1498175     
  -2969508542.5890117       -49393433.538859367        1227562561.1776152     
  -3769479891.3273301       -260090391.13517690        1224500057.6900895     
  -3662644253.8383293       -167691938.35801733        1191955274.0934808     
  -3563463928.8857894       -100811194.03572726        1169822767.0982769     
  -3471938916.4697094       -59448158.168302298        1158102536.7044787     
  -3388069216.5900922       -43602830.755757332        1156794582.9120851     
  -1695827348.6148553       -61365490.296902061        1422152329.8940074     
  -1646158878.8506489       -39440859.608166635        1415624876.7998490     
  -1598306447.4696736       -23569690.196869493        1414714083.3951490     
  -1552270054.4719312       -13751982.063012600        1419419949.6799080     
  -1508049699.8574216       -9987735.2066011429        1429742475.6541226     
  -2123387608.6013932       -58274763.309435010        1360241434.6685767     
  -2060783442.4677949       -39396630.222915769        1352643399.7406895     
  -1999501513.3184924       -24925953.750712752        1350082278.7003102     
  -1939541821.1534870       -14862733.892835259        1352558071.5474408     
  -1880904365.9727767       -9206970.6492737532        1360070778.2820790     
  -2547948006.5927801       -54284077.723422050        1295378178.4297793     
  -2474064560.6667871       -38949367.212216139        1287285663.3002553     
  -2401009550.3261538       -26376108.652207375        1283650316.2562907     
  -2328782975.5708799       -16564302.043401599        1284472137.2978849     
  -2257384836.4009666       -9513947.3857911825        1289751126.4250400     
  -2969508542.5890117       -49393433.538859367        1227562561.1776152     
  -2886002233.4476223       -38099070.576070905        1219551667.4785469     
  -2802830558.4926558       -27920154.901353478        1215418196.0630879     
  -2719993517.7241135       -18856686.514718652        1215162146.9312398     
  -2637491111.1419950       -10908665.416160464        1218783520.0830011     
  -3388069216.5900922       -43602830.755757332        1156794582.9120851     
  -3296596460.8103046       -36845740.314480424        1149441412.2755637     
  -3204964537.8180013       -29558092.498154163        1145385918.1207042     
  -3113173447.6131892       -21739887.306792259        1144628100.4475050     
  -3021223190.1958618       -13391124.740384459        1147167959.2559679     
  -1508049699.8574216       -9987735.2066011429        1429742475.6541226     
  -1462585406.0883596       -8710136.1947746873        1425437660.6010218     
  -1417190675.8641617       -7664415.6658286452        1424854348.4717607     
  -1371865509.1848319       -6850573.6197751760        1427992539.2663405     
  -1326609906.0503685       -6268610.0566099286        1434852232.9847603     
  -1880904365.9727767       -9206970.6492737532        1360070778.2820790     
  -1824892969.3774226       -6806599.2419898510        1354484115.2944083     
  -1769186307.8377790       -5422011.3537322283        1353030004.0810919     
  -1713784381.3538423       -5053206.9844962358        1355708444.6421323     
  -1658687189.9256124       -5700186.1342922449        1362519436.9775248     
  -2257384836.4009666       -9513947.3857911825        1289751126.4250400     
  -2189651911.6921391       -5638475.9968993664        1282608248.7401505     
  -2122458893.5498624       -3562693.1631735563        1280008971.6801302     
  -2055805781.9741316       -3286598.8846025467        1281953295.2449796     
  -1989692576.9649513       -4810193.1612013578        1288441219.4347005     
  -2637491111.1419950       -10908665.416160464        1218783520.0830011     
  -2556862233.0325074       -5205766.4595053196        1209810060.9382477     
  -2477008433.0004139       -2086461.0941563845        1205791251.2688758     
  -2397929711.0457067       -1550749.3200973272        1206727091.0748899     
  -2319626067.1683874       -3598631.1373354197        1212617580.3562872     
  -3021223190.1958618       -13391124.740384459        1147167959.2559679     
  -2926523933.3985295       -5508470.6298081875        1136089551.8886981     
  -2832834926.1894307       -993315.14667594433        1130376842.8473279     
  -2740156168.5685587        154341.70903480053        1130029832.1318586     
  -2648487660.5359225       -2065500.0627093315        1135048519.7422872     
  -1326609906.0503685       -6268610.0566099286        1434852232.9847603     
  -1271989948.3038592       -3524018.8419017792        1426697438.2357261     
  -1217726808.5940614       -1968821.0828976631        1423847808.1666460     
  -1163820486.9209847       -1603016.7796332240        1426303342.7775183     
  -1110270983.2846243       -2426605.9320871234        1434064042.0683427     
  -1658687189.9256124       -5700186.1342922449        1362519436.9775248     
  -1590699569.6557307       -3299364.8793835640        1354270207.8804574     
  -1522947430.7572601       -1683481.5291774869        1351077962.9582927     
  -1455430773.2302027       -852536.08368760347        1352942702.2110312     
  -1388149597.0745564       -806528.54289656878        1359864425.6386716     
  -1989692576.9649513       -4810193.1612013578        1288441219.4347005     
  -1909046381.3289852       -2965868.0132826567        1280239115.4324553     
  -1828514330.3991284       -1502025.2190611362        1276845815.1000619     
  -1748096424.1753767       -418664.77852201462        1278261318.4375219     
  -1667792662.6577315        284213.30832433701        1284485625.4448333     
  -2319626067.1683874       -3598631.1373354197        1212617580.3562872     
  -2227030383.3236260       -2523528.2436014414        1204604160.8917220     
  -2134427507.5196660       -1424452.1525408030        1201151364.5919552     
  -2041817439.7565074       -301402.86415171623        1202259191.4569905     
  -1949200180.0341454        845619.62157857418        1207927641.4868302     
  -2648487660.5359225       -2065500.0627093315        1135048519.7422872     
  -2544651575.6396465       -1972345.5703275204        1127365344.2582533     
  -2440686962.1188726       -1450762.3296220303        1123994611.4339709     
  -2336593819.9735923       -500750.34055972099        1124936321.2694423     
  -2232372149.2038088        877690.39684450626        1130190473.7646632     
  -1110270983.2846243       -2426605.9320871234        1434064042.0683427     
  -1069066848.2960315       -7428509.2681319118        1430503908.3105543     
  -1027818886.6482552       -12284323.740236342        1432339081.5250232     
  -986527098.34130716       -16994049.348432958        1439569561.7117498     
  -945191483.37517560       -21557686.092684090        1452195348.8707354     
  -1388149597.0745564       -806528.54289656878        1359864425.6386716     
  -1333713806.4780934       -5089095.3630934358        1355277777.9885316     
  -1279355694.0881736       -9630589.5384374857        1355308019.2531457     
  -1225075259.9048014       -14431011.068941712        1359955149.4325144     
  -1170872503.9279730       -19490359.954584479        1369219168.5266352     
  -1667792662.6577315        284213.30832433701        1284485625.4448333     
  -1602349268.0462663       -3946232.4738816023        1278730708.2256663     
  -1537105056.5070708       -8840621.8303221464        1276814261.8637471     
  -1472060028.0401444       -14398954.760991812        1278736286.3590784     
  -1407214182.6454899       -20621231.265894115        1284496781.7116578     
  -1949200180.0341454        845619.62157857418        1207927641.4868302     
  -1874973233.0005543       -3999920.6005126238        1200862699.0219555     
  -1801066973.9049506       -9914420.6159033775        1196857809.3568254     
  -1727481402.7473392       -16897880.424597383        1195912972.4914403     
  -1654216519.5277267       -24950300.026619732        1198028188.4257984     
  -2232372149.2038088        877690.39684450626        1130190473.7646632     
  -2151585701.3409529       -5250159.7429685593        1121673750.3774004     
  -2071241446.2818165       -12851985.895184278        1115438661.7323825     
  -1991339384.0263939       -21927788.059780121        1111485207.8296025     
  -1911879514.5746906       -32477566.236773491        1109813388.6690655     
  -945191483.37517560       -21557686.092684090        1452195348.8707354     
  -875748213.10357845       -18311910.935787857        1452844281.6710207     
  -806759462.69366527       -16581201.984508783        1460785863.4530244     
  -738225232.14546323       -16365559.238934040        1476020094.2167397     
  -670145521.45895076       -17664982.698986322        1498546973.9621756     
  -1170872503.9279730       -19490359.954584479        1369219168.5266352     
  -1083519129.9174123       -15163770.741325736        1365173094.6928806     
  -996456812.19122398       -11807369.142636895        1367361956.1251433     
  -909685550.74940848       -9421155.1585333347        1375785752.8234262     
  -823205345.59196389       -8005128.7889905572        1390444484.7877202     
  -1407214182.6454899       -20621231.265894115        1284496781.7116578     
  -1304972744.0836830       -16120439.752604544        1275946408.7507396     
  -1202858898.2289257       -12044957.262807906        1272573257.3401392     
  -1100872645.0812130       -8394783.7964954376        1274377327.4798586     
  -999013984.64054918       -5169919.3536730409        1281358619.1698961     
  -1654216519.5277267       -24950300.026619732        1198028188.4257984     
  -1540109055.6023886       -21181917.969615579        1185164223.8446012     
  -1425965720.8067725       -17293966.345012426        1176419767.0980189     
  -1311786515.1408763       -13286445.152819276        1171794818.1860590     
  -1197571438.6047041       -9159354.3930231929        1171289377.1087151     
  -1911879514.5746906       -32477566.236773491        1109813388.6690655     
  -1788928064.4735241       -30348205.392345548        1092826539.9744627     
  -1665777279.9247653       -27554396.389271557        1078901485.3987792     
  -1542427160.9283934       -24096139.227492034        1068038224.9420104     
  -1418877707.4844201       -19973433.907041550        1060236758.6041691     
  -3768365084.5622478       -1130509525.3686743        800602833.46486390     
  -3779267909.4357505       -1008656532.2157202        884886056.76347101     
  -3790776975.3535953       -888824342.54390395        974106104.18369865     
  -3802892282.3157816       -771012956.35322523        1068262975.7255473     
  -3815613830.3223095       -655222373.64368534        1167356671.3890166     
  -4339870996.4029884       -1301961298.9208965        858809868.71924627     
  -4335358284.2293272       -1125695904.1235926        942421031.55668807     
  -4331980756.2174187       -953214456.53213274        1020396767.6216316     
  -4329738412.3672647       -784516956.14651823        1092737076.9140766     
  -4328631252.6788664       -619603402.96674895        1159441959.4340236     
  -4895291490.0833969       -1468587447.0250192        936474585.09860611     
  -4905569671.9886265       -1246971579.9211819        1018796587.1712356     
  -4917511981.1730213       -1030902803.7478957        1084910911.5772471     
  -4931118417.6365814       -820381118.50516117        1134817558.3166418     
  -4946388981.3793068       -615406524.19297683        1168516527.3894191     
  -5434626565.6034737       -1630387969.6810422        1033596982.6029438     
  -5489902072.7136478       -1372483559.6084881        1114012723.6071131     
  -5547370650.2203989       -1121889384.1911912        1167648536.0505462     
  -5607032298.1237278       -878605443.42915249        1194504419.9332426     
  -5668887016.4236355       -642631737.32237172        1194580375.2552025     
  -5957876222.9632187       -1787362866.8889656        1150177061.2322590     
  -6088355486.4043922       -1502231843.1855106        1228069440.8643212     
  -6221556763.3595543       -1226174197.8620198        1268609641.0415280     
  -6357480053.8287067       -959189930.91849411        1271797661.7638791     
  -6496125357.8118467       -701279042.35493135        1237633503.0313754     
  -3815613830.3223095       -655222373.64368534        1167356671.3890166     
  -3798303376.2898917       -537182813.73764896        1189023429.5185633     
  -3784844235.1132565       -431980963.35088468        1205769579.9452572     
  -3775236406.7924032       -339616822.48339510        1217595122.6690993     
  -3769479891.3273301       -260090391.13517690        1224500057.6900895     
  -4328631252.6788664       -619603402.96674895        1159441959.4340236     
  -4298502781.0855141       -463805410.88312185        1141504476.2719915     
  -4278989864.6717038       -343392602.73129892        1129634129.9725466     
  -4270092503.4374342       -258364978.51127791        1123830920.5356898     
  -4271810697.3827057       -208722538.22305727        1124094847.9614208     
  -4946388981.3793068       -615406524.19297683        1168516527.3894191     
  -4872048936.3237648       -412432033.16138434        1103083186.8914232     
  -4815088688.7715254       -267390200.47412348        1054704727.8214548     
  -4775508238.7225838       -180281026.13119388        1023381150.1795138     
  -4753307586.1769419       -151104510.13259530        1009112453.9655997     
  -5668887016.4236355       -642631737.32237172        1194580375.2552025     
  -5518941842.0046473       -383062680.57243514        1073759561.3768580     
  -5393140707.4127207       -203973756.57936144        980981373.49198055     
  -5291483612.6478500       -105364965.34314752        916245811.60056937     
  -5213970557.7100372       -87236306.863791227        879552875.70262694     
  -6496125357.8118467       -701279042.35493135        1237633503.0313754     
  -6239181498.1281595       -375697353.11627603        1053533599.7282969     
  -6013145920.5952892       -153143271.04701066        908464066.98412478     
  -5818018625.2132339       -33616796.147133827        802424904.79886043     
  -5653799611.9819975       -17117928.416646957        735416113.17250097     
  -3769479891.3273301       -260090391.13517690        1224500057.6900895     
  -3662644253.8383293       -167691938.35801733        1191955274.0934808     
  -3563463928.8857894       -100811194.03572726        1169822767.0982769     
  -3471938916.4697094       -59448158.168302298        1158102536.7044787     
  -3388069216.5900922       -43602830.755757332        1156794582.9120851     
  -4271810697.3827057       -208722538.22305727        1124094847.9614208     
  -4149140499.4451971       -144531871.85698771        1090744391.9689815     
  -4030866806.6492329       -94996222.629403114        1065671579.6611648     
  -3916989618.9948139       -60115590.540306091        1048876411.0379704     
  -3807508936.4819431       -39889975.589699745        1040358886.0993967     
  -4753307586.1769419       -151104510.13259530        1009112453.9655997     
  -4620901778.9817295       -116951315.53485441        978758267.53806376     
  -4489633669.5331507       -86590446.759220839        954547091.87836742     
  -4359503257.8312035       -60021903.805691719        936478926.98651147     
  -4230510543.8758879       -37245686.674270868        924553772.86249471     
  -5213970557.7100372       -87236306.863791227        879552875.70262694     
  -5077928092.4479322       -84950269.391622782        855996900.80072725     
  -4939764517.5375462       -75593866.425181627        836449303.74988592     
  -4799479832.9788752       -59167097.964461803        820910084.55010033     
  -4657074038.7719202       -35669964.009467125        809379243.20137191     
  -5653799611.9819975       -17117928.416646957        735416113.17250097     
  -5520219439.8438053       -48528733.427294731        722460291.75697279     
  -5381259350.6624165       -62006481.627285957        711378215.27571845     
  -5236919344.4378319       -57551173.016619921        702169883.72874010     
  -5087199421.1700487       -35162807.595294476        694835297.11603343     
  -3388069216.5900922       -43602830.755757332        1156794582.9120851     
  -3296596460.8103046       -36845740.314480424        1149441412.2755637     
  -3204964537.8180013       -29558092.498154163        1145385918.1207042     
  -3113173447.6131892       -21739887.306792259        1144628100.4475050     
  -3021223190.1958618       -13391124.740384459        1147167959.2559679     
  -3807508936.4819431       -39889975.589699745        1040358886.0993967     
  -3705052590.1366224       -29404366.088243961        1031977442.4525025     
  -3603232291.1325393       -21038914.390911579        1027886810.6681610     
  -3502048039.4696903       -14793620.497698784        1028086990.7463726     
  -3401499835.1480799       -10668484.408608198        1032577982.6871386     
  -4230510543.8758879       -37245686.674270868        924553772.86249471     
  -4114233077.3053436       -22180299.214733601        914216305.89251673     
  -3999386872.6297827       -11885784.738478661        909162786.16598463     
  -3885971929.8492093       -6362143.2455129623        909393213.68289936     
  -3773988248.9636216       -5609374.7358300686        914907588.44325936     
  -4657074038.7719202       -35669964.009467125        809379243.20137191     
  -4524137922.3164606       -15173539.693938971        796158002.59560490     
  -4393428282.3097334       -2098703.5408608913        789213844.61417770     
  -4264945118.7517414        3554544.4497704506        788546769.25708687     
  -4138688431.6424828        1786204.2779514790        794156776.52433574     
  -5087199421.1700487       -35162807.595294476        694835297.11603343     
  -4934767125.1699791       -8384087.5258660316        677802532.56177056     
  -4785356520.1723890        8322329.2019493580        668039986.01273811     
  -4638967606.1772852        14956442.588148832        665547657.46893573     
  -4495600383.1846647        11518252.632737875        670325546.93036556     
  -3021223190.1958618       -13391124.740384459        1147167959.2559679     
  -2926523933.3985295       -5508470.6298081875        1136089551.8886981     
  -2832834926.1894307       -993315.14667594433        1130376842.8473279     
  -2740156168.5685587        154341.70903480053        1130029832.1318586     
  -2648487660.5359225       -2065500.0627093315        1135048519.7422872     
  -3401499835.1480799       -10668484.408608198        1032577982.6871386     
  -3294655906.1495895       -6405084.3946170807        1023056855.9215600     
  -3188330074.9603043       -3868677.0779848099        1018347298.8532637     
  -3082522341.5802188       -3059262.4586828947        1018449311.4822488     
  -2977232706.0093455       -3976840.5367451906        1023362893.8085181     
  -3773988248.9636216       -5609374.7358300686        914907588.44325936     
  -3656582872.4171634       -5440196.2143828869        907517919.35490489     
  -3539203441.9008856       -5357504.4602005482        904385691.33521461     
  -3421849957.4147835       -5361299.4732716084        905510904.38418710     
  -3304522418.9588590       -5451581.2536048889        910893558.50182438     
  -4138688431.6424828        1786204.2779514790        794156776.52433574     
  -4012304832.2012544       -2613806.0891022682        789472742.18873298     
  -3885455027.0111775       -5459797.2933330536        788492020.29318082     
  -3758139016.0722513       -6751769.3347296715        791214610.83766973     
  -3630356799.3844767       -6489722.2132976055        797640513.82220578     
  -4495600383.1846647        11518252.632737875        670325546.93036556     
  -4361821785.5018578        2074085.9812295437        668921324.42304707     
  -4227084830.2911768       -4175555.5773749352        670666285.72716045     
  -4091389517.5526199       -7230672.0430586338        675560430.84269583     
  -3954735847.2861872       -7091263.4158215523        683603759.76966393     
  -2648487660.5359225       -2065500.0627093315        1135048519.7422872     
  -2544651575.6396465       -1972345.5703275204        1127365344.2582533     
  -2440686962.1188726       -1450762.3296220303        1123994611.4339709     
  -2336593819.9735923       -500750.34055972099        1124936321.2694423     
  -2232372149.2038088        877690.39684450626        1130190473.7646632     
  -2977232706.0093455       -3976840.5367451906        1023362893.8085181     
  -2861536659.1290364       -2575733.6425156593        1016355509.2022204     
  -2745852122.1893377       -1212993.2169784307        1013856894.4465370     
  -2630179095.1902471        111380.73986530304        1015867049.5414718     
  -2514517578.1317673        1397388.2279980183        1022385974.4870178     
  -3304522418.9588590       -5451581.2536048889        910893558.50182438     
  -3176405475.2634811       -2574241.5082070827        904398586.44730008     
  -3048440080.0738258       -202063.44855487347        902608711.43425333     
  -2920626233.3898830        1664952.9253829718        905523933.46268547     
  -2792963935.2116666        3026807.6135722399        913144252.53259504     
  -3630356799.3844767       -6489722.2132976055        797640513.82220578     
  -3489258024.0429883       -1967869.1674237251        791494575.99349260     
  -3348450835.7723341        1582026.9756724834        790250062.39711905     
  -3207935234.5725093        4159966.2160000801        793906973.03308618     
  -3067711220.4435153        5765948.5535652637        802465307.90139616     
  -3954735847.2861872       -7091263.4158215523        683603759.76966393     
  -3800094305.4675531       -756616.62015771866        677643477.84079635     
  -3645884389.2848644        4139278.0556864738        676780947.33513033     
  -3492106098.7381129        7596420.6117372513        681016168.25267184     
  -3338759433.8273110        9614811.0479638577        690349140.59341800     
  -2232372149.2038088        877690.39684450626        1130190473.7646632     
  -2151585701.3409529       -5250159.7429685593        1121673750.3774004     
  -2071241446.2818165       -12851985.895184278        1115438661.7323825     
  -1991339384.0263939       -21927788.059780121        1111485207.8296025     
  -1911879514.5746906       -32477566.236773491        1109813388.6690655     
  -2514517578.1317673        1397388.2279980183        1022385974.4870178     
  -2427329653.6234860       -6283929.1272144318        1015108855.8848609     
  -2340410601.8635845       -14861488.977038622        1010832807.7789567     
  -2253760422.8520694       -24335291.321472645        1009557830.1693074     
  -2167379116.5889354       -34705336.160519361        1011283923.0559163     
  -2792963935.2116666        3026807.6135722399        913144252.53259504     
  -2697319003.3322082       -5591317.7393232584        907308945.44676495     
  -2601769624.1457915       -14527952.069037318        905194144.61120296     
  -2506315797.6524229       -23783095.375574708        906799850.02591276     
  -2410957523.8520985       -33356747.658932090        912126061.69089150     
  -3067711220.4435153        5765948.5535652637        802465307.90139616     
  -2961553750.4671154       -3172325.5792778730        798274019.06311655     
  -2855318513.1284289       -11851375.171165466        798522672.22911978     
  -2749005508.4274492       -20271200.222075343        803211267.39941013     
  -2642614736.3641825       -28431800.732028961        812339804.57398379     
  -3338759433.8273110        9614811.0479638577        690349140.59341800     
  -3220033895.0282159        973047.35289812088        688004076.73391640     
  -3101057268.8114944       -6831758.2834129333        690818390.63271153     
  -2981829555.1771522       -13799605.860982060        698792082.28980625     
  -2862350754.1251798       -19930495.379796386        711925151.70520484     
  -1911879514.5746906       -32477566.236773491        1109813388.6690655     
  -1788928064.4735241       -30348205.392345548        1092826539.9744627     
  -1665777279.9247653       -27554396.389271557        1078901485.3987792     
  -1542427160.9283934       -24096139.227492034        1068038224.9420104     
  -1418877707.4844201       -19973433.907041550        1060236758.6041691     
  -2167379116.5889354       -34705336.160519361        1011283923.0559163     
  -2035673674.8741207       -31931671.375327587        998798961.35427105     
  -1903998391.8469257       -29258535.548863769        989837359.71171665     
  -1772353267.5073466       -26685928.681141615        984399118.12825584     
  -1640738301.8554075       -24213850.772168756        982484236.60389423     
  -2410957523.8520985       -33356747.658932090        912126061.69089150     
  -2269179330.6945581       -29543150.984230518        903875244.99110162     
  -2127660789.3598630       -26595060.385692000        899609354.29058361     
  -1986401899.8480201       -24512475.863312006        899328389.58934188     
  -1845402662.1590195       -23295397.417090058        903032350.88735867     
  -2642614736.3641825       -28431800.732028961        812339804.57398379     
  -2489445031.9348412       -23182644.219096065        808055390.88495827     
  -2336764472.4635787       -19563970.899752021        808217469.13537633     
  -2184573057.9503808       -17575780.773979425        812826039.32524216     
  -2032870788.3952661       -17218073.841801763        821881101.45454681     
  -2862350754.1251798       -19930495.379796386        711925151.70520484     
  -2696470778.5949750       -12850151.079923630        711339399.03584123     
  -2531309441.1580620       -8165267.0910433531        715661704.24609911     
  -2366866741.8144555       -5875843.4131747484        724892067.33596921     
  -2203142680.5641494       -5981880.0462977886        739030488.30547416     
  -5957876222.9632187       -1787362866.8889656        1150177061.2322590     
  -6088355486.4043922       -1502231843.1855106        1228069440.8643212     
  -6221556763.3595543       -1226174197.8620198        1268609641.0415280     
  -6357480053.8287067       -959189930.91849411        1271797661.7638791     
  -6496125357.8118467       -701279042.35493135        1237633503.0313754     
  -6810458101.8500900       -2043137430.5550270        1353906123.3822970     
  -6828382001.0043192       -1395431510.3847895        1202891948.2821958     
  -6897671730.9486580       -918945026.18158484        1092139872.1345727     
  -7018327291.6831093       -613677977.94541574        1021649894.9394277     
  -7190348683.2076654       -479630365.67627811        991422016.69676208     
  -8337789841.9515505       -2501336952.5854654        1712475471.4488027     
  -8021403295.6550245       -1424529611.5993013        1275803621.4610639     
  -7805026397.4247274       -681087764.16724014        957008148.83313692     
  -7688659147.2606659       -271011410.28928375        756089053.56502151     
  -7672301545.1628313       -194300549.96542978        673046335.65671778     
  -10539871443.267597       -3161961432.9802790        2225885105.4317760     
  -9667419370.3565063       -1589526146.8290455        1446804460.4009252     
  -8943620762.7877655       -512602411.81898499        863214471.13721979     
  -8368475620.5613785        68809772.049901009        475115137.64065963     
  -7941983943.6773453        154710404.77761507        282506459.91124427     
  -13416702905.798231       -4025010871.7394691        2894135025.3312178     
  -11766430225.108765       -1890421116.0740240        1715894465.1017804     
  -10313454827.037771       -413488969.13682079        810758839.04682183     
  -9057776711.5852489        405785569.07213974        178728147.16634279     
  -7999395878.7511988        567402498.55285740       -180197610.53965837     
  -6496125357.8118467       -701279042.35493135        1237633503.0313754     
  -6239181498.1281595       -375697353.11627603        1053533599.7282969     
  -6013145920.5952892       -153143271.04701066        908464066.98412478     
  -5818018625.2132339       -33616796.147133827        802424904.79886043     
  -5653799611.9819975       -17117928.416646957        735416113.17250097     
  -7190348683.2076654       -479630365.67627811        991422016.69676208     
  -6900289796.6178102       -304285038.26743889        847158270.14032102     
  -6623036311.0804491       -171624381.03358340        724007180.29813886     
  -6358588226.5955858       -81648393.974717140        621968747.17021382     
  -6106945543.1632156       -34357077.090835571        541042970.75654495     
  -7672301545.1628313       -194300549.96542978        673046335.65671778     
  -7400321099.7943773       -184549624.82467508        589738773.79495704     
  -7123043174.3800955       -157140432.86450338        509626154.80280465     
  -6840467768.9199905       -112072974.08491397        432708478.68025911     
  -6552594883.4140606       -49347248.485910892        358985745.42732245     
  -7941983943.6773453        154710404.77761507        282506459.91124427     
  -7739275407.6578560       -16491112.787983418        281275110.69220400     
  -7513166510.4942265       -109691426.53976250        265320990.49812165     
  -7263657252.1864500       -124890536.47772741        234644099.32899716     
  -6990747632.7345304       -62088442.601876736        189244437.18483135     
  -7999395878.7511988        567402498.55285740       -180197610.53965837     
  -7917152720.2082567        199890497.84262896       -78232719.167937547     
  -7793406319.4228430       -29277362.059374332       -8908312.6159081794     
  -7628156676.3949680       -120101081.15316153        27775609.116427772     
  -7421403791.1246223       -72580659.438725948        31819046.029076088     
  -5653799611.9819975       -17117928.416646957        735416113.17250097     
  -5520219439.8438053       -48528733.427294731        722460291.75697279     
  -5381259350.6624165       -62006481.627285957        711378215.27571845     
  -5236919344.4378319       -57551173.016619921        702169883.72874010     
  -5087199421.1700487       -35162807.595294476        694835297.11603343     
  -6106945543.1632156       -34357077.090835571        541042970.75654495     
  -5958703653.8379965       -36027133.120311737        534752374.15157980     
  -5809485683.0303106       -34443584.208235264        531003026.83747512     
  -5659291630.7401562       -29606430.354604006        529794928.81423324     
  -5508121496.9675379       -21515671.559418440        531128080.08185583     
  -6552594883.4140606       -49347248.485910892        358985745.42732245     
  -6387784121.5972748       -20704408.942853928        354222565.47873247     
  -6226401113.8587513       -3487416.3273472786        352668139.17759192     
  -6068445860.1984959        2303729.3606100082        354322466.52390468     
  -5913918360.6165009       -3330971.8789808750        359185547.51766324     
  -6990747632.7345304       -62088442.601876736        189244437.18483135     
  -6807460843.1216393       -2560560.8949222565        180870865.73843381     
  -6632005643.1477451        30862022.015377522        176373552.29607096     
  -6464382032.8128510        38179306.129016876        175752496.85774636     
  -6304590012.1169481        19391291.446008444        179007699.42345989     
  -7421403791.1246223       -72580659.438725948        31819046.029076088     
  -7217733818.4110918        18404411.023483276        14697274.930677209     
  -7026299270.8972902        68604730.819930077        2119266.1929054842     
  -6847100148.5832148        78020299.950622559       -5914980.1842353661     
  -6680136451.4688663        46651118.415555477       -9405464.2007568292     
  -5087199421.1700487       -35162807.595294476        694835297.11603343     
  -4934767125.1699791       -8384087.5258660316        677802532.56177056     
  -4785356520.1723890        8322329.2019493580        668039986.01273811     
  -4638967606.1772852        14956442.588148832        665547657.46893573     
  -4495600383.1846647        11518252.632737875        670325546.93036556     
  -5508121496.9675379       -21515671.559418440        531128080.08185583     
  -5343350069.5649109       -9341648.0765061378        516218971.27757198     
  -5179552826.9862490       -414907.34014868736        506901598.60537487     
  -5016729769.2315531        5264550.6496601105        503175962.06526071     
  -4854880896.3008242        7696725.8929097652        505042061.65723163     
  -5913918360.6165009       -3330971.8789808750        359185547.51766324     
  -5741603464.3060217       -7200343.7309908867        348788851.67163378     
  -5568215246.6409931       -7491977.7345068455        342305410.08454049     
  -5393753707.6214094       -4205873.8895082474        339735222.75638276     
  -5218218847.2472744        2657967.8039915562        341078289.68717003     
  -6304590012.1169481        19391291.446008444        179007699.42345989     
  -6129527309.3933144       -1960174.4893343449        175512173.74395317     
  -5951343779.1366177       -12908881.981126070        174251420.45023444     
  -5770039421.3468494       -13454831.029351234        175225439.54230627     
  -5585614236.0240107       -3598021.6340160370        178434231.02017680     
  -6680136451.4688663        46651118.415555477       -9405464.2007568292     
  -6507121604.8267860        6378859.6484649181       -3611062.5054723248     
  -6328938424.4731274       -16665620.080022097        2739629.7024547094     
  -6145586910.4078741       -22482320.769865274        9646612.4230312388     
  -5957067062.6310368       -11071242.421097517        17109885.656249814     
  -4495600383.1846647        11518252.632737875        670325546.93036556     
  -4361821785.5018578        2074085.9812295437        668921324.42304707     
  -4227084830.2911768       -4175555.5773749352        670666285.72716045     
  -4091389517.5526199       -7230672.0430586338        675560430.84269583     
  -3954735847.2861872       -7091263.4158215523        683603759.76966393     
  -4854880896.3008242        7696725.8929097652        505042061.65723163     
  -4711141114.5809135        3464537.3732402325        502952004.69974869     
  -4567239215.9928598       -227261.58594560623        504172449.00587773     
  -4423175200.5366621       -3378670.9846532345        508703394.57561123     
  -4278949068.2123218       -5989690.8228902817        516544841.40896022     
  -5218218847.2472744        2657967.8039915562        341078289.68717003     
  -5064056974.4840250        3776029.5180404186        337373450.84316480     
  -4910529225.5123606        2780345.2601385117        337140430.71495646     
  -4757635600.3322878       -329084.96973299980        340379229.30253476     
  -4605376098.9437981       -5552261.1715595722        347089846.60590619     
  -5585614236.0240107       -3598021.6340160370        178434231.02017680     
  -5420569365.2111845        3008562.4156396389        172185662.85329330     
  -5256954858.8496761        4847264.9608912468        169570230.85439524     
  -5094770716.9394960        1918086.0017206669        170587935.02346364     
  -4934016939.4806347       -5778974.4618384838        175238775.36050814     
  -5957067062.6310368       -11071242.421097517        17109885.656249814     
  -5780678286.7624054        1162136.0659940243        7388640.7301412188     
  -5606516116.0048218        5973497.5162677765        1461849.4241908514     
  -5434580550.3582926        3362841.9296936989       -670488.26160128659     
  -5264871589.8228149       -6669830.6937265396        991627.67276480456     
  -3954735847.2861872       -7091263.4158215523        683603759.76966393     
  -3800094305.4675531       -756616.62015771866        677643477.84079635     
  -3645884389.2848644        4139278.0556864738        676780947.33513033     
  -3492106098.7381129        7596420.6117372513        681016168.25267184     
  -3338759433.8273110        9614811.0479638577        690349140.59341800     
  -4278949068.2123218       -5989690.8228902817        516544841.40896022     
  -4111699616.1089172       -1460019.1394195557        509512970.37189138     
  -3944458195.8705964        3042879.6604342461        507498273.15656042     
  -3777224807.4973459        7519005.5767188072        510500749.76297295     
  -3609999450.9891825        11968358.609382629        518520400.19112432     
  -4605376098.9437981       -5552261.1715595722        347089846.60590619     
  -4425748958.2740946       -2896631.1158287525        339480579.19331247     
  -4245706255.6986146        1144205.2925059795        336807908.00099105     
  -4065247991.2173405        6570248.0534653664        339071833.02894998     
  -3884374164.8302932        13381497.167022705        346272354.27717805     
  -4934016939.4806347       -5778974.4618384838        175238775.36050814     
  -4742242331.9630995       -5066452.5493831635        167546304.30505896     
  -4549628568.7689228       -1556745.0481138229        164709851.86842325     
  -4356175649.8980942        4750148.0419926643        166729418.05059960     
  -4161883575.3506207        13854226.720902920        173605002.85158628     
  -5264871589.8228149       -6669830.6937265396        991627.67276480456     
  -5061179737.1759205       -7969483.4400920868       -6289854.2928684186     
  -4856225135.0815220       -5059971.3614335060       -8795895.2411450073     
  -4650007783.5396080        2058705.5422701836       -6526495.1720766537     
  -4442527682.5501871        13386547.271008015        518345.91433456232     
  -3338759433.8273110        9614811.0479638577        690349140.59341800     
  -3220033895.0282159        973047.35289812088        688004076.73391640     
  -3101057268.8114944       -6831758.2834129333        690818390.63271153     
  -2981829555.1771522       -13799605.860982060        698792082.28980625     
  -2862350754.1251798       -19930495.379796386        711925151.70520484     
  -3609999450.9891825        11968358.609382629        518520400.19112432     
  -3478618812.2504168        5595569.2202005386        514649075.55699331     
  -3347275456.2120843       -901495.83708524704        514829455.97064102     
  -3215969382.8741879       -7522836.5624834299        519061541.43207222     
  -3084700592.2367139       -14268452.955977440        527345331.94128132     
  -3884374164.8302932        13381497.167022705        346272354.27717805     
  -3743503205.3247657        8328248.3318541050        340538337.06401575     
  -3602957898.6377239        2189490.1017448902        337748352.18812060     
  -3462738244.7691803       -5034777.5233650208        337902399.64948225     
  -3322844243.7191210       -13344554.543432236        341000479.44810897     
  -4161883575.3506207        13854226.720902920        173605002.85158628     
  -4014687074.2512465        9171084.6878838539        165671861.25499278     
  -3868104596.0884218        2441199.5330286026        159575079.28514588     
  -3722136140.8621449       -6335428.7436447144        155314656.94203779     
  -3576781708.5724154       -17158800.142153740        152890594.22567725     
  -4442527682.5501871        13386547.271008015        518345.91433456232     
  -4292170419.0298753        8124078.2882487774       -9950351.8700788226     
  -4142715548.5641665       -146367.54317188263       -19690362.738276795     
  -3994163071.1530738       -11424790.223306656       -28701686.690255348     
  -3846512986.7965760       -25711189.752115726       -36984323.726007275     
  -2862350754.1251798       -19930495.379796386        711925151.70520484     
  -2696470778.5949750       -12850151.079923630        711339399.03584123     
  -2531309441.1580620       -8165267.0910433531        715661704.24609911     
  -2366866741.8144555       -5875843.4131747484        724892067.33596921     
  -2203142680.5641494       -5981880.0462977886        739030488.30547416     
  -3084700592.2367139       -14268452.955977440        527345331.94128132     
  -2906357790.3770866       -7106479.2864428759        520627661.79033363     
  -2728119209.0941381       -291907.53916168213        518569885.69708782     
  -2549984848.3878617        6175262.2858685255        521172003.66154540     
  -2371954708.2582593        12295030.188665509        528434015.68370032     
  -3322844243.7191210       -13344554.543432236        341000479.44810897     
  -3132747655.0212789       -6313663.3516031504        328867712.25163895     
  -2942140869.3834791        2417884.3067346811        321146675.29096061     
  -2751023886.8057284        12850088.431572080        317837368.56605196     
  -2559396707.2880230        24982949.022939205        318939792.07694435     
  -3576781708.5724154       -17158800.142153740        152890594.22567725     
  -3375640372.5275483       -10471703.275401831        136059550.41975179     
  -3173374422.0261040       -35891.553384542465        123392073.02770366     
  -2969983857.0680618        14148635.023933172        114888162.04950829     
  -2765468677.6534543        32081876.456499457        110547817.48519240     
  -3846512986.7965760       -25711189.752115726       -36984323.726007275     
  -3635035942.8958764       -19580599.057790995       -57796823.705312207     
  -3421819867.0219698       -7653235.1194343567       -74693921.092672899     
  -3206864759.1748538        10070902.062960267       -87675615.888090774     
  -2990170619.3545208        33591812.489388943       -96741908.091550007     
 </DataArray>
 <DataArray  type="Float64" Name="VM" NumberOfComponents="1" format="ascii">
   12935776240.753851     
   11340720679.749403     
   10210083912.411732     
   9272503828.1483212     
   8303527611.7621021     
   10130346324.007259     
   9321947449.1877213     
   8826211514.4498615     
   8443290537.7497330     
   8035370654.2964067     
   7982325531.6097679     
   7734888077.9672737     
   7669028845.7360373     
   7669434418.5645103     
   7666172801.8878145     
   6491627964.4991598     
   6586830616.4399729     
   6757370986.7557716     
   6961165941.9236279     
   7171555115.0300226     
   5657807897.0903463     
   5890935003.4305658     
   6116426294.7421417     
   6331822406.6056747     
   6536899147.2304058     
   8303527611.7621021     
   8020111478.0582409     
   7778824266.3007545     
   7568973721.1606665     
   7385586585.7683163     
   8035370654.2964067     
   7746378097.3610392     
   7473068914.0311718     
   7213482229.4602003     
   6967625364.7055025     
   7666172801.8878145     
   7380817024.7545862     
   7100864424.4744835     
   6826392751.4174232     
   6557605863.3549995     
   7171555115.0300226     
   6910858495.1354370     
   6658074016.5879812     
   6409342990.3583755     
   6161520103.7106714     
   6536899147.2304058     
   6328845822.1188126     
   6142998028.8335667     
   5965445906.3604136     
   5787181726.0271444     
   7385586585.7683163     
   7226998438.4586420     
   7060852566.5498447     
   6886449408.3920269     
   6703603556.3390465     
   6967625364.7055025     
   6813386942.6135893     
   6654506094.6888409     
   6490698361.9736328     
   6321915589.3272896     
   6557605863.3549995     
   6406900988.5626078     
   6254557812.5351658     
   6100545368.9061880     
   5944895726.3198185     
   6161520103.7106714     
   6012541268.8167696     
   5864904383.1995964     
   5718649745.2929020     
   5573835803.2706747     
   5787181726.0271444     
   5636766367.1487265     
   5490564720.9143095     
   5348492606.3023834     
   5210599048.7889118     
   6703603556.3390465     
   6510316389.0171795     
   6320623880.4806824     
   6134399410.2671804     
   5951612953.8636847     
   6321915589.3272896     
   6136082428.6765337     
   5952556170.4920826     
   5771309468.7443972     
   5592362521.5537481     
   5944895726.3198185     
   5769721111.9150820     
   5595969911.9084196     
   5423667709.5102329     
   5252874272.2604542     
   5573835803.2706747     
   5413040518.4111977     
   5253233895.5298109     
   5094465066.7472172     
   4936850914.3184195     
   5210599048.7889118     
   5068419102.4038134     
   4927307976.9727097     
   4787325734.9058075     
   4648692934.6158514     
   5951612953.8636847     
   5781273612.6159487     
   5609505826.5908413     
   5436262879.6040325     
   5261540128.8470764     
   5592362521.5537481     
   5430270084.0893202     
   5267574582.6612167     
   5104288915.1175680     
   4940462420.8579893     
   5252874272.2604542     
   5099536442.1055708     
   4946508773.1362381     
   4793861185.8445377     
   4641698367.9469376     
   4936850914.3184195     
   4792709749.7757835     
   4649860835.6398735     
   4508423595.9727440     
   4368554363.1625500     
   4648692934.6158514     
   4514078827.1285143     
   4381779666.0575008     
   4251950463.3446927     
   4124788992.6171908     
   5261540128.8470764     
   5057211436.6487265     
   4853721028.3366318     
   4651051199.8702126     
   4449236128.6369715     
   4940462420.8579893     
   4748586839.0946512     
   4557787612.5105534     
   4368109132.7899513     
   4179658185.1526141     
   4641698367.9469376     
   4463203302.0849113     
   4286163742.2131462     
   4110705930.6257567     
   3937033670.2659397     
   4368554363.1625500     
   4204626402.9631329     
   4042700311.1023407     
   3883003719.7254338     
   3725860349.9605107     
   4124788992.6171908     
   3976863618.5502372     
   3831667900.6214538     
   3689544604.4494023     
   3550951204.4853530     
   4449236128.6369715     
   4296272768.6651793     
   4142782734.4532499     
   3988772738.9958472     
   3834257199.4593992     
   4179658185.1526141     
   4029510749.3088722     
   3879184770.9736385     
   3728689329.1691027     
   3578046262.4980197     
   3937033670.2659397     
   3793805676.5967627     
   3651221833.3368139     
   3509370517.0947218     
   3368378537.3689332     
   3725860349.9605107     
   3593727322.0533476     
   3463579702.7585502     
   3335655420.4883218     
   3210272055.9696140     
   3550951204.4853530     
   3433919245.1953387     
   3320708867.0118546     
   3211741116.7238193     
   3107557443.7040744     
   3834257199.4593992     
   3626667202.5564351     
   3420447264.1206956     
   3215500012.5697098     
   3011772127.6931415     
   3578046262.4980197     
   3378645525.2062988     
   3180545302.3754272     
   2983726502.1015296     
   2788230758.8406887     
   3368378537.3689332     
   3181010945.0154014     
   2995449602.7774696     
   2811887381.9612060     
   2630635905.3472810     
   3210272055.9696140     
   3039649926.3607454     
   2872034550.6943183     
   2707963932.0385051     
   2548178040.6057234     
   3107557443.7040744     
   2958797210.8508334     
   2814860617.3514323     
   2676675312.5262208     
   2545425783.1954865     
   5657807897.0903463     
   5890935003.4305658     
   6116426294.7421417     
   6331822406.6056747     
   6536899147.2304058     
   5151480295.5804510     
   5311403637.2018003     
   5467963971.3103533     
   5618265928.9609613     
   5760843311.8680229     
   4643535094.6710358     
   4755658253.1289577     
   4868911874.7014303     
   4980661628.2924013     
   5088982385.1943398     
   4134235428.5989790     
   4224535460.4656835     
   4320763483.0257139     
   4421263544.1273470     
   4524581661.3295918     
   3625099896.7672138     
   3719857613.2829466     
   3825874022.5715308     
   3943086204.6030855     
   4071402030.7159548     
   6536899147.2304058     
   6328845822.1188126     
   6142998028.8335667     
   5965445906.3604136     
   5787181726.0271444     
   5760843311.8680229     
   5652453821.7480402     
   5560079692.1389093     
   5474658233.8810568     
   5390648514.1161175     
   5088982385.1943398     
   5054497949.4549561     
   5030534291.4172363     
   5011883238.3500710     
   4995342150.4460907     
   4524581661.3295918     
   4539567178.8478594     
   4559223516.2407618     
   4581068423.3139973     
   4603376612.3473101     
   4071402030.7159548     
   4112981978.6274571     
   4151904816.7265902     
   4187269916.9986019     
   4218343433.8142767     
   5787181726.0271444     
   5636766367.1487265     
   5490564720.9143095     
   5348492606.3023834     
   5210599048.7889118     
   5390648514.1161175     
   5249703895.3280439     
   5111997099.0604773     
   4977571317.9612474     
   4846522213.8242283     
   4995342150.4460907     
   4868253645.3888760     
   4744368183.0167227     
   4623654824.6704779     
   4506155508.4006624     
   4603376612.3473101     
   4495079897.0562935     
   4391009236.2608023     
   4290847769.6933260     
   4194505203.0255742     
   4218343433.8142767     
   4134145584.7196550     
   4056434015.4282808     
   3984356659.6875730     
   3917614825.4585962     
   5210599048.7889118     
   5068419102.4038134     
   4927307976.9727097     
   4787325734.9058075     
   4648692934.6158514     
   4846522213.8242283     
   4722394487.9674683     
   4600170809.2592020     
   4479994139.8529291     
   4362131665.5972214     
   4506155508.4006624     
   4398127468.2725468     
   4292718452.0626454     
   4190117335.3842702     
   4090601028.9283185     
   4194505203.0255742     
   4100520322.2942233     
   4009684698.2298260     
   3922198357.1609716     
   3838317078.8974457     
   3917614825.4585962     
   3835503483.2572742     
   3756815864.0454750     
   3681733555.3616033     
   3610470095.5196886     
   4648692934.6158514     
   4514078827.1285143     
   4381779666.0575008     
   4251950463.3446927     
   4124788992.6171908     
   4362131665.5972214     
   4237677571.8355694     
   4115912517.6281114     
   3997041672.9081612     
   3881322438.9399476     
   4090601028.9283185     
   3977625139.2212758     
   3867915319.3332529     
   3761727049.7358809     
   3659380356.8910770     
   3838317078.8974457     
   3738132161.4755034     
   3642008064.8897200     
   3550245087.9911118     
   3463221817.6274357     
   3610470095.5196886     
   3524280132.7113657     
   3443166607.2197194     
   3367459147.3524261     
   3297578841.4114275     
   4124788992.6171908     
   3976863618.5502372     
   3831667900.6214538     
   3689544604.4494023     
   3550951204.4853530     
   3881322438.9399476     
   3747992813.5001411     
   3618136044.7723937     
   3492144847.5096116     
   3370523025.7933555     
   3659380356.8910770     
   3540507316.3775845     
   3425854427.5565701     
   3315847399.0588970     
   3211013526.5867629     
   3463221817.6274357     
   3358565735.8338933     
   3258848289.2697401     
   3164505134.6637983     
   3076058148.5206804     
   3297578841.4114275     
   3206726455.2219534     
   3121458932.8859859     
   3042194304.9704523     
   2969416975.8971038     
   3550951204.4853530     
   3433919245.1953387     
   3320708867.0118546     
   3211741116.7238193     
   3107557443.7040744     
   3370523025.7933555     
   3266977194.8497200     
   3167342777.0926194     
   3071996361.8179846     
   2981404809.1257300     
   3211013526.5867629     
   3119312132.0377002     
   3031459593.4353590     
   2947784684.6944284     
   2868680719.3816757     
   3076058148.5206804     
   2994670875.8342237     
   2916900694.5186954     
   2843027163.6536107     
   2773373875.1212077     
   2969416975.8971038     
   2896982665.1202192     
   2827754775.4302440     
   2761964135.4433970     
   2699870774.1154518     
   3107557443.7040744     
   2958797210.8508334     
   2814860617.3514323     
   2676675312.5262208     
   2545425783.1954865     
   2981404809.1257300     
   2845878167.5465536     
   2715654758.2891250     
   2591588492.2722135     
   2474736972.1600575     
   2868680719.3816757     
   2744809682.6192074     
   2626585839.2333674     
   2514771556.9681749     
   2410283385.6391010     
   2773373875.1212077     
   2659470339.3651786     
   2551409712.5315957     
   2449852224.6534662     
   2355569009.2454166     
   2699870774.1154518     
   2594167184.9478049     
   2494345381.5033555     
   2400960750.6728816     
   2314644461.7649517     
   3625099896.7672138     
   3719857613.2829466     
   3825874022.5715308     
   3943086204.6030855     
   4071402030.7159548     
   3138089113.9812427     
   3255680433.4610019     
   3382691771.9871316     
   3518654363.8932176     
   3663110703.4936876     
   2694853530.8951902     
   2830663240.5277014     
   2973783659.4445229     
   3123132501.0932560     
   3277798813.6829700     
   2298879293.5417790     
   2449595675.0471148     
   2605029282.8508701     
   2763257195.6133723     
   2922849379.1698513     
   1955371879.1163990     
   2119429785.0962162     
   2284837047.0428557     
   2448632450.7128978     
   2608857037.8823872     
   4071402030.7159548     
   4112981978.6274571     
   4151904816.7265902     
   4187269916.9986019     
   4218343433.8142767     
   3663110703.4936876     
   3702611458.6432099     
   3740725601.6118212     
   3776552204.4806013     
   3809340282.4368038     
   3277798813.6829700     
   3321087564.7715654     
   3364613967.5920310     
   3407553618.6784163     
   3449227236.5253620     
   2922849379.1698513     
   2975792607.0787530     
   3030954880.2132106     
   3087653480.4029074     
   3145354935.7943749     
   2608857037.8823872     
   2676779722.1487136     
   2749206856.6494164     
   2825630528.7526145     
   2905698072.8117127     
   4218343433.8142767     
   4134145584.7196550     
   4056434015.4282808     
   3984356659.6875730     
   3917614825.4585962     
   3809340282.4368038     
   3756529978.6215692     
   3709694258.6926999     
   3668357194.6647930     
   3632420126.8679166     
   3449227236.5253620     
   3423222987.6160846     
   3402303720.7828665     
   3386238270.5711880     
   3375009133.3228087     
   3145354935.7943749     
   3141850663.1885757     
   3141951605.5364928     
   3145556212.6429601     
   3152649874.3744540     
   2905698072.8117127     
   2920730345.8434157     
   2937114119.2611232     
   2954794368.7782311     
   2973732093.6925201     
   3917614825.4585962     
   3835503483.2572742     
   3756815864.0454750     
   3681733555.3616033     
   3610470095.5196886     
   3632420126.8679166     
   3561239281.5793996     
   3494296405.9292164     
   3431805263.4644265     
   3374019361.5146008     
   3375009133.3228087     
   3316242205.6797009     
   3262742350.7440739     
   3214737289.8245206     
   3172502804.2337489     
   3152649874.3744540     
   3107430616.5579753     
   3068705681.5847569     
   3036685107.5992165     
   3011635116.1575480     
   2973732093.6925201     
   2942524435.4115644     
   2919197698.8273435     
   2903901438.0083404     
   2896850393.5295014     
   3610470095.5196886     
   3524280132.7113657     
   3443166607.2197194     
   3367459147.3524261     
   3297578841.4114275     
   3374019361.5146008     
   3303813298.0427427     
   3239167268.2558227     
   3180396447.0807505     
   3127883435.5827951     
   3172502804.2337489     
   3117292529.9106669     
   3067988209.8216367     
   3024864350.1135368     
   2988238810.3646264     
   3011635116.1575480     
   2970141571.5330005     
   2934710811.7467198     
   2905556473.1266422     
   2882914917.9279957     
   2896850393.5295014     
   2867422203.4899511     
   2843985908.6812797     
   2826685654.5735054     
   2815673948.3676844     
   3297578841.4114275     
   3206726455.2219534     
   3121458932.8859859     
   3042194304.9704523     
   2969416975.8971038     
   3127883435.5827951     
   3050780937.2206788     
   2980106758.5271564     
   2916279257.7029877     
   2859772367.3762708     
   2988238810.3646264     
   2925037003.3679972     
   2869098490.1961403     
   2820809356.1656599     
   2780596418.4020267     
   2882914917.9279957     
   2833236844.6912775     
   2791602186.8033853     
   2758332911.4055181     
   2733776521.3788939     
   2815673948.3676844     
   2778468089.0241990     
   2749998646.5949125     
   2730501525.7159100     
   2720226498.8035383     
   2969416975.8971038     
   2896982665.1202192     
   2827754775.4302440     
   2761964135.4433970     
   2699870774.1154518     
   2859772367.3762708     
   2798973852.5877476     
   2742898087.6403856     
   2691822862.5158801     
   2646052958.8657637     
   2780596418.4020267     
   2732521215.8033671     
   2690714614.2863731     
   2655460677.1137657     
   2627061943.2753077     
   2733776521.3788939     
   2698585651.3160825     
   2671161210.2384582     
   2651748960.6143322     
   2640603138.4804559     
   2720226498.8035383     
   2697043133.0340862     
   2683043438.4840055     
   2678402672.1506791     
   2683298241.0585785     
   2699870774.1154518     
   2594167184.9478049     
   2494345381.5033555     
   2400960750.6728816     
   2314644461.7649517     
   2646052958.8657637     
   2560000946.8053045     
   2482117478.9427896     
   2413056327.0304098     
   2353518416.7935033     
   2627061943.2753077     
   2562478240.5905786     
   2508157568.9285798     
   2464723586.0920358     
   2432803091.7835989     
   2640603138.4804559     
   2597865682.3617172     
   2567165011.2130423     
   2549000904.7192321     
   2543845310.0008321     
   2683298241.0585785     
   2661485107.6181426     
   2653195146.8277092     
   2658771991.0149193     
   2678525286.2690797     
   1955371879.1163990     
   2119429785.0962162     
   2284837047.0428557     
   2448632450.7128978     
   2608857037.8823872     
   1653821880.9851425     
   1820254434.8655038     
   1988377627.6644833     
   2155493988.8350263     
   2319844783.8174577     
   1393568684.0913911     
   1570913971.4329171     
   1749257790.8368661     
   1926595434.6749058     
   2101675936.6462884     
   1206944298.0941730     
   1398849984.5104916     
   1590325234.7334261     
   1780592746.6819632     
   1969193674.7929244     
   1136673690.2561748     
   1334949488.1878481     
   1533524359.1282489     
   1732398303.0773759     
   1931571320.0352294     
   2608857037.8823872     
   2676779722.1487136     
   2749206856.6494164     
   2825630528.7526145     
   2905698072.8117127     
   2319844783.8174577     
   2406845815.6356330     
   2496277907.7786102     
   2587752278.2020326     
   2680993904.4147544     
   2101675936.6462884     
   2205342339.3934741     
   2308901651.4225011     
   2412118307.5006881     
   2514825863.9832621     
   1969193674.7929244     
   2086232888.6040797     
   2200396583.4561839     
   2311609954.7683434     
   2419820995.1431284     
   1931571320.0352294     
   2058106826.6632602     
   2179188639.1968164     
   2294816757.6358995     
   2404991181.9805083     
   2905698072.8117127     
   2920730345.8434157     
   2937114119.2611232     
   2954794368.7782311     
   2973732093.6925201     
   2680993904.4147544     
   2702841632.7785115     
   2727063886.4236169     
   2753643574.0536485     
   2782573301.6318116     
   2514825863.9832621     
   2543344430.0524807     
   2575283754.9896598     
   2610645673.5367260     
   2649436220.3857250     
   2419820995.1431284     
   2453403629.5426073     
   2491450453.4414711     
   2533964901.4710908     
   2580951301.8535199     
   2404991181.9805083     
   2440486963.1263165     
   2481477741.6606560     
   2527963517.5835271     
   2579944290.8949289     
   2973732093.6925201     
   2942524435.4115644     
   2919197698.8273435     
   2903901438.0083404     
   2896850393.5295014     
   2782573301.6318116     
   2766064573.9927301     
   2757035489.5719533     
   2755575498.3206697     
   2761807788.2836208     
   2649436220.3857250     
   2644438595.9901209     
   2646226992.1215920     
   2654839302.8398118     
   2670326803.5785389     
   2580951301.8535199     
   2583939310.7449031     
   2592742858.5156584     
   2607369877.8152022     
   2627831258.0958800     
   2579944290.8949289     
   2587412998.3335218     
   2599506431.7605190     
   2616224591.1759191     
   2637567476.5797224     
   2896850393.5295014     
   2867422203.4899511     
   2843985908.6812797     
   2826685654.5735054     
   2815673948.3676844     
   2761807788.2836208     
   2739814353.1285167     
   2724526349.9378157     
   2716045094.3495474     
   2714476290.7832122     
   2670326803.5785389     
   2654112061.9884381     
   2645278984.3666635     
   2643881465.6482964     
   2649975052.3750930     
   2627831258.0958800     
   2614974699.2614975     
   2610124218.6692986     
   2613295202.5411344     
   2624503381.6302862     
   2637567476.5797224     
   2625027075.2146034     
   2621056728.0168781     
   2625656434.9865446     
   2638826196.1236033     
   2815673948.3676844     
   2778468089.0241990     
   2749998646.5949125     
   2730501525.7159100     
   2720226498.8035383     
   2714476290.7832122     
   2688034970.3571510     
   2670453764.4535589     
   2661874944.6588936     
   2662445740.5672641     
   2649975052.3750930     
   2631775858.0873890     
   2622458608.0943246     
   2622088814.1043849     
   2630733032.4426751     
   2624503381.6302862     
   2611584056.0894146     
   2607493789.0108895     
   2612248993.7663598     
   2625866141.2585464     
   2638826196.1236033     
   2627983785.4364734     
   2625871485.1654301     
   2632489295.3104696     
   2647837215.8715925     
   2720226498.8035383     
   2697043133.0340862     
   2683043438.4840055     
   2678402672.1506791     
   2683298241.0585785     
   2662445740.5672641     
   2646675097.9533858     
   2639059818.7679062     
   2639683201.5028024     
   2648628804.2638507     
   2630733032.4426751     
   2619710147.6824818     
   2615773436.8695445     
   2618952804.4601660     
   2629278113.4045577     
   2625866141.2585464     
   2617185779.6928239     
   2614496182.9847660     
   2617803070.3589134     
   2627112150.2273068     
   2647837215.8715925     
   2639495582.2222700     
   2636033370.9464536     
   2637450582.0441380     
   2643747215.5153275     
   2683298241.0585785     
   2661485107.6181426     
   2653195146.8277092     
   2658771991.0149193     
   2678525286.2690797     
   2648628804.2638507     
   2633063499.0351706     
   2629987734.4534736     
   2639583300.0268149     
   2662014031.8119264     
   2629278113.4045577     
   2616769422.5317326     
   2615853931.4554000     
   2626607501.3531327     
   2649098993.2474656     
   2627112150.2273068     
   2614456471.0162573     
   2612630846.7824354     
   2621653020.4094620     
   2641539324.2700477     
   2643747215.5153275     
   2627852472.3124399     
   2622132778.6563268     
   2626588134.5470052     
   2641218539.9844623     
   1136673690.2561748     
   1334949488.1878481     
   1533524359.1282489     
   1732398303.0773759     
   1931571320.0352294     
   1206944298.7523940     
   1398849985.1586280     
   1590325235.3756118     
   1780592747.3212869     
   1969193675.4313245     
   1393568685.1581128     
   1570913972.5345623     
   1749257791.9700975     
   1926595435.8390181     
   2101675937.8414903     
   1653821882.2063673     
   1820254436.1922772     
   1988377629.0861163     
   2155493990.3462257     
   2319844785.4161673     
   1955371880.3120201     
   2119429786.4658077     
   2284837048.5732489     
   2448632452.3971586     
   2608857039.7181826     
   1931571320.0352294     
   2058106826.6632602     
   2179188639.1968164     
   2294816757.6358995     
   2404991181.9805083     
   1969193675.4313245     
   2086232889.4145231     
   2200396584.4553723     
   2311609955.9738355     
   2419820996.5728121     
   2101675937.8414903     
   2205342340.8753052     
   2308901653.2222657     
   2412118309.6500473     
   2514825866.5140705     
   2319844785.4161673     
   2406845817.5630493     
   2496277910.0793362     
   2587752280.9195824     
   2680993907.5924668     
   2608857039.7181826     
   2676779724.2804084     
   2749206859.1332116     
   2825630531.6418281     
   2905698076.1591783     
   2404991181.9805083     
   2440486963.1263165     
   2481477741.6606560     
   2527963517.5835271     
   2579944290.8949289     
   2419820996.5728121     
   2453403630.9429479     
   2491450454.8048763     
   2533964902.7889462     
   2580951303.1167598     
   2514825866.5140705     
   2543344432.5942707     
   2575283757.5337973     
   2610645676.0735116     
   2649436222.9048753     
   2680993907.5924668     
   2702841636.0671797     
   2727063889.8204107     
   2753643577.5556641     
   2782573305.2359843     
   2905698076.1591783     
   2920730349.4411221     
   2937114123.1178112     
   2954794372.9045906     
   2973732098.1002450     
   2579944290.8949289     
   2587412998.3335218     
   2599506431.7605190     
   2616224591.1759191     
   2637567476.5797224     
   2580951303.1167598     
   2583939313.0390053     
   2592742862.0030098     
   2607369882.6563144     
   2627831264.4473429     
   2649436222.9048753     
   2644438600.2651968     
   2646226998.4606872     
   2654839311.5497694     
   2670326814.9625759     
   2782573305.2359843     
   2766064579.6549606     
   2757035497.7290530     
   2755575509.4140239     
   2761807802.7584076     
   2973732098.1002450     
   2942524441.7057500     
   2919197707.5529356     
   2903901449.7263579     
   2896850408.8203769     
   2637567476.5797224     
   2625027075.2146034     
   2621056728.0168781     
   2625656434.9865446     
   2638826196.1236033     
   2627831264.4473429     
   2614974706.3117728     
   2610124226.5347195     
   2613295211.3372111     
   2624503391.4726262     
   2670326814.9625759     
   2654112074.6778717     
   2645278998.6075177     
   2643881481.6875000     
   2649975070.4618292     
   2761807802.7584076     
   2739814369.3169928     
   2724526368.2297516     
   2716045115.1416283     
   2714476314.4805002     
   2896850408.8203769     
   2867422220.6139793     
   2843985928.1794829     
   2826685677.0047445     
   2815673974.3103786     
   2638826196.1236033     
   2627983785.4364734     
   2625871485.1654301     
   2632489295.3104696     
   2647837215.8715925     
   2624503391.4726262     
   2611584065.9802542     
   2607493799.0285735     
   2612249003.9969864     
   2625866151.7981262     
   2649975070.4618292     
   2631775876.4519100     
   2622458626.9181428     
   2622088833.5832734     
   2630733052.7902255     
   2714476314.4805002     
   2688034994.6859245     
   2670453789.7313108     
   2661874971.2244372     
   2662445768.7846937     
   2815673974.3103786     
   2778468115.9868417     
   2749998675.0676899     
   2730501556.2210813     
   2720226531.8987818     
   2647837215.8715925     
   2639495582.2222700     
   2636033370.9464536     
   2637450582.0441380     
   2643747215.5153275     
   2625866151.7981262     
   2617185786.4224524     
   2614496185.2637115     
   2617803067.5746684     
   2627112141.7955942     
   2630733052.7902255     
   2619710162.5136623     
   2615773444.9937639     
   2618952804.7170730     
   2629278104.6637883     
   2662445768.7846937     
   2646675121.3266869     
   2639059835.6511168     
   2639683210.2478523     
   2648628803.2193408     
   2720226531.8987818     
   2697043164.4599328     
   2683043466.2529302     
   2678402694.2009811     
   2683298255.2493014     
   2643747215.5153275     
   2627852472.3124399     
   2622132778.6563268     
   2626588134.5470052     
   2641218539.9844623     
   2627112141.7955942     
   2614456490.1488709     
   2612630893.3987260     
   2621653094.2982893     
   2641539425.0467682     
   2629278104.6637883     
   2616769453.2407179     
   2615854000.8483648     
   2626607608.6006050     
   2649099137.4106979     
   2648628803.2193408     
   2633063534.2521462     
   2629987803.7533364     
   2639583401.4185076     
   2662014163.4923019     
   2683298255.2493014     
   2661485141.0271401     
   2653195194.8346696     
   2658772049.5995612     
   2678525352.1324844     
   1955371880.3120201     
   2119429786.4658077     
   2284837048.5732489     
   2448632452.3971586     
   2608857039.7181826     
   2298879294.6108880     
   2449595676.3173275     
   2605029284.3184805     
   2763257197.2778125     
   2922849381.0330138     
   2694853531.7943997     
   2830663241.6261768     
   2973783660.7480035     
   3123132502.6085377     
   3277798815.4176979     
   3138089114.6880603     
   3255680434.3412466     
   3382691773.0547166     
   3518654365.1621690     
   3663110704.9781442     
   3625099897.2702389     
   3719857613.9134555     
   3825874023.3499789     
   3943086205.5499530     
   4071402031.8519301     
   2608857039.7181826     
   2676779724.2804084     
   2749206859.1332116     
   2825630531.6418281     
   2905698076.1591783     
   2922849381.0330138     
   2975792609.1540828     
   3030954882.5395837     
   3087653483.0162201     
   3145354938.7292309     
   3277798815.4176979     
   3321087566.6483059     
   3364613969.6335435     
   3407553620.9043970     
   3449227238.9535413     
   3663110704.9781442     
   3702611460.2207627     
   3740725603.2903743     
   3776552206.2652173     
   3809340284.3303552     
   4071402031.8519301     
   4112981979.8338442     
   4151904817.9979305     
   4187269918.3273110     
   4218343435.1910625     
   2905698076.1591783     
   2920730349.4411221     
   2937114123.1178112     
   2954794372.9045906     
   2973732098.1002450     
   3145354938.7292309     
   3141850666.3873158     
   3141951609.0062075     
   3145556216.3926740     
   3152649878.4138660     
   3449227238.9535413     
   3423222990.2888255     
   3402303723.7042861     
   3386238273.7475491     
   3375009136.7617722     
   3809340284.3303552     
   3756529980.7173014     
   3709694260.9903717     
   3668357197.1662178     
   3632420129.5774236     
   4218343435.1910625     
   4134145586.2416110     
   4056434017.0897937     
   3984356661.4842019     
   3917614827.3892093     
   2973732098.1002450     
   2942524441.7057500     
   2919197707.5529356     
   2903901449.7263579     
   2896850408.8203769     
   3152649878.4138660     
   3107430621.6802454     
   3068705688.1476488     
   3036685115.9816880     
   3011635126.7646694     
   3375009136.7617722     
   3316242209.3822651     
   3262742354.8857284     
   3214737294.6002679     
   3172502809.8630352     
   3632420129.5774236     
   3561239283.8473687     
   3494296407.7591295     
   3431805264.8723149     
   3374019362.5322285     
   3917614827.3892093     
   3835503484.2445164     
   3756815863.9369831     
   3681733554.0080142     
   3610470092.7747793     
   2896850408.8203769     
   2867422220.6139793     
   2843985928.1794829     
   2826685677.0047445     
   2815673974.3103786     
   3011635126.7646694     
   2970141582.5056114     
   2934710823.5107026     
   2905556486.1295319     
   2882914932.6417527     
   3172502809.8630352     
   3117292534.5966158     
   3067988213.8866162     
   3024864353.9023180     
   2988238814.2476501     
   3374019362.5322285     
   3303813297.0403056     
   3239167265.4649057     
   3180396442.7524362     
   3127883429.9903612     
   3610470092.7747793     
   3524280127.1466079     
   3443166598.9913878     
   3367459136.6304111     
   3297578828.3800135     
   2815673974.3103786     
   2778468115.9868417     
   2749998675.0676899     
   2730501556.2210813     
   2720226531.8987818     
   2882914932.6417527     
   2833236858.4845662     
   2791602200.0036469     
   2758332924.3639197     
   2733776534.4715862     
   2988238814.2476501     
   2925037005.0462499     
   2869098489.8627448     
   2820809354.0212121     
   2780596414.6538124     
   3127883429.9903612     
   3050780928.8250518     
   2980106747.4247241     
   2916279243.9753671     
   2859772351.0867295     
   3297578828.3800135     
   3206726439.4694996     
   3121458914.4602170     
   3042194283.8800197     
   2969416952.1042318     
   2720226531.8987818     
   2697043164.4599328     
   2683043466.2529302     
   2678402694.2009811     
   2683298255.2493014     
   2733776534.4715862     
   2698585664.0585365     
   2671161221.6118517     
   2651748969.5066071     
   2640603143.6786461     
   2780596414.6538124     
   2732521212.9681668     
   2690714612.2753143     
   2655460675.7503991     
   2627061942.2844553     
   2859772351.0867295     
   2798973837.9413552     
   2742898075.4205642     
   2691822853.4473357     
   2646052953.6022210     
   2969416952.1042318     
   2896982642.7882767     
   2827754756.1176324     
   2761964120.6879992     
   2699870765.4247141     
   2683298255.2493014     
   2661485141.0271401     
   2653195194.8346696     
   2658772049.5995612     
   2678525352.1324844     
   2640603143.6786461     
   2597865690.2503996     
   2567165015.3987498     
   2549000899.1178198     
   2543845288.9506922     
   2627061942.2844553     
   2562478236.1790023     
   2508157553.2476997     
   2464723551.1562519     
   2432803029.5530868     
   2646052953.6022210     
   2560000942.4921799     
   2482117467.0550985     
   2413056298.3750944     
   2353518361.4963918     
   2699870765.4247141     
   2594167191.3190985     
   2494345394.9270363     
   2400960762.0469642     
   2314644460.7395091     
   3625099897.2702389     
   3719857613.9134555     
   3825874023.3499789     
   3943086205.5499530     
   4071402031.8519301     
   4134235428.8925543     
   4224535460.8397322     
   4320763483.4890537     
   4421263544.6913967     
   4524581662.0077448     
   4643535094.7510157     
   4755658253.2461176     
   4868911874.8523750     
   4980661628.4790535     
   5088982385.4224043     
   5151480295.4405746     
   5311403637.0621243     
   5467963971.1554861     
   5618265928.7836819     
   5760843311.6668310     
   5657807896.7205572     
   5890935003.0326710     
   6116426294.2892313     
   6331822406.0819836     
   6536899146.6279793     
   4071402031.8519301     
   4112981979.8338442     
   4151904817.9979305     
   4187269918.3273110     
   4218343435.1910625     
   4524581662.0077448     
   4539567179.5500212     
   4559223516.9686260     
   4581068424.0685835     
   4603376613.1297245     
   5088982385.4224043     
   5054497949.6532593     
   5030534291.5957308     
   5011883238.5185852     
   4995342150.6155396     
   5760843311.6668310     
   5652453821.4566584     
   5560079691.7749176     
   5474658233.4615917     
   5390648513.6596937     
   6536899146.6279793     
   6328845821.3590508     
   6142998027.9404135     
   5965445905.3562498     
   5787181724.9350595     
   4218343435.1910625     
   4134145586.2416110     
   4056434017.0897937     
   3984356661.4842019     
   3917614827.3892093     
   4603376613.1297245     
   4495079897.9519510     
   4391009237.2709818     
   4290847770.8197370     
   4194505204.2721930     
   4995342150.6155396     
   4868253645.6120396     
   4744368183.2975292     
   4623654825.0128508     
   4506155508.8095131     
   5390648513.6596937     
   5249703894.8380909     
   5111997098.5403032     
   4977571317.4141769     
   4846522213.2534485     
   5787181724.9350595     
   5636766365.9085493     
   5490564719.5259962     
   5348492604.7666769     
   5210599047.1058464     
   3917614827.3892093     
   3835503484.2445164     
   3756815863.9369831     
   3681733554.0080142     
   3610470092.7747793     
   4194505204.2721930     
   4100520322.4565291     
   4009684697.1690907     
   3922198354.7401199     
   3838317074.9829345     
   4506155508.8095131     
   4398127467.5993814     
   4292718450.1939559     
   4190117332.2061586     
   4090601024.3284001     
   4846522213.2534485     
   4722394486.4226122     
   4600170806.6608877     
   4479994136.1198626     
   4362131660.6468115     
   5210599047.1058464     
   5068419099.9291172     
   4927307973.6672649     
   4787325730.7284136     
   4648692929.5217648     
   3610470092.7747793     
   3524280127.1466079     
   3443166598.9913878     
   3367459136.6304111     
   3297578828.3800135     
   3838317074.9829345     
   3738132154.8664765     
   3642008055.6371479     
   3550245076.1498618     
   3463221803.2566495     
   4090601024.3284001     
   3977625132.1787567     
   3867915309.8105960     
   3761727037.6907067     
   3659380342.2750292     
   4362131660.6468115     
   4237677564.8535438     
   4115912508.5053902     
   3997041661.5239711     
   3881322425.1587243     
   4648692929.5217648     
   4514078820.5937271     
   4381779657.9171124     
   4251950453.4174585     
   4124788980.7004418     
   3297578828.3800135     
   3206726439.4694996     
   3121458914.4602170     
   3042194283.8800197     
   2969416952.1042318     
   3463221803.2566495     
   3358565719.6127739     
   3258848271.3276973     
   3164505115.1020980     
   3076058127.4048758     
   3659380342.2750292     
   3540507300.4705791     
   3425854410.5355482     
   3315847381.0846381     
   3211013507.7979403     
   3881322425.1587243     
   3747992798.6932011     
   3618136029.1313882     
   3492144831.2206798     
   3370523009.0340405     
   4124788980.7004418     
   3976863605.6051083     
   3831667886.8252053     
   3689544589.9814677     
   3550951189.5275922     
   2969416952.1042318     
   2896982642.7882767     
   2827754756.1176324     
   2761964120.6879992     
   2699870765.4247141     
   3076058127.4048758     
   2994670855.9541306     
   2916900676.8581629     
   2843027149.1717429     
   2773373864.7447863     
   3211013507.7979403     
   3119312114.6243663     
   3031459577.8997297     
   2947784671.5036569     
   2868680708.9568357     
   3370523009.0340405     
   3266977180.2649541     
   3167342764.8056870     
   3071996351.8992143     
   2981404801.5712438     
   3550951189.5275922     
   3433919234.0847216     
   3320708859.5954051     
   3211741112.7699242     
   3107557442.8637772     
   2699870765.4247141     
   2594167191.3190985     
   2494345394.9270363     
   2400960762.0469642     
   2314644460.7395091     
   2773373864.7447863     
   2659470356.1058836     
   2551409753.3458829     
   2449852285.7621675     
   2355569085.9901953     
   2868680708.9568357     
   2744809702.0681868     
   2626585889.6339979     
   2514771639.2412229     
   2410283500.5206990     
   2981404801.5712438     
   2845878182.1705647     
   2715654799.2764616     
   2591588564.3860784     
   2474737080.9475093     
   3107557442.8637772     
   2958797213.5943747     
   2814860629.8676257     
   2676675342.3880692     
   2545425839.9150705     
   5657807896.7205572     
   5890935003.0326710     
   6116426294.2892313     
   6331822406.0819836     
   6536899146.6279793     
   6491627963.9910135     
   6586830615.7358532     
   6757370985.8643913     
   6961165940.8729200     
   7171555113.8571997     
   7982325531.1529522     
   7734888077.1622829     
   7669028844.6129827     
   7669434417.1713161     
   7666172800.2779770     
   10130346323.785246     
   9321947448.4767494     
   8826211513.2889156     
   8443290536.1927223     
   8035370652.3914375     
   12935776240.948435     
   11340720679.312899     
   10210083911.386486     
   9272503826.5945644     
   8303527609.7207718     
   6536899146.6279793     
   6328845821.3590508     
   6142998027.9404135     
   5965445905.3562498     
   5787181724.9350595     
   7171555113.8571997     
   6910858493.7764740     
   6658074015.0566769     
   6409342988.6658449     
   6161520101.8666239     
   7666172800.2779770     
   7380817022.8970690     
   7100864422.3760786     
   6826392749.0823412     
   6557605860.7847080     
   8035370652.3914375     
   7746378095.1111879     
   7473068911.4378004     
   7213482226.5239096     
   6967625361.4244461     
   8303527609.7207718     
   8020111475.5352716     
   7778824263.2907248     
   7568973717.6626463     
   7385586581.7816525     
   5787181724.9350595     
   5636766365.9085493     
   5490564719.5259962     
   5348492604.7666769     
   5210599047.1058464     
   6161520101.8666239     
   6012541266.7027998     
   5864904380.8086891     
   5718649742.6187820     
   5573835800.3079662     
   6557605860.7847080     
   6406900985.6303167     
   6254557809.2301626     
   6100545365.2178831     
   5944895722.2388277     
   6967625361.4244461     
   6813386938.9090757     
   6654506090.5494661     
   6490698357.3873596     
   6321915584.2829723     
   7385586581.7816525     
   7226998434.0183420     
   7060852561.6465349     
   6886449403.0152311     
   6703603550.4788408     
   5210599047.1058464     
   5068419099.9291172     
   4927307973.6672649     
   4787325730.7284136     
   4648692929.5217648     
   5573835800.3079662     
   5413040514.8427715     
   5253233891.3481464     
   5094465061.9426470     
   4936850908.8777103     
   5944895722.2388277     
   5769721107.3778906     
   5595969906.9353695     
   5423667704.1199284     
   5252874266.4694977     
   6321915584.2829723     
   6136082423.2743082     
   5952556164.7761803     
   5771309462.7576666     
   5592362515.3393421     
   6703603550.4788408     
   6510316382.8345461     
   6320623874.0400963     
   6134399403.6318378     
   5951612947.0996933     
   4648692929.5217648     
   4514078820.5937271     
   4381779657.9171124     
   4251950453.4174585     
   4124788980.7004418     
   4936850908.8777103     
   4792709743.5657902     
   4649860828.5337992     
   4508423587.8307095     
   4368554353.8274069     
   5252874266.4694977     
   5099536436.1711731     
   4946508766.9644051     
   4793861179.3313656     
   4641698360.9755440     
   5592362515.3393421     
   5430270078.2975817     
   5267574577.2248116     
   5104288909.9617920     
   4940462415.8989105     
   5951612947.0996933     
   5781273606.7725639     
   5609505821.6209612     
   5436262875.4547052     
   5261540125.4587898     
   4124788980.7004418     
   3976863605.6051083     
   3831667886.8252053     
   3689544589.9814677     
   3550951189.5275922     
   4368554353.8274069     
   4204626393.1011286     
   4042700300.7239690     
   3883003708.8233628     
   3725860338.4993114     
   4641698360.9755440     
   4463203295.9457445     
   4286163736.8547072     
   4110705925.9716077     
   3937033666.1958809     
   4940462415.8989105     
   4748586837.2085743     
   4557787613.6757259     
   4368109136.9648619     
   4179658192.2515516     
   5261540125.4587898     
   5057211439.4560118     
   4853721037.4226103     
   4651051215.3125896     
   4449236150.4808054     
   3550951189.5275922     
   3433919234.0847216     
   3320708859.5954051     
   3211741112.7699242     
   3107557442.8637772     
   3725860338.4993114     
   3593727315.2824268     
   3463579700.7966032     
   3335655423.4480414     
   3210272063.9491706     
   3937033666.1958809     
   3793805676.2771978     
   3651221836.8782129     
   3509370524.6317935     
   3368378549.0730019     
   4179658192.2515516     
   4029510757.5166960     
   3879184780.1639700     
   3728689339.2260499     
   3578046273.3339629     
   4449236150.4808054     
   4296272787.3891859     
   4142782749.5291319     
   3988772749.8624935     
   3834257205.5340900     
   3107557442.8637772     
   2958797213.5943747     
   2814860629.8676257     
   2676675342.3880692     
   2545425839.9150705     
   3210272063.9491706     
   3039649917.8295078     
   2872034527.0781903     
   2707963895.3164649     
   2548177993.6524940     
   3368378549.0730019     
   3181010929.6907158     
   2995449558.7221451     
   2811887307.3688774     
   2630635798.3188334     
   3578046273.3339629     
   3378645509.7632117     
   3180545257.8730049     
   2983726425.4746771     
   2788230646.5198197     
   3834257205.5340900     
   3626667194.9790401     
   3420447240.9203987     
   3215499971.7755914     
   3011772067.0425143     
 </DataArray>
 <DataArray  type="Float64" Name="strain" NumberOfComponents="3" format="ascii">
  0.20348666073965899        0.0000000000000000       0.12541251774579396     
  0.18665506484775540       -2.7325132528170301E-002   7.4355426809626868E-002
  0.16982346895585176       -4.4675791323369789E-002   3.5132883018273324E-002
  0.15299187306394815       -5.2051976385598483E-002   7.7448863717333900E-003
  0.13616027717204457       -4.9453687714856379E-002  -7.8085631299931041E-003
  0.15985471690003530        0.0000000000000000        9.6455021212647096E-002
  0.15317602545439823       -2.1844994408434217E-002   6.2694859932556829E-002
  0.14649733400876122       -3.6174730290460866E-002   3.7405960400186150E-002
  0.13981864256312418       -4.2989207646079941E-002   2.0588322615535025E-002
  0.13313995111748711       -4.2288426475291421E-002   1.2241946578603544E-002
  0.12645647928534620        0.0000000000000000        7.4207270402517941E-002
  0.12656740688888177       -1.6364856288698142E-002   5.5284823571941262E-002
  0.12667833449241730       -2.7673669257551940E-002   4.1470353091990174E-002
  0.12678926209595287       -3.3926438906561378E-002   3.2763858962664753E-002
  0.12690018969948844       -3.5123165235726485E-002   2.9165341183964914E-002
  0.10329194789559175        0.0000000000000000        5.8669265315406470E-002
  0.10682920915120593       -1.0884718168962066E-002   5.2125317727780153E-002
  0.11036647040682011       -1.9172608224643006E-002   4.7326061093685458E-002
  0.11390373166243430       -2.4863670167042832E-002   4.4271495413122447E-002
  0.11744099291804849       -2.7957903996161531E-002   4.2961620686091065E-002
   9.0361122730771862E-002   0.0000000000000000        4.9841005951312689E-002
   9.3961432241370713E-002  -5.4045800492259887E-003   5.3216342400073502E-002
   9.7561741751969577E-002  -1.0671547191734080E-002   5.4973084405271988E-002
  0.10116205126256843       -1.5800901427524279E-002   5.5111231966908168E-002
  0.10476236077316727       -2.0792642756596577E-002   5.3630785084982036E-002
  0.13616027717204457       -4.9453687714856379E-002  -7.8085631299931041E-003
  0.13295199786776282       -4.2917271912095073E-002  -3.3900845010776046E-003
  0.12974371856348105       -3.8479075578266117E-002  -3.8602688374016203E-004
  0.12653543925919930       -3.6139098713369573E-002   1.2036097220190049E-003
  0.12332715995491755       -3.5897341317405435E-002   1.3788253162001773E-003
  0.13313995111748711       -4.2288426475291421E-002   1.2241946578603544E-002
  0.12890546793519075       -3.8421525170249590E-002   1.2188588114224585E-002
  0.12467098475289434       -3.5737642123108732E-002   1.1497242905394570E-002
  0.12043650157059799       -3.4236777333868741E-002   1.0167910952113446E-002
  0.11620201838830160       -3.3918930802529695E-002   8.2005922543811199E-003
  0.12690018969948844       -3.5123165235726485E-002   2.9165341183964914E-002
  0.12241593690630442       -3.3925778428404135E-002   2.5555346837323051E-002
  0.11793168411312042       -3.2996208667951270E-002   2.2083800013357024E-002
  0.11344743131993641       -3.2334455954367909E-002   1.8750700712066925E-002
  0.10896317852675243       -3.1940520287653970E-002   1.5556048933452728E-002
  0.11744099291804849       -2.7957903996161531E-002   4.2961620686091065E-002
  0.11348340478110386       -2.9430031686558680E-002   3.6710191668217686E-002
  0.10952581664415921       -3.0254775212793846E-002   3.1373644440147203E-002
  0.10556822850721459       -3.0432134574867039E-002   2.6951979001879560E-002
  0.10161064037026994       -2.9962109772778238E-002   2.3445195353414827E-002
  0.10476236077316727       -2.0792642756596577E-002   5.3630785084982036E-002
  0.10210787155958903       -2.4934284944713205E-002   4.5653122606908611E-002
   9.9453382346010755E-002  -2.7513341757636409E-002   3.9366776185765021E-002
   9.6798893132432492E-002  -2.8529813195366165E-002   3.4771745821551417E-002
   9.4144403918854244E-002  -2.7983699257902506E-002   3.1868031514267606E-002
  0.12332715995491755       -3.5897341317405435E-002   1.3788253162001773E-003
  0.12038758576954134       -3.6395409297087358E-002   6.3688190538863099E-004
  0.11744801158416510       -3.6274908559128953E-002   9.1834863249901089E-005
  0.11450843739878887       -3.5535839103530281E-002  -2.5631581021582500E-004
  0.11156886321341264       -3.4178200930291336E-002  -4.0757011500863749E-004
  0.11620201838830160       -3.3918930802529695E-002   8.2005922543811199E-003
  0.11344487797696100       -3.3994628218121214E-002   7.8377374948391115E-003
  0.11068773756562038       -3.3674395269672995E-002   7.6428539146953731E-003
  0.10793059715427977       -3.2958231957184787E-002   7.6159415139498317E-003
  0.10517345674293915       -3.1846138280656910E-002   7.7570002926028170E-003
  0.10896317852675243       -3.1940520287653970E-002   1.5556048933452728E-002
  0.10635954670017281       -3.1593847139155147E-002   1.5349644471579625E-002
  0.10375591487359323       -3.1073881980216930E-002   1.5282285999830430E-002
  0.10115228304701367       -3.0380624810839404E-002   1.5353973518204988E-002
   9.8548651220434019E-002  -2.9514075631022596E-002   1.5564707026703081E-002
  0.10161064037026994       -2.9962109772778238E-002   2.3445195353414827E-002
   9.9131591939176839E-002  -2.9193066060189028E-002   2.3172602835610401E-002
   9.6652543508083694E-002  -2.8473368690760975E-002   2.3010131118655078E-002
   9.4173495076990577E-002  -2.7803017664493994E-002   2.2957780202548971E-002
   9.1694446645897446E-002  -2.7182012981388226E-002   2.3015550087292152E-002
   9.4144403918854244E-002  -2.7983699257902506E-002   3.1868031514267606E-002
   9.1761013693972993E-002  -2.6792284981222929E-002   3.1306612586931223E-002
   8.9377623469091755E-002  -2.5872855401304962E-002   3.0826389271169527E-002
   8.6994233244210517E-002  -2.5225410518148549E-002   3.0427361566982246E-002
   8.4610843019329279E-002  -2.4849950331753828E-002   3.0109529474369706E-002
  0.11156886321341264       -3.4178200930291336E-002  -4.0757011500863749E-004
  0.10848392114739480       -3.2641922386786953E-002  -1.5647937094448450E-004
  0.10539897908137696       -3.1366931820392477E-002   1.1871729493209693E-004
  0.10231403701535913       -3.0353229231107549E-002   4.1801988262124556E-004
   9.9229094949341290E-002  -2.9600814618932769E-002   7.4142839212293365E-004
  0.10517345674293915       -3.1846138280656910E-002   7.7570002926028170E-003
  0.10214898770645903       -3.0614967005238941E-002   7.6055275206756978E-003
   9.9124518669978873E-002  -2.9541570896081087E-002   7.5508948860115999E-003
   9.6100049633498760E-002  -2.8625949953182996E-002   7.5931023886101831E-003
   9.3075580597018592E-002  -2.7868104176544839E-002   7.7321500284716904E-003
   9.8548651220434019E-002  -2.9514075631022596E-002   1.5564707026703081E-002
   9.5657389428942044E-002  -2.8588011623691054E-002   1.5114183549634563E-002
   9.2766127637449985E-002  -2.7716209971769636E-002   1.4833234425279389E-002
   8.9874865845957927E-002  -2.6898670675258217E-002   1.4721859653637353E-002
   8.6983604054465868E-002  -2.6135393734156936E-002   1.4780059234708778E-002
   9.1694446645897446E-002  -2.7182012981388226E-002   2.3015550087292152E-002
   8.9009126314843826E-002  -2.6561056242143048E-002   2.2369488715932175E-002
   8.6323805983790247E-002  -2.5890849047458159E-002   2.1965735912735700E-002
   8.3638485652736641E-002  -2.5171391397333511E-002   2.1804291677703064E-002
   8.0953165321683021E-002  -2.4402683291769131E-002   2.1885156010833743E-002
   8.4610843019329279E-002  -2.4849950331753828E-002   3.0109529474369706E-002
   8.2204198364164455E-002  -2.4534100860595071E-002   2.9371443019567997E-002
   7.9797553708999644E-002  -2.4065488123146669E-002   2.8948399348380255E-002
   7.7390909053834833E-002  -2.3444112119408774E-002   2.8840398460806577E-002
   7.4984264398670064E-002  -2.2669972849381242E-002   2.9047440356846838E-002
   9.9229094949341290E-002  -2.9600814618932769E-002   7.4142839212293365E-004
   9.6350448897279950E-002  -2.8922760368036232E-002   3.2017447984827863E-004
   9.3471802845218666E-002  -2.8132138862586573E-002   6.3346896536226049E-005
   9.0593156793157381E-002  -2.7228950102584467E-002  -2.9054357813182441E-005
   8.7714510741096041E-002  -2.6213194088029246E-002   4.2970716800372344E-005
   9.3075580597018592E-002  -2.7868104176544839E-002   7.7321500284716904E-003
   9.0357865663033804E-002  -2.7152989550178391E-002   7.4613787752154659E-003
   8.7640150729048905E-002  -2.6365562058095746E-002   7.3480434291490621E-003
   8.4922435795063977E-002  -2.5505821700296565E-002   7.3921439902731520E-003
   8.2204720861079161E-002  -2.4573768476781110E-002   7.5936804585871043E-003
   8.6983604054465868E-002  -2.6135393734156936E-002   1.4780059234708778E-002
   8.4419829816784892E-002  -2.5383218732320870E-002   1.4619516251634088E-002
   8.1856055579103970E-002  -2.4598985253604815E-002   1.4609418753977095E-002
   7.9292281341422993E-002  -2.3782693298008778E-002   1.4749766741737644E-002
   7.6728507103741989E-002  -2.2934342865532975E-002   1.5040560214915955E-002
   8.0953165321683021E-002  -2.4402683291769131E-002   2.1885156010833743E-002
   7.8536341358533435E-002  -2.3613447914463216E-002   2.1794586909104314E-002
   7.6119517395383821E-002  -2.2832408449113769E-002   2.1847472871020179E-002
   7.3702693432234206E-002  -2.2059564895720987E-002   2.2043813896580979E-002
   7.1285869469084676E-002  -2.1294917254284840E-002   2.2383609985786854E-002
   7.4984264398670064E-002  -2.2669972849381242E-002   2.9047440356846838E-002
   7.2707400288279322E-002  -2.1843677096605563E-002   2.8986590747626356E-002
   7.0430536177888581E-002  -2.1065831644622939E-002   2.9062205780278197E-002
   6.8153672067497881E-002  -2.0336436493433155E-002   2.9274285454802824E-002
   6.5876807957107153E-002  -1.9655491643036760E-002   2.9622829771199954E-002
   8.7714510741096041E-002  -2.6213194088029246E-002   4.2970716800372344E-005
   8.4313148157048323E-002  -2.5173073942775070E-002  -2.7256018744958865E-004
   8.0911785573000494E-002  -2.4196792790676158E-002  -3.8115525148046947E-004
   7.7510422988952721E-002  -2.3284350631732467E-002  -2.8281447529288073E-004
   7.4109060404904947E-002  -2.2435747465944011E-002   2.2462141114121259E-005
   8.2204720861079161E-002  -2.4573768476781110E-002   7.5936804585871043E-003
   7.9012039957075231E-002  -2.3626770807010394E-002   7.2603400336609114E-003
   7.5819359053071328E-002  -2.2722197110446749E-002   7.1374271286034630E-003
   7.2626678149067495E-002  -2.1860047387089073E-002   7.2249417434153002E-003
   6.9433997245063550E-002  -2.1040321636938031E-002   7.5228838780952989E-003
   7.6728507103741989E-002  -2.2934342865532975E-002   1.5040560214915955E-002
   7.3747999559431857E-002  -2.2080467671246023E-002   1.4710825289262305E-002
   7.0767492015121697E-002  -2.1247601430216784E-002   1.4595009563127481E-002
   6.7786984470811523E-002  -2.0435744142445457E-002   1.4693113036511114E-002
   6.4806476926501405E-002  -1.9644895807931717E-002   1.5005135709413475E-002
   7.1285869469084676E-002  -2.1294917254284840E-002   2.2383609985786854E-002
   6.8521026964118006E-002  -2.0534164535481389E-002   2.2078895579354708E-002
   6.5756184459151434E-002  -1.9773005749987208E-002   2.1991592052090787E-002
   6.2991341954184876E-002  -1.9011440897801785E-002   2.2121699403995453E-002
   6.0226499449218200E-002  -1.8249469978925570E-002   2.2469217635068595E-002
   6.5876807957107153E-002  -1.9655491643036760E-002   2.9622829771199954E-002
   6.3331122171133902E-002  -1.8987861399717004E-002   2.9364550903937692E-002
   6.0785436385160679E-002  -1.8298410069757479E-002   2.9327174595493749E-002
   5.8239750599187484E-002  -1.7587137653158103E-002   2.9510700845868154E-002
   5.5694064813214206E-002  -1.6854044149919367E-002   2.9915129655060768E-002
   7.4109060404904947E-002  -2.2435747465944011E-002   2.2462141114121259E-005
   7.1576793726959798E-002  -2.1596253325347758E-002  -4.3118135593667173E-004
   6.9044527049014592E-002  -2.0711138241980787E-002  -8.5324851190204942E-004
   6.6512260371069359E-002  -1.9780402215842291E-002  -1.2437393267823171E-003
   6.3979993693124237E-002  -1.8804045246933576E-002  -1.6026538005775581E-003
   6.9433997245063550E-002  -2.1040321636938031E-002   7.5228838780952989E-003
   6.6957306500595226E-002  -2.0226286748555256E-002   7.1791144109357163E-003
   6.4480615756126930E-002  -1.9381209610503186E-002   6.9149204696448696E-003
   6.2003925011658648E-002  -1.8505090222781663E-002   6.7303020542224673E-003
   5.9527234267190365E-002  -1.7597928585390110E-002   6.6252591646686065E-003
   6.4806476926501405E-002  -1.9644895807931717E-002   1.5005135709413475E-002
   6.2433361300293311E-002  -1.8856320171762753E-002   1.4756661579043540E-002
   6.0060245674085203E-002  -1.8051280979025586E-002   1.4635762159325813E-002
   5.7687130047877087E-002  -1.7229778229720591E-002   1.4642437450259824E-002
   5.5314014421669000E-002  -1.6391811923846644E-002   1.4776687451846016E-002
   6.0226499449218200E-002  -1.8249469978925570E-002   2.2469217635068595E-002
   5.8004958126053760E-002  -1.7486353594970361E-002   2.2301460148387277E-002
   5.5783416802889355E-002  -1.6721352347548207E-002   2.2309276557141135E-002
   5.3561875479724901E-002  -1.5954466236659297E-002   2.2492666861330654E-002
   5.1340334156560488E-002  -1.5185695262303511E-002   2.2851631060955002E-002
   5.5694064813214206E-002  -1.6854044149919367E-002   2.9915129655060768E-002
   5.3672096977876838E-002  -1.6116387018177913E-002   2.9813510118966546E-002
   5.1650129142539442E-002  -1.5391423716070773E-002   2.9935463663090744E-002
   4.9628161307202032E-002  -1.4679154243598377E-002   3.0280990287433723E-002
   4.7606193471864677E-002  -1.3979578600759990E-002   3.0850089991995844E-002
   6.3979993693124237E-002  -1.8804045246933576E-002  -1.6026538005775581E-003
   6.0486029452866297E-002  -1.7848836786256594E-002  -2.5045279525780506E-003
   5.6992065212608356E-002  -1.6981546284814630E-002  -3.2367343700924200E-003
   5.3498100972350415E-002  -1.6202173742607240E-002  -3.7992730531208052E-003
   5.0004136732092475E-002  -1.5510719159634867E-002  -4.1921440016619016E-003
   5.9527234267190365E-002  -1.7597928585390110E-002   6.6252591646686065E-003
   5.6208314553428729E-002  -1.6703673675716124E-002   5.8959145529205448E-003
   5.2889394839667203E-002  -1.5866274471146635E-002   5.3469912596793012E-003
   4.9570475125905650E-002  -1.5085730971680977E-002   4.9784892849443763E-003
   4.6251555412143985E-002  -1.4362043177319705E-002   4.7904086287156034E-003
   5.5314014421669000E-002  -1.6391811923846644E-002   1.4776687451846016E-002
   5.2180892818423780E-002  -1.5558510565175654E-002   1.4250934634481849E-002
   4.9047771215178476E-002  -1.4751002657478418E-002   1.3916356719644196E-002
   4.5914649611933228E-002  -1.3969288200754937E-002   1.3772953707332822E-002
   4.2781528008687897E-002  -1.3213367195004544E-002   1.3820725597547656E-002
   5.1340334156560488E-002  -1.5185695262303511E-002   2.2851631060955002E-002
   4.8403764247851443E-002  -1.4413347454635628E-002   2.2560532292105528E-002
   4.5467194339142439E-002  -1.3635730843810645E-002   2.2471362009802306E-002
   4.2530624430433366E-002  -1.2852845429828230E-002   2.2584120214045288E-002
   3.9594054521724292E-002  -1.2064691212689271E-002   2.2898806904833924E-002
   4.7606193471864677E-002  -1.3979578600759990E-002   3.0850089991995844E-002
   4.4876928841711766E-002  -1.3268184344095213E-002   3.0824707525791251E-002
   4.2147664211558883E-002  -1.2520459030142525E-002   3.1012007130153091E-002
   3.9418399581406000E-002  -1.1736402658902158E-002   3.1411988805080907E-002
   3.6689134951253033E-002  -1.0916015230373999E-002   3.2024652550574961E-002
   9.0361122730771862E-002   0.0000000000000000        4.9841005951312689E-002
   9.3961432241370713E-002  -5.4045800492259887E-003   5.3216342400073502E-002
   9.7561741751969577E-002  -1.0671547191734080E-002   5.4973084405271988E-002
  0.10116205126256843       -1.5800901427524279E-002   5.5111231966908168E-002
  0.10476236077316727       -2.0792642756596577E-002   5.3630785084982036E-002
   8.2425169590698066E-002   0.0000000000000000        4.4789202540560624E-002
   8.4635950093724072E-002  -4.5747843723375672E-003   4.8273884649809036E-002
   8.6846730596750091E-002  -9.0386968515118824E-003   5.0598103187474056E-002
   8.9057511099776082E-002  -1.3391737437522935E-002   5.1761858153555704E-002
   9.1268291602802087E-002  -1.7633906130370740E-002   5.1765149548053946E-002
   7.4245254275181832E-002   0.0000000000000000        4.0580565313474301E-002
   7.5524636642613913E-002  -3.7449886954491465E-003   4.4147852069655651E-002
   7.6804019010046007E-002  -7.4058465112896762E-003   4.7012806126232570E-002
   7.8083401377478115E-002  -1.0982573447521592E-002   4.9175427483205032E-002
   7.9362783744910195E-002  -1.4475169504144892E-002   5.0635716140573071E-002
   6.5821376784223118E-002   0.0000000000000000        3.7215094270053720E-002
   6.6627491888040249E-002  -2.9151930185607254E-003   4.0838244659613394E-002
   6.7433606991857367E-002  -5.7729961710674725E-003   4.4217193221547546E-002
   6.8239722095674485E-002  -8.5734094575202480E-003   4.7351939955856195E-002
   6.9045837199491616E-002  -1.1316432877919043E-002   5.0242484862539349E-002
   5.7153537117821979E-002   0.0000000000000000        3.4692789410298873E-002
   5.7944515830003061E-002  -2.0853973416723043E-003   3.8345062419682219E-002
   5.8735494542184144E-002  -4.1401458308452706E-003   4.2211264473418983E-002
   5.9526473254365220E-002  -6.1642454675189060E-003   4.6291395571509186E-002
   6.0317451966546309E-002  -8.1576962516932035E-003   5.0585455713952801E-002
  0.10476236077316727       -2.0792642756596577E-002   5.3630785084982036E-002
  0.10210787155958903       -2.4934284944713205E-002   4.5653122606908611E-002
   9.9453382346010755E-002  -2.7513341757636409E-002   3.9366776185765021E-002
   9.6798893132432492E-002  -2.8529813195366165E-002   3.4771745821551417E-002
   9.4144403918854244E-002  -2.7983699257902506E-002   3.1868031514267606E-002
   9.1268291602802087E-002  -1.7633906130370740E-002   5.1765149548053946E-002
   9.0067050647325633E-002  -2.1210331203354030E-002   4.6529580944505294E-002
   8.8865809691849110E-002  -2.3566140929771554E-002   4.2509192800230376E-002
   8.7664568736372628E-002  -2.4701335309623356E-002   3.9703985115229087E-002
   8.6463327780896146E-002  -2.4615914342909398E-002   3.8113957889501428E-002
   7.9362783744910195E-002  -1.4475169504144892E-002   5.0635716140573071E-002
   7.9138655449879289E-002  -1.7486377461994846E-002   4.7800271382921547E-002
   7.8914527154848396E-002  -1.9618940101906721E-002   4.5703871486887482E-002
   7.8690398859817448E-002  -2.0872857423880512E-002   4.4346516452470890E-002
   7.8466270564786542E-002  -2.1248129427916262E-002   4.3728206279671826E-002
   6.9045837199491616E-002  -1.1316432877919043E-002   5.0242484862539349E-002
   6.9322685967250067E-002  -1.3762423720635663E-002   4.9465193922157258E-002
   6.9599534735008517E-002  -1.5671739274041876E-002   4.8950812245736428E-002
   6.9876383502766995E-002  -1.7044379538137706E-002   4.8699339833276865E-002
   7.0153232270525431E-002  -1.7880344512923127E-002   4.8710776684778571E-002
   6.0317451966546309E-002  -8.1576962516932035E-003   5.0585455713952801E-002
   6.0619142199437932E-002  -1.0038469979276482E-002   5.1524348562212462E-002
   6.0920832432329548E-002  -1.1724538446177032E-002   5.2250015076777206E-002
   6.1222522665221171E-002  -1.3215901652394842E-002   5.2762455257646966E-002
   6.1524212898112808E-002  -1.4512559597930012E-002   5.3061669104821872E-002
   9.4144403918854244E-002  -2.7983699257902506E-002   3.1868031514267606E-002
   9.1761013693972993E-002  -2.6792284981222929E-002   3.1306612586931223E-002
   8.9377623469091755E-002  -2.5872855401304962E-002   3.0826389271169527E-002
   8.6994233244210517E-002  -2.5225410518148549E-002   3.0427361566982246E-002
   8.4610843019329279E-002  -2.4849950331753828E-002   3.0109529474369706E-002
   8.6463327780896146E-002  -2.4615914342909398E-002   3.8113957889501428E-002
   8.4207383547727624E-002  -2.3973802642049437E-002   3.7093198976634038E-002
   8.1951439314559060E-002  -2.3438924819463282E-002   3.6246136435617402E-002
   7.9695495081390511E-002  -2.3011280875150968E-002   3.5572770266451573E-002
   7.7439550848222002E-002  -2.2690870809112432E-002   3.5073100469136642E-002
   7.8466270564786542E-002  -2.1248129427916262E-002   4.3728206279671826E-002
   7.6430273083606962E-002  -2.1155320302875934E-002   4.2412858199760983E-002
   7.4394275602427382E-002  -2.1004994237621644E-002   4.1363707251977390E-002
   7.2358278121247829E-002  -2.0797151232153348E-002   4.0580753436320754E-002
   7.0322280640068235E-002  -2.0531791286471077E-002   4.0063996752791237E-002
   7.0153232270525431E-002  -1.7880344512923127E-002   4.8710776684778571E-002
   6.8429682301611047E-002  -1.8336837963702453E-002   4.7265590256312322E-002
   6.6706132332696635E-002  -1.8571063655780026E-002   4.6179101720249388E-002
   6.4982582363782251E-002  -1.8583021589155750E-002   4.5451311076589777E-002
   6.3259032394867853E-002  -1.8372711763829715E-002   4.5082218325333531E-002
   6.1524212898112808E-002  -1.4512559597930012E-002   5.3061669104821872E-002
   6.0205611201739846E-002  -1.5518355624528937E-002   5.1651395146287894E-002
   5.8887009505366891E-002  -1.6137133073938326E-002   5.0692319840433500E-002
   5.7568407808993929E-002  -1.6368891946158114E-002   5.0184443187258607E-002
   5.6249806112620968E-002  -1.6213632241188339E-002   5.0127765186763332E-002
   8.4610843019329279E-002  -2.4849950331753828E-002   3.0109529474369706E-002
   8.2204198364164455E-002  -2.4534100860595071E-002   2.9371443019567997E-002
   7.9797553708999644E-002  -2.4065488123146669E-002   2.8948399348380255E-002
   7.7390909053834833E-002  -2.3444112119408774E-002   2.8840398460806577E-002
   7.4984264398670064E-002  -2.2669972849381242E-002   2.9047440356846838E-002
   7.7439550848222002E-002  -2.2690870809112432E-002   3.5073100469136642E-002
   7.5326431043221106E-002  -2.2367797307310526E-002   3.4500180051883399E-002
   7.3213311238220197E-002  -2.1932163055708071E-002   3.4199266551343907E-002
   7.1100191433219245E-002  -2.1383968054304908E-002   3.4170359967518125E-002
   6.8987071628218377E-002  -2.0723212303101229E-002   3.4413460300406207E-002
   7.0322280640068235E-002  -2.0531791286471077E-002   4.0063996752791237E-002
   6.8459649818330970E-002  -2.0201493754026009E-002   3.9616039856597382E-002
   6.6597018996593718E-002  -1.9798837988269334E-002   3.9397054010217099E-002
   6.4734388174856494E-002  -1.9323823989201058E-002   3.9407039213650491E-002
   6.2871757353119243E-002  -1.8776451756821175E-002   3.9645995466897323E-002
   6.3259032394867853E-002  -1.8372711763829715E-002   4.5082218325333531E-002
   6.1603854689494086E-002  -1.8035190200741479E-002   4.4719022433710079E-002
   5.9948676984120347E-002  -1.7665512920830597E-002   4.4541761725000073E-002
   5.8293499278746566E-002  -1.7263679924097157E-002   4.4550436199203437E-002
   5.6638321573372827E-002  -1.6829691210541169E-002   4.4745045856320123E-002
   5.6249806112620968E-002  -1.6213632241188339E-002   5.0127765186763332E-002
   5.4759045656710484E-002  -1.5868886647456962E-002   4.9809127783221482E-002
   5.3268285200799979E-002  -1.5532187853391995E-002   4.9633389695692649E-002
   5.1777524744889475E-002  -1.5203535858993339E-002   4.9600550924177034E-002
   5.0286764288978991E-002  -1.4882930664261079E-002   4.9710611468674643E-002
   7.4984264398670064E-002  -2.2669972849381242E-002   2.9047440356846838E-002
   7.2707400288279322E-002  -2.1843677096605563E-002   2.8986590747626356E-002
   7.0430536177888581E-002  -2.1065831644622939E-002   2.9062205780278197E-002
   6.8153672067497881E-002  -2.0336436493433155E-002   2.9274285454802824E-002
   6.5876807957107153E-002  -1.9655491643036760E-002   2.9622829771199954E-002
   6.8987071628218377E-002  -2.0723212303101229E-002   3.4413460300406207E-002
   6.6858678278387915E-002  -2.0017960822833941E-002   3.4210485508992708E-002
   6.4730284928557466E-002  -1.9336278634240235E-002   3.4167987596827112E-002
   6.2601891578727045E-002  -1.8678165737319903E-002   3.4285966563909573E-002
   6.0473498228896583E-002  -1.8043622132073167E-002   3.4564422410240020E-002
   6.2871757353119243E-002  -1.8776451756821175E-002   3.9645995466897323E-002
   6.0915847001224516E-002  -1.8192244549062458E-002   3.9325776502410446E-002
   5.8959936649329824E-002  -1.7606725623857618E-002   3.9190046654546923E-002
   5.7004026297435131E-002  -1.7019894981206686E-002   3.9238805923306912E-002
   5.5048115945540391E-002  -1.6431752621109602E-002   3.9472054308690177E-002
   5.6638321573372827E-002  -1.6829691210541169E-002   4.4745045856320123E-002
   5.4878906456789250E-002  -1.6366528275290934E-002   4.4332463727879502E-002
   5.3119491340205612E-002  -1.5877172613475043E-002   4.4128382953437566E-002
   5.1360076223622049E-002  -1.5361624225093452E-002   4.4132803532994647E-002
   4.9600661107038396E-002  -1.4819883110146106E-002   4.4345725466550398E-002
   5.0286764288978991E-002  -1.4882930664261079E-002   4.9710611468674643E-002
   4.8747856645081938E-002  -1.4540812001519410E-002   4.9230547185399764E-002
   4.7208949001184886E-002  -1.4147619603092403E-002   4.8982996493499228E-002
   4.5670041357287847E-002  -1.3703353468980174E-002   4.8967959392972833E-002
   4.4131133713390808E-002  -1.3208013599182500E-002   4.9185435883820849E-002
   6.5876807957107153E-002  -1.9655491643036760E-002   2.9622829771199954E-002
   6.3331122171133902E-002  -1.8987861399717004E-002   2.9364550903937692E-002
   6.0785436385160679E-002  -1.8298410069757479E-002   2.9327174595493749E-002
   5.8239750599187484E-002  -1.7587137653158103E-002   2.9510700845868154E-002
   5.5694064813214206E-002  -1.6854044149919367E-002   2.9915129655060768E-002
   6.0473498228896583E-002  -1.8043622132073167E-002   3.4564422410240020E-002
   5.8144461247617241E-002  -1.7413492490746710E-002   3.4298098458943896E-002
   5.5815424266337857E-002  -1.6768621485587415E-002   3.4244169558217102E-002
   5.3486387285058501E-002  -1.6109009116595317E-002   3.4402635708059758E-002
   5.1157350303779131E-002  -1.5434655383770424E-002   3.4773496908471813E-002
   5.5048115945540391E-002  -1.6431752621109602E-002   3.9472054308690177E-002
   5.2927220260705940E-002  -1.5839123581776540E-002   3.9190605550553342E-002
   5.0806324575871517E-002  -1.5238832901417455E-002   3.9113044334736828E-002
   4.8685428891037122E-002  -1.4630880580032419E-002   3.9239370661240849E-002
   4.6564533206202643E-002  -1.4015266617621508E-002   3.9569584530065399E-002
   4.9600661107038396E-002  -1.4819883110146106E-002   4.4345725466550398E-002
   4.7679399210400028E-002  -1.4264754672806253E-002   4.4042072178765844E-002
   4.5758137313761625E-002  -1.3709044317247444E-002   4.3933798925052829E-002
   4.3836875417123236E-002  -1.3152752043469450E-002   4.4020905705411506E-002
   4.1915613520484785E-002  -1.2595877851472551E-002   4.4303392519841611E-002
   4.4131133713390808E-002  -1.3208013599182500E-002   4.9185435883820849E-002
   4.2400998096699505E-002  -1.2690385763836104E-002   4.8852498343581713E-002
   4.0670862480008202E-002  -1.2179255733077460E-002   4.8706433329165300E-002
   3.8940726863316906E-002  -1.1674623506906713E-002   4.8747240840571610E-002
   3.7210591246625624E-002  -1.1176489085323649E-002   4.8974920877800365E-002
   5.5694064813214206E-002  -1.6854044149919367E-002   2.9915129655060768E-002
   5.3672096977876838E-002  -1.6116387018177913E-002   2.9813510118966546E-002
   5.1650129142539442E-002  -1.5391423716070773E-002   2.9935463663090744E-002
   4.9628161307202032E-002  -1.4679154243598377E-002   3.0280990287433723E-002
   4.7606193471864677E-002  -1.3979578600759990E-002   3.0850089991995844E-002
   5.1157350303779131E-002  -1.5434655383770424E-002   3.4773496908471813E-002
   4.9343367763177423E-002  -1.4754896735072270E-002   3.4591874317892651E-002
   4.7529385222575729E-002  -1.4079069618460630E-002   3.4602649236566085E-002
   4.5715402681974042E-002  -1.3407174033935435E-002   3.4805821664492101E-002
   4.3901420141372327E-002  -1.2739209981496524E-002   3.5201391601670740E-002
   4.6564533206202643E-002  -1.4015266617621508E-002   3.9569584530065399E-002
   4.4927360389370577E-002  -1.3393406451966766E-002   3.9316721182549419E-002
   4.3290187572538434E-002  -1.2766715520850430E-002   3.9225079773319821E-002
   4.1653014755706277E-002  -1.2135193824272604E-002   3.9294660302376813E-002
   4.0015841938874211E-002  -1.1498841362233031E-002   3.9525462769720202E-002
   4.1915613520484785E-002  -1.2595877851472551E-002   4.4303392519841611E-002
   4.0424074856456167E-002  -1.2031916168861193E-002   4.3988050712936724E-002
   3.8932536192427585E-002  -1.1454361423240203E-002   4.3802755273352208E-002
   3.7440997528398953E-002  -1.0863213614609606E-002   4.3747506201088318E-002
   3.5949458864370377E-002  -1.0258472742969385E-002   4.3822303496144743E-002
   3.7210591246625624E-002  -1.1176489085323649E-002   4.8974920877800365E-002
   3.5833511164434395E-002  -1.0670425885755591E-002   4.8605862909054776E-002
   3.4456431082243166E-002  -1.0142007325630073E-002   4.8335675736663392E-002
   3.3079351000051924E-002  -9.5912334049469382E-003   4.8164359360626421E-002
   3.1702270917860681E-002  -9.0181041237060167E-003   4.8091913780943740E-002
   4.7606193471864677E-002  -1.3979578600759990E-002   3.0850089991995844E-002
   4.4876928841711766E-002  -1.3268184344095213E-002   3.0824707525791251E-002
   4.2147664211558883E-002  -1.2520459030142525E-002   3.1012007130153091E-002
   3.9418399581406000E-002  -1.1736402658902158E-002   3.1411988805080907E-002
   3.6689134951253033E-002  -1.0916015230373999E-002   3.2024652550574961E-002
   4.3901420141372327E-002  -1.2739209981496524E-002   3.5201391601670740E-002
   4.1374837071729842E-002  -1.2060847215834947E-002   3.5015733761314810E-002
   3.8848254002087385E-002  -1.1357755491641433E-002   3.5022756971413688E-002
   3.6321670932444941E-002  -1.0629934808916084E-002   3.5222461231967081E-002
   3.3795087862802387E-002  -9.8773851676587920E-003   3.5614846542975420E-002
   4.0015841938874211E-002  -1.1498841362233031E-002   3.9525462769720202E-002
   3.7671939409630838E-002  -1.0853510087574653E-002   3.9167927456457016E-002
   3.5328036880387423E-002  -1.0195051953140348E-002   3.8983072173537046E-002
   3.2984134351144022E-002  -9.5234669589299003E-003   3.8970896920960341E-002
   3.0640231821900704E-002  -8.8387551049434743E-003   3.9131401698727364E-002
   3.5949458864370377E-002  -1.0258472742969385E-002   4.3822303496144743E-002
   3.3768235855414643E-002  -9.6461729593144835E-003   4.3281288611218105E-002
   3.1587012846459067E-002  -9.0323484146392595E-003   4.2892952736523389E-002
   2.9405789837503415E-002  -8.4169991089436055E-003   4.2657295872060672E-002
   2.7224566828547715E-002  -7.8001250422281565E-003   4.2574318017830223E-002
   3.1702270917860681E-002  -9.0181041237060167E-003   4.8091913780943740E-002
   2.9663726409081465E-002  -8.4388358310540368E-003   4.7355817225597674E-002
   2.7625181900302206E-002  -7.8696448761381849E-003   4.6752398660372702E-002
   2.5586637391523025E-002  -7.3105312589576733E-003   4.6281658085268532E-002
   2.3548092882743732E-002  -6.7614949795129498E-003   4.5943595500284484E-002
   5.7153537117821979E-002   0.0000000000000000        3.4692789410298873E-002
   5.7944515830003061E-002  -2.0853973416723043E-003   3.8345062419682219E-002
   5.8735494542184144E-002  -4.1401458308452706E-003   4.2211264473418983E-002
   5.9526473254365220E-002  -6.1642454675189060E-003   4.6291395571509186E-002
   6.0317451966546309E-002  -8.1576962516932035E-003   5.0585455713952801E-002
   4.8653780766190743E-002   0.0000000000000000        3.2790487178872008E-002
   4.9593391094506653E-002  -1.7108664384034682E-003   3.6965932247796963E-002
   5.0533001422822570E-002  -3.4357003637503613E-003   4.1224711504638162E-002
   5.1472611751138486E-002  -5.1745017760406690E-003   4.5566824949395575E-002
   5.2412222079454403E-002  -6.9272706752744077E-003   4.9992272582069230E-002
   4.0734153219541741E-002   0.0000000000000000        3.1285024020435356E-002
   4.1691800307555295E-002  -1.3363355351346346E-003   3.5939024809459173E-002
   4.2649447395568856E-002  -2.7312548966554493E-003   4.0545764929962022E-002
   4.3607094483582409E-002  -4.1847580845624415E-003   4.5105244381943917E-002
   4.4564741571595956E-002  -5.6968450988556154E-003   4.9617463165404864E-002
   3.3394654477875013E-002   0.0000000000000000        3.0176399934988919E-002
   3.4239743469149014E-002  -9.6180463186579983E-004   3.5264340104668827E-002
   3.5084832460423016E-002  -2.0268094295605387E-003   4.0174424749390598E-002
   3.5929921451697017E-002  -3.1950143930842092E-003   4.4906653869154198E-002
   3.6775010442971018E-002  -4.4664195224368214E-003   4.9461027463959653E-002
   2.6635284541190525E-002   0.0000000000000000        2.9464614922532696E-002
   2.7237220579287784E-002  -5.8727372859696501E-004   3.4941878133425947E-002
   2.7839156617385043E-002  -1.3223639624656280E-003   4.0110690962923856E-002
   2.8441092655482302E-002  -2.2052707016059769E-003   4.4971053411026425E-002
   2.9043028693579560E-002  -3.2359939460180282E-003   4.9522965477733653E-002
   6.0317451966546309E-002  -8.1576962516932035E-003   5.0585455713952801E-002
   6.0619142199437932E-002  -1.0038469979276482E-002   5.1524348562212462E-002
   6.0920832432329548E-002  -1.1724538446177032E-002   5.2250015076777206E-002
   6.1222522665221171E-002  -1.3215901652394842E-002   5.2762455257646966E-002
   6.1524212898112808E-002  -1.4512559597930012E-002   5.3061669104821872E-002
   5.2412222079454403E-002  -6.9272706752744077E-003   4.9992272582069230E-002
   5.2539765803161331E-002  -8.5926545363720318E-003   5.1219716046021810E-002
   5.2667309526868267E-002  -1.0069300834253975E-002   5.2312092825299944E-002
   5.2794853250575195E-002  -1.1357209568920260E-002   5.3269402919903605E-002
   5.2922396974282124E-002  -1.2456380740370913E-002   5.4091646329832849E-002
   4.4564741571595956E-002  -5.6968450988556154E-003   4.9617463165404864E-002
   4.4596298435138695E-002  -7.1468390934675734E-003   5.1127489547583289E-002
   4.4627855298681421E-002  -8.4140632223309308E-003   5.2580608894107775E-002
   4.4659412162224160E-002  -9.4985174854456712E-003   5.3976821204978265E-002
   4.4690969025766886E-002  -1.0400201882811818E-002   5.5316126480194794E-002
   3.6775010442971018E-002  -4.4664195224368214E-003   4.9461027463959653E-002
   3.6788740095370025E-002  -5.7010236505631324E-003   5.1247669066896900E-002
   3.6802469747769039E-002  -6.7588256104078835E-003   5.3055563283200664E-002
   3.6816199400168045E-002  -7.6398254019710721E-003   5.4884710112870896E-002
   3.6829929052567052E-002  -8.3440230252527278E-003   5.6735109555907708E-002
   2.9043028693579560E-002  -3.2359939460180282E-003   4.9522965477733653E-002
   2.9117090783855326E-002  -4.2552082076586688E-003   5.1580254603962636E-002
   2.9191152874131092E-002  -5.1035879984848310E-003   5.3736955992578626E-002
   2.9265214964406858E-002  -5.7811333184964739E-003   5.5993069643581597E-002
   2.9339277054682630E-002  -6.2878441676936375E-003   5.8348595556971597E-002
   6.1524212898112808E-002  -1.4512559597930012E-002   5.3061669104821872E-002
   6.0205611201739846E-002  -1.5518355624528937E-002   5.1651395146287894E-002
   5.8887009505366891E-002  -1.6137133073938326E-002   5.0692319840433500E-002
   5.7568407808993929E-002  -1.6368891946158114E-002   5.0184443187258607E-002
   5.6249806112620968E-002  -1.6213632241188339E-002   5.0127765186763332E-002
   5.2922396974282124E-002  -1.2456380740370913E-002   5.4091646329832849E-002
   5.2003008195172326E-002  -1.3307978662434560E-002   5.3346488367571873E-002
   5.1083619416062535E-002  -1.3853167648939827E-002   5.2948557587157705E-002
   5.0164230636952745E-002  -1.4091947699886817E-002   5.2897853988590211E-002
   4.9244841857842926E-002  -1.4024318815275424E-002   5.3194377571869594E-002
   4.4690969025766886E-002  -1.0400201882811818E-002   5.5316126480194794E-002
   4.4066821693087448E-002  -1.1097601700340116E-002   5.5155474872575570E-002
   4.3442674360408016E-002  -1.1569202223941338E-002   5.5238078975970294E-002
   4.2818527027728571E-002  -1.1815003453615466E-002   5.5563938790379061E-002
   4.2194379695049147E-002  -1.1835005389362531E-002   5.6133054315801734E-002
   3.6829929052567052E-002  -8.3440230252527278E-003   5.6735109555907708E-002
   3.6397051695485190E-002  -8.8872247382457137E-003   5.7078354661298979E-002
   3.5964174338403328E-002  -9.2852367989428239E-003   5.7560884006871413E-002
   3.5531296981321472E-002  -9.5380592073441278E-003   5.8182697592625038E-002
   3.5098419624239603E-002  -9.6456919634496270E-003   5.8943795418559805E-002
   2.9339277054682630E-002  -6.2878441676936375E-003   5.8348595556971597E-002
   2.8993698202365560E-002  -6.6768477761512852E-003   5.9115127733742071E-002
   2.8648119350048486E-002  -7.0012713739443407E-003   5.9916972679860951E-002
   2.8302540497731413E-002  -7.2611149610728011E-003   6.0754130395328204E-002
   2.7956961645414349E-002  -7.4563785375367231E-003   6.1626600880143878E-002
   5.6249806112620968E-002  -1.6213632241188339E-002   5.0127765186763332E-002
   5.4759045656710484E-002  -1.5868886647456962E-002   4.9809127783221482E-002
   5.3268285200799979E-002  -1.5532187853391995E-002   4.9633389695692649E-002
   5.1777524744889475E-002  -1.5203535858993339E-002   4.9600550924177034E-002
   5.0286764288978991E-002  -1.4882930664261079E-002   4.9710611468674643E-002
   4.9244841857842926E-002  -1.4024318815275424E-002   5.3194377571869594E-002
   4.7909541874769174E-002  -1.3795026659149015E-002   5.2847238821038089E-002
   4.6574241891695387E-002  -1.3548816895551010E-002   5.2668121699866961E-002
   4.5238941908621620E-002  -1.3285689524481135E-002   5.2657026208356036E-002
   4.3903641925547854E-002  -1.3005644545939610E-002   5.2813952346505461E-002
   4.2194379695049147E-002  -1.1835005389362531E-002   5.6133054315801734E-002
   4.1039662498459223E-002  -1.1721166670841117E-002   5.5782378624818843E-002
   3.9884945301869285E-002  -1.1565445937709943E-002   5.5624846877143308E-002
   3.8730228105279353E-002  -1.1367843189968946E-002   5.5660459072775267E-002
   3.7575510908689408E-002  -1.1128358427618154E-002   5.5889215211714589E-002
   3.5098419624239603E-002  -9.6456919634496270E-003   5.8943795418559805E-002
   3.4149407527780645E-002  -9.6473066825332361E-003   5.8614547194563625E-002
   3.3200395431321660E-002  -9.5820749798688903E-003   5.8503565227521884E-002
   3.2251383334862695E-002  -9.4499968554567215E-003   5.8610849517434678E-002
   3.1302371238403730E-002  -9.2510723092966637E-003   5.8936400064301966E-002
   2.7956961645414349E-002  -7.4563785375367231E-003   6.1626600880143878E-002
   2.7238776962733441E-002  -7.5734466942252582E-003   6.1343744530272415E-002
   2.6520592280052532E-002  -7.5987040220279467E-003   6.1304276751002584E-002
   2.5802407597371631E-002  -7.5321505209445666E-003   6.1508197542334372E-002
   2.5084222914690715E-002  -7.3737861909752289E-003   6.1955506904267765E-002
   5.0286764288978991E-002  -1.4882930664261079E-002   4.9710611468674643E-002
   4.8747856645081938E-002  -1.4540812001519410E-002   4.9230547185399764E-002
   4.7208949001184886E-002  -1.4147619603092403E-002   4.8982996493499228E-002
   4.5670041357287847E-002  -1.3703353468980174E-002   4.8967959392972833E-002
   4.4131133713390808E-002  -1.3208013599182500E-002   4.9185435883820849E-002
   4.3903641925547854E-002  -1.3005644545939610E-002   5.2813952346505461E-002
   4.2588341812901775E-002  -1.2697548510683623E-002   5.2425102470501209E-002
   4.1273041700255683E-002  -1.2350267969470564E-002   5.2250954065624799E-002
   3.9957741587609591E-002  -1.1963802922300310E-002   5.2291507131875956E-002
   3.8642441474963526E-002  -1.1538153369172882E-002   5.2546761669254871E-002
   3.7575510908689408E-002  -1.1128358427618154E-002   5.5889215211714589E-002
   3.6466006207047756E-002  -1.0854285019847948E-002   5.5579690513252851E-002
   3.5356501505406063E-002  -1.0552916335848758E-002   5.5467055165672394E-002
   3.4246996803764369E-002  -1.0224252375620559E-002   5.5551309168972995E-002
   3.3137492102122697E-002  -9.8682931391632922E-003   5.5832452523154649E-002
   3.1302371238403730E-002  -9.2510723092966637E-003   5.8936400064301966E-002
   3.0380849827519874E-002  -9.0110215290122586E-003   5.8694311313654692E-002
   2.9459328416636028E-002  -8.7555647022269627E-003   5.8631299793641976E-002
   2.8537807005752161E-002  -8.4847018289408056E-003   5.8747365504263814E-002
   2.7616285594868326E-002  -8.1984329091536884E-003   5.9042508445520191E-002
   2.5084222914690715E-002  -7.3737861909752289E-003   6.1955506904267765E-002
   2.4332872674318148E-002  -7.1677580381765138E-003   6.1768964871706661E-002
   2.3581522433945561E-002  -6.9582130686050986E-003   6.1743687949533610E-002
   2.2830172193572990E-002  -6.7451512822609937E-003   6.1879676137748557E-002
   2.2078821953200406E-002  -6.5285726791440846E-003   6.2176929436351447E-002
   4.4131133713390808E-002  -1.3208013599182500E-002   4.9185435883820849E-002
   4.2400998096699505E-002  -1.2690385763836104E-002   4.8852498343581713E-002
   4.0670862480008202E-002  -1.2179255733077460E-002   4.8706433329165300E-002
   3.8940726863316906E-002  -1.1674623506906713E-002   4.8747240840571610E-002
   3.7210591246625624E-002  -1.1176489085323649E-002   4.8974920877800365E-002
   3.8642441474963526E-002  -1.1538153369172882E-002   5.2546761669254871E-002
   3.7104555625305458E-002  -1.1093093349882621E-002   5.2199513546703213E-002
   3.5566669775647410E-002  -1.0648396904223804E-002   5.2049892432395481E-002
   3.4028783925989389E-002  -1.0204064032196437E-002   5.2097898326331445E-002
   3.2490898076331307E-002  -9.7600947338004618E-003   5.2343531228511458E-002
   3.3137492102122697E-002  -9.8682931391632922E-003   5.5832452523154649E-002
   3.1802610501919057E-002  -9.4958009359290690E-003   5.5477028049246875E-002
   3.0467728901715441E-002  -9.1175380753700935E-003   5.5329985066003992E-002
   2.9132847301511805E-002  -8.7335045574861055E-003   5.5391323573426167E-002
   2.7797965701308186E-002  -8.3437003822773304E-003   5.5661043571513427E-002
   2.7616285594868326E-002  -8.1984329091536884E-003   5.9042508445520191E-002
   2.6495162726540310E-002  -7.8985085219756904E-003   5.8685041851212455E-002
   2.5374039858212283E-002  -7.5866792465164382E-003   5.8546711229990875E-002
   2.4252916989884278E-002  -7.2629450827759127E-003   5.8627516581855631E-002
   2.3131794121556269E-002  -6.9273060307540879E-003   5.8927457906806369E-002
   2.2078821953200406E-002  -6.5285726791440846E-003   6.2176929436351447E-002
   2.1182212299169181E-002  -6.3012161080220896E-003   6.1823554952600085E-002
   2.0285602645137964E-002  -6.0558204176627550E-003   6.1700070924356171E-002
   1.9388992991106749E-002  -5.7923856080656158E-003   6.1806477351619649E-002
   1.8492383337075535E-002  -5.5109116792310675E-003   6.2142774234390519E-002
   3.7210591246625624E-002  -1.1176489085323649E-002   4.8974920877800365E-002
   3.5833511164434395E-002  -1.0670425885755591E-002   4.8605862909054776E-002
   3.4456431082243166E-002  -1.0142007325630073E-002   4.8335675736663392E-002
   3.3079351000051924E-002  -9.5912334049469382E-003   4.8164359360626421E-002
   3.1702270917860681E-002  -9.0181041237060167E-003   4.8091913780943740E-002
   3.2490898076331307E-002  -9.7600947338004618E-003   5.2343531228511458E-002
   3.1229554527703235E-002  -9.3082009183514391E-003   5.2037383776392998E-002
   2.9968210979075142E-002  -8.8400944951651933E-003   5.1863838595046799E-002
   2.8706867430447067E-002  -8.3557754642415681E-003   5.1822895684472410E-002
   2.7445523881818978E-002  -7.8552438255806156E-003   5.1914555044670185E-002
   2.7797965701308186E-002  -8.3437003822773304E-003   5.5661043571513427E-002
   2.6686090160660883E-002  -7.9459759509474676E-003   5.5411663883202386E-002
   2.5574214620013566E-002  -7.5381816647005426E-003   5.5328617940080961E-002
   2.4462339079366235E-002  -7.1203175235364218E-003   5.5411905742149187E-002
   2.3350463538718939E-002  -6.6923835274552423E-003   5.5661527289406806E-002
   2.3131794121556269E-002  -6.9273060307540879E-003   5.8927457906806369E-002
   2.2203118063307319E-002  -6.5837509835432670E-003   5.8728703229482371E-002
   2.1274442005058382E-002  -6.2362688342359439E-003   5.8730013771765552E-002
   2.0345765946809417E-002  -5.8848595828312191E-003   5.8931389533656009E-002
   1.9417089888560495E-002  -5.5295232293297442E-003   5.9332830515153534E-002
   1.8492383337075535E-002  -5.5109116792310675E-003   6.2142774234390519E-002
   1.7780638235642562E-002  -5.2215260161393440E-003   6.1988501815233132E-002
   1.7068893134209603E-002  -4.9343560037710676E-003   6.2068026090100786E-002
   1.6357148032776644E-002  -4.6494016421260026E-003   6.2381347058993064E-002
   1.5645402931343685E-002  -4.3666629312045235E-003   6.2928464721910327E-002
   3.1702270917860681E-002  -9.0181041237060167E-003   4.8091913780943740E-002
   2.9663726409081465E-002  -8.4388358310540368E-003   4.7355817225597674E-002
   2.7625181900302206E-002  -7.8696448761381849E-003   4.6752398660372702E-002
   2.5586637391523025E-002  -7.3105312589576733E-003   4.6281658085268532E-002
   2.3548092882743732E-002  -6.7614949795129498E-003   4.5943595500284484E-002
   2.7445523881818978E-002  -7.8552438255806156E-003   5.1914555044670185E-002
   2.5562574474679425E-002  -7.3475126467958396E-003   5.1357116861172114E-002
   2.3679625067539928E-002  -6.8415949955009520E-003   5.0978190890832609E-002
   2.1796675660400430E-002  -6.3374908716962962E-003   5.0777777133651891E-002
   1.9913726253260877E-002  -5.8352002753812027E-003   5.0755875589630128E-002
   2.3350463538718939E-002  -6.6923835274552423E-003   5.5661527289406806E-002
   2.1668943456257056E-002  -6.2561894625375591E-003   5.5291011288002304E-002
   1.9987423373795176E-002  -5.8135451148641007E-003   5.5144841722794304E-002
   1.8305903291333338E-002  -5.3644504844348063E-003   5.5223018593783216E-002
   1.6624383208871399E-002  -4.9089055712496776E-003   5.5525541900968534E-002
   1.9417089888560495E-002  -5.5295232293297442E-003   5.9332830515153534E-002
   1.7982833353814218E-002  -5.1648662782792648E-003   5.9157500506088145E-002
   1.6548576819067972E-002  -4.7854952342270031E-003   5.9252351156257724E-002
   1.5114320284321721E-002  -4.3914100971734283E-003   5.9617382465661471E-002
   1.3680063749575453E-002  -3.9826108671179861E-003   6.0252594434300075E-002
   1.5645402931343685E-002  -4.3666629312045235E-003   6.2928464721910327E-002
   1.4504244167350980E-002  -4.0735430940208595E-003   6.2956584515429959E-002
   1.3363085403358309E-002  -3.7574453535899749E-003   6.3300719191222293E-002
   1.2221926639365614E-002  -3.4183697099120121E-003   6.3960868749287234E-002
   1.1080767875372932E-002  -3.0563161629864055E-003   6.4937033189624405E-002
   2.6635284541190525E-002   0.0000000000000000        2.9464614922532696E-002
   2.7237220579287784E-002  -5.8727372859696501E-004   3.4941878133425947E-002
   2.7839156617385043E-002  -1.3223639624656280E-003   4.0110690962923856E-002
   2.8441092655482302E-002  -2.2052707016059769E-003   4.4971053411026425E-002
   2.9043028693579560E-002  -3.2359939460180282E-003   4.9522965477733653E-002
   2.0118600106119718E-002   0.0000000000000000        2.9015420131581100E-002
   2.0451577355690739E-002  -4.4045529550576501E-004   3.4308077691389015E-002
   2.0784554605261758E-002  -9.9177297013892073E-004   3.9371268055539789E-002
   2.1117531854832779E-002  -1.6539530238994663E-003   4.4204991224033430E-002
   2.1450509104403801E-002  -2.4269954567873999E-003   4.8809247196869930E-002
   1.3507157869294007E-002   0.0000000000000000        2.8694566710648555E-002
   1.3650159516076999E-002  -2.9363686241456501E-004   3.3839572745515425E-002
   1.3793161162859988E-002  -6.6118197781221688E-004   3.8834094770463366E-002
   1.3936162809642974E-002  -1.1026353461929539E-003   4.3678132785492388E-002
   1.4079164456425965E-002  -1.6179969675567782E-003   4.8371686790602469E-002
   6.8009578307134024E-003   0.0000000000000000        2.8502054659735054E-002
   6.8329670604465632E-003  -1.4681842932336587E-004   3.3536363295805199E-002
   6.8649762901797249E-003  -3.3059098548551304E-004   3.8499171107694623E-002
   6.8969855199128858E-003  -5.5131766848644584E-004   4.3390478095403306E-002
   6.9289947496460474E-003  -8.0899847832616016E-004   4.8210284258931292E-002
  -9.6221051959499704E-012   0.0000000000000000        2.8437883978840603E-002
  -1.1200566515934263E-011   3.7678350023329088E-012   3.3398449342258316E-002
  -1.2779028052758989E-011   6.8411925430167386E-012   3.8366497067233524E-002
  -1.4357488613801761E-011   9.2200691526045375E-012   4.3342027153766199E-002
  -1.5935950042206271E-011   1.0904470035266733E-011   4.8325039601856357E-002
   2.9043028693579560E-002  -3.2359939460180282E-003   4.9522965477733653E-002
   2.9117090783855326E-002  -4.2552082076586688E-003   5.1580254603962636E-002
   2.9191152874131092E-002  -5.1035879984848310E-003   5.3736955992578626E-002
   2.9265214964406858E-002  -5.7811333184964739E-003   5.5993069643581597E-002
   2.9339277054682630E-002  -6.2878441676936375E-003   5.8348595556971597E-002
   2.1450509104403801E-002  -2.4269954567873999E-003   4.8809247196869930E-002
   2.1594501510603284E-002  -3.1914061525711718E-003   5.1207709479908652E-002
   2.1738493916802767E-002  -3.8276909950192232E-003   5.3646620132407799E-002
   2.1882486323002246E-002  -4.3358499841315117E-003   5.6125979154367393E-002
   2.2026478729201732E-002  -4.7158831199080875E-003   5.8645786545787379E-002
   1.4079164456425965E-002  -1.6179969675567782E-003   4.8371686790602469E-002
   1.4234123285622582E-002  -2.1276040974836674E-003   5.1068613612972158E-002
   1.4389082114819200E-002  -2.5517939915535937E-003   5.3747024911875732E-002
   1.4544040944015822E-002  -2.8905666497665507E-003   5.6406920687313122E-002
   1.4698999773212438E-002  -3.1439220721225444E-003   5.9048300939284398E-002
   6.9289947496460474E-003  -8.0899847832616016E-004   4.8210284258931292E-002
   7.0359561089132295E-003  -1.0638020423961666E-003   5.1162967003153210E-002
   7.1429174681804097E-003  -1.2758969880879612E-003   5.4038170330982405E-002
   7.2498788274475917E-003  -1.4452833154015891E-003   5.6835894242418854E-002
   7.3568401867147720E-003  -1.5719610243370048E-003   5.9556138737462558E-002
  -1.5935950042206271E-011   1.0904470035266733E-011   4.8325039601856357E-002
  -1.9524785434266168E-011   1.2691334094760975E-011   5.1490769650451726E-002
  -2.3113617573719547E-011   1.5377648373421371E-011   5.4520056389727775E-002
  -2.6702451339476185E-011   1.8963377200996445E-011   5.7412899819684532E-002
  -3.0291285105232824E-011   2.3448555597216370E-011   6.0169299940321989E-002
   2.9339277054682630E-002  -6.2878441676936375E-003   5.8348595556971597E-002
   2.8993698202365560E-002  -6.6768477761512852E-003   5.9115127733742071E-002
   2.8648119350048486E-002  -7.0012713739443407E-003   5.9916972679860951E-002
   2.8302540497731413E-002  -7.2611149610728011E-003   6.0754130395328204E-002
   2.7956961645414349E-002  -7.4563785375367231E-003   6.1626600880143878E-002
   2.2026478729201732E-002  -4.7158831199080875E-003   5.8645786545787379E-002
   2.1728983132097437E-002  -5.0076358253221820E-003   5.9466916086940796E-002
   2.1431487534993146E-002  -5.2509535233469448E-003   6.0348899369171406E-002
   2.1133991937888851E-002  -5.4458362139823847E-003   6.1291736392479125E-002
   2.0836496340784556E-002  -5.5922838972285727E-003   6.2295427156864022E-002
   1.4698999773212438E-002  -3.1439220721225444E-003   5.9048300939284398E-002
   1.4475128403049700E-002  -3.3384238744930631E-003   5.9907882841545461E-002
   1.4251257032886953E-002  -3.5006356727495472E-003   6.0853859456612487E-002
   1.4027385662724219E-002  -3.6305574668920094E-003   6.1886230784485408E-002
   1.3803514292561474E-002  -3.7281892569204500E-003   6.3004996825164319E-002
   7.3568401867147720E-003  -1.5719610243370048E-003   5.9556138737462558E-002
   7.2321340152223489E-003  -1.6692119236639382E-003   6.0438027997556071E-002
   7.1074278437299274E-003  -1.7503178221521505E-003   6.1431852942184208E-002
   6.9827216722375025E-003  -1.8152787198015788E-003   6.2537613571347087E-002
   6.8580155007450828E-003  -1.8640946166122996E-003   6.3755309885044673E-002
  -3.0291285105232824E-011   2.3448555597216370E-011   6.0169299940321989E-002
  -3.1384616260010656E-011   2.7165159011133255E-011   6.1057351554972557E-002
  -3.2477946547426750E-011   2.8445234015461729E-011   6.2082879825886589E-002
  -3.3571278569566321E-011   2.7288807064734799E-011   6.3245884753064113E-002
  -3.4664607989620677E-011   2.3695795325906488E-011   6.4546366336505095E-002
   2.7956961645414349E-002  -7.4563785375367231E-003   6.1626600880143878E-002
   2.7238776962733441E-002  -7.5734466942252582E-003   6.1343744530272415E-002
   2.6520592280052532E-002  -7.5987040220279467E-003   6.1304276751002584E-002
   2.5802407597371631E-002  -7.5321505209445666E-003   6.1508197542334372E-002
   2.5084222914690715E-002  -7.3737861909752289E-003   6.1955506904267765E-002
   2.0836496340784556E-002  -5.5922838972285727E-003   6.2295427156864022E-002
   2.0345739627516051E-002  -5.6800850149850979E-003   6.2164427938448036E-002
   1.9854982914247539E-002  -5.6990280091517437E-003   6.2244896088255140E-002
   1.9364226200979023E-002  -5.6491128797283539E-003   6.2536831606285453E-002
   1.8873469487710508E-002  -5.5303396267150362E-003   6.3040234492538899E-002
   1.3803514292561474E-002  -3.7281892569204500E-003   6.3004996825164319E-002
   1.3508264346326890E-002  -3.7867233357448890E-003   6.3002902032907690E-002
   1.3213014400092302E-002  -3.7993519962754851E-003   6.3180353406495735E-002
   1.2917764453857714E-002  -3.7660752385121274E-003   6.3537350945928509E-002
   1.2622514507623136E-002  -3.6868930624548713E-003   6.4073894651205984E-002
   6.8580155007450828E-003  -1.8640946166122996E-003   6.3755309885044673E-002
   6.7263511191659620E-003  -1.8933616565047183E-003   6.3859166813651350E-002
   6.5946867375868412E-003  -1.8996759833992544E-003   6.4110648705724360E-002
   6.4630223560077187E-003  -1.8830375972958939E-003   6.4509755561263482E-002
   6.3313579744285952E-003  -1.8434464981947063E-003   6.5056487380268896E-002
  -3.4664607989620677E-011   2.3695795325906488E-011   6.4546366336505095E-002
  -5.3966730390042628E-011   2.2735494042969151E-011   6.4733222280679140E-002
  -7.3268854525188054E-011   2.9476990293098027E-011   6.5035781985940969E-002
  -9.2570977792971743E-011   4.3920301423527874E-011   6.5454045452290541E-002
  -1.1187310106075543E-010   6.6065458659281262E-011   6.5988012679727870E-002
   2.5084222914690715E-002  -7.3737861909752289E-003   6.1955506904267765E-002
   2.4332872674318148E-002  -7.1677580381765138E-003   6.1768964871706661E-002
   2.3581522433945561E-002  -6.9582130686050986E-003   6.1743687949533610E-002
   2.2830172193572990E-002  -6.7451512822609937E-003   6.1879676137748557E-002
   2.2078821953200406E-002  -6.5285726791440846E-003   6.2176929436351447E-002
   1.8873469487710508E-002  -5.5303396267150362E-003   6.3040234492538899E-002
   1.8290027468946868E-002  -5.3758185063216835E-003   6.2823211232063025E-002
   1.7706585450183224E-002  -5.2186597747581470E-003   6.2780739304417105E-002
   1.7123143431419581E-002  -5.0588634320245206E-003   6.2912818709601082E-002
   1.6539701412655941E-002  -4.8964294781207729E-003   6.3219449447614984E-002
   1.2622514507623136E-002  -3.6868930624548713E-003   6.4073894651205984E-002
   1.2220266932910326E-002  -3.5838789744668947E-003   6.3825510957212811E-002
   1.1818019358197531E-002  -3.4791064809112579E-003   6.3764964818491449E-002
   1.1415771783484734E-002  -3.3725755817881325E-003   6.3892256235041731E-002
   1.1013524208771931E-002  -3.2642862770973502E-003   6.4207385206864004E-002
   6.3313579744285952E-003  -1.8434464981947063E-003   6.5056487380268896E-002
   6.1235910662085372E-003  -1.7919394426120297E-003   6.4775864047155851E-002
   5.9158241579884766E-003  -1.7395531870643931E-003   6.4696364491756461E-002
   5.7080572497684098E-003  -1.6862877315515631E-003   6.4817988714070796E-002
   5.5002903415483527E-003  -1.6321430760738997E-003   6.5140736714098785E-002
  -1.1187310106075543E-010   6.6065458659281262E-011   6.5988012679727870E-002
  -1.3115851460465677E-010   8.9242738199324378E-011   6.5674270501892312E-002
  -1.5044393508745202E-010   1.0678256195939539E-010   6.5574938324212392E-002
  -1.6972935383552379E-010   1.1868477901855190E-010   6.5690016146688041E-002
  -1.8901476911414861E-010   1.2494943968377470E-010   6.6019503969319271E-002
   2.2078821953200406E-002  -6.5285726791440846E-003   6.2176929436351447E-002
   2.1182212299169181E-002  -6.3012161080220896E-003   6.1823554952600085E-002
   2.0285602645137964E-002  -6.0558204176627550E-003   6.1700070924356171E-002
   1.9388992991106749E-002  -5.7923856080656158E-003   6.1806477351619649E-002
   1.8492383337075535E-002  -5.5109116792310675E-003   6.2142774234390519E-002
   1.6539701412655941E-002  -4.8964294781207729E-003   6.3219449447614984E-002
   1.5871547703353743E-002  -4.7259120511993075E-003   6.2893368016797055E-002
   1.5203393994051552E-002  -4.5418652894124931E-003   6.2794308019929773E-002
   1.4535240284749364E-002  -4.3442891927605917E-003   6.2922269457013291E-002
   1.3867086575447156E-002  -4.1331837612435529E-003   6.3277252328047484E-002
   1.1013524208771931E-002  -3.2642862770973502E-003   6.4207385206864004E-002
   1.0570957422642052E-002  -3.1506079943763032E-003   6.3904087044607316E-002
   1.0128390636512172E-002  -3.0279101611624532E-003   6.3824941294744447E-002
   9.6858238503822920E-003  -2.8961927774555675E-003   6.3969947957275647E-002
   9.2432570642524067E-003  -2.7554558432558995E-003   6.4339107032200860E-002
   5.5002903415483527E-003  -1.6321430760738997E-003   6.5140736714098785E-002
   5.2804414570340767E-003  -1.5753039375533823E-003   6.4855712036030883E-002
   5.0605925725198016E-003  -1.5139550329121357E-003   6.4791970748800248E-002
   4.8407436880055265E-003  -1.4480963621505989E-003   6.4949512852406854E-002
   4.6208948034912514E-003  -1.3777279252683156E-003   6.5328338346850742E-002
  -1.8901476911414861E-010   1.2494943968377470E-010   6.6019503969319271E-002
  -1.9347015309256754E-010   1.1926953868979240E-010   6.5748242991067851E-002
  -1.9792554054043343E-010   9.5337834848940872E-011   6.5695396382097010E-002
  -2.0238092451885237E-010   5.3154560614165902E-011   6.5860964142406678E-002
  -2.0683631196671826E-010  -7.2807315731893141E-012   6.6244946271996841E-002
   1.8492383337075535E-002  -5.5109116792310675E-003   6.2142774234390519E-002
   1.7780638235642562E-002  -5.2215260161393440E-003   6.1988501815233132E-002
   1.7068893134209603E-002  -4.9343560037710676E-003   6.2068026090100786E-002
   1.6357148032776644E-002  -4.6494016421260026E-003   6.2381347058993064E-002
   1.5645402931343685E-002  -4.3666629312045235E-003   6.2928464721910327E-002
   1.3867086575447156E-002  -4.1331837612435529E-003   6.3277252328047484E-002
   1.3375173066982091E-002  -3.9161445397939698E-003   6.3108543355405083E-002
   1.2883259558517001E-002  -3.7007670733446157E-003   6.3145700874673638E-002
   1.2391346050051910E-002  -3.4870513618956329E-003   6.3388724885852996E-002
   1.1899432541586832E-002  -3.2749974054471220E-003   6.3837615388943614E-002
   9.2432570642524067E-003  -2.7554558432558995E-003   6.4339107032200860E-002
   8.9432449466413586E-003  -2.6107630634484291E-003   6.4156515401796330E-002
   8.6432328290303104E-003  -2.4671781429182194E-003   6.4151860061188837E-002
   8.3432207114192691E-003  -2.3247010816654298E-003   6.4325141010378506E-002
   8.0432085938082175E-003  -2.1833318796899148E-003   6.4676358249365337E-002
   4.6208948034912514E-003  -1.3777279252683156E-003   6.5328338346850742E-002
   4.4848538746204026E-003  -1.3053815871028052E-003   6.5132417954406954E-002
   4.3488129457495486E-003  -1.2335892124917952E-003   6.5086503649646521E-002
   4.2127720168787051E-003  -1.1623508014351989E-003   6.5190595432569359E-002
   4.0767310880078537E-003  -1.0916663539327215E-003   6.5444693303175580E-002
  -2.0683631196671826E-010  -7.2807315731893141E-012   6.6244946271996841E-002
  -1.4908079978837030E-010  -1.1075754202671817E-010   6.6036251013237068E-002
  -9.1325284140575391E-011  -2.8206539881558967E-010   6.5949631640046774E-002
  -3.3569768492780483E-011  -5.2120483623463443E-010   6.5985088152425792E-002
   2.4185743685567473E-011  -8.2817541713353648E-010   6.6142620550374231E-002
   1.5645402931343685E-002  -4.3666629312045235E-003   6.2928464721910327E-002
   1.4504244167350980E-002  -4.0735430940208595E-003   6.2956584515429959E-002
   1.3363085403358309E-002  -3.7574453535899749E-003   6.3300719191222293E-002
   1.2221926639365614E-002  -3.4183697099120121E-003   6.3960868749287234E-002
   1.1080767875372932E-002  -3.0563161629864055E-003   6.4937033189624405E-002
   1.1899432541586832E-002  -3.2749974054471220E-003   6.3837615388943614E-002
   1.1066607374054717E-002  -3.0551575529629837E-003   6.3767906063789015E-002
   1.0233782206522636E-002  -2.8180841534072298E-003   6.3998849049283074E-002
   9.4009570389905206E-003  -2.5637772067800824E-003   6.4530444345425847E-002
   8.5681318714584120E-003  -2.2922367130813193E-003   6.5362691952217111E-002
   8.0432085938082175E-003  -2.1833318796899148E-003   6.4676358249365337E-002
   7.5033544511128002E-003  -2.0367720119051080E-003   6.4503075449360819E-002
   6.9635003084173707E-003  -1.8787229532245334E-003   6.4615082388380984E-002
   6.4236461657219629E-003  -1.7091847036482619E-003   6.5012379066425888E-002
   5.8837920230265239E-003  -1.5281572631760110E-003   6.5694965483495626E-002
   4.0767310880078537E-003  -1.0916663539327215E-003   6.5444693303175580E-002
   3.8144853985252131E-003  -1.0183864708473434E-003   6.5162092672145316E-002
   3.5522397090425781E-003  -9.3936175304175709E-004   6.5149419208515816E-002
   3.2899940195599449E-003  -8.5459220051655339E-004   6.5406672912286926E-002
   3.0277483300772956E-003  -7.6407781327086921E-004   6.5933853783459229E-002
   2.4185743685567473E-011  -8.2817541713353648E-010   6.6142620550374231E-002
   2.1629197391459520E-010  -9.2978930110731994E-010   6.5744957732142451E-002
   4.0839820761306989E-010  -5.5285914735136998E-010   6.5601859509687444E-002
   6.0050443610737414E-010   3.0261530781228174E-010   6.5713325883009571E-002
   7.9261067154057230E-010   1.6366343835727548E-009   6.6079356852108528E-002
  -9.6221051959499704E-012   0.0000000000000000        2.8437883978840603E-002
  -1.1200566515934263E-011   3.7678350023329088E-012   3.3398449342258316E-002
  -1.2779028052758989E-011   6.8411925430167386E-012   3.8366497067233524E-002
  -1.4357488613801761E-011   9.2200691526045375E-012   4.3342027153766199E-002
  -1.5935950042206271E-011   1.0904470035266733E-011   4.8325039601856357E-002
  -6.8009578495129806E-003   0.0000000000000000        2.8502054667538457E-002
  -6.8329670824078172E-003   1.4681843616821955E-004   3.3536363303266828E-002
  -6.8649763153026556E-003   3.3059099811161199E-004   3.8499171114804970E-002
  -6.8969855481974922E-003   5.5131768583017386E-004   4.3390478102152880E-002
  -6.9289947810923271E-003   8.0899849932390688E-004   4.8210284265310557E-002
  -1.3507157886759694E-002   0.0000000000000000        2.8694566725401872E-002
  -1.3650159536718616E-002   2.9363686856860409E-004   3.3839572759910549E-002
  -1.3793161186677541E-002   6.6118198938203056E-004   3.8834094784481271E-002
  -1.3936162836636463E-002   1.1026353624402768E-003   4.3678132799114061E-002
  -1.4079164486595392E-002   1.6179969877433446E-003   4.8371686803808912E-002
  -2.0118600121362244E-002   0.0000000000000000        2.9015420152430842E-002
  -2.0451577374132966E-002   4.4045530096898907E-004   3.4308077712189466E-002
  -2.0784554626903689E-002   9.9177298065245044E-004   3.9371268076262449E-002
  -2.1117531879674412E-002   1.6539530390503772E-003   4.4204991244649772E-002
  -2.1450509132445134E-002   2.4269954761627836E-003   4.8809247217351415E-002
  -2.6635284553320631E-002   0.0000000000000000        2.9464614948625380E-002
  -2.7237220594650863E-002   5.8727373336937404E-004   3.4941878160103607E-002
  -2.7839156635981094E-002   1.3223639719228703E-003   4.0110690990148475E-002
  -2.8441092677311330E-002   2.2052707156604845E-003   4.4971053438759970E-002
  -2.9043028718641565E-002   3.2359939645822200E-003   4.9522965505938099E-002
  -1.5935950042206271E-011   1.0904470035266733E-011   4.8325039601856357E-002
  -1.9524785434266168E-011   1.2691334094760975E-011   5.1490769650451726E-002
  -2.3113617573719547E-011   1.5377648373421371E-011   5.4520056389727775E-002
  -2.6702451339476185E-011   1.8963377200996445E-011   5.7412899819684532E-002
  -3.0291285105232824E-011   2.3448555597216370E-011   6.0169299940321989E-002
  -6.9289947810923271E-003   8.0899849932390688E-004   4.8210284265310557E-002
  -7.0359561472891578E-003   1.0638020670042628E-003   5.1162967012019292E-002
  -7.1429175134859815E-003   1.2758970172827011E-003   5.4038170342831336E-002
  -7.2498788796828079E-003   1.4452833501591815E-003   5.6835894257746711E-002
  -7.3568402458796334E-003   1.5719610656337660E-003   5.9556138756765423E-002
  -1.4079164486595392E-002   1.6179969877433446E-003   4.8371686803808912E-002
  -1.4234123321977588E-002   2.1276041213171767E-003   5.1068613630329669E-002
  -1.4389082157359786E-002   2.5517940191877265E-003   5.3747024934376351E-002
  -1.4544040992741987E-002   2.8905666813549718E-003   5.6406920715948994E-002
  -1.4698999828124181E-002   3.1439221078189451E-003   5.9048300975047555E-002
  -2.1450509132445134E-002   2.4269954761627836E-003   4.8809247217351415E-002
  -2.1594501543590085E-002   3.1914061756300981E-003   5.1207709505382837E-002
  -2.1738493954735035E-002   3.8276910210927723E-003   5.3646620164362821E-002
  -2.1882486365879996E-002   4.3358500125507829E-003   5.6125979194291367E-002
  -2.2026478777024940E-002   4.7158831500041607E-003   5.8645786595168448E-002
  -2.9043028718641565E-002   3.2359939645822200E-003   4.9522965505938099E-002
  -2.9117090812126642E-002   4.2552082299430159E-003   5.1580254637178823E-002
  -2.9191152905611729E-002   5.1035880229978008E-003   5.3736956032790724E-002
  -2.9265214999096810E-002   5.7811333437465693E-003   5.5993069692773789E-002
  -2.9339277092581890E-002   6.2878441921893347E-003   5.8348595617128046E-002
  -3.0291285105232824E-011   2.3448555597216370E-011   6.0169299940321989E-002
  -3.1384616260010656E-011   2.7165159011133255E-011   6.1057351554972557E-002
  -3.2477946547426750E-011   2.8445234015461729E-011   6.2082879825886589E-002
  -3.3571278569566321E-011   2.7288807064734799E-011   6.3245884753064113E-002
  -3.4664607989620677E-011   2.3695795325906488E-011   6.4546366336505095E-002
  -7.3568402458796334E-003   1.5719610656337660E-003   5.9556138756765423E-002
  -7.2321340765744415E-003   1.6692119704016517E-003   6.0438028015670844E-002
  -7.1074279072692453E-003   1.7503178711580827E-003   6.1431852959109870E-002
  -6.9827217379640483E-003   1.8152787679030966E-003   6.2537613587082416E-002
  -6.8580155686588599E-003   1.8640946606366809E-003   6.3755309899588566E-002
  -1.4698999828124181E-002   3.1439221078189451E-003   5.9048300975047555E-002
  -1.4475128460150366E-002   3.3384239136381166E-003   5.9907882876632977E-002
  -1.4251257092176546E-002   3.5006357138709166E-003   6.0853859491022032E-002
  -1.4027385724202722E-002   3.6305575085173857E-003   6.1886230818214788E-002
  -1.3803514356228903E-002   3.7281892975775249E-003   6.3004996858211149E-002
  -2.2026478777024940E-002   4.7158831500041607E-003   5.8645786595168448E-002
  -2.1728983182112391E-002   5.0076358568745816E-003   5.9466916137858893E-002
  -2.1431487587199854E-002   5.2509535565837505E-003   6.0348899421623095E-002
  -2.1133991992287302E-002   5.4458362491316891E-003   6.1291736446461131E-002
  -2.0836496397374761E-002   5.5922839345183759E-003   6.2295427212372856E-002
  -2.9339277092581890E-002   6.2878441921893347E-003   5.8348595617128046E-002
  -2.8993698242460526E-002   6.6768478001110673E-003   5.9115127799348646E-002
  -2.8648119392339150E-002   7.0012713992966026E-003   5.9916972750913115E-002
  -2.8302540542217779E-002   7.2611149897459796E-003   6.0754130471821446E-002
  -2.7956961692096410E-002   7.4563785714592407E-003   6.1626600962073660E-002
  -3.4664607989620677E-011   2.3695795325906488E-011   6.4546366336505095E-002
  -5.3966730390042628E-011   2.2735494042969151E-011   6.4733222280679140E-002
  -7.3268854525188054E-011   2.9476990293098027E-011   6.5035781985940969E-002
  -9.2570977792971743E-011   4.3920301423527874E-011   6.5454045452290541E-002
  -1.1187310106075543E-010   6.6065458659281262E-011   6.5988012679727870E-002
  -6.8580155686588599E-003   1.8640946606366809E-003   6.3755309899588566E-002
  -6.7263512236912853E-003   1.8933617005808950E-003   6.3859166846436013E-002
  -6.5946868787237125E-003   1.8996760389578503E-003   6.4110648760735106E-002
  -6.4630225337561457E-003   1.8830376757675493E-003   6.4509755642485789E-002
  -6.3313581887885721E-003   1.8434466110099912E-003   6.5056487491688089E-002
  -1.3803514356228903E-002   3.7281892975775249E-003   6.3004996858211149E-002
  -1.3508264440627787E-002   3.7867233784262891E-003   6.3002902098462960E-002
  -1.3213014525026672E-002   3.7993520484387658E-003   6.3180353512530180E-002
  -1.2917764609425555E-002   3.7660753076148527E-003   6.3537351100412864E-002
  -1.2622514693824438E-002   3.6868931559545931E-003   6.4073894862111069E-002
  -2.0836496397374761E-002   5.5922839345183759E-003   6.2295427212372856E-002
  -2.0345739704776249E-002   5.6800850562717282E-003   6.2164428036759874E-002
  -1.9854983012177727E-002   5.6990280579196258E-003   6.2244896241326154E-002
  -1.9364226319579209E-002   5.6491129394621144E-003   6.2536831826071879E-002
  -1.8873469626980690E-002   5.5303397008992020E-003   6.3040234790996783E-002
  -2.7956961692096410E-002   7.4563785714592407E-003   6.1626600962073660E-002
  -2.7238777016136646E-002   7.5734467341171327E-003   6.1343744661326791E-002
  -2.6520592340176882E-002   7.5987040674005447E-003   6.1304276947123128E-002
  -2.5802407664217125E-002   7.5321505713094464E-003   6.1508197819462679E-002
  -2.5084222988257354E-002   7.3737862458437553E-003   6.1955507278345312E-002
  -1.1187310106075543E-010   6.6065458659281262E-011   6.5988012679727870E-002
  -1.3115851460465677E-010   8.9242738199324378E-011   6.5674270501892312E-002
  -1.5044393508745202E-010   1.0678256195939539E-010   6.5574938324212392E-002
  -1.6972935383552379E-010   1.1868477901855190E-010   6.5690016146688041E-002
  -1.8901476911414861E-010   1.2494943968377470E-010   6.6019503969319271E-002
  -6.3313581887885721E-003   1.8434466110099912E-003   6.5056487491688089E-002
  -6.1235913171003818E-003   1.7919395903975566E-003   6.4775864168660185E-002
  -5.9158244454121855E-003   1.7395533596428064E-003   6.4696364627423925E-002
  -5.7080575737239996E-003   1.6862879187455986E-003   6.4817988867979334E-002
  -5.5002907020357990E-003   1.6321432677058323E-003   6.5140736890326262E-002
  -1.2622514693824438E-002   3.6868931559545931E-003   6.4073894862111069E-002
  -1.2220267149526598E-002   3.5838790915524790E-003   6.3825511189385925E-002
  -1.1818019605228765E-002   3.4791066125031030E-003   6.3764965080088443E-002
  -1.1415772060930925E-002   3.3725757188063617E-003   6.3892256534218650E-002
  -1.1013524516633091E-002   3.2642864104622527E-003   6.4207385551776450E-002
  -1.8873469626980690E-002   5.5303397008992020E-003   6.3040234790996783E-002
  -1.8290027628437178E-002   5.3758185927073356E-003   6.2823211564069475E-002
  -1.7706585629893655E-002   5.2186598653633735E-003   6.2780739682205891E-002
  -1.7123143631350150E-002   5.0588635188670971E-003   6.2912819145406043E-002
  -1.6539701632806627E-002   4.8964295532186591E-003   6.3219449953669779E-002
  -2.5084222988257354E-002   7.3737862458437553E-003   6.1955507278345312E-002
  -2.4332872753832120E-002   7.1677580938622198E-003   6.1768965292710948E-002
  -2.3581522519406886E-002   6.9582131182236648E-003   6.1743688433776298E-002
  -2.2830172284981659E-002   6.7451513189279080E-003   6.1879676701541424E-002
  -2.2078822050556425E-002   6.5285726959750101E-003   6.2176930096006278E-002
  -1.8901476911414861E-010   1.2494943968377470E-010   6.6019503969319271E-002
  -1.9347015309256754E-010   1.1926953868979240E-010   6.5748242991067851E-002
  -1.9792554054043343E-010   9.5337834848940872E-011   6.5695396382097010E-002
  -2.0238092451885237E-010   5.3154560614165902E-011   6.5860964142406678E-002
  -2.0683631196671826E-010  -7.2807315731893141E-012   6.6244946271996841E-002
  -5.5002907020357990E-003   1.6321432677058323E-003   6.5140736890326262E-002
  -5.2804418246876371E-003   1.5753041129907414E-003   6.4855712215291503E-002
  -5.0605929473394734E-003   1.5139551610671848E-003   6.4791970934583359E-002
  -4.8407440699913167E-003   1.4480964119353047E-003   6.4949513048201804E-002
  -4.6208951926431478E-003   1.3777278655948133E-003   6.5328338556146587E-002
  -1.1013524516633091E-002   3.2642864104622527E-003   6.4207385551776450E-002
  -1.0570957732435354E-002   3.1506081067118885E-003   6.3904087401001716E-002
  -1.0128390948237618E-002   3.0279102267965416E-003   6.3824941669599511E-002
  -9.6858241640398884E-003   2.8961927707160506E-003   6.3969948357570000E-002
  -9.2432573798421538E-003   2.7554557384704692E-003   6.4339107464912976E-002
  -1.6539701632806627E-002   4.8964295532186591E-003   6.3219449953669779E-002
  -1.5871547916713295E-002   4.7259121004331744E-003   6.2893368548198242E-002
  -1.5203394200619972E-002   4.5418652925259505E-003   6.2794308587145561E-002
  -1.4535240484526646E-002   4.3442891294968511E-003   6.2922270070511321E-002
  -1.3867086768433319E-002   4.1331836113460974E-003   6.3277252998295674E-002
  -2.2078822050556425E-002   6.5285726959750101E-003   6.2176930096006278E-002
  -2.1182212377521478E-002   6.3012160941542661E-003   6.1823555656881468E-002
  -2.0285602704486531E-002   6.0558203582553455E-003   6.1700071687221331E-002
  -1.9388993031451581E-002   5.7923854882777036E-003   6.1806478187025796E-002
  -1.8492383358416638E-002   5.5109114842216700E-003   6.2142775156294849E-002
  -2.0683631196671826E-010  -7.2807315731893141E-012   6.6244946271996841E-002
  -1.4908079978837030E-010  -1.1075754202671817E-010   6.6036251013237068E-002
  -9.1325284140575391E-011  -2.8206539881558967E-010   6.5949631640046774E-002
  -3.3569768492780483E-011  -5.2120483623463443E-010   6.5985088152425792E-002
   2.4185743685567473E-011  -8.2817541713353648E-010   6.6142620550374231E-002
  -4.6208951926431478E-003   1.3777278655948133E-003   6.5328338556146587E-002
  -4.4848541555813047E-003   1.3053813553512705E-003   6.5132418090517064E-002
  -4.3488131185194720E-003   1.2335887145102364E-003   6.5086503697930745E-002
  -4.2127720814576271E-003   1.1623499430711420E-003   6.5190595378387506E-002
  -4.0767310443957823E-003   1.0916650410345841E-003   6.5444693131887666E-002
  -9.2432573798421538E-003   2.7554557384704692E-003   6.4339107464912976E-002
  -8.9432451760002134E-003   2.6107628214602080E-003   6.4156515729647118E-002
  -8.6432329721582678E-003   2.4671777110858856E-003   6.4151860254898316E-002
  -8.3432207683163326E-003   2.3247004073472348E-003   6.4325141040666500E-002
  -8.0432085644743818E-003   2.1833309102445297E-003   6.4676358086951657E-002
  -1.3867086768433319E-002   4.1331836113460974E-003   6.3277252998295674E-002
  -1.3375173210337503E-002   3.9161442875690552E-003   6.3108543930627231E-002
  -1.2883259652241699E-002   3.7007667076615555E-003   6.3145701310949529E-002
  -1.2391346094145885E-002   3.4870508716232703E-003   6.3388725139262608E-002
  -1.1899432536050067E-002   3.2749967794546142E-003   6.3837615415566443E-002
  -1.8492383358416638E-002   5.5109114842216700E-003   6.2142775156294849E-002
  -1.7780638258593197E-002   5.2215257536779580E-003   6.1988502693457348E-002
  -1.7068893158769739E-002   4.9343557042373365E-003   6.2068026866084341E-002
  -1.6357148058946287E-002   4.6494013358993197E-003   6.2381347674175830E-002
  -1.5645402959122839E-002   4.3666626486644766E-003   6.2928465117731869E-002
   2.4185743685567473E-011  -8.2817541713353648E-010   6.6142620550374231E-002
   2.1629197391459520E-010  -9.2978930110731994E-010   6.5744957732142451E-002
   4.0839820761306989E-010  -5.5285914735136998E-010   6.5601859509687444E-002
   6.0050443610737414E-010   3.0261530781228174E-010   6.5713325883009571E-002
   7.9261067154057230E-010   1.6366343835727548E-009   6.6079356852108528E-002
  -4.0767310443957823E-003   1.0916650410345841E-003   6.5444693131887666E-002
  -3.8144849823337785E-003   1.0183849401382561E-003   6.5162093242048941E-002
  -3.5522389202717868E-003   9.3936057212053170E-004   6.5149420496345006E-002
  -3.2899928582097874E-003   8.5459193698128946E-004   6.5406674894775627E-002
  -3.0277467961478052E-003   7.6407903472031080E-004   6.5933856437340732E-002
  -8.0432085644743818E-003   2.1833309102445297E-003   6.4676358086951657E-002
  -7.5033540840989217E-003   2.0367708100660631E-003   6.4503076379840221E-002
  -6.9634996037234676E-003   1.8787216971003218E-003   6.4615084365221231E-002
  -6.4236451233479971E-003   1.7091835713468825E-003   6.5012382043094674E-002
  -5.8837906429725396E-003   1.5281564328063491E-003   6.5694969413459980E-002
  -1.1899432536050067E-002   3.2749967794546142E-003   6.3837615415566443E-002
  -1.1066607089003443E-002   3.0551566799938562E-003   6.3767907145516556E-002
  -1.0233781641956822E-002   2.8180828220798898E-003   6.3998851116316618E-002
  -9.4009561949102149E-003   2.5637752057127809E-003   6.4530447327967005E-002
  -8.5681307478635629E-003   2.2922338308923318E-003   6.5362695780466953E-002
  -1.5645402959122839E-002   4.3666626486644766E-003   6.2928465117731869E-002
  -1.4504243997047368E-002   4.0735425499214273E-003   6.2956585539077570E-002
  -1.3363085034971876E-002   3.7574439470598464E-003   6.3300720749631056E-002
  -1.2221926072896384E-002   3.4183668400784156E-003   6.3960870749392051E-002
  -1.1080767110820913E-002   3.0563112289783145E-003   6.4937035538360943E-002
  -2.6635284553320631E-002   0.0000000000000000        2.9464614948625380E-002
  -2.7237220594650863E-002   5.8727373336937404E-004   3.4941878160103607E-002
  -2.7839156635981094E-002   1.3223639719228703E-003   4.0110690990148475E-002
  -2.8441092677311330E-002   2.2052707156604845E-003   4.4971053438759970E-002
  -2.9043028718641565E-002   3.2359939645822200E-003   4.9522965505938099E-002
  -3.3394654486456614E-002   0.0000000000000000        3.0176399965553283E-002
  -3.4239743480882268E-002   9.6180463592288566E-004   3.5264340135806552E-002
  -3.5084832475307914E-002   2.0268094375345460E-003   4.0174424781302356E-002
  -3.5929921469733561E-002   3.1950144048349862E-003   4.4906653902040683E-002
  -3.6775010464159215E-002   4.4664195378241916E-003   4.9461027498021559E-002
  -4.0734153224591965E-002   0.0000000000000000        3.1285024054782375E-002
  -4.1691800315437129E-002   1.3363355384763964E-003   3.5939024844315326E-002
  -4.2649447406282300E-002   2.7312549031462243E-003   4.0545764965766722E-002
  -4.3607094497127463E-002   4.1847580940094845E-003   4.5105244419136534E-002
  -4.4564741587972613E-002   5.6968451110661691E-003   4.9617463204424804E-002
  -4.8653780767726675E-002   0.0000000000000000        3.2790487216312648E-002
  -4.9593391098315460E-002   1.7108664410299080E-003   3.6965932285629957E-002
  -5.0533001428904240E-002   3.4357003687578995E-003   4.1224711543541584E-002
  -5.1472611759493025E-002   5.1745017831839792E-003   4.5566824990047550E-002
  -5.2412222090081798E-002   6.9272706843081407E-003   4.9992272625147868E-002
  -5.7153537115860756E-002   0.0000000000000000        3.4692789450144104E-002
  -5.7944515829517249E-002   2.0853973435834196E-003   3.8345062459750411E-002
  -5.8735494543173741E-002   4.1401458343695800E-003   4.2211264514626944E-002
  -5.9526473256830234E-002   6.1642454723584879E-003   4.6291395614773717E-002
  -6.0317451970486727E-002   8.1576962575501226E-003   5.0585455760190724E-002
  -2.9043028718641565E-002   3.2359939645822200E-003   4.9522965505938099E-002
  -2.9117090812126642E-002   4.2552082299430159E-003   5.1580254637178823E-002
  -2.9191152905611729E-002   5.1035880229978008E-003   5.3736956032790724E-002
  -2.9265214999096810E-002   5.7811333437465693E-003   5.5993069692773789E-002
  -2.9339277092581890E-002   6.2878441921893347E-003   5.8348595617128046E-002
  -3.6775010464159215E-002   4.4664195378241916E-003   4.9461027498021559E-002
  -3.6788740118043291E-002   5.7010236689127563E-003   5.1247669105298280E-002
  -3.6802469771927374E-002   6.7588256305112374E-003   5.3055563327405839E-002
  -3.6816199425811463E-002   7.6398254226196262E-003   5.4884710164344229E-002
  -3.6829929079695532E-002   8.3440230452379444E-003   5.6735109616113423E-002
  -4.4564741587972613E-002   5.6968451110661691E-003   4.9617463204424804E-002
  -4.4596298451796072E-002   7.1468391078824949E-003   5.1127489590553479E-002
  -4.4627855315619504E-002   8.4140632380246671E-003   5.2580608941972626E-002
  -4.4659412179442935E-002   9.4985175014926735E-003   5.3976821258682216E-002
  -4.4690969043266381E-002   1.0400201898286526E-002   5.5316126540682298E-002
  -5.2412222090081798E-002   6.9272706843081407E-003   4.9992272625147868E-002
  -5.2539765813384952E-002   8.5926545468522283E-003   5.1219716092944421E-002
  -5.2667309536688092E-002   1.0069300845538091E-002   5.2312092876491065E-002
  -5.2794853259991267E-002   1.1357209580365738E-002   5.3269402975787812E-002
  -5.2922396983294401E-002   1.2456380751335101E-002   5.4091646390834663E-002
  -6.0317451970486727E-002   8.1576962575501226E-003   5.0585455760190724E-002
  -6.0619142202809950E-002   1.0038469985821974E-002   5.1524348612471071E-002
  -6.0920832435133188E-002   1.1724538453051539E-002   5.2250015130961142E-002
  -6.1222522667456411E-002   1.3215901659238765E-002   5.2762455315660969E-002
  -6.1524212899779621E-002   1.4512559604383704E-002   5.3061669166570541E-002
  -2.9339277092581890E-002   6.2878441921893347E-003   5.8348595617128046E-002
  -2.8993698242460526E-002   6.6768478001110673E-003   5.9115127799348646E-002
  -2.8648119392339150E-002   7.0012713992966026E-003   5.9916972750913115E-002
  -2.8302540542217779E-002   7.2611149897459796E-003   6.0754130471821446E-002
  -2.7956961692096410E-002   7.4563785714592407E-003   6.1626600962073660E-002
  -3.6829929079695532E-002   8.3440230452379444E-003   5.6735109616113423E-002
  -3.6397051724807325E-002   8.8872247575561177E-003   5.7078354727376615E-002
  -3.5964174369919132E-002   9.2852368187641456E-003   5.7560884078829616E-002
  -3.5531297015030938E-002   9.5380592288620246E-003   5.8182697670472412E-002
  -3.5098419660142717E-002   9.6456919878497166E-003   5.8943795502304989E-002
  -4.4690969043266381E-002   1.0400201898286526E-002   5.5316126540682298E-002
  -4.4066821712765429E-002   1.1097601715001206E-002   5.5155474938614113E-002
  -4.3442674382264464E-002   1.1569202238231715E-002   5.5238079047581622E-002
  -4.2818527051763519E-002   1.1815003467978070E-002   5.5563938867584824E-002
  -4.2194379721262554E-002   1.1835005404240199E-002   5.6133054398623775E-002
  -5.2922396983294401E-002   1.2456380751335101E-002   5.4091646390834663E-002
  -5.2003008206334772E-002   1.3307978672446283E-002   5.3346488433061064E-002
  -5.1083619429375150E-002   1.3853167657699283E-002   5.2948557657169097E-002
  -5.0164230652415535E-002   1.4091947707094089E-002   5.2897854063158757E-002
  -4.9244841875455893E-002   1.4024318820630734E-002   5.3194377651029988E-002
  -6.1524212899779621E-002   1.4512559604383704E-002   5.3061669166570541E-002
  -6.0205611205515402E-002   1.5518355629891359E-002   5.1651395210717502E-002
  -5.8887009511251191E-002   1.6137133077166826E-002   5.0692319907592001E-002
  -5.7568407816986980E-002   1.6368891946210176E-002   5.0184443257194081E-002
  -5.6249806122722748E-002   1.6213632237021172E-002   5.0127765259523685E-002
  -2.7956961692096410E-002   7.4563785714592407E-003   6.1626600962073660E-002
  -2.7238777016136646E-002   7.5734467341171327E-003   6.1343744661326791E-002
  -2.6520592340176882E-002   7.5987040674005447E-003   6.1304276947123128E-002
  -2.5802407664217125E-002   7.5321505713094464E-003   6.1508197819462679E-002
  -2.5084222988257354E-002   7.3737862458437553E-003   6.1955507278345312E-002
  -3.5098419660142717E-002   9.6456919878497166E-003   5.8943795502304989E-002
  -3.4149407556681999E-002   9.6473067086237096E-003   5.8614547322096547E-002
  -3.3200395453221308E-002   9.5820750040805820E-003   5.8503565410346778E-002
  -3.2251383349760604E-002   9.4499968742201811E-003   5.8610849767055766E-002
  -3.1302371246299907E-002   9.2510723190426525E-003   5.8936400392223420E-002
  -4.2194379721262554E-002   1.1835005404240199E-002   5.6133054398623775E-002
  -4.1039662508385366E-002   1.1721166683130332E-002   5.5782378743011063E-002
  -3.9884945295508192E-002   1.1565445940760645E-002   5.5624847037772596E-002
  -3.8730228082630998E-002   1.1367843177131041E-002   5.5660459282908352E-002
  -3.7575510869753824E-002   1.1128358392241647E-002   5.5889215478418401E-002
  -4.9244841875455893E-002   1.4024318820630734E-002   5.3194377651029988E-002
  -4.7909541871246686E-002   1.3795026657636931E-002   5.2847238924070367E-002
  -4.6574241867037500E-002   1.3548816877440722E-002   5.2668121829400477E-002
  -4.5238941862828293E-002   1.3285689480041923E-002   5.2657026367020396E-002
  -4.3903641858619114E-002   1.3005644465440634E-002   5.2813952536930046E-002
  -5.6249806122722748E-002   1.6213632237021172E-002   5.0127765259523685E-002
  -5.4759045645266007E-002   1.5868886632143517E-002   4.9809127865274430E-002
  -5.3268285167809251E-002   1.5532187814120770E-002   4.9633389785230513E-002
  -5.1777524690352524E-002   1.5203535782952741E-002   4.9600551019391884E-002
  -5.0286764212895768E-002   1.4882930538639566E-002   4.9710611567758606E-002
  -2.5084222988257354E-002   7.3737862458437553E-003   6.1955507278345312E-002
  -2.4332872753832120E-002   7.1677580938622198E-003   6.1768965292710948E-002
  -2.3581522519406886E-002   6.9582131182236648E-003   6.1743688433776298E-002
  -2.2830172284981659E-002   6.7451513189279080E-003   6.1879676701541424E-002
  -2.2078822050556425E-002   6.5285726959750101E-003   6.2176930096006278E-002
  -3.1302371246299907E-002   9.2510723190426525E-003   5.8936400392223420E-002
  -3.0380849826747096E-002   9.0110215261872822E-003   5.8694311662757695E-002
  -2.9459328407194327E-002   8.7555646832933598E-003   5.8631300176847312E-002
  -2.8537806987641554E-002   8.4847017903609406E-003   5.8747365934492396E-002
  -2.7616285568088747E-002   8.1984328473898582E-003   5.9042508935692739E-002
  -3.7575510869753824E-002   1.1128358392241647E-002   5.5889215478418401E-002
  -3.6466006148217822E-002   1.0854284958512372E-002   5.5579690778739851E-002
  -3.5356501426681841E-002   1.0552916248363086E-002   5.5467055439472307E-002
  -3.4246996705145846E-002   1.0224252261793947E-002   5.5551309460615782E-002
  -3.3137491983609851E-002   9.8682929988047341E-003   5.5832452842170352E-002
  -4.3903641858619114E-002   1.3005644465440634E-002   5.2813952536930046E-002
  -4.2588341718244264E-002   1.2697548390837449E-002   5.2425102640657396E-002
  -4.1273041577869450E-002   1.2350267813432797E-002   5.2250954221651290E-002
  -3.9957741437494622E-002   1.1963802733226911E-002   5.2291507279911893E-002
  -3.8642441297119780E-002   1.1538153150219679E-002   5.2546761815439116E-002
  -5.0286764212895768E-002   1.4882930538639566E-002   4.9710611567758606E-002
  -4.8747856536826450E-002   1.4540811823162511E-002   4.9230547248510254E-002
  -4.7208948860757133E-002   1.4147619378502556E-002   4.8982996523384212E-002
  -4.5670041184687815E-002   1.3703353204660039E-002   4.8967959392380543E-002
  -4.4131133508618497E-002   1.3208013301634458E-002   4.9185435855499116E-002
  -2.2078822050556425E-002   6.5285726959750101E-003   6.2176930096006278E-002
  -2.1182212377521478E-002   6.3012160941542661E-003   6.1823555656881468E-002
  -2.0285602704486531E-002   6.0558203582553455E-003   6.1700071687221331E-002
  -1.9388993031451581E-002   5.7923854882777036E-003   6.1806478187025796E-002
  -1.8492383358416638E-002   5.5109114842216700E-003   6.2142775156294849E-002
  -2.7616285568088747E-002   8.1984328473898582E-003   5.9042508935692739E-002
  -2.6495162669865263E-002   7.8985084336222616E-003   5.8685042341486485E-002
  -2.5374039771641779E-002   7.5866791283000085E-003   5.8546711728192688E-002
  -2.4252916873418275E-002   7.2629449314228871E-003   5.8627517095811356E-002
  -2.3131793975194787E-002   6.9273058429911716E-003   5.8927458444342440E-002
  -3.3137491983609851E-002   9.8682929988047341E-003   5.5832452842170352E-002
  -3.1802610348750010E-002   9.4958007730902155E-003   5.5477028335406395E-002
  -3.0467728713890169E-002   9.1175378983446229E-003   5.5329985321002688E-002
  -2.9132847079030334E-002   8.7335043745681833E-003   5.5391323798959280E-002
  -2.7797965444170479E-002   8.3437002017607287E-003   5.5661043769276108E-002
  -3.8642441297119780E-002   1.1538153150219679E-002   5.2546761815439116E-002
  -3.7104555414175761E-002   1.1093093112558107E-002   5.2199513638641282E-002
  -3.5566669531231727E-002   1.0648396668389317E-002   5.2049892465651393E-002
  -3.4028783648287694E-002   1.0204063817713341E-002   5.2097898296469589E-002
  -3.2490897765343647E-002   9.7600945605303691E-003   5.2343531131095980E-002
  -4.4131133508618497E-002   1.3208013301634458E-002   4.9185435855499116E-002
  -4.2400997866142473E-002   1.2690385452026109E-002   4.8852498251190979E-002
  -4.0670862223666435E-002   1.2179255438433997E-002   4.8706433162138740E-002
  -3.8940726581190403E-002   1.1674623260858632E-002   4.8747240588342497E-002
  -3.7210590938714372E-002   1.1176488919299787E-002   4.8974920529802068E-002
  -1.8492383358416638E-002   5.5109114842216700E-003   6.2142775156294849E-002
  -1.7780638258593197E-002   5.2215257536779580E-003   6.1988502693457348E-002
  -1.7068893158769739E-002   4.9343557042373365E-003   6.2068026866084341E-002
  -1.6357148058946287E-002   4.6494013358993197E-003   6.2381347674175830E-002
  -1.5645402959122839E-002   4.3666626486644766E-003   6.2928465117731869E-002
  -2.3131793975194787E-002   6.9273058429911716E-003   5.8927458444342440E-002
  -2.2203117964486090E-002   6.5837507763389091E-003   5.8728703712836366E-002
  -2.1274441953777375E-002   6.2362686448002441E-003   5.8730014167636319E-002
  -2.0345765943068649E-002   5.8848594483749787E-003   5.8931389808742296E-002
  -1.9417089932359959E-002   5.5295231870634565E-003   5.9332830636154188E-002
  -2.7797965444170479E-002   8.3437002017607287E-003   5.5661043769276108E-002
  -2.6686089971735029E-002   7.9459757989999713E-003   5.5411664023112206E-002
  -2.5574214499299572E-002   7.5381815853633183E-003   5.5328618014095707E-002
  -2.4462339026864118E-002   7.1203175608508598E-003   5.5411905742226736E-002
  -2.3350463554428692E-002   6.6923837254625473E-003   5.5661527207505168E-002
  -3.2490897765343647E-002   9.7600945605303691E-003   5.2343531131095980E-002
  -3.1229554280340008E-002   9.3082008216608947E-003   5.2037383624284742E-002
  -2.9968210795336330E-002   8.8400945259263647E-003   5.1863838405462430E-002
  -2.8706867310332670E-002   8.3557756733267409E-003   5.1822895474629080E-002
  -2.7445523825329013E-002   7.8552442638616382E-003   5.1914554831784601E-002
  -3.7210590938714372E-002   1.1176488919299787E-002   4.8974920529802068E-002
  -3.5833510890301040E-002   1.0670425844321957E-002   4.8605862516354015E-002
  -3.4456430841887681E-002   1.0142007466489342E-002   4.8335675341736578E-002
  -3.3079350793474328E-002   9.5912337858022993E-003   4.8164359005949439E-002
  -3.1702270745060976E-002   9.0181048022605625E-003   4.8091913508992834E-002
  -1.5645402959122839E-002   4.3666626486644766E-003   6.2928465117731869E-002
  -1.4504243997047368E-002   4.0735425499214273E-003   6.2956585539077570E-002
  -1.3363085034971876E-002   3.7574439470598464E-003   6.3300720749631056E-002
  -1.2221926072896384E-002   3.4183668400784156E-003   6.3960870749392051E-002
  -1.1080767110820913E-002   3.0563112289783145E-003   6.4937035538360943E-002
  -1.9417089932359959E-002   5.5295231870634565E-003   5.9332830636154188E-002
  -1.7982833311583575E-002   5.1648661372316329E-003   5.9157500770024823E-002
  -1.6548576690807216E-002   4.7854945752455053E-003   5.9252351432089539E-002
  -1.5114320070030808E-002   4.3914085011048203E-003   5.9617382622348475E-002
  -1.3680063449254445E-002   3.9826079148099769E-003   6.0252594340801213E-002
  -2.3350463554428692E-002   6.6923837254625473E-003   5.5661527207505168E-002
  -2.1668943535965025E-002   6.2561897245416720E-003   5.5291011045865382E-002
  -1.9987423517501390E-002   5.8135452034311641E-003   5.5144841151406027E-002
  -1.8305903499037740E-002   5.3644501621311416E-003   5.5223017524127213E-002
  -1.6624383480574122E-002   4.9089046006415282E-003   5.5525540164028830E-002
  -2.7445523825329013E-002   7.8552442638616382E-003   5.1914554831784601E-002
  -2.5562574670191733E-002   7.3475133118516833E-003   5.1357116366599384E-002
  -2.3679625515054481E-002   6.8415958316169895E-003   5.0978189907580816E-002
  -2.1796676359917177E-002   6.3374918231573936E-003   5.0777775454729224E-002
  -1.9913727204779956E-002   5.8352012864731351E-003   5.0755873008044322E-002
  -3.1702270745060976E-002   9.0181048022605625E-003   4.8091913508992834E-002
  -2.9663726714263677E-002   8.4388368991618612E-003   4.7355816732226719E-002
  -2.7625182683466400E-002   7.8696464598026344E-003   4.6752397700613763E-002
  -2.5586638652669098E-002   7.3105334841837670E-003   4.6281656414153785E-002
  -2.3548094621871796E-002   6.7614979723047419E-003   4.5943592872847328E-002
  -5.7153537115860756E-002   0.0000000000000000        3.4692789450144104E-002
  -5.7944515829517249E-002   2.0853973435834196E-003   3.8345062459750411E-002
  -5.8735494543173741E-002   4.1401458343695800E-003   4.2211264514626944E-002
  -5.9526473256830234E-002   6.1642454723584879E-003   4.6291395614773717E-002
  -6.0317451970486727E-002   8.1576962575501226E-003   5.0585455760190724E-002
  -6.5821376778778654E-002   0.0000000000000000        3.7215094311167339E-002
  -6.6627491883204160E-002   2.9151930190867599E-003   4.0838244700789818E-002
  -6.7433606987629652E-002   5.7729961722182152E-003   4.4217193263604036E-002
  -6.8239722092055158E-002   8.5734094593943530E-003   4.7351939999609988E-002
  -6.9045837196480692E-002   1.1316432880615183E-002   5.0242484908807693E-002
  -7.4245254266264854E-002   0.0000000000000000        4.0580565354272929E-002
  -7.5524636633537867E-002   3.7449886945901010E-003   4.4147852110753540E-002
  -7.6804019000810880E-002   7.4058465100668444E-003   4.7012806168347382E-002
  -7.8083401368083893E-002   1.0982573446430223E-002   4.9175427527054484E-002
  -7.9362783735356893E-002   1.4475169503680252E-002   5.0635716186874825E-002
  -8.2425169578319357E-002   0.0000000000000000        4.4789202579460896E-002
  -8.4635950080518357E-002   4.5747843700934404E-003   4.8273884689641569E-002
  -8.6846730582717357E-002   9.0386968479154745E-003   5.0598103228857001E-002
  -8.9057511084916358E-002   1.3391737433466094E-002   5.1761858197107179E-002
  -9.1268291587115399E-002   1.7633906126745313E-002   5.1765149594392115E-002
  -9.0361122714942149E-002   0.0000000000000000        4.9841005986731225E-002
  -9.3961432224145644E-002   5.4045800455967807E-003   5.3216342437453920E-002
  -9.7561741733349139E-002   1.0671547185764109E-002   5.4973084445132880E-002
 -0.10116205124255263        1.5800901420501962E-002   5.5111232009768092E-002
 -0.10476236075175613        2.0792642749810377E-002   5.3630785131359604E-002
  -6.0317451970486727E-002   8.1576962575501226E-003   5.0585455760190724E-002
  -6.0619142202809950E-002   1.0038469985821974E-002   5.1524348612471071E-002
  -6.0920832435133188E-002   1.1724538453051539E-002   5.2250015130961142E-002
  -6.1222522667456411E-002   1.3215901659238765E-002   5.2762455315660969E-002
  -6.1524212899779621E-002   1.4512559604383704E-002   5.3061669166570541E-002
  -6.9045837196480692E-002   1.1316432880615183E-002   5.0242484908807693E-002
  -6.9322685963676300E-002   1.3762423724042207E-002   4.9465193971786295E-002
  -6.9599534730871909E-002   1.5671739277836872E-002   4.8950812298810355E-002
  -6.9876383498067518E-002   1.7044379541999208E-002   4.8699339889879893E-002
  -7.0153232265263141E-002   1.7880344516529242E-002   4.8710776744994896E-002
  -7.9362783735356893E-002   1.4475169503680252E-002   5.0635716186874825E-002
  -7.9138655439589173E-002   1.7486377462262420E-002   4.7800271431961673E-002
  -7.8914527143821467E-002   1.9618940102622235E-002   4.5703871538929706E-002
  -7.8690398848053761E-002   2.0872857424759687E-002   4.4346516507778933E-002
  -7.8466270552286055E-002   2.1248129428674788E-002   4.3728206338509316E-002
  -9.1268291587115399E-002   1.7633906126745313E-002   5.1765149594392115E-002
  -9.0067050630548609E-002   2.1210331200482647E-002   4.6529580992997178E-002
  -8.8865809673981874E-002   2.3566140927407581E-002   4.2509192851319155E-002
  -8.7664568717415098E-002   2.4701335307520125E-002   3.9703985169358004E-002
  -8.6463327760848335E-002   2.4615914340820333E-002   3.8113957947113836E-002
 -0.10476236075175613        2.0792642749810377E-002   5.3630785131359604E-002
 -0.10210787153655461        2.4934284938702863E-002   4.5653122654892866E-002
  -9.9453382321353104E-002   2.7513341752192937E-002   3.9366776235978743E-002
  -9.6798893106151571E-002   2.8529813190280608E-002   3.4771745874617288E-002
  -9.4144403890950051E-002   2.7983699252965871E-002   3.1868031570808378E-002
  -6.1524212899779621E-002   1.4512559604383704E-002   5.3061669166570541E-002
  -6.0205611205515402E-002   1.5518355629891359E-002   5.1651395210717502E-002
  -5.8887009511251191E-002   1.6137133077166826E-002   5.0692319907592001E-002
  -5.7568407816986980E-002   1.6368891946210176E-002   5.0184443257194081E-002
  -5.6249806122722748E-002   1.6213632237021172E-002   5.0127765259523685E-002
  -7.0153232265263141E-002   1.7880344516529242E-002   4.8710776744994896E-002
  -6.8429682298135008E-002   1.8336837966276189E-002   4.7265590318655862E-002
  -6.6706132331006862E-002   1.8571063656089445E-002   4.6179101785317138E-002
  -6.4982582363878702E-002   1.8583021585968969E-002   4.5451311144978718E-002
  -6.3259032396750556E-002   1.8372711755914720E-002   4.5082218397640525E-002
  -7.8466270552286055E-002   2.1248129428674788E-002   4.3728206338509316E-002
  -7.6430273072021229E-002   2.1155320302661075E-002   4.2412858259982762E-002
  -7.4394275591756417E-002   2.1004994235012078E-002   4.1363707314729256E-002
  -7.2358278111491592E-002   2.0797151225727818E-002   4.0580753502748833E-002
  -7.0322280631226780E-002   2.0531791274808260E-002   4.0063996824041437E-002
  -8.6463327760848335E-002   2.4615914340820333E-002   3.8113957947113836E-002
  -8.4207383527174093E-002   2.3973802639045947E-002   3.7093199034698182E-002
  -8.1951439293499864E-002   2.3438924813934704E-002   3.6246136495828390E-002
  -7.9695495059825608E-002   2.3011280865486681E-002   3.5572770330504350E-002
  -7.7439550826151338E-002   2.2690870793701818E-002   3.5073100538726115E-002
  -9.4144403890950051E-002   2.7983699252965871E-002   3.1868031570808378E-002
  -9.1761013663593613E-002   2.6792284975430781E-002   3.1306612642802156E-002
  -8.9377623436237189E-002   2.5872855392857320E-002   3.0826389328614465E-002
  -8.6994233208880778E-002   2.5225410505245498E-002   3.0427361628245404E-002
  -8.4610842981524340E-002   2.4849950312595334E-002   3.0109529541694782E-002
  -5.6249806122722748E-002   1.6213632237021172E-002   5.0127765259523685E-002
  -5.4759045645266007E-002   1.5868886632143517E-002   4.9809127865274430E-002
  -5.3268285167809251E-002   1.5532187814120770E-002   4.9633389785230513E-002
  -5.1777524690352524E-002   1.5203535782952741E-002   4.9600551019391884E-002
  -5.0286764212895768E-002   1.4882930538639566E-002   4.9710611567758606E-002
  -6.3259032396750556E-002   1.8372711755914720E-002   4.5082218397640525E-002
  -6.1603854671835823E-002   1.8035190182545714E-002   4.4719022506275109E-002
  -5.9948676946921096E-002   1.7665512882480836E-002   4.4541761795620312E-002
  -5.8293499222006342E-002   1.7263679855720138E-002   4.4550436265676147E-002
  -5.6638321497091623E-002   1.6829691102263594E-002   4.4745045916442669E-002
  -7.0322280631226780E-002   2.0531791274808260E-002   4.0063996824041437E-002
  -6.8459649792348726E-002   2.0201493732947821E-002   3.9616039922009058E-002
  -6.6597018953470644E-002   1.9798837950840933E-002   3.9397054067192669E-002
  -6.4734388114592589E-002   1.9323823928487496E-002   3.9407039259592304E-002
  -6.2871757275714549E-002   1.8776451665887608E-002   3.9645995499207907E-002
  -7.7439550826151338E-002   2.2690870793701818E-002   3.5073100538726115E-002
  -7.5326431006804653E-002   2.2367797283349988E-002   3.4500180112476214E-002
  -7.3213311187457913E-002   2.1932163019200986E-002   3.4199266599947702E-002
  -7.1100191368111215E-002   2.1383968001254885E-002   3.4170360001140432E-002
  -6.8987071548764461E-002   2.0723212229511602E-002   3.4413460316054550E-002
  -8.4610842981524340E-002   2.4849950312595334E-002   3.0109529541694782E-002
  -8.2204198315203647E-002   2.4534100833752126E-002   2.9371443077676723E-002
  -7.9797553648882885E-002   2.4065488087561097E-002   2.8948399393885320E-002
  -7.7390908982562151E-002   2.3444112074022236E-002   2.8840398490320548E-002
  -7.4984264316241445E-002   2.2669972793135623E-002   2.9047440366982508E-002
  -5.0286764212895768E-002   1.4882930538639566E-002   4.9710611567758606E-002
  -4.8747856536826450E-002   1.4540811823162511E-002   4.9230547248510254E-002
  -4.7208948860757133E-002   1.4147619378502556E-002   4.8982996523384212E-002
  -4.5670041184687815E-002   1.3703353204660039E-002   4.8967959392380543E-002
  -4.4131133508618497E-002   1.3208013301634458E-002   4.9185435855499116E-002
  -5.6638321497091623E-002   1.6829691102263594E-002   4.4745045916442669E-002
  -5.4878906347186743E-002   1.6366528124170998E-002   4.4332463756600937E-002
  -5.3119491197281821E-002   1.5877172423501777E-002   4.4128382950308097E-002
  -5.1360076047376906E-002   1.5361624000256381E-002   4.4132803497564113E-002
  -4.9600660897472032E-002   1.4819882854434308E-002   4.4345725398369118E-002
  -6.2871757275714549E-002   1.8776451665887608E-002   3.9645995499207907E-002
  -6.0915846892547476E-002   1.8192244425179437E-002   3.9325776505379210E-002
  -5.8959936509380424E-002   1.7606725468501085E-002   3.9190046624525965E-002
  -5.7004026126213372E-002   1.7019894795852725E-002   3.9238805856648108E-002
  -5.5048115743046293E-002   1.6431752407234212E-002   3.9472054201745724E-002
  -6.8987071548764461E-002   2.0723212229511602E-002   3.4413460316054550E-002
  -6.6858678172908734E-002   2.0017960726187899E-002   3.4210485494845094E-002
  -6.4730284797052964E-002   1.9336278513500338E-002   3.4167987546037837E-002
  -6.2601891421197209E-002   1.8678165591449095E-002   3.4285966469632355E-002
  -6.0473498045341453E-002   1.8043621960034090E-002   3.4564422265628919E-002
  -7.4984264316241445E-002   2.2669972793135623E-002   2.9047440366982508E-002
  -7.2707400188270432E-002   2.1843677027196445E-002   2.8986590724998706E-002
  -7.0430536060299406E-002   2.1065831558499636E-002   2.9062205714843622E-002
  -6.8153671932328380E-002   2.0336436387045458E-002   2.9274285336516818E-002
  -6.5876807804357340E-002   1.9655491512833911E-002   2.9622829590018773E-002
  -4.4131133508618497E-002   1.3208013301634458E-002   4.9185435855499116E-002
  -4.2400997866142473E-002   1.2690385452026109E-002   4.8852498251190979E-002
  -4.0670862223666435E-002   1.2179255438433997E-002   4.8706433162138740E-002
  -3.8940726581190403E-002   1.1674623260858632E-002   4.8747240588342497E-002
  -3.7210590938714372E-002   1.1176488919299787E-002   4.8974920529802068E-002
  -4.9600660897472032E-002   1.4819882854434308E-002   4.4345725398369118E-002
  -4.7679398983938033E-002   1.4264754401603255E-002   4.4042072065429552E-002
  -4.5758137070404069E-002   1.3709044057330380E-002   4.3933798759349940E-002
  -4.3836875156870111E-002   1.3152751821615658E-002   4.4020905480130448E-002
  -4.1915613243336106E-002   1.2595877694458801E-002   4.4303392227770771E-002
  -5.5048115743046293E-002   1.6431752407234212E-002   3.9472054201745724E-002
  -5.2927220046850319E-002   1.5839123351180623E-002   3.9190605412716337E-002
  -5.0806324350654325E-002   1.5238832676226548E-002   3.9113044162150980E-002
  -4.8685428654458296E-002   1.4630880382372464E-002   3.9239370450049701E-002
  -4.6564532958262309E-002   1.4015266469617871E-002   3.9569584276412453E-002
  -6.0473498045341453E-002   1.8043621960034090E-002   3.4564422265628919E-002
  -5.8144461054879353E-002   1.7413492300757880E-002   3.4298098293051346E-002
  -5.5815424064417266E-002   1.6768621295122878E-002   3.4244169370541824E-002
  -5.3486387073955158E-002   1.6109008943129215E-002   3.4402635498100402E-002
  -5.1157350083493078E-002   1.5434655244776996E-002   3.4773496675727170E-002
  -6.5876807804357340E-002   1.9655491512833911E-002   2.9622829590018773E-002
  -6.3331122008025098E-002   1.8987861250335136E-002   2.9364550706434511E-002
  -6.0785436211692842E-002   1.8298409914019098E-002   2.9327174384522314E-002
  -5.8239750415360565E-002   1.7587137503886185E-002   2.9510700624282446E-002
  -5.5694064619028344E-002   1.6854044019935954E-002   2.9915129425714782E-002
  -3.7210590938714372E-002   1.1176488919299787E-002   4.8974920529802068E-002
  -3.5833510890301040E-002   1.0670425844321957E-002   4.8605862516354015E-002
  -3.4456430841887681E-002   1.0142007466489342E-002   4.8335675341736578E-002
  -3.3079350793474328E-002   9.5912337858022993E-003   4.8164359005949439E-002
  -3.1702270745060976E-002   9.0181048022605625E-003   4.8091913508992834E-002
  -4.1915613243336106E-002   1.2595877694458801E-002   4.4303392227770771E-002
  -4.0424074581422026E-002   1.2031916115997188E-002   4.3988050421677305E-002
  -3.8932535919507884E-002   1.1454361526367279E-002   4.3802755003754787E-002
  -3.7440997257593797E-002   1.0863213925569139E-002   4.3747505974003321E-002
  -3.5949458595679662E-002   1.0258473313602690E-002   4.3822303332423040E-002
  -4.6564532958262309E-002   1.4015266469617871E-002   3.9569584276412453E-002
  -4.4927360133506858E-002   1.3393406387672321E-002   3.9316720969359814E-002
  -4.3290187308751338E-002   1.2766715586245002E-002   3.9225079599818795E-002
  -4.1653014483995839E-002   1.2135194065335869E-002   3.9294660167789555E-002
  -4.0015841659240312E-002   1.1498841824944955E-002   3.9525462673271963E-002
  -5.1157350083493078E-002   1.5434655244776996E-002   3.4773496675727170E-002
  -4.9343367546555536E-002   1.4754896659347615E-002   3.4591874159401716E-002
  -4.7529385009617987E-002   1.4079069646122721E-002   3.4602649129928525E-002
  -4.5715402472680439E-002   1.3407174205102654E-002   3.4805821587307773E-002
  -4.3901419935742897E-002   1.2739210336287096E-002   3.5201391531539297E-002
  -5.5694064619028344E-002   1.6854044019935954E-002   2.9915129425714782E-002
  -5.3672096820568088E-002   1.6116386931022714E-002   2.9813509991803044E-002
  -5.1650129022107846E-002   1.5391423706000593E-002   2.9935463594084166E-002
  -4.9628161223647625E-002   1.4679154344869393E-002   3.0280990232558272E-002
  -4.7606193425187349E-002   1.3979578847629293E-002   3.0850089907225542E-002
  -3.1702270745060976E-002   9.0181048022605625E-003   4.8091913508992834E-002
  -2.9663726714263677E-002   8.4388368991618612E-003   4.7355816732226719E-002
  -2.7625182683466400E-002   7.8696464598026344E-003   4.6752397700613763E-002
  -2.5586638652669098E-002   7.3105334841837670E-003   4.6281656414153785E-002
  -2.3548094621871796E-002   6.7614979723047419E-003   4.5943592872847328E-002
  -3.5949458595679662E-002   1.0258473313602690E-002   4.3822303332423040E-002
  -3.3768236224358705E-002   9.6461738514484752E-003   4.3281288325351747E-002
  -3.1587013853037776E-002   9.0323497000869002E-003   4.2892952254174388E-002
  -2.9405791481716737E-002   8.4170008595177079E-003   4.2657295118891089E-002
  -2.7224569110395946E-002   7.8001273297408913E-003   4.2574316919502087E-002
  -4.0015841659240312E-002   1.1498841824944955E-002   3.9525462673271963E-002
  -3.7671939756654817E-002   1.0853510803735616E-002   3.9167927282947740E-002
  -3.5328037854069259E-002   1.0195052940371117E-002   3.8983072019258623E-002
  -3.2984135951483778E-002   9.5234682348515672E-003   3.8970896882204814E-002
  -3.0640234048898207E-002   8.8387566871769296E-003   3.9131401871785543E-002
  -4.3901419935742897E-002   1.2739210336287096E-002   3.5201391531539297E-002
  -4.1374837311151873E-002   1.2060847756022605E-002   3.5015733605014858E-002
  -3.8848254686560883E-002   1.1357756180655359E-002   3.5022756995866308E-002
  -3.6321672061969783E-002   1.0629935610185579E-002   3.5222461704093828E-002
  -3.3795089437378759E-002   9.8773860446129680E-003   3.5614847729697030E-002
  -4.7606193425187349E-002   1.3979578847629293E-002   3.0850089907225542E-002
  -4.4876928887849971E-002   1.3268184708309483E-002   3.0824707291553122E-002
  -4.2147664350512482E-002   1.2520459420939586E-002   3.1012007183997631E-002
  -3.9418399813175048E-002   1.1736402985519364E-002   3.1411989584558667E-002
  -3.6689135275837670E-002   1.0916015402049117E-002   3.2024654493237215E-002
  -9.0361122714942149E-002   0.0000000000000000        4.9841005986731225E-002
  -9.3961432224145644E-002   5.4045800455967807E-003   5.3216342437453920E-002
  -9.7561741733349139E-002   1.0671547185764109E-002   5.4973084445132880E-002
 -0.10116205124255263        1.5800901420501962E-002   5.5111232009768092E-002
 -0.10476236075175613        2.0792642749810377E-002   5.3630785131359604E-002
 -0.10329194787805970        0.0000000000000000        5.8669265346566205E-002
 -0.10682920913148138        1.0884718165275109E-002   5.2125317758895152E-002
 -0.11036647038490305        1.9172608218383541E-002   4.7326061125831487E-002
 -0.11390373163832475        2.4863670159325290E-002   4.4271495447375200E-002
 -0.11744099289174638        2.7957903988100361E-002   4.2961620723526356E-002
 -0.12645647926959852        0.0000000000000000        7.4207270429448122E-002
 -0.12656740686958723        1.6364856284953433E-002   5.5284823596646097E-002
 -0.12667833446957594        2.7673669251002973E-002   4.1470353116102601E-002
 -0.12678926206956467        3.3926438898148600E-002   3.2763858987817598E-002
 -0.12690018966955338        3.5123165226390328E-002   2.9165341211791103E-002
 -0.15985471688955855        0.0000000000000000        9.6455021235376970E-002
 -0.15317602543846320        2.1844994404631769E-002   6.2694859950706755E-002
 -0.14649733398736783        3.6174730283622412E-002   3.7405960415946189E-002
 -0.13981864253627249        4.2989207636971907E-002   2.0588322631095252E-002
 -0.13313995108517715        4.2288426464680305E-002   1.2241946596153920E-002
 -0.20348666073793983        0.0000000000000000       0.12541251776435278     
 -0.18665506483810929        2.7325132524310090E-002   7.4355426821077153E-002
 -0.16982346893827874        4.4675791316241838E-002   3.5132883025362278E-002
 -0.15299187303844819        5.2051976375795249E-002   7.7448863772081877E-003
 -0.13616027713861761        4.9453687702970289E-002  -7.8085631233851954E-003
 -0.10476236075175613        2.0792642749810377E-002   5.3630785131359604E-002
 -0.10210787153655461        2.4934284938702863E-002   4.5653122654892866E-002
  -9.9453382321353104E-002   2.7513341752192937E-002   3.9366776235978743E-002
  -9.6798893106151571E-002   2.8529813190280608E-002   3.4771745874617288E-002
  -9.4144403890950051E-002   2.7983699252965871E-002   3.1868031570808378E-002
 -0.11744099289174638        2.7957903988100361E-002   4.2961620723526356E-002
 -0.11348340475229299        2.9430031678631743E-002   3.6710191706080579E-002
 -0.10952581661283958        3.0254775204842529E-002   3.1373644479586016E-002
 -0.10556822847338619        3.0432134566732646E-002   2.6951979044042600E-002
 -0.10161064033393274        2.9962109764302150E-002   2.3445195399450284E-002
 -0.12690018966955338        3.5123165226390328E-002   2.9165341211791103E-002
 -0.12241593687244959        3.3925778418560641E-002   2.5555346864448138E-002
 -0.11793168407534575        3.2996208657492095E-002   2.2083800041454868E-002
 -0.11344743127824194        3.2334455943184723E-002   1.8750700742811228E-002
 -0.10896317848113812        3.1940520275638457E-002   1.5556048968517307E-002
 -0.13313995108517715        4.2288426464680305E-002   1.2241946596153920E-002
 -0.12890546789702434        3.8421525158489553E-002   1.2188588129995506E-002
 -0.12467098470887163        3.5737642110141757E-002   1.1497242921585271E-002
 -0.12043650152071887        3.4236777319636799E-002   1.0167910970923210E-002
 -0.11620201833256613        3.3918930786974708E-002   8.2005922780093582E-003
 -0.13616027713861761        4.9453687702970289E-002  -7.8085631233851954E-003
 -0.13295199782601741        4.2917271898418430E-002  -3.3900844972772938E-003
 -0.12974371851341718        3.8479075562791308E-002  -3.8602688002268778E-004
 -0.12653543920081700        3.6139098696088820E-002   1.2036097283785368E-003
 -0.12332715988821674        3.5897341298311014E-002   1.3788253279266305E-003
  -9.4144403890950051E-002   2.7983699252965871E-002   3.1868031570808378E-002
  -9.1761013663593613E-002   2.6792284975430781E-002   3.1306612642802156E-002
  -8.9377623436237189E-002   2.5872855392857320E-002   3.0826389328614465E-002
  -8.6994233208880778E-002   2.5225410505245498E-002   3.0427361628245404E-002
  -8.4610842981524340E-002   2.4849950312595334E-002   3.0109529541694782E-002
 -0.10161064033393274        2.9962109764302150E-002   2.3445195399450284E-002
  -9.9131591898365040E-002   2.9193066050518114E-002   2.3172602879901791E-002
  -9.6652543462797336E-002   2.8473368678347634E-002   2.3010131162957255E-002
  -9.4173495027229590E-002   2.7803017647790716E-002   2.2957780248616774E-002
  -9.1694446591661871E-002   2.7182012958847382E-002   2.3015550136880419E-002
 -0.10896317848113812        3.1940520275638457E-002   1.5556048968517307E-002
 -0.10635954664857364        3.1593847125605472E-002   1.5349644504078407E-002
 -0.10375591481600913        3.1073881963837972E-002   1.5282286031028982E-002
 -0.10115228298344466        3.0380624790335979E-002   1.5353973549369203E-002
  -9.8548651150880115E-002   2.9514075605099492E-002   1.5564707059098740E-002
 -0.11620201833256613        3.3918930786974708E-002   8.2005922780093582E-003
 -0.11344487791421937        3.3994628200692822E-002   7.8377375153321320E-003
 -0.11068773749587264        3.3674395249328352E-002   7.6428539328297421E-003
 -0.10793059707752593        3.2958231932881207E-002   7.6159415305023419E-003
 -0.10517345665917918        3.1846138251351547E-002   7.7570003083499281E-003
 -0.12332715988821674        3.5897341298311014E-002   1.3788253279266305E-003
 -0.12038758569530228        3.6395409275780180E-002   6.3688191366267910E-004
 -0.11744801150238782        3.6274908534818615E-002   9.1834868359237654E-005
 -0.11450843730947335        3.5535839075426442E-002  -2.5631580798353253E-004
 -0.11156886311655889        3.4178200897603594E-002  -4.0757011536612930E-004
  -8.4610842981524340E-002   2.4849950312595334E-002   3.0109529541694782E-002
  -8.2204198315203647E-002   2.4534100833752126E-002   2.9371443077676723E-002
  -7.9797553648882885E-002   2.4065488087561097E-002   2.8948399393885320E-002
  -7.7390908982562151E-002   2.3444112074022236E-002   2.8840398490320548E-002
  -7.4984264316241445E-002   2.2669972793135623E-002   2.9047440366982508E-002
  -9.1694446591661871E-002   2.7182012958847382E-002   2.3015550136880419E-002
  -8.9009126252365983E-002   2.6561056213216118E-002   2.2369488755361454E-002
  -8.6323805913070081E-002   2.5890849012595436E-002   2.1965735939566244E-002
  -8.3638485573774179E-002   2.5171391356985432E-002   2.1804291689494631E-002
  -8.0953165234478278E-002   2.4402683246385948E-002   2.1885156005146705E-002
  -9.8548651150880115E-002   2.9514075605099492E-002   1.5564707059098740E-002
  -9.5657389353112077E-002   2.8588011592680262E-002   1.5114183572437465E-002
  -9.2766127555344025E-002   2.7716209937629854E-002   1.4833234436996754E-002
  -8.9874865757575945E-002   2.6898670639948573E-002   1.4721859652776587E-002
  -8.6983603959807865E-002   2.6135393699636231E-002   1.4780059219777368E-002
 -0.10517345665917918        3.1846138251351547E-002   7.7570003083499281E-003
 -0.10214898761744190        3.0614966972144331E-002   7.6055275289046370E-003
  -9.9124518575704659E-002   2.9541570862664318E-002   7.5508948861768253E-003
  -9.6100049533967405E-002   2.8625949922911727E-002   7.5931023801666057E-003
  -9.3075580492230095E-002   2.7868104152886451E-002   7.7321500108743276E-003
 -0.11156886311655889        3.4178200897603594E-002  -4.0757011536612930E-004
 -0.10848392104535542        3.2641922351608343E-002  -1.5647937523713407E-004
 -0.10539897897415201        3.1366931787698601E-002   1.1871728710637075E-004
 -0.10231403690294857        3.0353229205874948E-002   4.1801987166468699E-004
  -9.9229094831745135E-002   2.9600814606136894E-002   7.4142837843749199E-004
  -7.4984264316241445E-002   2.2669972793135623E-002   2.9047440366982508E-002
  -7.2707400188270432E-002   2.1843677027196445E-002   2.8986590724998706E-002
  -7.0430536060299406E-002   2.1065831558499636E-002   2.9062205714843622E-002
  -6.8153671932328380E-002   2.0336436387045458E-002   2.9274285336516818E-002
  -6.5876807804357340E-002   1.9655491512833911E-002   2.9622829590018773E-002
  -8.0953165234478278E-002   2.4402683246385948E-002   2.1885156005146705E-002
  -7.8536341263214765E-002   2.3613447862458573E-002   2.1794586870322444E-002
  -7.6119517291951266E-002   2.2832408386865205E-002   2.1847472790254702E-002
  -7.3702693320687768E-002   2.2059564819605755E-002   2.2043813764943153E-002
  -7.1285869349424241E-002   2.1294917160680105E-002   2.2383609794388276E-002
  -8.6983603959807865E-002   2.6135393699636231E-002   1.4780059219777368E-002
  -8.4419829722323952E-002   2.5383218697720797E-002   1.4619516203203807E-002
  -8.1856055484840040E-002   2.4598985215230778E-002   1.4609418664314779E-002
  -7.9292281247356128E-002   2.3782693252165889E-002   1.4749766603109839E-002
  -7.6728507009872160E-002   2.2934342808526326E-002   1.5040560019589269E-002
  -9.3075580492230095E-002   2.7868104152886451E-002   7.7321500108743276E-003
  -9.0357865565597939E-002   2.7152989532983250E-002   7.4613787236427094E-003
  -8.7640150638965741E-002   2.6365562043596573E-002   7.3480433370237937E-003
  -8.4922435712333544E-002   2.5505821684726159E-002   7.3921438510167574E-003
  -8.2204720785701388E-002   2.4573768456372533E-002   7.5936802656220194E-003
  -9.9229094831745135E-002   2.9600814606136894E-002   7.4142837843749199E-004
  -9.6350448793036725E-002   2.8922760368245259E-002   3.2017443163945281E-004
  -9.3471802754328370E-002   2.8132138871961906E-002   6.3346808381603559E-005
  -9.0593156715620016E-002   2.7228950117286359E-002  -2.9054491336055754E-005
  -8.7714510676911606E-002   2.6213194104218629E-002   4.2970532486474866E-005
  -6.5876807804357340E-002   1.9655491512833911E-002   2.9622829590018773E-002
  -6.3331122008025098E-002   1.8987861250335136E-002   2.9364550706434511E-002
  -6.0785436211692842E-002   1.8298409914019098E-002   2.9327174384522314E-002
  -5.8239750415360565E-002   1.7587137503886185E-002   2.9510700624282446E-002
  -5.5694064619028344E-002   1.6854044019935954E-002   2.9915129425714782E-002
  -7.1285869349424241E-002   2.1294917160680105E-002   2.2383609794388276E-002
  -6.8521026839451521E-002   2.0534164428220925E-002   2.2078895382781960E-002
  -6.5756184329478773E-002   1.9773005640360219E-002   2.1991591836784286E-002
  -6.2991341819506025E-002   1.9011440797098711E-002   2.2121699156395495E-002
  -6.0226499309533291E-002   1.8249469898435622E-002   2.2469217341615388E-002
  -7.6728507009872160E-002   2.2934342808526326E-002   1.5040560019589269E-002
  -7.3747999482322427E-002   2.2080467606106657E-002   1.4710825098376873E-002
  -7.0767491954772777E-002   2.1247601366701507E-002   1.4595009346709611E-002
  -6.7786984427223002E-002   2.0435744090311125E-002   1.4693112764587832E-002
  -6.4806476899673338E-002   1.9644895776935178E-002   1.5005135352011048E-002
  -8.2204720785701388E-002   2.4573768456372533E-002   7.5936802656220194E-003
  -7.9012039936638079E-002   2.3626770783992446E-002   7.2603398532192220E-003
  -7.5819359087574797E-002   2.2722197093042712E-002   7.1374269142983407E-003
  -7.2626678238511530E-002   2.1860047383523679E-002   7.2249414488593164E-003
  -6.9433997389448193E-002   2.1040321655434818E-002   7.5228834569020728E-003
  -8.7714510676911606E-002   2.6213194104218629E-002   4.2970532486474866E-005
  -8.4313148202398214E-002   2.5173073961878067E-002  -2.7256035269096479E-004
  -8.0911785727884877E-002   2.4196792819383722E-002  -3.8115546044961701E-004
  -7.7510423253371485E-002   2.3284350676735878E-002  -2.8281479078998834E-004
  -7.4109060778858149E-002   2.2435747533934403E-002   2.2461656287831033E-005
  -5.5694064619028344E-002   1.6854044019935954E-002   2.9915129425714782E-002
  -5.3672096820568088E-002   1.6116386931022714E-002   2.9813509991803044E-002
  -5.1650129022107846E-002   1.5391423706000593E-002   2.9935463594084166E-002
  -4.9628161223647625E-002   1.4679154344869393E-002   3.0280990232558272E-002
  -4.7606193425187349E-002   1.3979578847629293E-002   3.0850089907225542E-002
  -6.0226499309533291E-002   1.8249469898435622E-002   2.2469217341615388E-002
  -5.8004958050274613E-002   1.7486353548255423E-002   2.2301459940803042E-002
  -5.5783416791015984E-002   1.6721352350442337E-002   2.2309276425394445E-002
  -5.3561875531757383E-002   1.5954466304996216E-002   2.2492666795389797E-002
  -5.1340334272498678E-002   1.5185695411917277E-002   2.2851631050788856E-002
  -6.4806476899673338E-002   1.9644895776935178E-002   1.5005135352011048E-002
  -6.2433361330405363E-002   1.8856320165488064E-002   1.4756661272774016E-002
  -6.0060245761137457E-002   1.8051280994884365E-002   1.4635761928151893E-002
  -5.7687130191869516E-002   1.7229778265123154E-002   1.4642437318144231E-002
  -5.5314014622601521E-002   1.6391811976205067E-002   1.4776687442751388E-002
  -6.9433997389448193E-002   2.1040321655434818E-002   7.5228834569020728E-003
  -6.6957306660960184E-002   2.0226286782720961E-002   7.1791139877163540E-003
  -6.4480615932472174E-002   1.9381209639325919E-002   6.9149201023563211E-003
  -6.2003925203984192E-002   1.8505090225249977E-002   6.7303018008216383E-003
  -5.9527234475496148E-002   1.7597928540492844E-002   6.6252590831126813E-003
  -7.4109060778858149E-002   2.2435747533934403E-002   2.2461656287831033E-005
  -7.1576794041939173E-002   2.1596253399953524E-002  -4.3118191437008235E-004
  -6.9044527305020253E-002   2.0711138283767971E-002  -8.5324905199199441E-004
  -6.6512260568101361E-002   1.9780402185376925E-002  -1.2437397565777317E-003
  -6.3979993831182358E-002   1.8804045104780953E-002  -1.6026540281269819E-003
  -4.7606193425187349E-002   1.3979578847629293E-002   3.0850089907225542E-002
  -4.4876928887849971E-002   1.3268184708309483E-002   3.0824707291553122E-002
  -4.2147664350512482E-002   1.2520459420939586E-002   3.1012007183997631E-002
  -3.9418399813175048E-002   1.1736402985519364E-002   3.1411989584558667E-002
  -3.6689135275837670E-002   1.0916015402049117E-002   3.2024654493237215E-002
  -5.1340334272498678E-002   1.5185695411917277E-002   2.2851631050788856E-002
  -4.8403764109852560E-002   1.4413347630444717E-002   2.2560532010914458E-002
  -4.5467193947206497E-002   1.3635730919817998E-002   2.2471361713540472E-002
  -4.2530623784560372E-002   1.2852845280037117E-002   2.2584120158666968E-002
  -3.9594053621914316E-002   1.2064690711102388E-002   2.2898807346293681E-002
  -5.5314014622601521E-002   1.6391811976205067E-002   1.4776687442751388E-002
  -5.2180892600263297E-002   1.5558510552579674E-002   1.4250934197571022E-002
  -4.9047770577924990E-002   1.4751002418696306E-002   1.3916355929274961E-002
  -4.5914648555586669E-002   1.3969287574554843E-002   1.3772952637862251E-002
  -4.2781526533248418E-002   1.3213366020155770E-002   1.3820724323334255E-002
  -5.9527234475496148E-002   1.7597928540492844E-002   6.6252590831126813E-003
  -5.6208314359082134E-002   1.6703673474714381E-002   5.8959138515225773E-003
  -5.2889394242668142E-002   1.5866273917574111E-002   5.3469898312004920E-003
  -4.9570474126254031E-002   1.5085729869072528E-002   4.9784870221453595E-003
  -4.6251554009840073E-002   1.4362041329208930E-002   4.7904054243583377E-003
  -6.3979993831182358E-002   1.8804045104780953E-002  -1.6026540281269819E-003
  -6.0486029386308982E-002   1.7848836396849532E-002  -2.5045290272301957E-003
  -5.6992064941435661E-002   1.6981545416452609E-002  -3.2367365806824921E-003
  -5.3498100496562367E-002   1.6202172163590274E-002  -3.7992766884839338E-003
  -5.0004136051688963E-002   1.5510716638262423E-002  -4.1921493506338336E-003
 </DataArray>
 </PointData>
 </Piece>
 <Piece  NumberOfPoints="          1600 "  NumberOfCells="         1024 ">
 <Points>
 <DataArray  type="Float64" NumberOfComponents="3"  format="ascii" >
  0.50000000000000000        0.0000000000000000        0.0000000000000000     
  0.53125000000000000        0.0000000000000000        0.0000000000000000     
  0.56250000000000000        0.0000000000000000        0.0000000000000000     
  0.59375000000000000        0.0000000000000000        0.0000000000000000     
  0.62500000000000000        0.0000000000000000        0.0000000000000000     
  0.50000000000000000        3.1250000000000000E-002   0.0000000000000000     
  0.53125000000000000        3.1250000000000000E-002   0.0000000000000000     
  0.56250000000000000        3.1250000000000000E-002   0.0000000000000000     
  0.59375000000000000        3.1250000000000000E-002   0.0000000000000000     
  0.62500000000000000        3.1250000000000000E-002   0.0000000000000000     
  0.50000000000000000        6.2500000000000000E-002   0.0000000000000000     
  0.53125000000000000        6.2500000000000000E-002   0.0000000000000000     
  0.56250000000000000        6.2500000000000000E-002   0.0000000000000000     
  0.59375000000000000        6.2500000000000000E-002   0.0000000000000000     
  0.62500000000000000        6.2500000000000000E-002   0.0000000000000000     
  0.50000000000000000        9.3750000000000000E-002   0.0000000000000000     
  0.53125000000000000        9.3750000000000000E-002   0.0000000000000000     
  0.56250000000000000        9.3750000000000000E-002   0.0000000000000000     
  0.59375000000000000        9.3750000000000000E-002   0.0000000000000000     
  0.62500000000000000        9.3750000000000000E-002   0.0000000000000000     
  0.50000000000000000       0.12500000000000000        0.0000000000000000     
  0.53125000000000000       0.12500000000000000        0.0000000000000000     
  0.56250000000000000       0.12500000000000000        0.0000000000000000     
  0.59375000000000000       0.12500000000000000        0.0000000000000000     
  0.62500000000000000       0.12500000000000000        0.0000000000000000     
  0.62500000000000000        0.0000000000000000        0.0000000000000000     
  0.65625000000000000        0.0000000000000000        0.0000000000000000     
  0.68750000000000000        0.0000000000000000        0.0000000000000000     
  0.71875000000000000        0.0000000000000000        0.0000000000000000     
  0.75000000000000000        0.0000000000000000        0.0000000000000000     
  0.62500000000000000        3.1250000000000000E-002   0.0000000000000000     
  0.65625000000000000        3.1250000000000000E-002   0.0000000000000000     
  0.68750000000000000        3.1250000000000000E-002   0.0000000000000000     
  0.71875000000000000        3.1250000000000000E-002   0.0000000000000000     
  0.75000000000000000        3.1250000000000000E-002   0.0000000000000000     
  0.62500000000000000        6.2500000000000000E-002   0.0000000000000000     
  0.65625000000000000        6.2500000000000000E-002   0.0000000000000000     
  0.68750000000000000        6.2500000000000000E-002   0.0000000000000000     
  0.71875000000000000        6.2500000000000000E-002   0.0000000000000000     
  0.75000000000000000        6.2500000000000000E-002   0.0000000000000000     
  0.62500000000000000        9.3750000000000000E-002   0.0000000000000000     
  0.65625000000000000        9.3750000000000000E-002   0.0000000000000000     
  0.68750000000000000        9.3750000000000000E-002   0.0000000000000000     
  0.71875000000000000        9.3750000000000000E-002   0.0000000000000000     
  0.75000000000000000        9.3750000000000000E-002   0.0000000000000000     
  0.62500000000000000       0.12500000000000000        0.0000000000000000     
  0.65625000000000000       0.12500000000000000        0.0000000000000000     
  0.68750000000000000       0.12500000000000000        0.0000000000000000     
  0.71875000000000000       0.12500000000000000        0.0000000000000000     
  0.75000000000000000       0.12500000000000000        0.0000000000000000     
  0.75000000000000000        0.0000000000000000        0.0000000000000000     
  0.78125000000000000        0.0000000000000000        0.0000000000000000     
  0.81250000000000000        0.0000000000000000        0.0000000000000000     
  0.84375000000000000        0.0000000000000000        0.0000000000000000     
  0.87500000000000000        0.0000000000000000        0.0000000000000000     
  0.75000000000000000        3.1250000000000000E-002   0.0000000000000000     
  0.78125000000000000        3.1250000000000000E-002   0.0000000000000000     
  0.81250000000000000        3.1250000000000000E-002   0.0000000000000000     
  0.84375000000000000        3.1250000000000000E-002   0.0000000000000000     
  0.87500000000000000        3.1250000000000000E-002   0.0000000000000000     
  0.75000000000000000        6.2500000000000000E-002   0.0000000000000000     
  0.78125000000000000        6.2500000000000000E-002   0.0000000000000000     
  0.81250000000000000        6.2500000000000000E-002   0.0000000000000000     
  0.84375000000000000        6.2500000000000000E-002   0.0000000000000000     
  0.87500000000000000        6.2500000000000000E-002   0.0000000000000000     
  0.75000000000000000        9.3750000000000000E-002   0.0000000000000000     
  0.78125000000000000        9.3750000000000000E-002   0.0000000000000000     
  0.81250000000000000        9.3750000000000000E-002   0.0000000000000000     
  0.84375000000000000        9.3750000000000000E-002   0.0000000000000000     
  0.87500000000000000        9.3750000000000000E-002   0.0000000000000000     
  0.75000000000000000       0.12500000000000000        0.0000000000000000     
  0.78125000000000000       0.12500000000000000        0.0000000000000000     
  0.81250000000000000       0.12500000000000000        0.0000000000000000     
  0.84375000000000000       0.12500000000000000        0.0000000000000000     
  0.87500000000000000       0.12500000000000000        0.0000000000000000     
  0.87500000000000000        0.0000000000000000        0.0000000000000000     
  0.90625000000000000        0.0000000000000000        0.0000000000000000     
  0.93750000000000000        0.0000000000000000        0.0000000000000000     
  0.96875000000000000        0.0000000000000000        0.0000000000000000     
   1.0000000000000000        0.0000000000000000        0.0000000000000000     
  0.87500000000000000        3.1250000000000000E-002   0.0000000000000000     
  0.90625000000000000        3.1250000000000000E-002   0.0000000000000000     
  0.93750000000000000        3.1250000000000000E-002   0.0000000000000000     
  0.96875000000000000        3.1250000000000000E-002   0.0000000000000000     
   1.0000000000000000        3.1250000000000000E-002   0.0000000000000000     
  0.87500000000000000        6.2500000000000000E-002   0.0000000000000000     
  0.90625000000000000        6.2500000000000000E-002   0.0000000000000000     
  0.93750000000000000        6.2500000000000000E-002   0.0000000000000000     
  0.96875000000000000        6.2500000000000000E-002   0.0000000000000000     
   1.0000000000000000        6.2500000000000000E-002   0.0000000000000000     
  0.87500000000000000        9.3750000000000000E-002   0.0000000000000000     
  0.90625000000000000        9.3750000000000000E-002   0.0000000000000000     
  0.93750000000000000        9.3750000000000000E-002   0.0000000000000000     
  0.96875000000000000        9.3750000000000000E-002   0.0000000000000000     
   1.0000000000000000        9.3750000000000000E-002   0.0000000000000000     
  0.87500000000000000       0.12500000000000000        0.0000000000000000     
  0.90625000000000000       0.12500000000000000        0.0000000000000000     
  0.93750000000000000       0.12500000000000000        0.0000000000000000     
  0.96875000000000000       0.12500000000000000        0.0000000000000000     
   1.0000000000000000       0.12500000000000000        0.0000000000000000     
   1.0000000000000000        0.0000000000000000        0.0000000000000000     
   1.0312500000000000        0.0000000000000000        0.0000000000000000     
   1.0625000000000000        0.0000000000000000        0.0000000000000000     
   1.0937500000000000        0.0000000000000000        0.0000000000000000     
   1.1250000000000000        0.0000000000000000        0.0000000000000000     
   1.0000000000000000        3.1250000000000000E-002   0.0000000000000000     
   1.0312500000000000        3.1250000000000000E-002   0.0000000000000000     
   1.0625000000000000        3.1250000000000000E-002   0.0000000000000000     
   1.0937500000000000        3.1250000000000000E-002   0.0000000000000000     
   1.1250000000000000        3.1250000000000000E-002   0.0000000000000000     
   1.0000000000000000        6.2500000000000000E-002   0.0000000000000000     
   1.0312500000000000        6.2500000000000000E-002   0.0000000000000000     
   1.0625000000000000        6.2500000000000000E-002   0.0000000000000000     
   1.0937500000000000        6.2500000000000000E-002   0.0000000000000000     
   1.1250000000000000        6.2500000000000000E-002   0.0000000000000000     
   1.0000000000000000        9.3750000000000000E-002   0.0000000000000000     
   1.0312500000000000        9.3750000000000000E-002   0.0000000000000000     
   1.0625000000000000        9.3750000000000000E-002   0.0000000000000000     
   1.0937500000000000        9.3750000000000000E-002   0.0000000000000000     
   1.1250000000000000        9.3750000000000000E-002   0.0000000000000000     
   1.0000000000000000       0.12500000000000000        0.0000000000000000     
   1.0312500000000000       0.12500000000000000        0.0000000000000000     
   1.0625000000000000       0.12500000000000000        0.0000000000000000     
   1.0937500000000000       0.12500000000000000        0.0000000000000000     
   1.1250000000000000       0.12500000000000000        0.0000000000000000     
   1.1250000000000000        0.0000000000000000        0.0000000000000000     
   1.1562500000000000        0.0000000000000000        0.0000000000000000     
   1.1875000000000000        0.0000000000000000        0.0000000000000000     
   1.2187500000000000        0.0000000000000000        0.0000000000000000     
   1.2500000000000000        0.0000000000000000        0.0000000000000000     
   1.1250000000000000        3.1250000000000000E-002   0.0000000000000000     
   1.1562500000000000        3.1250000000000000E-002   0.0000000000000000     
   1.1875000000000000        3.1250000000000000E-002   0.0000000000000000     
   1.2187500000000000        3.1250000000000000E-002   0.0000000000000000     
   1.2500000000000000        3.1250000000000000E-002   0.0000000000000000     
   1.1250000000000000        6.2500000000000000E-002   0.0000000000000000     
   1.1562500000000000        6.2500000000000000E-002   0.0000000000000000     
   1.1875000000000000        6.2500000000000000E-002   0.0000000000000000     
   1.2187500000000000        6.2500000000000000E-002   0.0000000000000000     
   1.2500000000000000        6.2500000000000000E-002   0.0000000000000000     
   1.1250000000000000        9.3750000000000000E-002   0.0000000000000000     
   1.1562500000000000        9.3750000000000000E-002   0.0000000000000000     
   1.1875000000000000        9.3750000000000000E-002   0.0000000000000000     
   1.2187500000000000        9.3750000000000000E-002   0.0000000000000000     
   1.2500000000000000        9.3750000000000000E-002   0.0000000000000000     
   1.1250000000000000       0.12500000000000000        0.0000000000000000     
   1.1562500000000000       0.12500000000000000        0.0000000000000000     
   1.1875000000000000       0.12500000000000000        0.0000000000000000     
   1.2187500000000000       0.12500000000000000        0.0000000000000000     
   1.2500000000000000       0.12500000000000000        0.0000000000000000     
   1.2500000000000000        0.0000000000000000        0.0000000000000000     
   1.2812500000000000        0.0000000000000000        0.0000000000000000     
   1.3125000000000000        0.0000000000000000        0.0000000000000000     
   1.3437500000000000        0.0000000000000000        0.0000000000000000     
   1.3750000000000000        0.0000000000000000        0.0000000000000000     
   1.2500000000000000        3.1250000000000000E-002   0.0000000000000000     
   1.2812500000000000        3.1250000000000000E-002   0.0000000000000000     
   1.3125000000000000        3.1250000000000000E-002   0.0000000000000000     
   1.3437500000000000        3.1250000000000000E-002   0.0000000000000000     
   1.3750000000000000        3.1250000000000000E-002   0.0000000000000000     
   1.2500000000000000        6.2500000000000000E-002   0.0000000000000000     
   1.2812500000000000        6.2500000000000000E-002   0.0000000000000000     
   1.3125000000000000        6.2500000000000000E-002   0.0000000000000000     
   1.3437500000000000        6.2500000000000000E-002   0.0000000000000000     
   1.3750000000000000        6.2500000000000000E-002   0.0000000000000000     
   1.2500000000000000        9.3750000000000000E-002   0.0000000000000000     
   1.2812500000000000        9.3750000000000000E-002   0.0000000000000000     
   1.3125000000000000        9.3750000000000000E-002   0.0000000000000000     
   1.3437500000000000        9.3750000000000000E-002   0.0000000000000000     
   1.3750000000000000        9.3750000000000000E-002   0.0000000000000000     
   1.2500000000000000       0.12500000000000000        0.0000000000000000     
   1.2812500000000000       0.12500000000000000        0.0000000000000000     
   1.3125000000000000       0.12500000000000000        0.0000000000000000     
   1.3437500000000000       0.12500000000000000        0.0000000000000000     
   1.3750000000000000       0.12500000000000000        0.0000000000000000     
   1.3750000000000000        0.0000000000000000        0.0000000000000000     
   1.4062500000000000        0.0000000000000000        0.0000000000000000     
   1.4375000000000000        0.0000000000000000        0.0000000000000000     
   1.4687500000000000        0.0000000000000000        0.0000000000000000     
   1.5000000000000000        0.0000000000000000        0.0000000000000000     
   1.3750000000000000        3.1250000000000000E-002   0.0000000000000000     
   1.4062500000000000        3.1250000000000000E-002   0.0000000000000000     
   1.4375000000000000        3.1250000000000000E-002   0.0000000000000000     
   1.4687500000000000        3.1250000000000000E-002   0.0000000000000000     
   1.5000000000000000        3.1250000000000000E-002   0.0000000000000000     
   1.3750000000000000        6.2500000000000000E-002   0.0000000000000000     
   1.4062500000000000        6.2500000000000000E-002   0.0000000000000000     
   1.4375000000000000        6.2500000000000000E-002   0.0000000000000000     
   1.4687500000000000        6.2500000000000000E-002   0.0000000000000000     
   1.5000000000000000        6.2500000000000000E-002   0.0000000000000000     
   1.3750000000000000        9.3750000000000000E-002   0.0000000000000000     
   1.4062500000000000        9.3750000000000000E-002   0.0000000000000000     
   1.4375000000000000        9.3750000000000000E-002   0.0000000000000000     
   1.4687500000000000        9.3750000000000000E-002   0.0000000000000000     
   1.5000000000000000        9.3750000000000000E-002   0.0000000000000000     
   1.3750000000000000       0.12500000000000000        0.0000000000000000     
   1.4062500000000000       0.12500000000000000        0.0000000000000000     
   1.4375000000000000       0.12500000000000000        0.0000000000000000     
   1.4687500000000000       0.12500000000000000        0.0000000000000000     
   1.5000000000000000       0.12500000000000000        0.0000000000000000     
  0.50000000000000000       0.12500000000000000        0.0000000000000000     
  0.53125000000000000       0.12500000000000000        0.0000000000000000     
  0.56250000000000000       0.12500000000000000        0.0000000000000000     
  0.59375000000000000       0.12500000000000000        0.0000000000000000     
  0.62500000000000000       0.12500000000000000        0.0000000000000000     
  0.50000000000000000       0.15625000000000000        0.0000000000000000     
  0.53125000000000000       0.15625000000000000        0.0000000000000000     
  0.56250000000000000       0.15625000000000000        0.0000000000000000     
  0.59375000000000000       0.15625000000000000        0.0000000000000000     
  0.62500000000000000       0.15625000000000000        0.0000000000000000     
  0.50000000000000000       0.18750000000000000        0.0000000000000000     
  0.53125000000000000       0.18750000000000000        0.0000000000000000     
  0.56250000000000000       0.18750000000000000        0.0000000000000000     
  0.59375000000000000       0.18750000000000000        0.0000000000000000     
  0.62500000000000000       0.18750000000000000        0.0000000000000000     
  0.50000000000000000       0.21875000000000000        0.0000000000000000     
  0.53125000000000000       0.21875000000000000        0.0000000000000000     
  0.56250000000000000       0.21875000000000000        0.0000000000000000     
  0.59375000000000000       0.21875000000000000        0.0000000000000000     
  0.62500000000000000       0.21875000000000000        0.0000000000000000     
  0.50000000000000000       0.25000000000000000        0.0000000000000000     
  0.53125000000000000       0.25000000000000000        0.0000000000000000     
  0.56250000000000000       0.25000000000000000        0.0000000000000000     
  0.59375000000000000       0.25000000000000000        0.0000000000000000     
  0.62500000000000000       0.25000000000000000        0.0000000000000000     
  0.62500000000000000       0.12500000000000000        0.0000000000000000     
  0.65625000000000000       0.12500000000000000        0.0000000000000000     
  0.68750000000000000       0.12500000000000000        0.0000000000000000     
  0.71875000000000000       0.12500000000000000        0.0000000000000000     
  0.75000000000000000       0.12500000000000000        0.0000000000000000     
  0.62500000000000000       0.15625000000000000        0.0000000000000000     
  0.65625000000000000       0.15625000000000000        0.0000000000000000     
  0.68750000000000000       0.15625000000000000        0.0000000000000000     
  0.71875000000000000       0.15625000000000000        0.0000000000000000     
  0.75000000000000000       0.15625000000000000        0.0000000000000000     
  0.62500000000000000       0.18750000000000000        0.0000000000000000     
  0.65625000000000000       0.18750000000000000        0.0000000000000000     
  0.68750000000000000       0.18750000000000000        0.0000000000000000     
  0.71875000000000000       0.18750000000000000        0.0000000000000000     
  0.75000000000000000       0.18750000000000000        0.0000000000000000     
  0.62500000000000000       0.21875000000000000        0.0000000000000000     
  0.65625000000000000       0.21875000000000000        0.0000000000000000     
  0.68750000000000000       0.21875000000000000        0.0000000000000000     
  0.71875000000000000       0.21875000000000000        0.0000000000000000     
  0.75000000000000000       0.21875000000000000        0.0000000000000000     
  0.62500000000000000       0.25000000000000000        0.0000000000000000     
  0.65625000000000000       0.25000000000000000        0.0000000000000000     
  0.68750000000000000       0.25000000000000000        0.0000000000000000     
  0.71875000000000000       0.25000000000000000        0.0000000000000000     
  0.75000000000000000       0.25000000000000000        0.0000000000000000     
  0.75000000000000000       0.12500000000000000        0.0000000000000000     
  0.78125000000000000       0.12500000000000000        0.0000000000000000     
  0.81250000000000000       0.12500000000000000        0.0000000000000000     
  0.84375000000000000       0.12500000000000000        0.0000000000000000     
  0.87500000000000000       0.12500000000000000        0.0000000000000000     
  0.75000000000000000       0.15625000000000000        0.0000000000000000     
  0.78125000000000000       0.15625000000000000        0.0000000000000000     
  0.81250000000000000       0.15625000000000000        0.0000000000000000     
  0.84375000000000000       0.15625000000000000        0.0000000000000000     
  0.87500000000000000       0.15625000000000000        0.0000000000000000     
  0.75000000000000000       0.18750000000000000        0.0000000000000000     
  0.78125000000000000       0.18750000000000000        0.0000000000000000     
  0.81250000000000000       0.18750000000000000        0.0000000000000000     
  0.84375000000000000       0.18750000000000000        0.0000000000000000     
  0.87500000000000000       0.18750000000000000        0.0000000000000000     
  0.75000000000000000       0.21875000000000000        0.0000000000000000     
  0.78125000000000000       0.21875000000000000        0.0000000000000000     
  0.81250000000000000       0.21875000000000000        0.0000000000000000     
  0.84375000000000000       0.21875000000000000        0.0000000000000000     
  0.87500000000000000       0.21875000000000000        0.0000000000000000     
  0.75000000000000000       0.25000000000000000        0.0000000000000000     
  0.78125000000000000       0.25000000000000000        0.0000000000000000     
  0.81250000000000000       0.25000000000000000        0.0000000000000000     
  0.84375000000000000       0.25000000000000000        0.0000000000000000     
  0.87500000000000000       0.25000000000000000        0.0000000000000000     
  0.87500000000000000       0.12500000000000000        0.0000000000000000     
  0.90625000000000000       0.12500000000000000        0.0000000000000000     
  0.93750000000000000       0.12500000000000000        0.0000000000000000     
  0.96875000000000000       0.12500000000000000        0.0000000000000000     
   1.0000000000000000       0.12500000000000000        0.0000000000000000     
  0.87500000000000000       0.15625000000000000        0.0000000000000000     
  0.90625000000000000       0.15625000000000000        0.0000000000000000     
  0.93750000000000000       0.15625000000000000        0.0000000000000000     
  0.96875000000000000       0.15625000000000000        0.0000000000000000     
   1.0000000000000000       0.15625000000000000        0.0000000000000000     
  0.87500000000000000       0.18750000000000000        0.0000000000000000     
  0.90625000000000000       0.18750000000000000        0.0000000000000000     
  0.93750000000000000       0.18750000000000000        0.0000000000000000     
  0.96875000000000000       0.18750000000000000        0.0000000000000000     
   1.0000000000000000       0.18750000000000000        0.0000000000000000     
  0.87500000000000000       0.21875000000000000        0.0000000000000000     
  0.90625000000000000       0.21875000000000000        0.0000000000000000     
  0.93750000000000000       0.21875000000000000        0.0000000000000000     
  0.96875000000000000       0.21875000000000000        0.0000000000000000     
   1.0000000000000000       0.21875000000000000        0.0000000000000000     
  0.87500000000000000       0.25000000000000000        0.0000000000000000     
  0.90625000000000000       0.25000000000000000        0.0000000000000000     
  0.93750000000000000       0.25000000000000000        0.0000000000000000     
  0.96875000000000000       0.25000000000000000        0.0000000000000000     
   1.0000000000000000       0.25000000000000000        0.0000000000000000     
   1.0000000000000000       0.12500000000000000        0.0000000000000000     
   1.0312500000000000       0.12500000000000000        0.0000000000000000     
   1.0625000000000000       0.12500000000000000        0.0000000000000000     
   1.0937500000000000       0.12500000000000000        0.0000000000000000     
   1.1250000000000000       0.12500000000000000        0.0000000000000000     
   1.0000000000000000       0.15625000000000000        0.0000000000000000     
   1.0312500000000000       0.15625000000000000        0.0000000000000000     
   1.0625000000000000       0.15625000000000000        0.0000000000000000     
   1.0937500000000000       0.15625000000000000        0.0000000000000000     
   1.1250000000000000       0.15625000000000000        0.0000000000000000     
   1.0000000000000000       0.18750000000000000        0.0000000000000000     
   1.0312500000000000       0.18750000000000000        0.0000000000000000     
   1.0625000000000000       0.18750000000000000        0.0000000000000000     
   1.0937500000000000       0.18750000000000000        0.0000000000000000     
   1.1250000000000000       0.18750000000000000        0.0000000000000000     
   1.0000000000000000       0.21875000000000000        0.0000000000000000     
   1.0312500000000000       0.21875000000000000        0.0000000000000000     
   1.0625000000000000       0.21875000000000000        0.0000000000000000     
   1.0937500000000000       0.21875000000000000        0.0000000000000000     
   1.1250000000000000       0.21875000000000000        0.0000000000000000     
   1.0000000000000000       0.25000000000000000        0.0000000000000000     
   1.0312500000000000       0.25000000000000000        0.0000000000000000     
   1.0625000000000000       0.25000000000000000        0.0000000000000000     
   1.0937500000000000       0.25000000000000000        0.0000000000000000     
   1.1250000000000000       0.25000000000000000        0.0000000000000000     
   1.1250000000000000       0.12500000000000000        0.0000000000000000     
   1.1562500000000000       0.12500000000000000        0.0000000000000000     
   1.1875000000000000       0.12500000000000000        0.0000000000000000     
   1.2187500000000000       0.12500000000000000        0.0000000000000000     
   1.2500000000000000       0.12500000000000000        0.0000000000000000     
   1.1250000000000000       0.15625000000000000        0.0000000000000000     
   1.1562500000000000       0.15625000000000000        0.0000000000000000     
   1.1875000000000000       0.15625000000000000        0.0000000000000000     
   1.2187500000000000       0.15625000000000000        0.0000000000000000     
   1.2500000000000000       0.15625000000000000        0.0000000000000000     
   1.1250000000000000       0.18750000000000000        0.0000000000000000     
   1.1562500000000000       0.18750000000000000        0.0000000000000000     
   1.1875000000000000       0.18750000000000000        0.0000000000000000     
   1.2187500000000000       0.18750000000000000        0.0000000000000000     
   1.2500000000000000       0.18750000000000000        0.0000000000000000     
   1.1250000000000000       0.21875000000000000        0.0000000000000000     
   1.1562500000000000       0.21875000000000000        0.0000000000000000     
   1.1875000000000000       0.21875000000000000        0.0000000000000000     
   1.2187500000000000       0.21875000000000000        0.0000000000000000     
   1.2500000000000000       0.21875000000000000        0.0000000000000000     
   1.1250000000000000       0.25000000000000000        0.0000000000000000     
   1.1562500000000000       0.25000000000000000        0.0000000000000000     
   1.1875000000000000       0.25000000000000000        0.0000000000000000     
   1.2187500000000000       0.25000000000000000        0.0000000000000000     
   1.2500000000000000       0.25000000000000000        0.0000000000000000     
   1.2500000000000000       0.12500000000000000        0.0000000000000000     
   1.2812500000000000       0.12500000000000000        0.0000000000000000     
   1.3125000000000000       0.12500000000000000        0.0000000000000000     
   1.3437500000000000       0.12500000000000000        0.0000000000000000     
   1.3750000000000000       0.12500000000000000        0.0000000000000000     
   1.2500000000000000       0.15625000000000000        0.0000000000000000     
   1.2812500000000000       0.15625000000000000        0.0000000000000000     
   1.3125000000000000       0.15625000000000000        0.0000000000000000     
   1.3437500000000000       0.15625000000000000        0.0000000000000000     
   1.3750000000000000       0.15625000000000000        0.0000000000000000     
   1.2500000000000000       0.18750000000000000        0.0000000000000000     
   1.2812500000000000       0.18750000000000000        0.0000000000000000     
   1.3125000000000000       0.18750000000000000        0.0000000000000000     
   1.3437500000000000       0.18750000000000000        0.0000000000000000     
   1.3750000000000000       0.18750000000000000        0.0000000000000000     
   1.2500000000000000       0.21875000000000000        0.0000000000000000     
   1.2812500000000000       0.21875000000000000        0.0000000000000000     
   1.3125000000000000       0.21875000000000000        0.0000000000000000     
   1.3437500000000000       0.21875000000000000        0.0000000000000000     
   1.3750000000000000       0.21875000000000000        0.0000000000000000     
   1.2500000000000000       0.25000000000000000        0.0000000000000000     
   1.2812500000000000       0.25000000000000000        0.0000000000000000     
   1.3125000000000000       0.25000000000000000        0.0000000000000000     
   1.3437500000000000       0.25000000000000000        0.0000000000000000     
   1.3750000000000000       0.25000000000000000        0.0000000000000000     
   1.3750000000000000       0.12500000000000000        0.0000000000000000     
   1.4062500000000000       0.12500000000000000        0.0000000000000000     
   1.4375000000000000       0.12500000000000000        0.0000000000000000     
   1.4687500000000000       0.12500000000000000        0.0000000000000000     
   1.5000000000000000       0.12500000000000000        0.0000000000000000     
   1.3750000000000000       0.15625000000000000        0.0000000000000000     
   1.4062500000000000       0.15625000000000000        0.0000000000000000     
   1.4375000000000000       0.15625000000000000        0.0000000000000000     
   1.4687500000000000       0.15625000000000000        0.0000000000000000     
   1.5000000000000000       0.15625000000000000        0.0000000000000000     
   1.3750000000000000       0.18750000000000000        0.0000000000000000     
   1.4062500000000000       0.18750000000000000        0.0000000000000000     
   1.4375000000000000       0.18750000000000000        0.0000000000000000     
   1.4687500000000000       0.18750000000000000        0.0000000000000000     
   1.5000000000000000       0.18750000000000000        0.0000000000000000     
   1.3750000000000000       0.21875000000000000        0.0000000000000000     
   1.4062500000000000       0.21875000000000000        0.0000000000000000     
   1.4375000000000000       0.21875000000000000        0.0000000000000000     
   1.4687500000000000       0.21875000000000000        0.0000000000000000     
   1.5000000000000000       0.21875000000000000        0.0000000000000000     
   1.3750000000000000       0.25000000000000000        0.0000000000000000     
   1.4062500000000000       0.25000000000000000        0.0000000000000000     
   1.4375000000000000       0.25000000000000000        0.0000000000000000     
   1.4687500000000000       0.25000000000000000        0.0000000000000000     
   1.5000000000000000       0.25000000000000000        0.0000000000000000     
  0.50000000000000000       0.25000000000000000        0.0000000000000000     
  0.53125000000000000       0.25000000000000000        0.0000000000000000     
  0.56250000000000000       0.25000000000000000        0.0000000000000000     
  0.59375000000000000       0.25000000000000000        0.0000000000000000     
  0.62500000000000000       0.25000000000000000        0.0000000000000000     
  0.50000000000000000       0.28125000000000000        0.0000000000000000     
  0.53125000000000000       0.28125000000000000        0.0000000000000000     
  0.56250000000000000       0.28125000000000000        0.0000000000000000     
  0.59375000000000000       0.28125000000000000        0.0000000000000000     
  0.62500000000000000       0.28125000000000000        0.0000000000000000     
  0.50000000000000000       0.31250000000000000        0.0000000000000000     
  0.53125000000000000       0.31250000000000000        0.0000000000000000     
  0.56250000000000000       0.31250000000000000        0.0000000000000000     
  0.59375000000000000       0.31250000000000000        0.0000000000000000     
  0.62500000000000000       0.31250000000000000        0.0000000000000000     
  0.50000000000000000       0.34375000000000000        0.0000000000000000     
  0.53125000000000000       0.34375000000000000        0.0000000000000000     
  0.56250000000000000       0.34375000000000000        0.0000000000000000     
  0.59375000000000000       0.34375000000000000        0.0000000000000000     
  0.62500000000000000       0.34375000000000000        0.0000000000000000     
  0.50000000000000000       0.37500000000000000        0.0000000000000000     
  0.53125000000000000       0.37500000000000000        0.0000000000000000     
  0.56250000000000000       0.37500000000000000        0.0000000000000000     
  0.59375000000000000       0.37500000000000000        0.0000000000000000     
  0.62500000000000000       0.37500000000000000        0.0000000000000000     
  0.62500000000000000       0.25000000000000000        0.0000000000000000     
  0.65625000000000000       0.25000000000000000        0.0000000000000000     
  0.68750000000000000       0.25000000000000000        0.0000000000000000     
  0.71875000000000000       0.25000000000000000        0.0000000000000000     
  0.75000000000000000       0.25000000000000000        0.0000000000000000     
  0.62500000000000000       0.28125000000000000        0.0000000000000000     
  0.65625000000000000       0.28125000000000000        0.0000000000000000     
  0.68750000000000000       0.28125000000000000        0.0000000000000000     
  0.71875000000000000       0.28125000000000000        0.0000000000000000     
  0.75000000000000000       0.28125000000000000        0.0000000000000000     
  0.62500000000000000       0.31250000000000000        0.0000000000000000     
  0.65625000000000000       0.31250000000000000        0.0000000000000000     
  0.68750000000000000       0.31250000000000000        0.0000000000000000     
  0.71875000000000000       0.31250000000000000        0.0000000000000000     
  0.75000000000000000       0.31250000000000000        0.0000000000000000     
  0.62500000000000000       0.34375000000000000        0.0000000000000000     
  0.65625000000000000       0.34375000000000000        0.0000000000000000     
  0.68750000000000000       0.34375000000000000        0.0000000000000000     
  0.71875000000000000       0.34375000000000000        0.0000000000000000     
  0.75000000000000000       0.34375000000000000        0.0000000000000000     
  0.62500000000000000       0.37500000000000000        0.0000000000000000     
  0.65625000000000000       0.37500000000000000        0.0000000000000000     
  0.68750000000000000       0.37500000000000000        0.0000000000000000     
  0.71875000000000000       0.37500000000000000        0.0000000000000000     
  0.75000000000000000       0.37500000000000000        0.0000000000000000     
  0.75000000000000000       0.25000000000000000        0.0000000000000000     
  0.78125000000000000       0.25000000000000000        0.0000000000000000     
  0.81250000000000000       0.25000000000000000        0.0000000000000000     
  0.84375000000000000       0.25000000000000000        0.0000000000000000     
  0.87500000000000000       0.25000000000000000        0.0000000000000000     
  0.75000000000000000       0.28125000000000000        0.0000000000000000     
  0.78125000000000000       0.28125000000000000        0.0000000000000000     
  0.81250000000000000       0.28125000000000000        0.0000000000000000     
  0.84375000000000000       0.28125000000000000        0.0000000000000000     
  0.87500000000000000       0.28125000000000000        0.0000000000000000     
  0.75000000000000000       0.31250000000000000        0.0000000000000000     
  0.78125000000000000       0.31250000000000000        0.0000000000000000     
  0.81250000000000000       0.31250000000000000        0.0000000000000000     
  0.84375000000000000       0.31250000000000000        0.0000000000000000     
  0.87500000000000000       0.31250000000000000        0.0000000000000000     
  0.75000000000000000       0.34375000000000000        0.0000000000000000     
  0.78125000000000000       0.34375000000000000        0.0000000000000000     
  0.81250000000000000       0.34375000000000000        0.0000000000000000     
  0.84375000000000000       0.34375000000000000        0.0000000000000000     
  0.87500000000000000       0.34375000000000000        0.0000000000000000     
  0.75000000000000000       0.37500000000000000        0.0000000000000000     
  0.78125000000000000       0.37500000000000000        0.0000000000000000     
  0.81250000000000000       0.37500000000000000        0.0000000000000000     
  0.84375000000000000       0.37500000000000000        0.0000000000000000     
  0.87500000000000000       0.37500000000000000        0.0000000000000000     
  0.87500000000000000       0.25000000000000000        0.0000000000000000     
  0.90625000000000000       0.25000000000000000        0.0000000000000000     
  0.93750000000000000       0.25000000000000000        0.0000000000000000     
  0.96875000000000000       0.25000000000000000        0.0000000000000000     
   1.0000000000000000       0.25000000000000000        0.0000000000000000     
  0.87500000000000000       0.28125000000000000        0.0000000000000000     
  0.90625000000000000       0.28125000000000000        0.0000000000000000     
  0.93750000000000000       0.28125000000000000        0.0000000000000000     
  0.96875000000000000       0.28125000000000000        0.0000000000000000     
   1.0000000000000000       0.28125000000000000        0.0000000000000000     
  0.87500000000000000       0.31250000000000000        0.0000000000000000     
  0.90625000000000000       0.31250000000000000        0.0000000000000000     
  0.93750000000000000       0.31250000000000000        0.0000000000000000     
  0.96875000000000000       0.31250000000000000        0.0000000000000000     
   1.0000000000000000       0.31250000000000000        0.0000000000000000     
  0.87500000000000000       0.34375000000000000        0.0000000000000000     
  0.90625000000000000       0.34375000000000000        0.0000000000000000     
  0.93750000000000000       0.34375000000000000        0.0000000000000000     
  0.96875000000000000       0.34375000000000000        0.0000000000000000     
   1.0000000000000000       0.34375000000000000        0.0000000000000000     
  0.87500000000000000       0.37500000000000000        0.0000000000000000     
  0.90625000000000000       0.37500000000000000        0.0000000000000000     
  0.93750000000000000       0.37500000000000000        0.0000000000000000     
  0.96875000000000000       0.37500000000000000        0.0000000000000000     
   1.0000000000000000       0.37500000000000000        0.0000000000000000     
   1.0000000000000000       0.25000000000000000        0.0000000000000000     
   1.0312500000000000       0.25000000000000000        0.0000000000000000     
   1.0625000000000000       0.25000000000000000        0.0000000000000000     
   1.0937500000000000       0.25000000000000000        0.0000000000000000     
   1.1250000000000000       0.25000000000000000        0.0000000000000000     
   1.0000000000000000       0.28125000000000000        0.0000000000000000     
   1.0312500000000000       0.28125000000000000        0.0000000000000000     
   1.0625000000000000       0.28125000000000000        0.0000000000000000     
   1.0937500000000000       0.28125000000000000        0.0000000000000000     
   1.1250000000000000       0.28125000000000000        0.0000000000000000     
   1.0000000000000000       0.31250000000000000        0.0000000000000000     
   1.0312500000000000       0.31250000000000000        0.0000000000000000     
   1.0625000000000000       0.31250000000000000        0.0000000000000000     
   1.0937500000000000       0.31250000000000000        0.0000000000000000     
   1.1250000000000000       0.31250000000000000        0.0000000000000000     
   1.0000000000000000       0.34375000000000000        0.0000000000000000     
   1.0312500000000000       0.34375000000000000        0.0000000000000000     
   1.0625000000000000       0.34375000000000000        0.0000000000000000     
   1.0937500000000000       0.34375000000000000        0.0000000000000000     
   1.1250000000000000       0.34375000000000000        0.0000000000000000     
   1.0000000000000000       0.37500000000000000        0.0000000000000000     
   1.0312500000000000       0.37500000000000000        0.0000000000000000     
   1.0625000000000000       0.37500000000000000        0.0000000000000000     
   1.0937500000000000       0.37500000000000000        0.0000000000000000     
   1.1250000000000000       0.37500000000000000        0.0000000000000000     
   1.1250000000000000       0.25000000000000000        0.0000000000000000     
   1.1562500000000000       0.25000000000000000        0.0000000000000000     
   1.1875000000000000       0.25000000000000000        0.0000000000000000     
   1.2187500000000000       0.25000000000000000        0.0000000000000000     
   1.2500000000000000       0.25000000000000000        0.0000000000000000     
   1.1250000000000000       0.28125000000000000        0.0000000000000000     
   1.1562500000000000       0.28125000000000000        0.0000000000000000     
   1.1875000000000000       0.28125000000000000        0.0000000000000000     
   1.2187500000000000       0.28125000000000000        0.0000000000000000     
   1.2500000000000000       0.28125000000000000        0.0000000000000000     
   1.1250000000000000       0.31250000000000000        0.0000000000000000     
   1.1562500000000000       0.31250000000000000        0.0000000000000000     
   1.1875000000000000       0.31250000000000000        0.0000000000000000     
   1.2187500000000000       0.31250000000000000        0.0000000000000000     
   1.2500000000000000       0.31250000000000000        0.0000000000000000     
   1.1250000000000000       0.34375000000000000        0.0000000000000000     
   1.1562500000000000       0.34375000000000000        0.0000000000000000     
   1.1875000000000000       0.34375000000000000        0.0000000000000000     
   1.2187500000000000       0.34375000000000000        0.0000000000000000     
   1.2500000000000000       0.34375000000000000        0.0000000000000000     
   1.1250000000000000       0.37500000000000000        0.0000000000000000     
   1.1562500000000000       0.37500000000000000        0.0000000000000000     
   1.1875000000000000       0.37500000000000000        0.0000000000000000     
   1.2187500000000000       0.37500000000000000        0.0000000000000000     
   1.2500000000000000       0.37500000000000000        0.0000000000000000     
   1.2500000000000000       0.25000000000000000        0.0000000000000000     
   1.2812500000000000       0.25000000000000000        0.0000000000000000     
   1.3125000000000000       0.25000000000000000        0.0000000000000000     
   1.3437500000000000       0.25000000000000000        0.0000000000000000     
   1.3750000000000000       0.25000000000000000        0.0000000000000000     
   1.2500000000000000       0.28125000000000000        0.0000000000000000     
   1.2812500000000000       0.28125000000000000        0.0000000000000000     
   1.3125000000000000       0.28125000000000000        0.0000000000000000     
   1.3437500000000000       0.28125000000000000        0.0000000000000000     
   1.3750000000000000       0.28125000000000000        0.0000000000000000     
   1.2500000000000000       0.31250000000000000        0.0000000000000000     
   1.2812500000000000       0.31250000000000000        0.0000000000000000     
   1.3125000000000000       0.31250000000000000        0.0000000000000000     
   1.3437500000000000       0.31250000000000000        0.0000000000000000     
   1.3750000000000000       0.31250000000000000        0.0000000000000000     
   1.2500000000000000       0.34375000000000000        0.0000000000000000     
   1.2812500000000000       0.34375000000000000        0.0000000000000000     
   1.3125000000000000       0.34375000000000000        0.0000000000000000     
   1.3437500000000000       0.34375000000000000        0.0000000000000000     
   1.3750000000000000       0.34375000000000000        0.0000000000000000     
   1.2500000000000000       0.37500000000000000        0.0000000000000000     
   1.2812500000000000       0.37500000000000000        0.0000000000000000     
   1.3125000000000000       0.37500000000000000        0.0000000000000000     
   1.3437500000000000       0.37500000000000000        0.0000000000000000     
   1.3750000000000000       0.37500000000000000        0.0000000000000000     
   1.3750000000000000       0.25000000000000000        0.0000000000000000     
   1.4062500000000000       0.25000000000000000        0.0000000000000000     
   1.4375000000000000       0.25000000000000000        0.0000000000000000     
   1.4687500000000000       0.25000000000000000        0.0000000000000000     
   1.5000000000000000       0.25000000000000000        0.0000000000000000     
   1.3750000000000000       0.28125000000000000        0.0000000000000000     
   1.4062500000000000       0.28125000000000000        0.0000000000000000     
   1.4375000000000000       0.28125000000000000        0.0000000000000000     
   1.4687500000000000       0.28125000000000000        0.0000000000000000     
   1.5000000000000000       0.28125000000000000        0.0000000000000000     
   1.3750000000000000       0.31250000000000000        0.0000000000000000     
   1.4062500000000000       0.31250000000000000        0.0000000000000000     
   1.4375000000000000       0.31250000000000000        0.0000000000000000     
   1.4687500000000000       0.31250000000000000        0.0000000000000000     
   1.5000000000000000       0.31250000000000000        0.0000000000000000     
   1.3750000000000000       0.34375000000000000        0.0000000000000000     
   1.4062500000000000       0.34375000000000000        0.0000000000000000     
   1.4375000000000000       0.34375000000000000        0.0000000000000000     
   1.4687500000000000       0.34375000000000000        0.0000000000000000     
   1.5000000000000000       0.34375000000000000        0.0000000000000000     
   1.3750000000000000       0.37500000000000000        0.0000000000000000     
   1.4062500000000000       0.37500000000000000        0.0000000000000000     
   1.4375000000000000       0.37500000000000000        0.0000000000000000     
   1.4687500000000000       0.37500000000000000        0.0000000000000000     
   1.5000000000000000       0.37500000000000000        0.0000000000000000     
  0.50000000000000000       0.37500000000000000        0.0000000000000000     
  0.53125000000000000       0.37500000000000000        0.0000000000000000     
  0.56250000000000000       0.37500000000000000        0.0000000000000000     
  0.59375000000000000       0.37500000000000000        0.0000000000000000     
  0.62500000000000000       0.37500000000000000        0.0000000000000000     
  0.50000000000000000       0.40625000000000000        0.0000000000000000     
  0.53125000000000000       0.40625000000000000        0.0000000000000000     
  0.56250000000000000       0.40625000000000000        0.0000000000000000     
  0.59375000000000000       0.40625000000000000        0.0000000000000000     
  0.62500000000000000       0.40625000000000000        0.0000000000000000     
  0.50000000000000000       0.43750000000000000        0.0000000000000000     
  0.53125000000000000       0.43750000000000000        0.0000000000000000     
  0.56250000000000000       0.43750000000000000        0.0000000000000000     
  0.59375000000000000       0.43750000000000000        0.0000000000000000     
  0.62500000000000000       0.43750000000000000        0.0000000000000000     
  0.50000000000000000       0.46875000000000000        0.0000000000000000     
  0.53125000000000000       0.46875000000000000        0.0000000000000000     
  0.56250000000000000       0.46875000000000000        0.0000000000000000     
  0.59375000000000000       0.46875000000000000        0.0000000000000000     
  0.62500000000000000       0.46875000000000000        0.0000000000000000     
  0.50000000000000000       0.50000000000000000        0.0000000000000000     
  0.53125000000000000       0.50000000000000000        0.0000000000000000     
  0.56250000000000000       0.50000000000000000        0.0000000000000000     
  0.59375000000000000       0.50000000000000000        0.0000000000000000     
  0.62500000000000000       0.50000000000000000        0.0000000000000000     
  0.62500000000000000       0.37500000000000000        0.0000000000000000     
  0.65625000000000000       0.37500000000000000        0.0000000000000000     
  0.68750000000000000       0.37500000000000000        0.0000000000000000     
  0.71875000000000000       0.37500000000000000        0.0000000000000000     
  0.75000000000000000       0.37500000000000000        0.0000000000000000     
  0.62500000000000000       0.40625000000000000        0.0000000000000000     
  0.65625000000000000       0.40625000000000000        0.0000000000000000     
  0.68750000000000000       0.40625000000000000        0.0000000000000000     
  0.71875000000000000       0.40625000000000000        0.0000000000000000     
  0.75000000000000000       0.40625000000000000        0.0000000000000000     
  0.62500000000000000       0.43750000000000000        0.0000000000000000     
  0.65625000000000000       0.43750000000000000        0.0000000000000000     
  0.68750000000000000       0.43750000000000000        0.0000000000000000     
  0.71875000000000000       0.43750000000000000        0.0000000000000000     
  0.75000000000000000       0.43750000000000000        0.0000000000000000     
  0.62500000000000000       0.46875000000000000        0.0000000000000000     
  0.65625000000000000       0.46875000000000000        0.0000000000000000     
  0.68750000000000000       0.46875000000000000        0.0000000000000000     
  0.71875000000000000       0.46875000000000000        0.0000000000000000     
  0.75000000000000000       0.46875000000000000        0.0000000000000000     
  0.62500000000000000       0.50000000000000000        0.0000000000000000     
  0.65625000000000000       0.50000000000000000        0.0000000000000000     
  0.68750000000000000       0.50000000000000000        0.0000000000000000     
  0.71875000000000000       0.50000000000000000        0.0000000000000000     
  0.75000000000000000       0.50000000000000000        0.0000000000000000     
  0.75000000000000000       0.37500000000000000        0.0000000000000000     
  0.78125000000000000       0.37500000000000000        0.0000000000000000     
  0.81250000000000000       0.37500000000000000        0.0000000000000000     
  0.84375000000000000       0.37500000000000000        0.0000000000000000     
  0.87500000000000000       0.37500000000000000        0.0000000000000000     
  0.75000000000000000       0.40625000000000000        0.0000000000000000     
  0.78125000000000000       0.40625000000000000        0.0000000000000000     
  0.81250000000000000       0.40625000000000000        0.0000000000000000     
  0.84375000000000000       0.40625000000000000        0.0000000000000000     
  0.87500000000000000       0.40625000000000000        0.0000000000000000     
  0.75000000000000000       0.43750000000000000        0.0000000000000000     
  0.78125000000000000       0.43750000000000000        0.0000000000000000     
  0.81250000000000000       0.43750000000000000        0.0000000000000000     
  0.84375000000000000       0.43750000000000000        0.0000000000000000     
  0.87500000000000000       0.43750000000000000        0.0000000000000000     
  0.75000000000000000       0.46875000000000000        0.0000000000000000     
  0.78125000000000000       0.46875000000000000        0.0000000000000000     
  0.81250000000000000       0.46875000000000000        0.0000000000000000     
  0.84375000000000000       0.46875000000000000        0.0000000000000000     
  0.87500000000000000       0.46875000000000000        0.0000000000000000     
  0.75000000000000000       0.50000000000000000        0.0000000000000000     
  0.78125000000000000       0.50000000000000000        0.0000000000000000     
  0.81250000000000000       0.50000000000000000        0.0000000000000000     
  0.84375000000000000       0.50000000000000000        0.0000000000000000     
  0.87500000000000000       0.50000000000000000        0.0000000000000000     
  0.87500000000000000       0.37500000000000000        0.0000000000000000     
  0.90625000000000000       0.37500000000000000        0.0000000000000000     
  0.93750000000000000       0.37500000000000000        0.0000000000000000     
  0.96875000000000000       0.37500000000000000        0.0000000000000000     
   1.0000000000000000       0.37500000000000000        0.0000000000000000     
  0.87500000000000000       0.40625000000000000        0.0000000000000000     
  0.90625000000000000       0.40625000000000000        0.0000000000000000     
  0.93750000000000000       0.40625000000000000        0.0000000000000000     
  0.96875000000000000       0.40625000000000000        0.0000000000000000     
   1.0000000000000000       0.40625000000000000        0.0000000000000000     
  0.87500000000000000       0.43750000000000000        0.0000000000000000     
  0.90625000000000000       0.43750000000000000        0.0000000000000000     
  0.93750000000000000       0.43750000000000000        0.0000000000000000     
  0.96875000000000000       0.43750000000000000        0.0000000000000000     
   1.0000000000000000       0.43750000000000000        0.0000000000000000     
  0.87500000000000000       0.46875000000000000        0.0000000000000000     
  0.90625000000000000       0.46875000000000000        0.0000000000000000     
  0.93750000000000000       0.46875000000000000        0.0000000000000000     
  0.96875000000000000       0.46875000000000000        0.0000000000000000     
   1.0000000000000000       0.46875000000000000        0.0000000000000000     
  0.87500000000000000       0.50000000000000000        0.0000000000000000     
  0.90625000000000000       0.50000000000000000        0.0000000000000000     
  0.93750000000000000       0.50000000000000000        0.0000000000000000     
  0.96875000000000000       0.50000000000000000        0.0000000000000000     
   1.0000000000000000       0.50000000000000000        0.0000000000000000     
   1.0000000000000000       0.37500000000000000        0.0000000000000000     
   1.0312500000000000       0.37500000000000000        0.0000000000000000     
   1.0625000000000000       0.37500000000000000        0.0000000000000000     
   1.0937500000000000       0.37500000000000000        0.0000000000000000     
   1.1250000000000000       0.37500000000000000        0.0000000000000000     
   1.0000000000000000       0.40625000000000000        0.0000000000000000     
   1.0312500000000000       0.40625000000000000        0.0000000000000000     
   1.0625000000000000       0.40625000000000000        0.0000000000000000     
   1.0937500000000000       0.40625000000000000        0.0000000000000000     
   1.1250000000000000       0.40625000000000000        0.0000000000000000     
   1.0000000000000000       0.43750000000000000        0.0000000000000000     
   1.0312500000000000       0.43750000000000000        0.0000000000000000     
   1.0625000000000000       0.43750000000000000        0.0000000000000000     
   1.0937500000000000       0.43750000000000000        0.0000000000000000     
   1.1250000000000000       0.43750000000000000        0.0000000000000000     
   1.0000000000000000       0.46875000000000000        0.0000000000000000     
   1.0312500000000000       0.46875000000000000        0.0000000000000000     
   1.0625000000000000       0.46875000000000000        0.0000000000000000     
   1.0937500000000000       0.46875000000000000        0.0000000000000000     
   1.1250000000000000       0.46875000000000000        0.0000000000000000     
   1.0000000000000000       0.50000000000000000        0.0000000000000000     
   1.0312500000000000       0.50000000000000000        0.0000000000000000     
   1.0625000000000000       0.50000000000000000        0.0000000000000000     
   1.0937500000000000       0.50000000000000000        0.0000000000000000     
   1.1250000000000000       0.50000000000000000        0.0000000000000000     
   1.1250000000000000       0.37500000000000000        0.0000000000000000     
   1.1562500000000000       0.37500000000000000        0.0000000000000000     
   1.1875000000000000       0.37500000000000000        0.0000000000000000     
   1.2187500000000000       0.37500000000000000        0.0000000000000000     
   1.2500000000000000       0.37500000000000000        0.0000000000000000     
   1.1250000000000000       0.40625000000000000        0.0000000000000000     
   1.1562500000000000       0.40625000000000000        0.0000000000000000     
   1.1875000000000000       0.40625000000000000        0.0000000000000000     
   1.2187500000000000       0.40625000000000000        0.0000000000000000     
   1.2500000000000000       0.40625000000000000        0.0000000000000000     
   1.1250000000000000       0.43750000000000000        0.0000000000000000     
   1.1562500000000000       0.43750000000000000        0.0000000000000000     
   1.1875000000000000       0.43750000000000000        0.0000000000000000     
   1.2187500000000000       0.43750000000000000        0.0000000000000000     
   1.2500000000000000       0.43750000000000000        0.0000000000000000     
   1.1250000000000000       0.46875000000000000        0.0000000000000000     
   1.1562500000000000       0.46875000000000000        0.0000000000000000     
   1.1875000000000000       0.46875000000000000        0.0000000000000000     
   1.2187500000000000       0.46875000000000000        0.0000000000000000     
   1.2500000000000000       0.46875000000000000        0.0000000000000000     
   1.1250000000000000       0.50000000000000000        0.0000000000000000     
   1.1562500000000000       0.50000000000000000        0.0000000000000000     
   1.1875000000000000       0.50000000000000000        0.0000000000000000     
   1.2187500000000000       0.50000000000000000        0.0000000000000000     
   1.2500000000000000       0.50000000000000000        0.0000000000000000     
   1.2500000000000000       0.37500000000000000        0.0000000000000000     
   1.2812500000000000       0.37500000000000000        0.0000000000000000     
   1.3125000000000000       0.37500000000000000        0.0000000000000000     
   1.3437500000000000       0.37500000000000000        0.0000000000000000     
   1.3750000000000000       0.37500000000000000        0.0000000000000000     
   1.2500000000000000       0.40625000000000000        0.0000000000000000     
   1.2812500000000000       0.40625000000000000        0.0000000000000000     
   1.3125000000000000       0.40625000000000000        0.0000000000000000     
   1.3437500000000000       0.40625000000000000        0.0000000000000000     
   1.3750000000000000       0.40625000000000000        0.0000000000000000     
   1.2500000000000000       0.43750000000000000        0.0000000000000000     
   1.2812500000000000       0.43750000000000000        0.0000000000000000     
   1.3125000000000000       0.43750000000000000        0.0000000000000000     
   1.3437500000000000       0.43750000000000000        0.0000000000000000     
   1.3750000000000000       0.43750000000000000        0.0000000000000000     
   1.2500000000000000       0.46875000000000000        0.0000000000000000     
   1.2812500000000000       0.46875000000000000        0.0000000000000000     
   1.3125000000000000       0.46875000000000000        0.0000000000000000     
   1.3437500000000000       0.46875000000000000        0.0000000000000000     
   1.3750000000000000       0.46875000000000000        0.0000000000000000     
   1.2500000000000000       0.50000000000000000        0.0000000000000000     
   1.2812500000000000       0.50000000000000000        0.0000000000000000     
   1.3125000000000000       0.50000000000000000        0.0000000000000000     
   1.3437500000000000       0.50000000000000000        0.0000000000000000     
   1.3750000000000000       0.50000000000000000        0.0000000000000000     
   1.3750000000000000       0.37500000000000000        0.0000000000000000     
   1.4062500000000000       0.37500000000000000        0.0000000000000000     
   1.4375000000000000       0.37500000000000000        0.0000000000000000     
   1.4687500000000000       0.37500000000000000        0.0000000000000000     
   1.5000000000000000       0.37500000000000000        0.0000000000000000     
   1.3750000000000000       0.40625000000000000        0.0000000000000000     
   1.4062500000000000       0.40625000000000000        0.0000000000000000     
   1.4375000000000000       0.40625000000000000        0.0000000000000000     
   1.4687500000000000       0.40625000000000000        0.0000000000000000     
   1.5000000000000000       0.40625000000000000        0.0000000000000000     
   1.3750000000000000       0.43750000000000000        0.0000000000000000     
   1.4062500000000000       0.43750000000000000        0.0000000000000000     
   1.4375000000000000       0.43750000000000000        0.0000000000000000     
   1.4687500000000000       0.43750000000000000        0.0000000000000000     
   1.5000000000000000       0.43750000000000000        0.0000000000000000     
   1.3750000000000000       0.46875000000000000        0.0000000000000000     
   1.4062500000000000       0.46875000000000000        0.0000000000000000     
   1.4375000000000000       0.46875000000000000        0.0000000000000000     
   1.4687500000000000       0.46875000000000000        0.0000000000000000     
   1.5000000000000000       0.46875000000000000        0.0000000000000000     
   1.3750000000000000       0.50000000000000000        0.0000000000000000     
   1.4062500000000000       0.50000000000000000        0.0000000000000000     
   1.4375000000000000       0.50000000000000000        0.0000000000000000     
   1.4687500000000000       0.50000000000000000        0.0000000000000000     
   1.5000000000000000       0.50000000000000000        0.0000000000000000     
  0.50000000000000000       0.50000000000000000        0.0000000000000000     
  0.53125000000000000       0.50000000000000000        0.0000000000000000     
  0.56250000000000000       0.50000000000000000        0.0000000000000000     
  0.59375000000000000       0.50000000000000000        0.0000000000000000     
  0.62500000000000000       0.50000000000000000        0.0000000000000000     
  0.50000000000000000       0.53125000000000000        0.0000000000000000     
  0.53125000000000000       0.53125000000000000        0.0000000000000000     
  0.56250000000000000       0.53125000000000000        0.0000000000000000     
  0.59375000000000000       0.53125000000000000        0.0000000000000000     
  0.62500000000000000       0.53125000000000000        0.0000000000000000     
  0.50000000000000000       0.56250000000000000        0.0000000000000000     
  0.53125000000000000       0.56250000000000000        0.0000000000000000     
  0.56250000000000000       0.56250000000000000        0.0000000000000000     
  0.59375000000000000       0.56250000000000000        0.0000000000000000     
  0.62500000000000000       0.56250000000000000        0.0000000000000000     
  0.50000000000000000       0.59375000000000000        0.0000000000000000     
  0.53125000000000000       0.59375000000000000        0.0000000000000000     
  0.56250000000000000       0.59375000000000000        0.0000000000000000     
  0.59375000000000000       0.59375000000000000        0.0000000000000000     
  0.62500000000000000       0.59375000000000000        0.0000000000000000     
  0.50000000000000000       0.62500000000000000        0.0000000000000000     
  0.53125000000000000       0.62500000000000000        0.0000000000000000     
  0.56250000000000000       0.62500000000000000        0.0000000000000000     
  0.59375000000000000       0.62500000000000000        0.0000000000000000     
  0.62500000000000000       0.62500000000000000        0.0000000000000000     
  0.62500000000000000       0.50000000000000000        0.0000000000000000     
  0.65625000000000000       0.50000000000000000        0.0000000000000000     
  0.68750000000000000       0.50000000000000000        0.0000000000000000     
  0.71875000000000000       0.50000000000000000        0.0000000000000000     
  0.75000000000000000       0.50000000000000000        0.0000000000000000     
  0.62500000000000000       0.53125000000000000        0.0000000000000000     
  0.65625000000000000       0.53125000000000000        0.0000000000000000     
  0.68750000000000000       0.53125000000000000        0.0000000000000000     
  0.71875000000000000       0.53125000000000000        0.0000000000000000     
  0.75000000000000000       0.53125000000000000        0.0000000000000000     
  0.62500000000000000       0.56250000000000000        0.0000000000000000     
  0.65625000000000000       0.56250000000000000        0.0000000000000000     
  0.68750000000000000       0.56250000000000000        0.0000000000000000     
  0.71875000000000000       0.56250000000000000        0.0000000000000000     
  0.75000000000000000       0.56250000000000000        0.0000000000000000     
  0.62500000000000000       0.59375000000000000        0.0000000000000000     
  0.65625000000000000       0.59375000000000000        0.0000000000000000     
  0.68750000000000000       0.59375000000000000        0.0000000000000000     
  0.71875000000000000       0.59375000000000000        0.0000000000000000     
  0.75000000000000000       0.59375000000000000        0.0000000000000000     
  0.62500000000000000       0.62500000000000000        0.0000000000000000     
  0.65625000000000000       0.62500000000000000        0.0000000000000000     
  0.68750000000000000       0.62500000000000000        0.0000000000000000     
  0.71875000000000000       0.62500000000000000        0.0000000000000000     
  0.75000000000000000       0.62500000000000000        0.0000000000000000     
  0.75000000000000000       0.50000000000000000        0.0000000000000000     
  0.78125000000000000       0.50000000000000000        0.0000000000000000     
  0.81250000000000000       0.50000000000000000        0.0000000000000000     
  0.84375000000000000       0.50000000000000000        0.0000000000000000     
  0.87500000000000000       0.50000000000000000        0.0000000000000000     
  0.75000000000000000       0.53125000000000000        0.0000000000000000     
  0.78125000000000000       0.53125000000000000        0.0000000000000000     
  0.81250000000000000       0.53125000000000000        0.0000000000000000     
  0.84375000000000000       0.53125000000000000        0.0000000000000000     
  0.87500000000000000       0.53125000000000000        0.0000000000000000     
  0.75000000000000000       0.56250000000000000        0.0000000000000000     
  0.78125000000000000       0.56250000000000000        0.0000000000000000     
  0.81250000000000000       0.56250000000000000        0.0000000000000000     
  0.84375000000000000       0.56250000000000000        0.0000000000000000     
  0.87500000000000000       0.56250000000000000        0.0000000000000000     
  0.75000000000000000       0.59375000000000000        0.0000000000000000     
  0.78125000000000000       0.59375000000000000        0.0000000000000000     
  0.81250000000000000       0.59375000000000000        0.0000000000000000     
  0.84375000000000000       0.59375000000000000        0.0000000000000000     
  0.87500000000000000       0.59375000000000000        0.0000000000000000     
  0.75000000000000000       0.62500000000000000        0.0000000000000000     
  0.78125000000000000       0.62500000000000000        0.0000000000000000     
  0.81250000000000000       0.62500000000000000        0.0000000000000000     
  0.84375000000000000       0.62500000000000000        0.0000000000000000     
  0.87500000000000000       0.62500000000000000        0.0000000000000000     
  0.87500000000000000       0.50000000000000000        0.0000000000000000     
  0.90625000000000000       0.50000000000000000        0.0000000000000000     
  0.93750000000000000       0.50000000000000000        0.0000000000000000     
  0.96875000000000000       0.50000000000000000        0.0000000000000000     
   1.0000000000000000       0.50000000000000000        0.0000000000000000     
  0.87500000000000000       0.53125000000000000        0.0000000000000000     
  0.90625000000000000       0.53125000000000000        0.0000000000000000     
  0.93750000000000000       0.53125000000000000        0.0000000000000000     
  0.96875000000000000       0.53125000000000000        0.0000000000000000     
   1.0000000000000000       0.53125000000000000        0.0000000000000000     
  0.87500000000000000       0.56250000000000000        0.0000000000000000     
  0.90625000000000000       0.56250000000000000        0.0000000000000000     
  0.93750000000000000       0.56250000000000000        0.0000000000000000     
  0.96875000000000000       0.56250000000000000        0.0000000000000000     
   1.0000000000000000       0.56250000000000000        0.0000000000000000     
  0.87500000000000000       0.59375000000000000        0.0000000000000000     
  0.90625000000000000       0.59375000000000000        0.0000000000000000     
  0.93750000000000000       0.59375000000000000        0.0000000000000000     
  0.96875000000000000       0.59375000000000000        0.0000000000000000     
   1.0000000000000000       0.59375000000000000        0.0000000000000000     
  0.87500000000000000       0.62500000000000000        0.0000000000000000     
  0.90625000000000000       0.62500000000000000        0.0000000000000000     
  0.93750000000000000       0.62500000000000000        0.0000000000000000     
  0.96875000000000000       0.62500000000000000        0.0000000000000000     
   1.0000000000000000       0.62500000000000000        0.0000000000000000     
   1.0000000000000000       0.50000000000000000        0.0000000000000000     
   1.0312500000000000       0.50000000000000000        0.0000000000000000     
   1.0625000000000000       0.50000000000000000        0.0000000000000000     
   1.0937500000000000       0.50000000000000000        0.0000000000000000     
   1.1250000000000000       0.50000000000000000        0.0000000000000000     
   1.0000000000000000       0.53125000000000000        0.0000000000000000     
   1.0312500000000000       0.53125000000000000        0.0000000000000000     
   1.0625000000000000       0.53125000000000000        0.0000000000000000     
   1.0937500000000000       0.53125000000000000        0.0000000000000000     
   1.1250000000000000       0.53125000000000000        0.0000000000000000     
   1.0000000000000000       0.56250000000000000        0.0000000000000000     
   1.0312500000000000       0.56250000000000000        0.0000000000000000     
   1.0625000000000000       0.56250000000000000        0.0000000000000000     
   1.0937500000000000       0.56250000000000000        0.0000000000000000     
   1.1250000000000000       0.56250000000000000        0.0000000000000000     
   1.0000000000000000       0.59375000000000000        0.0000000000000000     
   1.0312500000000000       0.59375000000000000        0.0000000000000000     
   1.0625000000000000       0.59375000000000000        0.0000000000000000     
   1.0937500000000000       0.59375000000000000        0.0000000000000000     
   1.1250000000000000       0.59375000000000000        0.0000000000000000     
   1.0000000000000000       0.62500000000000000        0.0000000000000000     
   1.0312500000000000       0.62500000000000000        0.0000000000000000     
   1.0625000000000000       0.62500000000000000        0.0000000000000000     
   1.0937500000000000       0.62500000000000000        0.0000000000000000     
   1.1250000000000000       0.62500000000000000        0.0000000000000000     
   1.1250000000000000       0.50000000000000000        0.0000000000000000     
   1.1562500000000000       0.50000000000000000        0.0000000000000000     
   1.1875000000000000       0.50000000000000000        0.0000000000000000     
   1.2187500000000000       0.50000000000000000        0.0000000000000000     
   1.2500000000000000       0.50000000000000000        0.0000000000000000     
   1.1250000000000000       0.53125000000000000        0.0000000000000000     
   1.1562500000000000       0.53125000000000000        0.0000000000000000     
   1.1875000000000000       0.53125000000000000        0.0000000000000000     
   1.2187500000000000       0.53125000000000000        0.0000000000000000     
   1.2500000000000000       0.53125000000000000        0.0000000000000000     
   1.1250000000000000       0.56250000000000000        0.0000000000000000     
   1.1562500000000000       0.56250000000000000        0.0000000000000000     
   1.1875000000000000       0.56250000000000000        0.0000000000000000     
   1.2187500000000000       0.56250000000000000        0.0000000000000000     
   1.2500000000000000       0.56250000000000000        0.0000000000000000     
   1.1250000000000000       0.59375000000000000        0.0000000000000000     
   1.1562500000000000       0.59375000000000000        0.0000000000000000     
   1.1875000000000000       0.59375000000000000        0.0000000000000000     
   1.2187500000000000       0.59375000000000000        0.0000000000000000     
   1.2500000000000000       0.59375000000000000        0.0000000000000000     
   1.1250000000000000       0.62500000000000000        0.0000000000000000     
   1.1562500000000000       0.62500000000000000        0.0000000000000000     
   1.1875000000000000       0.62500000000000000        0.0000000000000000     
   1.2187500000000000       0.62500000000000000        0.0000000000000000     
   1.2500000000000000       0.62500000000000000        0.0000000000000000     
   1.2500000000000000       0.50000000000000000        0.0000000000000000     
   1.2812500000000000       0.50000000000000000        0.0000000000000000     
   1.3125000000000000       0.50000000000000000        0.0000000000000000     
   1.3437500000000000       0.50000000000000000        0.0000000000000000     
   1.3750000000000000       0.50000000000000000        0.0000000000000000     
   1.2500000000000000       0.53125000000000000        0.0000000000000000     
   1.2812500000000000       0.53125000000000000        0.0000000000000000     
   1.3125000000000000       0.53125000000000000        0.0000000000000000     
   1.3437500000000000       0.53125000000000000        0.0000000000000000     
   1.3750000000000000       0.53125000000000000        0.0000000000000000     
   1.2500000000000000       0.56250000000000000        0.0000000000000000     
   1.2812500000000000       0.56250000000000000        0.0000000000000000     
   1.3125000000000000       0.56250000000000000        0.0000000000000000     
   1.3437500000000000       0.56250000000000000        0.0000000000000000     
   1.3750000000000000       0.56250000000000000        0.0000000000000000     
   1.2500000000000000       0.59375000000000000        0.0000000000000000     
   1.2812500000000000       0.59375000000000000        0.0000000000000000     
   1.3125000000000000       0.59375000000000000        0.0000000000000000     
   1.3437500000000000       0.59375000000000000        0.0000000000000000     
   1.3750000000000000       0.59375000000000000        0.0000000000000000     
   1.2500000000000000       0.62500000000000000        0.0000000000000000     
   1.2812500000000000       0.62500000000000000        0.0000000000000000     
   1.3125000000000000       0.62500000000000000        0.0000000000000000     
   1.3437500000000000       0.62500000000000000        0.0000000000000000     
   1.3750000000000000       0.62500000000000000        0.0000000000000000     
   1.3750000000000000       0.50000000000000000        0.0000000000000000     
   1.4062500000000000       0.50000000000000000        0.0000000000000000     
   1.4375000000000000       0.50000000000000000        0.0000000000000000     
   1.4687500000000000       0.50000000000000000        0.0000000000000000     
   1.5000000000000000       0.50000000000000000        0.0000000000000000     
   1.3750000000000000       0.53125000000000000        0.0000000000000000     
   1.4062500000000000       0.53125000000000000        0.0000000000000000     
   1.4375000000000000       0.53125000000000000        0.0000000000000000     
   1.4687500000000000       0.53125000000000000        0.0000000000000000     
   1.5000000000000000       0.53125000000000000        0.0000000000000000     
   1.3750000000000000       0.56250000000000000        0.0000000000000000     
   1.4062500000000000       0.56250000000000000        0.0000000000000000     
   1.4375000000000000       0.56250000000000000        0.0000000000000000     
   1.4687500000000000       0.56250000000000000        0.0000000000000000     
   1.5000000000000000       0.56250000000000000        0.0000000000000000     
   1.3750000000000000       0.59375000000000000        0.0000000000000000     
   1.4062500000000000       0.59375000000000000        0.0000000000000000     
   1.4375000000000000       0.59375000000000000        0.0000000000000000     
   1.4687500000000000       0.59375000000000000        0.0000000000000000     
   1.5000000000000000       0.59375000000000000        0.0000000000000000     
   1.3750000000000000       0.62500000000000000        0.0000000000000000     
   1.4062500000000000       0.62500000000000000        0.0000000000000000     
   1.4375000000000000       0.62500000000000000        0.0000000000000000     
   1.4687500000000000       0.62500000000000000        0.0000000000000000     
   1.5000000000000000       0.62500000000000000        0.0000000000000000     
  0.50000000000000000       0.62500000000000000        0.0000000000000000     
  0.53125000000000000       0.62500000000000000        0.0000000000000000     
  0.56250000000000000       0.62500000000000000        0.0000000000000000     
  0.59375000000000000       0.62500000000000000        0.0000000000000000     
  0.62500000000000000       0.62500000000000000        0.0000000000000000     
  0.50000000000000000       0.65625000000000000        0.0000000000000000     
  0.53125000000000000       0.65625000000000000        0.0000000000000000     
  0.56250000000000000       0.65625000000000000        0.0000000000000000     
  0.59375000000000000       0.65625000000000000        0.0000000000000000     
  0.62500000000000000       0.65625000000000000        0.0000000000000000     
  0.50000000000000000       0.68750000000000000        0.0000000000000000     
  0.53125000000000000       0.68750000000000000        0.0000000000000000     
  0.56250000000000000       0.68750000000000000        0.0000000000000000     
  0.59375000000000000       0.68750000000000000        0.0000000000000000     
  0.62500000000000000       0.68750000000000000        0.0000000000000000     
  0.50000000000000000       0.71875000000000000        0.0000000000000000     
  0.53125000000000000       0.71875000000000000        0.0000000000000000     
  0.56250000000000000       0.71875000000000000        0.0000000000000000     
  0.59375000000000000       0.71875000000000000        0.0000000000000000     
  0.62500000000000000       0.71875000000000000        0.0000000000000000     
  0.50000000000000000       0.75000000000000000        0.0000000000000000     
  0.53125000000000000       0.75000000000000000        0.0000000000000000     
  0.56250000000000000       0.75000000000000000        0.0000000000000000     
  0.59375000000000000       0.75000000000000000        0.0000000000000000     
  0.62500000000000000       0.75000000000000000        0.0000000000000000     
  0.62500000000000000       0.62500000000000000        0.0000000000000000     
  0.65625000000000000       0.62500000000000000        0.0000000000000000     
  0.68750000000000000       0.62500000000000000        0.0000000000000000     
  0.71875000000000000       0.62500000000000000        0.0000000000000000     
  0.75000000000000000       0.62500000000000000        0.0000000000000000     
  0.62500000000000000       0.65625000000000000        0.0000000000000000     
  0.65625000000000000       0.65625000000000000        0.0000000000000000     
  0.68750000000000000       0.65625000000000000        0.0000000000000000     
  0.71875000000000000       0.65625000000000000        0.0000000000000000     
  0.75000000000000000       0.65625000000000000        0.0000000000000000     
  0.62500000000000000       0.68750000000000000        0.0000000000000000     
  0.65625000000000000       0.68750000000000000        0.0000000000000000     
  0.68750000000000000       0.68750000000000000        0.0000000000000000     
  0.71875000000000000       0.68750000000000000        0.0000000000000000     
  0.75000000000000000       0.68750000000000000        0.0000000000000000     
  0.62500000000000000       0.71875000000000000        0.0000000000000000     
  0.65625000000000000       0.71875000000000000        0.0000000000000000     
  0.68750000000000000       0.71875000000000000        0.0000000000000000     
  0.71875000000000000       0.71875000000000000        0.0000000000000000     
  0.75000000000000000       0.71875000000000000        0.0000000000000000     
  0.62500000000000000       0.75000000000000000        0.0000000000000000     
  0.65625000000000000       0.75000000000000000        0.0000000000000000     
  0.68750000000000000       0.75000000000000000        0.0000000000000000     
  0.71875000000000000       0.75000000000000000        0.0000000000000000     
  0.75000000000000000       0.75000000000000000        0.0000000000000000     
  0.75000000000000000       0.62500000000000000        0.0000000000000000     
  0.78125000000000000       0.62500000000000000        0.0000000000000000     
  0.81250000000000000       0.62500000000000000        0.0000000000000000     
  0.84375000000000000       0.62500000000000000        0.0000000000000000     
  0.87500000000000000       0.62500000000000000        0.0000000000000000     
  0.75000000000000000       0.65625000000000000        0.0000000000000000     
  0.78125000000000000       0.65625000000000000        0.0000000000000000     
  0.81250000000000000       0.65625000000000000        0.0000000000000000     
  0.84375000000000000       0.65625000000000000        0.0000000000000000     
  0.87500000000000000       0.65625000000000000        0.0000000000000000     
  0.75000000000000000       0.68750000000000000        0.0000000000000000     
  0.78125000000000000       0.68750000000000000        0.0000000000000000     
  0.81250000000000000       0.68750000000000000        0.0000000000000000     
  0.84375000000000000       0.68750000000000000        0.0000000000000000     
  0.87500000000000000       0.68750000000000000        0.0000000000000000     
  0.75000000000000000       0.71875000000000000        0.0000000000000000     
  0.78125000000000000       0.71875000000000000        0.0000000000000000     
  0.81250000000000000       0.71875000000000000        0.0000000000000000     
  0.84375000000000000       0.71875000000000000        0.0000000000000000     
  0.87500000000000000       0.71875000000000000        0.0000000000000000     
  0.75000000000000000       0.75000000000000000        0.0000000000000000     
  0.78125000000000000       0.75000000000000000        0.0000000000000000     
  0.81250000000000000       0.75000000000000000        0.0000000000000000     
  0.84375000000000000       0.75000000000000000        0.0000000000000000     
  0.87500000000000000       0.75000000000000000        0.0000000000000000     
  0.87500000000000000       0.62500000000000000        0.0000000000000000     
  0.90625000000000000       0.62500000000000000        0.0000000000000000     
  0.93750000000000000       0.62500000000000000        0.0000000000000000     
  0.96875000000000000       0.62500000000000000        0.0000000000000000     
   1.0000000000000000       0.62500000000000000        0.0000000000000000     
  0.87500000000000000       0.65625000000000000        0.0000000000000000     
  0.90625000000000000       0.65625000000000000        0.0000000000000000     
  0.93750000000000000       0.65625000000000000        0.0000000000000000     
  0.96875000000000000       0.65625000000000000        0.0000000000000000     
   1.0000000000000000       0.65625000000000000        0.0000000000000000     
  0.87500000000000000       0.68750000000000000        0.0000000000000000     
  0.90625000000000000       0.68750000000000000        0.0000000000000000     
  0.93750000000000000       0.68750000000000000        0.0000000000000000     
  0.96875000000000000       0.68750000000000000        0.0000000000000000     
   1.0000000000000000       0.68750000000000000        0.0000000000000000     
  0.87500000000000000       0.71875000000000000        0.0000000000000000     
  0.90625000000000000       0.71875000000000000        0.0000000000000000     
  0.93750000000000000       0.71875000000000000        0.0000000000000000     
  0.96875000000000000       0.71875000000000000        0.0000000000000000     
   1.0000000000000000       0.71875000000000000        0.0000000000000000     
  0.87500000000000000       0.75000000000000000        0.0000000000000000     
  0.90625000000000000       0.75000000000000000        0.0000000000000000     
  0.93750000000000000       0.75000000000000000        0.0000000000000000     
  0.96875000000000000       0.75000000000000000        0.0000000000000000     
   1.0000000000000000       0.75000000000000000        0.0000000000000000     
   1.0000000000000000       0.62500000000000000        0.0000000000000000     
   1.0312500000000000       0.62500000000000000        0.0000000000000000     
   1.0625000000000000       0.62500000000000000        0.0000000000000000     
   1.0937500000000000       0.62500000000000000        0.0000000000000000     
   1.1250000000000000       0.62500000000000000        0.0000000000000000     
   1.0000000000000000       0.65625000000000000        0.0000000000000000     
   1.0312500000000000       0.65625000000000000        0.0000000000000000     
   1.0625000000000000       0.65625000000000000        0.0000000000000000     
   1.0937500000000000       0.65625000000000000        0.0000000000000000     
   1.1250000000000000       0.65625000000000000        0.0000000000000000     
   1.0000000000000000       0.68750000000000000        0.0000000000000000     
   1.0312500000000000       0.68750000000000000        0.0000000000000000     
   1.0625000000000000       0.68750000000000000        0.0000000000000000     
   1.0937500000000000       0.68750000000000000        0.0000000000000000     
   1.1250000000000000       0.68750000000000000        0.0000000000000000     
   1.0000000000000000       0.71875000000000000        0.0000000000000000     
   1.0312500000000000       0.71875000000000000        0.0000000000000000     
   1.0625000000000000       0.71875000000000000        0.0000000000000000     
   1.0937500000000000       0.71875000000000000        0.0000000000000000     
   1.1250000000000000       0.71875000000000000        0.0000000000000000     
   1.0000000000000000       0.75000000000000000        0.0000000000000000     
   1.0312500000000000       0.75000000000000000        0.0000000000000000     
   1.0625000000000000       0.75000000000000000        0.0000000000000000     
   1.0937500000000000       0.75000000000000000        0.0000000000000000     
   1.1250000000000000       0.75000000000000000        0.0000000000000000     
   1.1250000000000000       0.62500000000000000        0.0000000000000000     
   1.1562500000000000       0.62500000000000000        0.0000000000000000     
   1.1875000000000000       0.62500000000000000        0.0000000000000000     
   1.2187500000000000       0.62500000000000000        0.0000000000000000     
   1.2500000000000000       0.62500000000000000        0.0000000000000000     
   1.1250000000000000       0.65625000000000000        0.0000000000000000     
   1.1562500000000000       0.65625000000000000        0.0000000000000000     
   1.1875000000000000       0.65625000000000000        0.0000000000000000     
   1.2187500000000000       0.65625000000000000        0.0000000000000000     
   1.2500000000000000       0.65625000000000000        0.0000000000000000     
   1.1250000000000000       0.68750000000000000        0.0000000000000000     
   1.1562500000000000       0.68750000000000000        0.0000000000000000     
   1.1875000000000000       0.68750000000000000        0.0000000000000000     
   1.2187500000000000       0.68750000000000000        0.0000000000000000     
   1.2500000000000000       0.68750000000000000        0.0000000000000000     
   1.1250000000000000       0.71875000000000000        0.0000000000000000     
   1.1562500000000000       0.71875000000000000        0.0000000000000000     
   1.1875000000000000       0.71875000000000000        0.0000000000000000     
   1.2187500000000000       0.71875000000000000        0.0000000000000000     
   1.2500000000000000       0.71875000000000000        0.0000000000000000     
   1.1250000000000000       0.75000000000000000        0.0000000000000000     
   1.1562500000000000       0.75000000000000000        0.0000000000000000     
   1.1875000000000000       0.75000000000000000        0.0000000000000000     
   1.2187500000000000       0.75000000000000000        0.0000000000000000     
   1.2500000000000000       0.75000000000000000        0.0000000000000000     
   1.2500000000000000       0.62500000000000000        0.0000000000000000     
   1.2812500000000000       0.62500000000000000        0.0000000000000000     
   1.3125000000000000       0.62500000000000000        0.0000000000000000     
   1.3437500000000000       0.62500000000000000        0.0000000000000000     
   1.3750000000000000       0.62500000000000000        0.0000000000000000     
   1.2500000000000000       0.65625000000000000        0.0000000000000000     
   1.2812500000000000       0.65625000000000000        0.0000000000000000     
   1.3125000000000000       0.65625000000000000        0.0000000000000000     
   1.3437500000000000       0.65625000000000000        0.0000000000000000     
   1.3750000000000000       0.65625000000000000        0.0000000000000000     
   1.2500000000000000       0.68750000000000000        0.0000000000000000     
   1.2812500000000000       0.68750000000000000        0.0000000000000000     
   1.3125000000000000       0.68750000000000000        0.0000000000000000     
   1.3437500000000000       0.68750000000000000        0.0000000000000000     
   1.3750000000000000       0.68750000000000000        0.0000000000000000     
   1.2500000000000000       0.71875000000000000        0.0000000000000000     
   1.2812500000000000       0.71875000000000000        0.0000000000000000     
   1.3125000000000000       0.71875000000000000        0.0000000000000000     
   1.3437500000000000       0.71875000000000000        0.0000000000000000     
   1.3750000000000000       0.71875000000000000        0.0000000000000000     
   1.2500000000000000       0.75000000000000000        0.0000000000000000     
   1.2812500000000000       0.75000000000000000        0.0000000000000000     
   1.3125000000000000       0.75000000000000000        0.0000000000000000     
   1.3437500000000000       0.75000000000000000        0.0000000000000000     
   1.3750000000000000       0.75000000000000000        0.0000000000000000     
   1.3750000000000000       0.62500000000000000        0.0000000000000000     
   1.4062500000000000       0.62500000000000000        0.0000000000000000     
   1.4375000000000000       0.62500000000000000        0.0000000000000000     
   1.4687500000000000       0.62500000000000000        0.0000000000000000     
   1.5000000000000000       0.62500000000000000        0.0000000000000000     
   1.3750000000000000       0.65625000000000000        0.0000000000000000     
   1.4062500000000000       0.65625000000000000        0.0000000000000000     
   1.4375000000000000       0.65625000000000000        0.0000000000000000     
   1.4687500000000000       0.65625000000000000        0.0000000000000000     
   1.5000000000000000       0.65625000000000000        0.0000000000000000     
   1.3750000000000000       0.68750000000000000        0.0000000000000000     
   1.4062500000000000       0.68750000000000000        0.0000000000000000     
   1.4375000000000000       0.68750000000000000        0.0000000000000000     
   1.4687500000000000       0.68750000000000000        0.0000000000000000     
   1.5000000000000000       0.68750000000000000        0.0000000000000000     
   1.3750000000000000       0.71875000000000000        0.0000000000000000     
   1.4062500000000000       0.71875000000000000        0.0000000000000000     
   1.4375000000000000       0.71875000000000000        0.0000000000000000     
   1.4687500000000000       0.71875000000000000        0.0000000000000000     
   1.5000000000000000       0.71875000000000000        0.0000000000000000     
   1.3750000000000000       0.75000000000000000        0.0000000000000000     
   1.4062500000000000       0.75000000000000000        0.0000000000000000     
   1.4375000000000000       0.75000000000000000        0.0000000000000000     
   1.4687500000000000       0.75000000000000000        0.0000000000000000     
   1.5000000000000000       0.75000000000000000        0.0000000000000000     
  0.50000000000000000       0.75000000000000000        0.0000000000000000     
  0.53125000000000000       0.75000000000000000        0.0000000000000000     
  0.56250000000000000       0.75000000000000000        0.0000000000000000     
  0.59375000000000000       0.75000000000000000        0.0000000000000000     
  0.62500000000000000       0.75000000000000000        0.0000000000000000     
  0.50000000000000000       0.78125000000000000        0.0000000000000000     
  0.53125000000000000       0.78125000000000000        0.0000000000000000     
  0.56250000000000000       0.78125000000000000        0.0000000000000000     
  0.59375000000000000       0.78125000000000000        0.0000000000000000     
  0.62500000000000000       0.78125000000000000        0.0000000000000000     
  0.50000000000000000       0.81250000000000000        0.0000000000000000     
  0.53125000000000000       0.81250000000000000        0.0000000000000000     
  0.56250000000000000       0.81250000000000000        0.0000000000000000     
  0.59375000000000000       0.81250000000000000        0.0000000000000000     
  0.62500000000000000       0.81250000000000000        0.0000000000000000     
  0.50000000000000000       0.84375000000000000        0.0000000000000000     
  0.53125000000000000       0.84375000000000000        0.0000000000000000     
  0.56250000000000000       0.84375000000000000        0.0000000000000000     
  0.59375000000000000       0.84375000000000000        0.0000000000000000     
  0.62500000000000000       0.84375000000000000        0.0000000000000000     
  0.50000000000000000       0.87500000000000000        0.0000000000000000     
  0.53125000000000000       0.87500000000000000        0.0000000000000000     
  0.56250000000000000       0.87500000000000000        0.0000000000000000     
  0.59375000000000000       0.87500000000000000        0.0000000000000000     
  0.62500000000000000       0.87500000000000000        0.0000000000000000     
  0.62500000000000000       0.75000000000000000        0.0000000000000000     
  0.65625000000000000       0.75000000000000000        0.0000000000000000     
  0.68750000000000000       0.75000000000000000        0.0000000000000000     
  0.71875000000000000       0.75000000000000000        0.0000000000000000     
  0.75000000000000000       0.75000000000000000        0.0000000000000000     
  0.62500000000000000       0.78125000000000000        0.0000000000000000     
  0.65625000000000000       0.78125000000000000        0.0000000000000000     
  0.68750000000000000       0.78125000000000000        0.0000000000000000     
  0.71875000000000000       0.78125000000000000        0.0000000000000000     
  0.75000000000000000       0.78125000000000000        0.0000000000000000     
  0.62500000000000000       0.81250000000000000        0.0000000000000000     
  0.65625000000000000       0.81250000000000000        0.0000000000000000     
  0.68750000000000000       0.81250000000000000        0.0000000000000000     
  0.71875000000000000       0.81250000000000000        0.0000000000000000     
  0.75000000000000000       0.81250000000000000        0.0000000000000000     
  0.62500000000000000       0.84375000000000000        0.0000000000000000     
  0.65625000000000000       0.84375000000000000        0.0000000000000000     
  0.68750000000000000       0.84375000000000000        0.0000000000000000     
  0.71875000000000000       0.84375000000000000        0.0000000000000000     
  0.75000000000000000       0.84375000000000000        0.0000000000000000     
  0.62500000000000000       0.87500000000000000        0.0000000000000000     
  0.65625000000000000       0.87500000000000000        0.0000000000000000     
  0.68750000000000000       0.87500000000000000        0.0000000000000000     
  0.71875000000000000       0.87500000000000000        0.0000000000000000     
  0.75000000000000000       0.87500000000000000        0.0000000000000000     
  0.75000000000000000       0.75000000000000000        0.0000000000000000     
  0.78125000000000000       0.75000000000000000        0.0000000000000000     
  0.81250000000000000       0.75000000000000000        0.0000000000000000     
  0.84375000000000000       0.75000000000000000        0.0000000000000000     
  0.87500000000000000       0.75000000000000000        0.0000000000000000     
  0.75000000000000000       0.78125000000000000        0.0000000000000000     
  0.78125000000000000       0.78125000000000000        0.0000000000000000     
  0.81250000000000000       0.78125000000000000        0.0000000000000000     
  0.84375000000000000       0.78125000000000000        0.0000000000000000     
  0.87500000000000000       0.78125000000000000        0.0000000000000000     
  0.75000000000000000       0.81250000000000000        0.0000000000000000     
  0.78125000000000000       0.81250000000000000        0.0000000000000000     
  0.81250000000000000       0.81250000000000000        0.0000000000000000     
  0.84375000000000000       0.81250000000000000        0.0000000000000000     
  0.87500000000000000       0.81250000000000000        0.0000000000000000     
  0.75000000000000000       0.84375000000000000        0.0000000000000000     
  0.78125000000000000       0.84375000000000000        0.0000000000000000     
  0.81250000000000000       0.84375000000000000        0.0000000000000000     
  0.84375000000000000       0.84375000000000000        0.0000000000000000     
  0.87500000000000000       0.84375000000000000        0.0000000000000000     
  0.75000000000000000       0.87500000000000000        0.0000000000000000     
  0.78125000000000000       0.87500000000000000        0.0000000000000000     
  0.81250000000000000       0.87500000000000000        0.0000000000000000     
  0.84375000000000000       0.87500000000000000        0.0000000000000000     
  0.87500000000000000       0.87500000000000000        0.0000000000000000     
  0.87500000000000000       0.75000000000000000        0.0000000000000000     
  0.90625000000000000       0.75000000000000000        0.0000000000000000     
  0.93750000000000000       0.75000000000000000        0.0000000000000000     
  0.96875000000000000       0.75000000000000000        0.0000000000000000     
   1.0000000000000000       0.75000000000000000        0.0000000000000000     
  0.87500000000000000       0.78125000000000000        0.0000000000000000     
  0.90625000000000000       0.78125000000000000        0.0000000000000000     
  0.93750000000000000       0.78125000000000000        0.0000000000000000     
  0.96875000000000000       0.78125000000000000        0.0000000000000000     
   1.0000000000000000       0.78125000000000000        0.0000000000000000     
  0.87500000000000000       0.81250000000000000        0.0000000000000000     
  0.90625000000000000       0.81250000000000000        0.0000000000000000     
  0.93750000000000000       0.81250000000000000        0.0000000000000000     
  0.96875000000000000       0.81250000000000000        0.0000000000000000     
   1.0000000000000000       0.81250000000000000        0.0000000000000000     
  0.87500000000000000       0.84375000000000000        0.0000000000000000     
  0.90625000000000000       0.84375000000000000        0.0000000000000000     
  0.93750000000000000       0.84375000000000000        0.0000000000000000     
  0.96875000000000000       0.84375000000000000        0.0000000000000000     
   1.0000000000000000       0.84375000000000000        0.0000000000000000     
  0.87500000000000000       0.87500000000000000        0.0000000000000000     
  0.90625000000000000       0.87500000000000000        0.0000000000000000     
  0.93750000000000000       0.87500000000000000        0.0000000000000000     
  0.96875000000000000       0.87500000000000000        0.0000000000000000     
   1.0000000000000000       0.87500000000000000        0.0000000000000000     
   1.0000000000000000       0.75000000000000000        0.0000000000000000     
   1.0312500000000000       0.75000000000000000        0.0000000000000000     
   1.0625000000000000       0.75000000000000000        0.0000000000000000     
   1.0937500000000000       0.75000000000000000        0.0000000000000000     
   1.1250000000000000       0.75000000000000000        0.0000000000000000     
   1.0000000000000000       0.78125000000000000        0.0000000000000000     
   1.0312500000000000       0.78125000000000000        0.0000000000000000     
   1.0625000000000000       0.78125000000000000        0.0000000000000000     
   1.0937500000000000       0.78125000000000000        0.0000000000000000     
   1.1250000000000000       0.78125000000000000        0.0000000000000000     
   1.0000000000000000       0.81250000000000000        0.0000000000000000     
   1.0312500000000000       0.81250000000000000        0.0000000000000000     
   1.0625000000000000       0.81250000000000000        0.0000000000000000     
   1.0937500000000000       0.81250000000000000        0.0000000000000000     
   1.1250000000000000       0.81250000000000000        0.0000000000000000     
   1.0000000000000000       0.84375000000000000        0.0000000000000000     
   1.0312500000000000       0.84375000000000000        0.0000000000000000     
   1.0625000000000000       0.84375000000000000        0.0000000000000000     
   1.0937500000000000       0.84375000000000000        0.0000000000000000     
   1.1250000000000000       0.84375000000000000        0.0000000000000000     
   1.0000000000000000       0.87500000000000000        0.0000000000000000     
   1.0312500000000000       0.87500000000000000        0.0000000000000000     
   1.0625000000000000       0.87500000000000000        0.0000000000000000     
   1.0937500000000000       0.87500000000000000        0.0000000000000000     
   1.1250000000000000       0.87500000000000000        0.0000000000000000     
   1.1250000000000000       0.75000000000000000        0.0000000000000000     
   1.1562500000000000       0.75000000000000000        0.0000000000000000     
   1.1875000000000000       0.75000000000000000        0.0000000000000000     
   1.2187500000000000       0.75000000000000000        0.0000000000000000     
   1.2500000000000000       0.75000000000000000        0.0000000000000000     
   1.1250000000000000       0.78125000000000000        0.0000000000000000     
   1.1562500000000000       0.78125000000000000        0.0000000000000000     
   1.1875000000000000       0.78125000000000000        0.0000000000000000     
   1.2187500000000000       0.78125000000000000        0.0000000000000000     
   1.2500000000000000       0.78125000000000000        0.0000000000000000     
   1.1250000000000000       0.81250000000000000        0.0000000000000000     
   1.1562500000000000       0.81250000000000000        0.0000000000000000     
   1.1875000000000000       0.81250000000000000        0.0000000000000000     
   1.2187500000000000       0.81250000000000000        0.0000000000000000     
   1.2500000000000000       0.81250000000000000        0.0000000000000000     
   1.1250000000000000       0.84375000000000000        0.0000000000000000     
   1.1562500000000000       0.84375000000000000        0.0000000000000000     
   1.1875000000000000       0.84375000000000000        0.0000000000000000     
   1.2187500000000000       0.84375000000000000        0.0000000000000000     
   1.2500000000000000       0.84375000000000000        0.0000000000000000     
   1.1250000000000000       0.87500000000000000        0.0000000000000000     
   1.1562500000000000       0.87500000000000000        0.0000000000000000     
   1.1875000000000000       0.87500000000000000        0.0000000000000000     
   1.2187500000000000       0.87500000000000000        0.0000000000000000     
   1.2500000000000000       0.87500000000000000        0.0000000000000000     
   1.2500000000000000       0.75000000000000000        0.0000000000000000     
   1.2812500000000000       0.75000000000000000        0.0000000000000000     
   1.3125000000000000       0.75000000000000000        0.0000000000000000     
   1.3437500000000000       0.75000000000000000        0.0000000000000000     
   1.3750000000000000       0.75000000000000000        0.0000000000000000     
   1.2500000000000000       0.78125000000000000        0.0000000000000000     
   1.2812500000000000       0.78125000000000000        0.0000000000000000     
   1.3125000000000000       0.78125000000000000        0.0000000000000000     
   1.3437500000000000       0.78125000000000000        0.0000000000000000     
   1.3750000000000000       0.78125000000000000        0.0000000000000000     
   1.2500000000000000       0.81250000000000000        0.0000000000000000     
   1.2812500000000000       0.81250000000000000        0.0000000000000000     
   1.3125000000000000       0.81250000000000000        0.0000000000000000     
   1.3437500000000000       0.81250000000000000        0.0000000000000000     
   1.3750000000000000       0.81250000000000000        0.0000000000000000     
   1.2500000000000000       0.84375000000000000        0.0000000000000000     
   1.2812500000000000       0.84375000000000000        0.0000000000000000     
   1.3125000000000000       0.84375000000000000        0.0000000000000000     
   1.3437500000000000       0.84375000000000000        0.0000000000000000     
   1.3750000000000000       0.84375000000000000        0.0000000000000000     
   1.2500000000000000       0.87500000000000000        0.0000000000000000     
   1.2812500000000000       0.87500000000000000        0.0000000000000000     
   1.3125000000000000       0.87500000000000000        0.0000000000000000     
   1.3437500000000000       0.87500000000000000        0.0000000000000000     
   1.3750000000000000       0.87500000000000000        0.0000000000000000     
   1.3750000000000000       0.75000000000000000        0.0000000000000000     
   1.4062500000000000       0.75000000000000000        0.0000000000000000     
   1.4375000000000000       0.75000000000000000        0.0000000000000000     
   1.4687500000000000       0.75000000000000000        0.0000000000000000     
   1.5000000000000000       0.75000000000000000        0.0000000000000000     
   1.3750000000000000       0.78125000000000000        0.0000000000000000     
   1.4062500000000000       0.78125000000000000        0.0000000000000000     
   1.4375000000000000       0.78125000000000000        0.0000000000000000     
   1.4687500000000000       0.78125000000000000        0.0000000000000000     
   1.5000000000000000       0.78125000000000000        0.0000000000000000     
   1.3750000000000000       0.81250000000000000        0.0000000000000000     
   1.4062500000000000       0.81250000000000000        0.0000000000000000     
   1.4375000000000000       0.81250000000000000        0.0000000000000000     
   1.4687500000000000       0.81250000000000000        0.0000000000000000     
   1.5000000000000000       0.81250000000000000        0.0000000000000000     
   1.3750000000000000       0.84375000000000000        0.0000000000000000     
   1.4062500000000000       0.84375000000000000        0.0000000000000000     
   1.4375000000000000       0.84375000000000000        0.0000000000000000     
   1.4687500000000000       0.84375000000000000        0.0000000000000000     
   1.5000000000000000       0.84375000000000000        0.0000000000000000     
   1.3750000000000000       0.87500000000000000        0.0000000000000000     
   1.4062500000000000       0.87500000000000000        0.0000000000000000     
   1.4375000000000000       0.87500000000000000        0.0000000000000000     
   1.4687500000000000       0.87500000000000000        0.0000000000000000     
   1.5000000000000000       0.87500000000000000        0.0000000000000000     
  0.50000000000000000       0.87500000000000000        0.0000000000000000     
  0.53125000000000000       0.87500000000000000        0.0000000000000000     
  0.56250000000000000       0.87500000000000000        0.0000000000000000     
  0.59375000000000000       0.87500000000000000        0.0000000000000000     
  0.62500000000000000       0.87500000000000000        0.0000000000000000     
  0.50000000000000000       0.90625000000000000        0.0000000000000000     
  0.53125000000000000       0.90625000000000000        0.0000000000000000     
  0.56250000000000000       0.90625000000000000        0.0000000000000000     
  0.59375000000000000       0.90625000000000000        0.0000000000000000     
  0.62500000000000000       0.90625000000000000        0.0000000000000000     
  0.50000000000000000       0.93750000000000000        0.0000000000000000     
  0.53125000000000000       0.93750000000000000        0.0000000000000000     
  0.56250000000000000       0.93750000000000000        0.0000000000000000     
  0.59375000000000000       0.93750000000000000        0.0000000000000000     
  0.62500000000000000       0.93750000000000000        0.0000000000000000     
  0.50000000000000000       0.96875000000000000        0.0000000000000000     
  0.53125000000000000       0.96875000000000000        0.0000000000000000     
  0.56250000000000000       0.96875000000000000        0.0000000000000000     
  0.59375000000000000       0.96875000000000000        0.0000000000000000     
  0.62500000000000000       0.96875000000000000        0.0000000000000000     
  0.50000000000000000        1.0000000000000000        0.0000000000000000     
  0.53125000000000000        1.0000000000000000        0.0000000000000000     
  0.56250000000000000        1.0000000000000000        0.0000000000000000     
  0.59375000000000000        1.0000000000000000        0.0000000000000000     
  0.62500000000000000        1.0000000000000000        0.0000000000000000     
  0.62500000000000000       0.87500000000000000        0.0000000000000000     
  0.65625000000000000       0.87500000000000000        0.0000000000000000     
  0.68750000000000000       0.87500000000000000        0.0000000000000000     
  0.71875000000000000       0.87500000000000000        0.0000000000000000     
  0.75000000000000000       0.87500000000000000        0.0000000000000000     
  0.62500000000000000       0.90625000000000000        0.0000000000000000     
  0.65625000000000000       0.90625000000000000        0.0000000000000000     
  0.68750000000000000       0.90625000000000000        0.0000000000000000     
  0.71875000000000000       0.90625000000000000        0.0000000000000000     
  0.75000000000000000       0.90625000000000000        0.0000000000000000     
  0.62500000000000000       0.93750000000000000        0.0000000000000000     
  0.65625000000000000       0.93750000000000000        0.0000000000000000     
  0.68750000000000000       0.93750000000000000        0.0000000000000000     
  0.71875000000000000       0.93750000000000000        0.0000000000000000     
  0.75000000000000000       0.93750000000000000        0.0000000000000000     
  0.62500000000000000       0.96875000000000000        0.0000000000000000     
  0.65625000000000000       0.96875000000000000        0.0000000000000000     
  0.68750000000000000       0.96875000000000000        0.0000000000000000     
  0.71875000000000000       0.96875000000000000        0.0000000000000000     
  0.75000000000000000       0.96875000000000000        0.0000000000000000     
  0.62500000000000000        1.0000000000000000        0.0000000000000000     
  0.65625000000000000        1.0000000000000000        0.0000000000000000     
  0.68750000000000000        1.0000000000000000        0.0000000000000000     
  0.71875000000000000        1.0000000000000000        0.0000000000000000     
  0.75000000000000000        1.0000000000000000        0.0000000000000000     
  0.75000000000000000       0.87500000000000000        0.0000000000000000     
  0.78125000000000000       0.87500000000000000        0.0000000000000000     
  0.81250000000000000       0.87500000000000000        0.0000000000000000     
  0.84375000000000000       0.87500000000000000        0.0000000000000000     
  0.87500000000000000       0.87500000000000000        0.0000000000000000     
  0.75000000000000000       0.90625000000000000        0.0000000000000000     
  0.78125000000000000       0.90625000000000000        0.0000000000000000     
  0.81250000000000000       0.90625000000000000        0.0000000000000000     
  0.84375000000000000       0.90625000000000000        0.0000000000000000     
  0.87500000000000000       0.90625000000000000        0.0000000000000000     
  0.75000000000000000       0.93750000000000000        0.0000000000000000     
  0.78125000000000000       0.93750000000000000        0.0000000000000000     
  0.81250000000000000       0.93750000000000000        0.0000000000000000     
  0.84375000000000000       0.93750000000000000        0.0000000000000000     
  0.87500000000000000       0.93750000000000000        0.0000000000000000     
  0.75000000000000000       0.96875000000000000        0.0000000000000000     
  0.78125000000000000       0.96875000000000000        0.0000000000000000     
  0.81250000000000000       0.96875000000000000        0.0000000000000000     
  0.84375000000000000       0.96875000000000000        0.0000000000000000     
  0.87500000000000000       0.96875000000000000        0.0000000000000000     
  0.75000000000000000        1.0000000000000000        0.0000000000000000     
  0.78125000000000000        1.0000000000000000        0.0000000000000000     
  0.81250000000000000        1.0000000000000000        0.0000000000000000     
  0.84375000000000000        1.0000000000000000        0.0000000000000000     
  0.87500000000000000        1.0000000000000000        0.0000000000000000     
  0.87500000000000000       0.87500000000000000        0.0000000000000000     
  0.90625000000000000       0.87500000000000000        0.0000000000000000     
  0.93750000000000000       0.87500000000000000        0.0000000000000000     
  0.96875000000000000       0.87500000000000000        0.0000000000000000     
   1.0000000000000000       0.87500000000000000        0.0000000000000000     
  0.87500000000000000       0.90625000000000000        0.0000000000000000     
  0.90625000000000000       0.90625000000000000        0.0000000000000000     
  0.93750000000000000       0.90625000000000000        0.0000000000000000     
  0.96875000000000000       0.90625000000000000        0.0000000000000000     
   1.0000000000000000       0.90625000000000000        0.0000000000000000     
  0.87500000000000000       0.93750000000000000        0.0000000000000000     
  0.90625000000000000       0.93750000000000000        0.0000000000000000     
  0.93750000000000000       0.93750000000000000        0.0000000000000000     
  0.96875000000000000       0.93750000000000000        0.0000000000000000     
   1.0000000000000000       0.93750000000000000        0.0000000000000000     
  0.87500000000000000       0.96875000000000000        0.0000000000000000     
  0.90625000000000000       0.96875000000000000        0.0000000000000000     
  0.93750000000000000       0.96875000000000000        0.0000000000000000     
  0.96875000000000000       0.96875000000000000        0.0000000000000000     
   1.0000000000000000       0.96875000000000000        0.0000000000000000     
  0.87500000000000000        1.0000000000000000        0.0000000000000000     
  0.90625000000000000        1.0000000000000000        0.0000000000000000     
  0.93750000000000000        1.0000000000000000        0.0000000000000000     
  0.96875000000000000        1.0000000000000000        0.0000000000000000     
   1.0000000000000000        1.0000000000000000        0.0000000000000000     
   1.0000000000000000       0.87500000000000000        0.0000000000000000     
   1.0312500000000000       0.87500000000000000        0.0000000000000000     
   1.0625000000000000       0.87500000000000000        0.0000000000000000     
   1.0937500000000000       0.87500000000000000        0.0000000000000000     
   1.1250000000000000       0.87500000000000000        0.0000000000000000     
   1.0000000000000000       0.90625000000000000        0.0000000000000000     
   1.0312500000000000       0.90625000000000000        0.0000000000000000     
   1.0625000000000000       0.90625000000000000        0.0000000000000000     
   1.0937500000000000       0.90625000000000000        0.0000000000000000     
   1.1250000000000000       0.90625000000000000        0.0000000000000000     
   1.0000000000000000       0.93750000000000000        0.0000000000000000     
   1.0312500000000000       0.93750000000000000        0.0000000000000000     
   1.0625000000000000       0.93750000000000000        0.0000000000000000     
   1.0937500000000000       0.93750000000000000        0.0000000000000000     
   1.1250000000000000       0.93750000000000000        0.0000000000000000     
   1.0000000000000000       0.96875000000000000        0.0000000000000000     
   1.0312500000000000       0.96875000000000000        0.0000000000000000     
   1.0625000000000000       0.96875000000000000        0.0000000000000000     
   1.0937500000000000       0.96875000000000000        0.0000000000000000     
   1.1250000000000000       0.96875000000000000        0.0000000000000000     
   1.0000000000000000        1.0000000000000000        0.0000000000000000     
   1.0312500000000000        1.0000000000000000        0.0000000000000000     
   1.0625000000000000        1.0000000000000000        0.0000000000000000     
   1.0937500000000000        1.0000000000000000        0.0000000000000000     
   1.1250000000000000        1.0000000000000000        0.0000000000000000     
   1.1250000000000000       0.87500000000000000        0.0000000000000000     
   1.1562500000000000       0.87500000000000000        0.0000000000000000     
   1.1875000000000000       0.87500000000000000        0.0000000000000000     
   1.2187500000000000       0.87500000000000000        0.0000000000000000     
   1.2500000000000000       0.87500000000000000        0.0000000000000000     
   1.1250000000000000       0.90625000000000000        0.0000000000000000     
   1.1562500000000000       0.90625000000000000        0.0000000000000000     
   1.1875000000000000       0.90625000000000000        0.0000000000000000     
   1.2187500000000000       0.90625000000000000        0.0000000000000000     
   1.2500000000000000       0.90625000000000000        0.0000000000000000     
   1.1250000000000000       0.93750000000000000        0.0000000000000000     
   1.1562500000000000       0.93750000000000000        0.0000000000000000     
   1.1875000000000000       0.93750000000000000        0.0000000000000000     
   1.2187500000000000       0.93750000000000000        0.0000000000000000     
   1.2500000000000000       0.93750000000000000        0.0000000000000000     
   1.1250000000000000       0.96875000000000000        0.0000000000000000     
   1.1562500000000000       0.96875000000000000        0.0000000000000000     
   1.1875000000000000       0.96875000000000000        0.0000000000000000     
   1.2187500000000000       0.96875000000000000        0.0000000000000000     
   1.2500000000000000       0.96875000000000000        0.0000000000000000     
   1.1250000000000000        1.0000000000000000        0.0000000000000000     
   1.1562500000000000        1.0000000000000000        0.0000000000000000     
   1.1875000000000000        1.0000000000000000        0.0000000000000000     
   1.2187500000000000        1.0000000000000000        0.0000000000000000     
   1.2500000000000000        1.0000000000000000        0.0000000000000000     
   1.2500000000000000       0.87500000000000000        0.0000000000000000     
   1.2812500000000000       0.87500000000000000        0.0000000000000000     
   1.3125000000000000       0.87500000000000000        0.0000000000000000     
   1.3437500000000000       0.87500000000000000        0.0000000000000000     
   1.3750000000000000       0.87500000000000000        0.0000000000000000     
   1.2500000000000000       0.90625000000000000        0.0000000000000000     
   1.2812500000000000       0.90625000000000000        0.0000000000000000     
   1.3125000000000000       0.90625000000000000        0.0000000000000000     
   1.3437500000000000       0.90625000000000000        0.0000000000000000     
   1.3750000000000000       0.90625000000000000        0.0000000000000000     
   1.2500000000000000       0.93750000000000000        0.0000000000000000     
   1.2812500000000000       0.93750000000000000        0.0000000000000000     
   1.3125000000000000       0.93750000000000000        0.0000000000000000     
   1.3437500000000000       0.93750000000000000        0.0000000000000000     
   1.3750000000000000       0.93750000000000000        0.0000000000000000     
   1.2500000000000000       0.96875000000000000        0.0000000000000000     
   1.2812500000000000       0.96875000000000000        0.0000000000000000     
   1.3125000000000000       0.96875000000000000        0.0000000000000000     
   1.3437500000000000       0.96875000000000000        0.0000000000000000     
   1.3750000000000000       0.96875000000000000        0.0000000000000000     
   1.2500000000000000        1.0000000000000000        0.0000000000000000     
   1.2812500000000000        1.0000000000000000        0.0000000000000000     
   1.3125000000000000        1.0000000000000000        0.0000000000000000     
   1.3437500000000000        1.0000000000000000        0.0000000000000000     
   1.3750000000000000        1.0000000000000000        0.0000000000000000     
   1.3750000000000000       0.87500000000000000        0.0000000000000000     
   1.4062500000000000       0.87500000000000000        0.0000000000000000     
   1.4375000000000000       0.87500000000000000        0.0000000000000000     
   1.4687500000000000       0.87500000000000000        0.0000000000000000     
   1.5000000000000000       0.87500000000000000        0.0000000000000000     
   1.3750000000000000       0.90625000000000000        0.0000000000000000     
   1.4062500000000000       0.90625000000000000        0.0000000000000000     
   1.4375000000000000       0.90625000000000000        0.0000000000000000     
   1.4687500000000000       0.90625000000000000        0.0000000000000000     
   1.5000000000000000       0.90625000000000000        0.0000000000000000     
   1.3750000000000000       0.93750000000000000        0.0000000000000000     
   1.4062500000000000       0.93750000000000000        0.0000000000000000     
   1.4375000000000000       0.93750000000000000        0.0000000000000000     
   1.4687500000000000       0.93750000000000000        0.0000000000000000     
   1.5000000000000000       0.93750000000000000        0.0000000000000000     
   1.3750000000000000       0.96875000000000000        0.0000000000000000     
   1.4062500000000000       0.96875000000000000        0.0000000000000000     
   1.4375000000000000       0.96875000000000000        0.0000000000000000     
   1.4687500000000000       0.96875000000000000        0.0000000000000000     
   1.5000000000000000       0.96875000000000000        0.0000000000000000     
   1.3750000000000000        1.0000000000000000        0.0000000000000000     
   1.4062500000000000        1.0000000000000000        0.0000000000000000     
   1.4375000000000000        1.0000000000000000        0.0000000000000000     
   1.4687500000000000        1.0000000000000000        0.0000000000000000     
   1.5000000000000000        1.0000000000000000        0.0000000000000000     
 </DataArray>
 </Points>
 <Cells>
 <DataArray  type="Int32"  Name="connectivity"  format="ascii">
           0           1           6           5
           1           2           7           6
           2           3           8           7
           3           4           9           8
           5           6          11          10
           6           7          12          11
           7           8          13          12
           8           9          14          13
          10          11          16          15
          11          12          17          16
          12          13          18          17
          13          14          19          18
          15          16          21          20
          16          17          22          21
          17          18          23          22
          18          19          24          23
          25          26          31          30
          26          27          32          31
          27          28          33          32
          28          29          34          33
          30          31          36          35
          31          32          37          36
          32          33          38          37
          33          34          39          38
          35          36          41          40
          36          37          42          41
          37          38          43          42
          38          39          44          43
          40          41          46          45
          41          42          47          46
          42          43          48          47
          43          44          49          48
          50          51          56          55
          51          52          57          56
          52          53          58          57
          53          54          59          58
          55          56          61          60
          56          57          62          61
          57          58          63          62
          58          59          64          63
          60          61          66          65
          61          62          67          66
          62          63          68          67
          63          64          69          68
          65          66          71          70
          66          67          72          71
          67          68          73          72
          68          69          74          73
          75          76          81          80
          76          77          82          81
          77          78          83          82
          78          79          84          83
          80          81          86          85
          81          82          87          86
          82          83          88          87
          83          84          89          88
          85          86          91          90
          86          87          92          91
          87          88          93          92
          88          89          94          93
          90          91          96          95
          91          92          97          96
          92          93          98          97
          93          94          99          98
         100         101         106         105
         101         102         107         106
         102         103         108         107
         103         104         109         108
         105         106         111         110
         106         107         112         111
         107         108         113         112
         108         109         114         113
         110         111         116         115
         111         112         117         116
         112         113         118         117
         113         114         119         118
         115         116         121         120
         116         117         122         121
         117         118         123         122
         118         119         124         123
         125         126         131         130
         126         127         132         131
         127         128         133         132
         128         129         134         133
         130         131         136         135
         131         132         137         136
         132         133         138         137
         133         134         139         138
         135         136         141         140
         136         137         142         141
         137         138         143         142
         138         139         144         143
         140         141         146         145
         141         142         147         146
         142         143         148         147
         143         144         149         148
         150         151         156         155
         151         152         157         156
         152         153         158         157
         153         154         159         158
         155         156         161         160
         156         157         162         161
         157         158         163         162
         158         159         164         163
         160         161         166         165
         161         162         167         166
         162         163         168         167
         163         164         169         168
         165         166         171         170
         166         167         172         171
         167         168         173         172
         168         169         174         173
         175         176         181         180
         176         177         182         181
         177         178         183         182
         178         179         184         183
         180         181         186         185
         181         182         187         186
         182         183         188         187
         183         184         189         188
         185         186         191         190
         186         187         192         191
         187         188         193         192
         188         189         194         193
         190         191         196         195
         191         192         197         196
         192         193         198         197
         193         194         199         198
         200         201         206         205
         201         202         207         206
         202         203         208         207
         203         204         209         208
         205         206         211         210
         206         207         212         211
         207         208         213         212
         208         209         214         213
         210         211         216         215
         211         212         217         216
         212         213         218         217
         213         214         219         218
         215         216         221         220
         216         217         222         221
         217         218         223         222
         218         219         224         223
         225         226         231         230
         226         227         232         231
         227         228         233         232
         228         229         234         233
         230         231         236         235
         231         232         237         236
         232         233         238         237
         233         234         239         238
         235         236         241         240
         236         237         242         241
         237         238         243         242
         238         239         244         243
         240         241         246         245
         241         242         247         246
         242         243         248         247
         243         244         249         248
         250         251         256         255
         251         252         257         256
         252         253         258         257
         253         254         259         258
         255         256         261         260
         256         257         262         261
         257         258         263         262
         258         259         264         263
         260         261         266         265
         261         262         267         266
         262         263         268         267
         263         264         269         268
         265         266         271         270
         266         267         272         271
         267         268         273         272
         268         269         274         273
         275         276         281         280
         276         277         282         281
         277         278         283         282
         278         279         284         283
         280         281         286         285
         281         282         287         286
         282         283         288         287
         283         284         289         288
         285         286         291         290
         286         287         292         291
         287         288         293         292
         288         289         294         293
         290         291         296         295
         291         292         297         296
         292         293         298         297
         293         294         299         298
         300         301         306         305
         301         302         307         306
         302         303         308         307
         303         304         309         308
         305         306         311         310
         306         307         312         311
         307         308         313         312
         308         309         314         313
         310         311         316         315
         311         312         317         316
         312         313         318         317
         313         314         319         318
         315         316         321         320
         316         317         322         321
         317         318         323         322
         318         319         324         323
         325         326         331         330
         326         327         332         331
         327         328         333         332
         328         329         334         333
         330         331         336         335
         331         332         337         336
         332         333         338         337
         333         334         339         338
         335         336         341         340
         336         337         342         341
         337         338         343         342
         338         339         344         343
         340         341         346         345
         341         342         347         346
         342         343         348         347
         343         344         349         348
         350         351         356         355
         351         352         357         356
         352         353         358         357
         353         354         359         358
         355         356         361         360
         356         357         362         361
         357         358         363         362
         358         359         364         363
         360         361         366         365
         361         362         367         366
         362         363         368         367
         363         364         369         368
         365         366         371         370
         366         367         372         371
         367         368         373         372
         368         369         374         373
         375         376         381         380
         376         377         382         381
         377         378         383         382
         378         379         384         383
         380         381         386         385
         381         382         387         386
         382         383         388         387
         383         384         389         388
         385         386         391         390
         386         387         392         391
         387         388         393         392
         388         389         394         393
         390         391         396         395
         391         392         397         396
         392         393         398         397
         393         394         399         398
         400         401         406         405
         401         402         407         406
         402         403         408         407
         403         404         409         408
         405         406         411         410
         406         407         412         411
         407         408         413         412
         408         409         414         413
         410         411         416         415
         411         412         417         416
         412         413         418         417
         413         414         419         418
         415         416         421         420
         416         417         422         421
         417         418         423         422
         418         419         424         423
         425         426         431         430
         426         427         432         431
         427         428         433         432
         428         429         434         433
         430         431         436         435
         431         432         437         436
         432         433         438         437
         433         434         439         438
         435         436         441         440
         436         437         442         441
         437         438         443         442
         438         439         444         443
         440         441         446         445
         441         442         447         446
         442         443         448         447
         443         444         449         448
         450         451         456         455
         451         452         457         456
         452         453         458         457
         453         454         459         458
         455         456         461         460
         456         457         462         461
         457         458         463         462
         458         459         464         463
         460         461         466         465
         461         462         467         466
         462         463         468         467
         463         464         469         468
         465         466         471         470
         466         467         472         471
         467         468         473         472
         468         469         474         473
         475         476         481         480
         476         477         482         481
         477         478         483         482
         478         479         484         483
         480         481         486         485
         481         482         487         486
         482         483         488         487
         483         484         489         488
         485         486         491         490
         486         487         492         491
         487         488         493         492
         488         489         494         493
         490         491         496         495
         491         492         497         496
         492         493         498         497
         493         494         499         498
         500         501         506         505
         501         502         507         506
         502         503         508         507
         503         504         509         508
         505         506         511         510
         506         507         512         511
         507         508         513         512
         508         509         514         513
         510         511         516         515
         511         512         517         516
         512         513         518         517
         513         514         519         518
         515         516         521         520
         516         517         522         521
         517         518         523         522
         518         519         524         523
         525         526         531         530
         526         527         532         531
         527         528         533         532
         528         529         534         533
         530         531         536         535
         531         532         537         536
         532         533         538         537
         533         534         539         538
         535         536         541         540
         536         537         542         541
         537         538         543         542
         538         539         544         543
         540         541         546         545
         541         542         547         546
         542         543         548         547
         543         544         549         548
         550         551         556         555
         551         552         557         556
         552         553         558         557
         553         554         559         558
         555         556         561         560
         556         557         562         561
         557         558         563         562
         558         559         564         563
         560         561         566         565
         561         562         567         566
         562         563         568         567
         563         564         569         568
         565         566         571         570
         566         567         572         571
         567         568         573         572
         568         569         574         573
         575         576         581         580
         576         577         582         581
         577         578         583         582
         578         579         584         583
         580         581         586         585
         581         582         587         586
         582         583         588         587
         583         584         589         588
         585         586         591         590
         586         587         592         591
         587         588         593         592
         588         589         594         593
         590         591         596         595
         591         592         597         596
         592         593         598         597
         593         594         599         598
         600         601         606         605
         601         602         607         606
         602         603         608         607
         603         604         609         608
         605         606         611         610
         606         607         612         611
         607         608         613         612
         608         609         614         613
         610         611         616         615
         611         612         617         616
         612         613         618         617
         613         614         619         618
         615         616         621         620
         616         617         622         621
         617         618         623         622
         618         619         624         623
         625         626         631         630
         626         627         632         631
         627         628         633         632
         628         629         634         633
         630         631         636         635
         631         632         637         636
         632         633         638         637
         633         634         639         638
         635         636         641         640
         636         637         642         641
         637         638         643         642
         638         639         644         643
         640         641         646         645
         641         642         647         646
         642         643         648         647
         643         644         649         648
         650         651         656         655
         651         652         657         656
         652         653         658         657
         653         654         659         658
         655         656         661         660
         656         657         662         661
         657         658         663         662
         658         659         664         663
         660         661         666         665
         661         662         667         666
         662         663         668         667
         663         664         669         668
         665         666         671         670
         666         667         672         671
         667         668         673         672
         668         669         674         673
         675         676         681         680
         676         677         682         681
         677         678         683         682
         678         679         684         683
         680         681         686         685
         681         682         687         686
         682         683         688         687
         683         684         689         688
         685         686         691         690
         686         687         692         691
         687         688         693         692
         688         689         694         693
         690         691         696         695
         691         692         697         696
         692         693         698         697
         693         694         699         698
         700         701         706         705
         701         702         707         706
         702         703         708         707
         703         704         709         708
         705         706         711         710
         706         707         712         711
         707         708         713         712
         708         709         714         713
         710         711         716         715
         711         712         717         716
         712         713         718         717
         713         714         719         718
         715         716         721         720
         716         717         722         721
         717         718         723         722
         718         719         724         723
         725         726         731         730
         726         727         732         731
         727         728         733         732
         728         729         734         733
         730         731         736         735
         731         732         737         736
         732         733         738         737
         733         734         739         738
         735         736         741         740
         736         737         742         741
         737         738         743         742
         738         739         744         743
         740         741         746         745
         741         742         747         746
         742         743         748         747
         743         744         749         748
         750         751         756         755
         751         752         757         756
         752         753         758         757
         753         754         759         758
         755         756         761         760
         756         757         762         761
         757         758         763         762
         758         759         764         763
         760         761         766         765
         761         762         767         766
         762         763         768         767
         763         764         769         768
         765         766         771         770
         766         767         772         771
         767         768         773         772
         768         769         774         773
         775         776         781         780
         776         777         782         781
         777         778         783         782
         778         779         784         783
         780         781         786         785
         781         782         787         786
         782         783         788         787
         783         784         789         788
         785         786         791         790
         786         787         792         791
         787         788         793         792
         788         789         794         793
         790         791         796         795
         791         792         797         796
         792         793         798         797
         793         794         799         798
         800         801         806         805
         801         802         807         806
         802         803         808         807
         803         804         809         808
         805         806         811         810
         806         807         812         811
         807         808         813         812
         808         809         814         813
         810         811         816         815
         811         812         817         816
         812         813         818         817
         813         814         819         818
         815         816         821         820
         816         817         822         821
         817         818         823         822
         818         819         824         823
         825         826         831         830
         826         827         832         831
         827         828         833         832
         828         829         834         833
         830         831         836         835
         831         832         837         836
         832         833         838         837
         833         834         839         838
         835         836         841         840
         836         837         842         841
         837         838         843         842
         838         839         844         843
         840         841         846         845
         841         842         847         846
         842         843         848         847
         843         844         849         848
         850         851         856         855
         851         852         857         856
         852         853         858         857
         853         854         859         858
         855         856         861         860
         856         857         862         861
         857         858         863         862
         858         859         864         863
         860         861         866         865
         861         862         867         866
         862         863         868         867
         863         864         869         868
         865         866         871         870
         866         867         872         871
         867         868         873         872
         868         869         874         873
         875         876         881         880
         876         877         882         881
         877         878         883         882
         878         879         884         883
         880         881         886         885
         881         882         887         886
         882         883         888         887
         883         884         889         888
         885         886         891         890
         886         887         892         891
         887         888         893         892
         888         889         894         893
         890         891         896         895
         891         892         897         896
         892         893         898         897
         893         894         899         898
         900         901         906         905
         901         902         907         906
         902         903         908         907
         903         904         909         908
         905         906         911         910
         906         907         912         911
         907         908         913         912
         908         909         914         913
         910         911         916         915
         911         912         917         916
         912         913         918         917
         913         914         919         918
         915         916         921         920
         916         917         922         921
         917         918         923         922
         918         919         924         923
         925         926         931         930
         926         927         932         931
         927         928         933         932
         928         929         934         933
         930         931         936         935
         931         932         937         936
         932         933         938         937
         933         934         939         938
         935         936         941         940
         936         937         942         941
         937         938         943         942
         938         939         944         943
         940         941         946         945
         941         942         947         946
         942         943         948         947
         943         944         949         948
         950         951         956         955
         951         952         957         956
         952         953         958         957
         953         954         959         958
         955         956         961         960
         956         957         962         961
         957         958         963         962
         958         959         964         963
         960         961         966         965
         961         962         967         966
         962         963         968         967
         963         964         969         968
         965         966         971         970
         966         967         972         971
         967         968         973         972
         968         969         974         973
         975         976         981         980
         976         977         982         981
         977         978         983         982
         978         979         984         983
         980         981         986         985
         981         982         987         986
         982         983         988         987
         983         984         989         988
         985         986         991         990
         986         987         992         991
         987         988         993         992
         988         989         994         993
         990         991         996         995
         991         992         997         996
         992         993         998         997
         993         994         999         998
        1000        1001        1006        1005
        1001        1002        1007        1006
        1002        1003        1008        1007
        1003        1004        1009        1008
        1005        1006        1011        1010
        1006        1007        1012        1011
        1007        1008        1013        1012
        1008        1009        1014        1013
        1010        1011        1016        1015
        1011        1012        1017        1016
        1012        1013        1018        1017
        1013        1014        1019        1018
        1015        1016        1021        1020
        1016        1017        1022        1021
        1017        1018        1023        1022
        1018        1019        1024        1023
        1025        1026        1031        1030
        1026        1027        1032        1031
        1027        1028        1033        1032
        1028        1029        1034        1033
        1030        1031        1036        1035
        1031        1032        1037        1036
        1032        1033        1038        1037
        1033        1034        1039        1038
        1035        1036        1041        1040
        1036        1037        1042        1041
        1037        1038        1043        1042
        1038        1039        1044        1043
        1040        1041        1046        1045
        1041        1042        1047        1046
        1042        1043        1048        1047
        1043        1044        1049        1048
        1050        1051        1056        1055
        1051        1052        1057        1056
        1052        1053        1058        1057
        1053        1054        1059        1058
        1055        1056        1061        1060
        1056        1057        1062        1061
        1057        1058        1063        1062
        1058        1059        1064        1063
        1060        1061        1066        1065
        1061        1062        1067        1066
        1062        1063        1068        1067
        1063        1064        1069        1068
        1065        1066        1071        1070
        1066        1067        1072        1071
        1067        1068        1073        1072
        1068        1069        1074        1073
        1075        1076        1081        1080
        1076        1077        1082        1081
        1077        1078        1083        1082
        1078        1079        1084        1083
        1080        1081        1086        1085
        1081        1082        1087        1086
        1082        1083        1088        1087
        1083        1084        1089        1088
        1085        1086        1091        1090
        1086        1087        1092        1091
        1087        1088        1093        1092
        1088        1089        1094        1093
        1090        1091        1096        1095
        1091        1092        1097        1096
        1092        1093        1098        1097
        1093        1094        1099        1098
        1100        1101        1106        1105
        1101        1102        1107        1106
        1102        1103        1108        1107
        1103        1104        1109        1108
        1105        1106        1111        1110
        1106        1107        1112        1111
        1107        1108        1113        1112
        1108        1109        1114        1113
        1110        1111        1116        1115
        1111        1112        1117        1116
        1112        1113        1118        1117
        1113        1114        1119        1118
        1115        1116        1121        1120
        1116        1117        1122        1121
        1117        1118        1123        1122
        1118        1119        1124        1123
        1125        1126        1131        1130
        1126        1127        1132        1131
        1127        1128        1133        1132
        1128        1129        1134        1133
        1130        1131        1136        1135
        1131        1132        1137        1136
        1132        1133        1138        1137
        1133        1134        1139        1138
        1135        1136        1141        1140
        1136        1137        1142        1141
        1137        1138        1143        1142
        1138        1139        1144        1143
        1140        1141        1146        1145
        1141        1142        1147        1146
        1142        1143        1148        1147
        1143        1144        1149        1148
        1150        1151        1156        1155
        1151        1152        1157        1156
        1152        1153        1158        1157
        1153        1154        1159        1158
        1155        1156        1161        1160
        1156        1157        1162        1161
        1157        1158        1163        1162
        1158        1159        1164        1163
        1160        1161        1166        1165
        1161        1162        1167        1166
        1162        1163        1168        1167
        1163        1164        1169        1168
        1165        1166        1171        1170
        1166        1167        1172        1171
        1167        1168        1173        1172
        1168        1169        1174        1173
        1175        1176        1181        1180
        1176        1177        1182        1181
        1177        1178        1183        1182
        1178        1179        1184        1183
        1180        1181        1186        1185
        1181        1182        1187        1186
        1182        1183        1188        1187
        1183        1184        1189        1188
        1185        1186        1191        1190
        1186        1187        1192        1191
        1187        1188        1193        1192
        1188        1189        1194        1193
        1190        1191        1196        1195
        1191        1192        1197        1196
        1192        1193        1198        1197
        1193        1194        1199        1198
        1200        1201        1206        1205
        1201        1202        1207        1206
        1202        1203        1208        1207
        1203        1204        1209        1208
        1205        1206        1211        1210
        1206        1207        1212        1211
        1207        1208        1213        1212
        1208        1209        1214        1213
        1210        1211        1216        1215
        1211        1212        1217        1216
        1212        1213        1218        1217
        1213        1214        1219        1218
        1215        1216        1221        1220
        1216        1217        1222        1221
        1217        1218        1223        1222
        1218        1219        1224        1223
        1225        1226        1231        1230
        1226        1227        1232        1231
        1227        1228        1233        1232
        1228        1229        1234        1233
        1230        1231        1236        1235
        1231        1232        1237        1236
        1232        1233        1238        1237
        1233        1234        1239        1238
        1235        1236        1241        1240
        1236        1237        1242        1241
        1237        1238        1243        1242
        1238        1239        1244        1243
        1240        1241        1246        1245
        1241        1242        1247        1246
        1242        1243        1248        1247
        1243        1244        1249        1248
        1250        1251        1256        1255
        1251        1252        1257        1256
        1252        1253        1258        1257
        1253        1254        1259        1258
        1255        1256        1261        1260
        1256        1257        1262        1261
        1257        1258        1263        1262
        1258        1259        1264        1263
        1260        1261        1266        1265
        1261        1262        1267        1266
        1262        1263        1268        1267
        1263        1264        1269        1268
        1265        1266        1271        1270
        1266        1267        1272        1271
        1267        1268        1273        1272
        1268        1269        1274        1273
        1275        1276        1281        1280
        1276        1277        1282        1281
        1277        1278        1283        1282
        1278        1279        1284        1283
        1280        1281        1286        1285
        1281        1282        1287        1286
        1282        1283        1288        1287
        1283        1284        1289        1288
        1285        1286        1291        1290
        1286        1287        1292        1291
        1287        1288        1293        1292
        1288        1289        1294        1293
        1290        1291        1296        1295
        1291        1292        1297        1296
        1292        1293        1298        1297
        1293        1294        1299        1298
        1300        1301        1306        1305
        1301        1302        1307        1306
        1302        1303        1308        1307
        1303        1304        1309        1308
        1305        1306        1311        1310
        1306        1307        1312        1311
        1307        1308        1313        1312
        1308        1309        1314        1313
        1310        1311        1316        1315
        1311        1312        1317        1316
        1312        1313        1318        1317
        1313        1314        1319        1318
        1315        1316        1321        1320
        1316        1317        1322        1321
        1317        1318        1323        1322
        1318        1319        1324        1323
        1325        1326        1331        1330
        1326        1327        1332        1331
        1327        1328        1333        1332
        1328        1329        1334        1333
        1330        1331        1336        1335
        1331        1332        1337        1336
        1332        1333        1338        1337
        1333        1334        1339        1338
        1335        1336        1341        1340
        1336        1337        1342        1341
        1337        1338        1343        1342
        1338        1339        1344        1343
        1340        1341        1346        1345
        1341        1342        1347        1346
        1342        1343        1348        1347
        1343        1344        1349        1348
        1350        1351        1356        1355
        1351        1352        1357        1356
        1352        1353        1358        1357
        1353        1354        1359        1358
        1355        1356        1361        1360
        1356        1357        1362        1361
        1357        1358        1363        1362
        1358        1359        1364        1363
        1360        1361        1366        1365
        1361        1362        1367        1366
        1362        1363        1368        1367
        1363        1364        1369        1368
        1365        1366        1371        1370
        1366        1367        1372        1371
        1367        1368        1373        1372
        1368        1369        1374        1373
        1375        1376        1381        1380
        1376        1377        1382        1381
        1377        1378        1383        1382
        1378        1379        1384        1383
        1380        1381        1386        1385
        1381        1382        1387        1386
        1382        1383        1388        1387
        1383        1384        1389        1388
        1385        1386        1391        1390
        1386        1387        1392        1391
        1387        1388        1393        1392
        1388        1389        1394        1393
        1390        1391        1396        1395
        1391        1392        1397        1396
        1392        1393        1398        1397
        1393        1394        1399        1398
        1400        1401        1406        1405
        1401        1402        1407        1406
        1402        1403        1408        1407
        1403        1404        1409        1408
        1405        1406        1411        1410
        1406        1407        1412        1411
        1407        1408        1413        1412
        1408        1409        1414        1413
        1410        1411        1416        1415
        1411        1412        1417        1416
        1412        1413        1418        1417
        1413        1414        1419        1418
        1415        1416        1421        1420
        1416        1417        1422        1421
        1417        1418        1423        1422
        1418        1419        1424        1423
        1425        1426        1431        1430
        1426        1427        1432        1431
        1427        1428        1433        1432
        1428        1429        1434        1433
        1430        1431        1436        1435
        1431        1432        1437        1436
        1432        1433        1438        1437
        1433        1434        1439        1438
        1435        1436        1441        1440
        1436        1437        1442        1441
        1437        1438        1443        1442
        1438        1439        1444        1443
        1440        1441        1446        1445
        1441        1442        1447        1446
        1442        1443        1448        1447
        1443        1444        1449        1448
        1450        1451        1456        1455
        1451        1452        1457        1456
        1452        1453        1458        1457
        1453        1454        1459        1458
        1455        1456        1461        1460
        1456        1457        1462        1461
        1457        1458        1463        1462
        1458        1459        1464        1463
        1460        1461        1466        1465
        1461        1462        1467        1466
        1462        1463        1468        1467
        1463        1464        1469        1468
        1465        1466        1471        1470
        1466        1467        1472        1471
        1467        1468        1473        1472
        1468        1469        1474        1473
        1475        1476        1481        1480
        1476        1477        1482        1481
        1477        1478        1483        1482
        1478        1479        1484        1483
        1480        1481        1486        1485
        1481        1482        1487        1486
        1482        1483        1488        1487
        1483        1484        1489        1488
        1485        1486        1491        1490
        1486        1487        1492        1491
        1487        1488        1493        1492
        1488        1489        1494        1493
        1490        1491        1496        1495
        1491        1492        1497        1496
        1492        1493        1498        1497
        1493        1494        1499        1498
        1500        1501        1506        1505
        1501        1502        1507        1506
        1502        1503        1508        1507
        1503        1504        1509        1508
        1505        1506        1511        1510
        1506        1507        1512        1511
        1507        1508        1513        1512
        1508        1509        1514        1513
        1510        1511        1516        1515
        1511        1512        1517        1516
        1512        1513        1518        1517
        1513        1514        1519        1518
        1515        1516        1521        1520
        1516        1517        1522        1521
        1517        1518        1523        1522
        1518        1519        1524        1523
        1525        1526        1531        1530
        1526        1527        1532        1531
        1527        1528        1533        1532
        1528        1529        1534        1533
        1530        1531        1536        1535
        1531        1532        1537        1536
        1532        1533        1538        1537
        1533        1534        1539        1538
        1535        1536        1541        1540
        1536        1537        1542        1541
        1537        1538        1543        1542
        1538        1539        1544        1543
        1540        1541        1546        1545
        1541        1542        1547        1546
        1542        1543        1548        1547
        1543        1544        1549        1548
        1550        1551        1556        1555
        1551        1552        1557        1556
        1552        1553        1558        1557
        1553        1554        1559        1558
        1555        1556        1561        1560
        1556        1557        1562        1561
        1557        1558        1563        1562
        1558        1559        1564        1563
        1560        1561        1566        1565
        1561        1562        1567        1566
        1562        1563        1568        1567
        1563        1564        1569        1568
        1565        1566        1571        1570
        1566        1567        1572        1571
        1567        1568        1573        1572
        1568        1569        1574        1573
        1575        1576        1581        1580
        1576        1577        1582        1581
        1577        1578        1583        1582
        1578        1579        1584        1583
        1580        1581        1586        1585
        1581        1582        1587        1586
        1582        1583        1588        1587
        1583        1584        1589        1588
        1585        1586        1591        1590
        1586        1587        1592        1591
        1587        1588        1593        1592
        1588        1589        1594        1593
        1590        1591        1596        1595
        1591        1592        1597        1596
        1592        1593        1598        1597
        1593        1594        1599        1598
 </DataArray>
 <DataArray  type="Int32"  Name="offsets"  format="ascii"> 
           4
           8
          12
          16
          20
          24
          28
          32
          36
          40
          44
          48
          52
          56
          60
          64
          68
          72
          76
          80
          84
          88
          92
          96
         100
         104
         108
         112
         116
         120
         124
         128
         132
         136
         140
         144
         148
         152
         156
         160
         164
         168
         172
         176
         180
         184
         188
         192
         196
         200
         204
         208
         212
         216
         220
         224
         228
         232
         236
         240
         244
         248
         252
         256
         260
         264
         268
         272
         276
         280
         284
         288
         292
         296
         300
         304
         308
         312
         316
         320
         324
         328
         332
         336
         340
         344
         348
         352
         356
         360
         364
         368
         372
         376
         380
         384
         388
         392
         396
         400
         404
         408
         412
         416
         420
         424
         428
         432
         436
         440
         444
         448
         452
         456
         460
         464
         468
         472
         476
         480
         484
         488
         492
         496
         500
         504
         508
         512
         516
         520
         524
         528
         532
         536
         540
         544
         548
         552
         556
         560
         564
         568
         572
         576
         580
         584
         588
         592
         596
         600
         604
         608
         612
         616
         620
         624
         628
         632
         636
         640
         644
         648
         652
         656
         660
         664
         668
         672
         676
         680
         684
         688
         692
         696
         700
         704
         708
         712
         716
         720
         724
         728
         732
         736
         740
         744
         748
         752
         756
         760
         764
         768
         772
         776
         780
         784
         788
         792
         796
         800
         804
         808
         812
         816
         820
         824
         828
         832
         836
         840
         844
         848
         852
         856
         860
         864
         868
         872
         876
         880
         884
         888
         892
         896
         900
         904
         908
         912
         916
         920
         924
         928
         932
         936
         940
         944
         948
         952
         956
         960
         964
         968
         972
         976
         980
         984
         988
         992
         996
        1000
        1004
        1008
        1012
        1016
        1020
        1024
        1028
        1032
        1036
        1040
        1044
        1048
        1052
        1056
        1060
        1064
        1068
        1072
        1076
        1080
        1084
        1088
        1092
        1096
        1100
        1104
        1108
        1112
        1116
        1120
        1124
        1128
        1132
        1136
        1140
        1144
        1148
        1152
        1156
        1160
        1164
        1168
        1172
        1176
        1180
        1184
        1188
        1192
        1196
        1200
        1204
        1208
        1212
        1216
        1220
        1224
        1228
        1232
        1236
        1240
        1244
        1248
        1252
        1256
        1260
        1264
        1268
        1272
        1276
        1280
        1284
        1288
        1292
        1296
        1300
        1304
        1308
        1312
        1316
        1320
        1324
        1328
        1332
        1336
        1340
        1344
        1348
        1352
        1356
        1360
        1364
        1368
        1372
        1376
        1380
        1384
        1388
        1392
        1396
        1400
        1404
        1408
        1412
        1416
        1420
        1424
        1428
        1432
        1436
        1440
        1444
        1448
        1452
        1456
        1460
        1464
        1468
        1472
        1476
        1480
        1484
        1488
        1492
        1496
        1500
        1504
        1508
        1512
        1516
        1520
        1524
        1528
        1532
        1536
        1540
        1544
        1548
        1552
        1556
        1560
        1564
        1568
        1572
        1576
        1580
        1584
        1588
        1592
        1596
        1600
        1604
        1608
        1612
        1616
        1620
        1624
        1628
        1632
        1636
        1640
        1644
        1648
        1652
        1656
        1660
        1664
        1668
        1672
        1676
        1680
        1684
        1688
        1692
        1696
        1700
        1704
        1708
        1712
        1716
        1720
        1724
        1728
        1732
        1736
        1740
        1744
        1748
        1752
        1756
        1760
        1764
        1768
        1772
        1776
        1780
        1784
        1788
        1792
        1796
        1800
        1804
        1808
        1812
        1816
        1820
        1824
        1828
        1832
        1836
        1840
        1844
        1848
        1852
        1856
        1860
        1864
        1868
        1872
        1876
        1880
        1884
        1888
        1892
        1896
        1900
        1904
        1908
        1912
        1916
        1920
        1924
        1928
        1932
        1936
        1940
        1944
        1948
        1952
        1956
        1960
        1964
        1968
        1972
        1976
        1980
        1984
        1988
        1992
        1996
        2000
        2004
        2008
        2012
        2016
        2020
        2024
        2028
        2032
        2036
        2040
        2044
        2048
        2052
        2056
        2060
        2064
        2068
        2072
        2076
        2080
        2084
        2088
        2092
        2096
        2100
        2104
        2108
        2112
        2116
        2120
        2124
        2128
        2132
        2136
        2140
        2144
        2148
        2152
        2156
        2160
        2164
        2168
        2172
        2176
        2180
        2184
        2188
        2192
        2196
        2200
        2204
        2208
        2212
        2216
        2220
        2224
        2228
        2232
        2236
        2240
        2244
        2248
        2252
        2256
        2260
        2264
        2268
        2272
        2276
        2280
        2284
        2288
        2292
        2296
        2300
        2304
        2308
        2312
        2316
        2320
        2324
        2328
        2332
        2336
        2340
        2344
        2348
        2352
        2356
        2360
        2364
        2368
        2372
        2376
        2380
        2384
        2388
        2392
        2396
        2400
        2404
        2408
        2412
        2416
        2420
        2424
        2428
        2432
        2436
        2440
        2444
        2448
        2452
        2456
        2460
        2464
        2468
        2472
        2476
        2480
        2484
        2488
        2492
        2496
        2500
        2504
        2508
        2512
        2516
        2520
        2524
        2528
        2532
        2536
        2540
        2544
        2548
        2552
        2556
        2560
        2564
        2568
        2572
        2576
        2580
        2584
        2588
        2592
        2596
        2600
        2604
        2608
        2612
        2616
        2620
        2624
        2628
        2632
        2636
        2640
        2644
        2648
        2652
        2656
        2660
        2664
        2668
        2672
        2676
        2680
        2684
        2688
        2692
        2696
        2700
        2704
        2708
        2712
        2716
        2720
        2724
        2728
        2732
        2736
        2740
        2744
        2748
        2752
        2756
        2760
        2764
        2768
        2772
        2776
        2780
        2784
        2788
        2792
        2796
        2800
        2804
        2808
        2812
        2816
        2820
        2824
        2828
        2832
        2836
        2840
        2844
        2848
        2852
        2856
        2860
        2864
        2868
        2872
        2876
        2880
        2884
        2888
        2892
        2896
        2900
        2904
        2908
        2912
        2916
        2920
        2924
        2928
        2932
        2936
        2940
        2944
        2948
        2952
        2956
        2960
        2964
        2968
        2972
        2976
        2980
        2984
        2988
        2992
        2996
        3000
        3004
        3008
        3012
        3016
        3020
        3024
        3028
        3032
        3036
        3040
        3044
        3048
        3052
        3056
        3060
        3064
        3068
        3072
        3076
        3080
        3084
        3088
        3092
        3096
        3100
        3104
        3108
        3112
        3116
        3120
        3124
        3128
        3132
        3136
        3140
        3144
        3148
        3152
        3156
        3160
        3164
        3168
        3172
        3176
        3180
        3184
        3188
        3192
        3196
        3200
        3204
        3208
        3212
        3216
        3220
        3224
        3228
        3232
        3236
        3240
        3244
        3248
        3252
        3256
        3260
        3264
        3268
        3272
        3276
        3280
        3284
        3288
        3292
        3296
        3300
        3304
        3308
        3312
        3316
        3320
        3324
        3328
        3332
        3336
        3340
        3344
        3348
        3352
        3356
        3360
        3364
        3368
        3372
        3376
        3380
        3384
        3388
        3392
        3396
        3400
        3404
        3408
        3412
        3416
        3420
        3424
        3428
        3432
        3436
        3440
        3444
        3448
        3452
        3456
        3460
        3464
        3468
        3472
        3476
        3480
        3484
        3488
        3492
        3496
        3500
        3504
        3508
        3512
        3516
        3520
        3524
        3528
        3532
        3536
        3540
        3544
        3548
        3552
        3556
        3560
        3564
        3568
        3572
        3576
        3580
        3584
        3588
        3592
        3596
        3600
        3604
        3608
        3612
        3616
        3620
        3624
        3628
        3632
        3636
        3640
        3644
        3648
        3652
        3656
        3660
        3664
        3668
        3672
        3676
        3680
        3684
        3688
        3692
        3696
        3700
        3704
        3708
        3712
        3716
        3720
        3724
        3728
        3732
        3736
        3740
        3744
        3748
        3752
        3756
        3760
        3764
        3768
        3772
        3776
        3780
        3784
        3788
        3792
        3796
        3800
        3804
        3808
        3812
        3816
        3820
        3824
        3828
        3832
        3836
        3840
        3844
        3848
        3852
        3856
        3860
        3864
        3868
        3872
        3876
        3880
        3884
        3888
        3892
        3896
        3900
        3904
        3908
        3912
        3916
        3920
        3924
        3928
        3932
        3936
        3940
        3944
        3948
        3952
        3956
        3960
        3964
        3968
        3972
        3976
        3980
        3984
        3988
        3992
        3996
        4000
        4004
        4008
        4012
        4016
        4020
        4024
        4028
        4032
        4036
        4040
        4044
        4048
        4052
        4056
        4060
        4064
        4068
        4072
        4076
        4080
        4084
        4088
        4092
        4096
 </DataArray>
 <DataArray  type="UInt8"  Name="types"  format="ascii">
 9
 9
 9
 9
 9
 9
 9
 9
 9
 9
 9
 9
 9
 9
 9
 9
 9
 9
 9
 9
 9
 9
 9
 9
 9
 9
 9
 9
 9
 9
 9
 9
 9
 9
 9
 9
 9
 9
 9
 9
 9
 9
 9
 9
 9
 9
 9
 9
 9
 9
 9
 9
 9
 9
 9
 9
 9
 9
 9
 9
 9
 9
 9
 9
 9
 9
 9
 9
 9
 9
 9
 9
 9
 9
 9
 9
 9
 9
 9
 9
 9
 9
 9
 9
 9
 9
 9
 9
 9
 9
 9
 9
 9
 9
 9
 9
 9
 9
 9
 9
 9
 9
 9
 9
 9
 9
 9
 9
 9
 9
 9
 9
 9
 9
 9
 9
 9
 9
 9
 9
 9
 9
 9
 9
 9
 9
 9
 9
 9
 9
 9
 9
 9
 9
 9
 9
 9
 9
 9
 9
 9
 9
 9
 9
 9
 9
 9
 9
 9
 9
 9
 9
 9
 9
 9
 9
 9
 9
 9
 9
 9
 9
 9
 9
 9
 9
 9
 9
 9
 9
 9
 9
 9
 9
 9
 9
 9
 9
 9
 9
 9
 9
 9
 9
 9
 9
 9
 9
 9
 9
 9
 9
 9
 9
 9
 9
 9
 9
 9
 9
 9
 9
 9
 9
 9
 9
 9
 9
 9
 9
 9
 9
 9
 9
 9
 9
 9
 9
 9
 9
 9
 9
 9
 9
 9
 9
 9
 9
 9
 9
 9
 9
 9
 9
 9
 9
 9
 9
 9
 9
 9
 9
 9
 9
 9
 9
 9
 9
 9
 9
 9
 9
 9
 9
 9
 9
 9
 9
 9
 9
 9
 9
 9
 9
 9
 9
 9
 9
 9
 9
 9
 9
 9
 9
 9
 9
 9
 9
 9
 9
 9
 9
 9
 9
 9
 9
 9
 9
 9
 9
 9
 9
 9
 9
 9
 9
 9
 9
 9
 9
 9
 9
 9
 9
 9
 9
 9
 9
 9
 9
 9
 9
 9
 9
 9
 9
 9
 9
 9
 9
 9
 9
 9
 9
 9
 9
 9
 9
 9
 9
 9
 9
 9
 9
 9
 9
 9
 9
 9
 9
 9
 9
 9
 9
 9
 9
 9
 9
 9
 9
 9
 9
 9
 9
 9
 9
 9
 9
 9
 9
 9
 9
 9
 9
 9
 9
 9
 9
 9
 9
 9
 9
 9
 9
 9
 9
 9
 9
 9
 9
 9
 9
 9
 9
 9
 9
 9
 9
 9
 9
 9
 9
 9
 9
 9
 9
 9
 9
 9
 9
 9
 9
 9
 9
 9
 9
 9
 9
 9
 9
 9
 9
 9
 9
 9
 9
 9
 9
 9
 9
 9
 9
 9
 9
 9
 9
 9
 9
 9
 9
 9
 9
 9
 9
 9
 9
 9
 9
 9
 9
 9
 9
 9
 9
 9
 9
 9
 9
 9
 9
 9
 9
 9
 9
 9
 9
 9
 9
 9
 9
 9
 9
 9
 9
 9
 9
 9
 9
 9
 9
 9
 9
 9
 9
 9
 9
 9
 9
 9
 9
 9
 9
 9
 9
 9
 9
 9
 9
 9
 9
 9
 9
 9
 9
 9
 9
 9
 9
 9
 9
 9
 9
 9
 9
 9
 9
 9
 9
 9
 9
 9
 9
 9
 9
 9
 9
 9
 9
 9
 9
 9
 9
 9
 9
 9
 9
 9
 9
 9
 9
 9
 9
 9
 9
 9
 9
 9
 9
 9
 9
 9
 9
 9
 9
 9
 9
 9
 9
 9
 9
 9
 9
 9
 9
 9
 9
 9
 9
 9
 9
 9
 9
 9
 9
 9
 9
 9
 9
 9
 9
 9
 9
 9
 9
 9
 9
 9
 9
 9
 9
 9
 9
 9
 9
 9
 9
 9
 9
 9
 9
 9
 9
 9
 9
 9
 9
 9
 9
 9
 9
 9
 9
 9
 9
 9
 9
 9
 9
 9
 9
 9
 9
 9
 9
 9
 9
 9
 9
 9
 9
 9
 9
 9
 9
 9
 9
 9
 9
 9
 9
 9
 9
 9
 9
 9
 9
 9
 9
 9
 9
 9
 9
 9
 9
 9
 9
 9
 9
 9
 9
 9
 9
 9
 9
 9
 9
 9
 9
 9
 9
 9
 9
 9
 9
 9
 9
 9
 9
 9
 9
 9
 9
 9
 9
 9
 9
 9
 9
 9
 9
 9
 9
 9
 9
 9
 9
 9
 9
 9
 9
 9
 9
 9
 9
 9
 9
 9
 9
 9
 9
 9
 9
 9
 9
 9
 9
 9
 9
 9
 9
 9
 9
 9
 9
 9
 9
 9
 9
 9
 9
 9
 9
 9
 9
 9
 9
 9
 9
 9
 9
 9
 9
 9
 9
 9
 9
 9
 9
 9
 9
 9
 9
 9
 9
 9
 9
 9
 9
 9
 9
 9
 9
 9
 9
 9
 9
 9
 9
 9
 9
 9
 9
 9
 9
 9
 9
 9
 9
 9
 9
 9
 9
 9
 9
 9
 9
 9
 9
 9
 9
 9
 9
 9
 9
 9
 9
 9
 9
 9
 9
 9
 9
 9
 9
 9
 9
 9
 9
 9
 9
 9
 9
 9
 9
 9
 9
 9
 9
 9
 9
 9
 9
 9
 9
 9
 9
 9
 9
 9
 9
 9
 9
 9
 9
 9
 9
 9
 9
 9
 9
 9
 9
 9
 9
 9
 9
 9
 9
 9
 9
 9
 9
 9
 9
 9
 9
 9
 9
 9
 9
 9
 9
 9
 9
 9
 9
 9
 9
 9
 9
 9
 9
 9
 9
 9
 9
 9
 9
 9
 9
 9
 9
 9
 9
 9
 9
 9
 9
 9
 9
 9
 9
 9
 9
 9
 9
 9
 9
 9
 9
 9
 9
 9
 9
 9
 9
 9
 9
 9
 9
 9
 9
 9
 9
 9
 9
 9
 9
 9
 9
 9
 9
 9
 9
 9
 9
 9
 9
 9
 9
 9
 9
 9
 9
 9
 9
 9
 9
 9
 9
 9
 9
 9
 9
 9
 9
 9
 9
 9
 9
 9
 9
 9
 9
 9
 9
 9
 9
 9
 9
 9
 9
 9
 9
 9
 9
 9
 9
 9
 9
 9
 9
 9
 9
 9
 9
 9
 9
 9
 9
 9
 9
 9
 9
 9
 9
 9
 9
 9
 9
 9
 9
 9
 9
 9
 9
 9
 9
 9
 9
 9
 9
 9
 9
 9
 9
 9
 9
 9
 9
 9
 9
 9
 9
 9
 9
 9
 9
 9
 9
 9
 9
 9
 9
 9
 9
 9
 9
 9
 9
 9
 9
 9
 9
 </DataArray>
 </Cells> 
 <PointData>
 <DataArray  type="Float64" Name="disp" NumberOfComponents="3" format="ascii">
   6.5243825021847029E-002   6.2787832814458377E-002   0.0000000000000000     
   6.8360169518751124E-002   6.8173654024577562E-002   0.0000000000000000     
   7.1357058818779545E-002   7.3738921044848194E-002   0.0000000000000000     
   7.4234492921932335E-002   7.9483633875270313E-002   0.0000000000000000     
   7.6992471828209452E-002   8.5407792515843878E-002   0.0000000000000000     
   6.0188373655210757E-002   6.1885948456559869E-002   0.0000000000000000     
   6.3089751808487221E-002   6.7296967257174073E-002   0.0000000000000000     
   6.5882646191929128E-002   7.2888784296154308E-002   0.0000000000000000     
   6.8567056805536500E-002   7.8661399573500573E-002   0.0000000000000000     
   7.1142983649309294E-002   8.4614813089212870E-002   0.0000000000000000     
   5.5258672719805460E-002   6.1039813085924176E-002   0.0000000000000000     
   5.7957691651064722E-002   6.6475827518190339E-002   0.0000000000000000     
   6.0557244354576170E-002   7.2093337854609918E-002   0.0000000000000000     
   6.3057330830339806E-002   7.7892344095182878E-002   0.0000000000000000     
   6.5457951078355628E-002   8.3872846239909205E-002   0.0000000000000000     
   5.0454722215631131E-002   6.0249426702551317E-002   0.0000000000000000     
   5.2963989046483577E-002   6.5710234807626389E-002   0.0000000000000000     
   5.5380853306720622E-002   7.1352581720215025E-002   0.0000000000000000     
   5.7705314996342245E-002   7.7176467440317184E-002   0.0000000000000000     
   5.9937374115348482E-002   8.3181891967932908E-002   0.0000000000000000     
   4.5776522142687778E-002   5.9514789306441281E-002   0.0000000000000000     
   4.8108643994743822E-002   6.5000189125482194E-002   0.0000000000000000     
   5.0353473048362511E-002   7.0666515892969628E-002   0.0000000000000000     
   5.2511009303543847E-002   7.6513769608903548E-002   0.0000000000000000     
   5.4581252760287823E-002   8.2541950273283982E-002   0.0000000000000000     
   7.6992471828209452E-002   8.5407792515843878E-002   0.0000000000000000     
   7.9649220663946627E-002   9.1500951714506895E-002   0.0000000000000000     
   8.2222964555479561E-002   9.7752666219197384E-002   0.0000000000000000     
   8.4713703502808227E-002  0.10416293602991533        0.0000000000000000     
   8.7121437505932639E-002  0.11073176114666072        0.0000000000000000     
   7.1142983649309294E-002   8.4614813089212870E-002   0.0000000000000000     
   7.3626579064339101E-002   9.0737524720201440E-002   0.0000000000000000     
   7.6033995391717471E-002   9.7018034343376552E-002   0.0000000000000000     
   7.8365232631444445E-002  0.10345634195873821        0.0000000000000000     
   8.0620290783519968E-002  0.11005244756628640        0.0000000000000000     
   6.5457951078355628E-002   8.3872846239909205E-002   0.0000000000000000     
   6.7773576773761904E-002   9.0022777237783999E-002   0.0000000000000000     
   7.0018679591696900E-002   9.6330070037802334E-002   0.0000000000000000     
   7.2193259532160589E-002  0.10279472463996416        0.0000000000000000     
   7.4297316595152985E-002  0.10941674104426953        0.0000000000000000     
   5.9937374115348482E-002   8.3181891967932908E-002   0.0000000000000000     
   6.2090213792215056E-002   8.9356709267254628E-002   0.0000000000000000     
   6.4177017155417793E-002   9.5688773302474703E-002   0.0000000000000000     
   6.6197784204956645E-002  0.10217808407359320        0.0000000000000000     
   6.8152514940831646E-002  0.10882464158061009        0.0000000000000000     
   5.4581252760287823E-002   8.2541950273283982E-002   0.0000000000000000     
   5.6576490119698557E-002   8.8739320808613242E-002   0.0000000000000000     
   5.8509008082880162E-002   9.5094144137393699E-002   0.0000000000000000     
   6.0378806649832639E-002  0.10160642025962530        0.0000000000000000     
   6.2185885820555994E-002  0.10827614917530809        0.0000000000000000     
   8.7121437505932639E-002  0.11073176114666072        0.0000000000000000     
   8.9435387357131121E-002  0.11744647660943679        0.0000000000000000     
   9.1644773848681971E-002  0.12429441745824669        0.0000000000000000     
   9.3749596980585187E-002  0.13127558369309048        0.0000000000000000     
   9.5749856752840784E-002  0.13838997531396807        0.0000000000000000     
   8.0620290783519968E-002  0.11005244756628640        0.0000000000000000     
   8.2788243326151520E-002  0.11679421227182651        0.0000000000000000     
   8.4858163737546538E-002  0.12366949718116392        0.0000000000000000     
   8.6830052017705023E-002  0.13067830229429861        0.0000000000000000     
   8.8703908166626974E-002  0.13782062761123060        0.0000000000000000     
   7.4297316595152985E-002  0.10941674104426953        0.0000000000000000     
   7.6320251553411739E-002  0.11618429211596916        0.0000000000000000     
   7.8251465179674518E-002  0.12308555072031378        0.0000000000000000     
   8.0090957473941321E-002  0.13012051685730344        0.0000000000000000     
   8.1838728436212163E-002  0.13728919052693811        0.0000000000000000     
   6.8152514940831646E-002  0.10882464158061009        0.0000000000000000     
   7.0031412038911736E-002  0.11561671614186468        0.0000000000000000     
   7.1824678175065881E-002  0.12254257807569632        0.0000000000000000     
   7.3532313349294082E-002  0.12960222738210503        0.0000000000000000     
   7.5154317561596337E-002  0.13679566406109073        0.0000000000000000     
   6.2185885820555994E-002  0.10827614917530809        0.0000000000000000     
   6.3921724782651554E-002  0.11509148434951312        0.0000000000000000     
   6.5577802723720657E-002  0.12204057924731153        0.0000000000000000     
   6.7154119643763319E-002  0.12912343386870329        0.0000000000000000     
   6.8650675542779538E-002  0.13634004821368839        0.0000000000000000     
   9.5749856752840784E-002  0.13838997531396807        0.0000000000000000     
   9.7653364219735889E-002  0.14562604792394965        0.0000000000000000     
   9.9467930435557683E-002  0.15297225712610524        0.0000000000000000     
  0.10119355540030614       0.16042860292043482        0.0000000000000000     
  0.10283023911398130       0.16799508530693841        0.0000000000000000     
   8.8703908166626974E-002  0.13782062761123060        0.0000000000000000     
   9.0486680823935253E-002  0.14508441844506559        0.0000000000000000     
   9.2185318629252791E-002  0.15245762010890929        0.0000000000000000     
   9.3799821582579546E-002  0.15994023260276172        0.0000000000000000     
   9.5330189683915531E-002  0.16753225592662291        0.0000000000000000     
   8.1838728436212163E-002  0.13728919052693811        0.0000000000000000     
   8.3500928487123496E-002  0.14457924425087126        0.0000000000000000     
   8.5083708047311885E-002  0.15197835055075640        0.0000000000000000     
   8.6587067116777286E-002  0.15948650942659340        0.0000000000000000     
   8.8011005695519701E-002  0.16710372087838238        0.0000000000000000     
   7.5154317561596337E-002  0.13679566406109073        0.0000000000000000     
   7.6696107209300646E-002  0.14411052534136676        0.0000000000000000     
   7.8163098689734992E-002  0.15153444845164654        0.0000000000000000     
   7.9555292002899361E-002  0.15906743339192989        0.0000000000000000     
   8.0872687148793809E-002  0.16670948016221690        0.0000000000000000     
   6.8650675542779538E-002  0.13634004821368839        0.0000000000000000     
   7.0072216990466660E-002  0.14367826171655210        0.0000000000000000     
   7.1423490556522085E-002  0.15112591381157967        0.0000000000000000     
   7.2704496240945798E-002  0.15868300449877110        0.0000000000000000     
   7.3915234043737815E-002  0.16634953377812642        0.0000000000000000     
  0.10283023911398130       0.16799508530693841        0.0000000000000000     
  0.10437884930309928       0.17566144390384003        0.0000000000000000     
  0.10584025369417627       0.18341741832936365        0.0000000000000000     
  0.10721445228721226       0.19126300858350920        0.0000000000000000     
  0.10850144508220724       0.19919821466627674        0.0000000000000000     
   9.5330189683915531E-002  0.16753225592662291        0.0000000000000000     
   9.6776481937267622E-002  0.17522406114903338        0.0000000000000000     
   9.8138757346642624E-002  0.18300601933853380        0.0000000000000000     
   9.9417015912040579E-002  0.19087813049512412        0.0000000000000000     
  0.10061125763346146       0.19884039461880440        0.0000000000000000     
   8.8011005695519701E-002  0.16710372087838238        0.0000000000000000     
   8.9354798357771589E-002  0.17482060811887723        0.0000000000000000     
   9.0617719677765399E-002  0.18262779436083196        0.0000000000000000     
   9.1799769655501129E-002  0.19052527960424656        0.0000000000000000     
   9.2900948290978766E-002  0.19851306384912093        0.0000000000000000     
   8.0872687148793809E-002  0.16670948016221690        0.0000000000000000     
   8.2113798564611221E-002  0.17445108481337160        0.0000000000000000     
   8.3277140687544576E-002  0.18228274339625811        0.0000000000000000     
   8.4362713517593932E-002  0.19020445591087634        0.0000000000000000     
   8.5370517054759204E-002  0.19821622235722638        0.0000000000000000     
   7.3915234043737815E-002  0.16634953377812642        0.0000000000000000     
   7.5053482557786502E-002  0.17411549123251649        0.0000000000000000     
   7.6117020375980213E-002  0.18197086644481222        0.0000000000000000     
   7.7105847498318961E-002  0.18991565941501362        0.0000000000000000     
   7.8019963924802746E-002  0.19794987014312077        0.0000000000000000     
  0.10850144508220724       0.19919821466627674        0.0000000000000000     
  0.10970741066080969       0.20721885854594507        0.0000000000000000     
  0.11083852760466809       0.21532076219079305        0.0000000000000000     
  0.11189479591378243       0.22350392560082052        0.0000000000000000     
  0.11287621558815270       0.23176834877602764        0.0000000000000000     
  0.10061125763346146       0.19884039461880440        0.0000000000000000     
  0.10172704152899655       0.20688631693560799        0.0000000000000000     
  0.10276992661673719       0.21500940267156843        0.0000000000000000     
  0.10373991289668334       0.22320965182668562        0.0000000000000000     
  0.10463700036883503       0.23148706440095962        0.0000000000000000     
   9.2900948290978766E-002  0.19851306384912093        0.0000000000000000     
   9.3925699262794204E-002  0.20658339133771147        0.0000000000000000     
   9.4878466249543242E-002  0.21472850631227453        0.0000000000000000     
   9.5759249251225934E-002  0.22294840877281005        0.0000000000000000     
   9.6568048267842224E-002  0.23124309871931806        0.0000000000000000     
   8.5370517054759204E-002  0.19821622235722638        0.0000000000000000     
   8.6303383862202571E-002  0.20631008175225563        0.0000000000000000     
   8.7164146503086237E-002  0.21447807311291148        0.0000000000000000     
   8.7952804977410148E-002  0.22272019643919383        0.0000000000000000     
   8.8669359285174276E-002  0.23103645173110290        0.0000000000000000     
   7.8019963924802746E-002  0.19794987014312077        0.0000000000000000     
   7.8860095327221741E-002  0.20606638817924031        0.0000000000000000     
   7.9626967377366159E-002  0.21425810307347906        0.0000000000000000     
   8.0320580075235973E-002  0.22252501482583703        0.0000000000000000     
   8.0940933420831196E-002  0.23086712343631421        0.0000000000000000     
  0.11287621558815270       0.23176834877602764        0.0000000000000000     
  0.11381071459259284       0.24013092634487104        0.0000000000000000     
  0.11472622089191682       0.24860855293580739        0.0000000000000000     
  0.11562273448612460       0.25720122854883665        0.0000000000000000     
  0.11650025537521622       0.26590895318395885        0.0000000000000000     
  0.10463700036883503       0.23148706440095962        0.0000000000000000     
  0.10546610045274651       0.23986538173164607        0.0000000000000000     
  0.10623212456797206       0.24836834515600051        0.0000000000000000     
  0.10693507271451166       0.25699595467402297        0.0000000000000000     
  0.10757494489236533       0.26574821028571355        0.0000000000000000     
   9.6568048267842224E-002  0.23124309871931806        0.0000000000000000     
   9.7295678248708509E-002  0.23963923159564474        0.0000000000000000     
   9.7932954143141085E-002  0.24816346284563634        0.0000000000000000     
   9.8479875951139981E-002  0.25681579246929298        0.0000000000000000     
   9.8936443672705182E-002  0.26559622046661446        0.0000000000000000     
   8.8669359285174276E-002  0.23103645173110290        0.0000000000000000     
   8.9299447980478841E-002  0.23945247593686705        0.0000000000000000     
   8.9828709617423924E-002  0.24799390600471494        0.0000000000000000     
   9.0257144196009567E-002  0.25666074193464650        0.0000000000000000     
   9.0584751716235715E-002  0.26545298372666171        0.0000000000000000     
   8.0940933420831196E-002  0.23086712343631421        0.0000000000000000     
   8.1477409648057497E-002  0.23930511475531313        0.0000000000000000     
   8.1919390990820573E-002  0.24785967463323627        0.0000000000000000     
   8.2266877449120410E-002  0.25653080307008364        0.0000000000000000     
   8.2519869022956993E-002  0.26531850006585522        0.0000000000000000     
  0.11650025537521622       0.26590895318395885        0.0000000000000000     
  0.11729913217098276       0.27489620354653937        0.0000000000000000     
  0.11795971348521533       0.28432745634194356        0.0000000000000000     
  0.11848199931791395       0.29420271157017136        0.0000000000000000     
  0.11886598966907860       0.30452196923122282        0.0000000000000000     
  0.10757494489236533       0.26574821028571355        0.0000000000000000     
  0.10813275068249135       0.27475717518204545        0.0000000000000000     
  0.10858949966584799       0.28415491255399211        0.0000000000000000     
  0.10894519184243530       0.29394142240155363        0.0000000000000000     
  0.10919982721225321       0.30411670472472979        0.0000000000000000     
   9.8936443672705182E-002  0.26559622046661446        0.0000000000000000     
   9.9313663198768831E-002  0.27460299544994726        0.0000000000000000     
   9.9622540420263195E-002  0.28393436603163780        0.0000000000000000     
   9.9863075337188231E-002  0.29359033221168590        0.0000000000000000     
  0.10003526794954395       0.30357089399009179        0.0000000000000000     
   9.0584751716235715E-002  0.26545298372666171        0.0000000000000000     
   9.0841869719815241E-002  0.27443366435024491        0.0000000000000000     
   9.1058835748460923E-002  0.28366581677488051        0.0000000000000000     
   9.1235649802172775E-002  0.29314944100056844        0.0000000000000000     
   9.1372311880950796E-002  0.30288453702730878        0.0000000000000000     
   8.2519869022956993E-002  0.26531850006585522        0.0000000000000000     
   8.2717370245630528E-002  0.27424918188293834        0.0000000000000000     
   8.2898385650441150E-002  0.28334926478372030        0.0000000000000000     
   8.3062915237388901E-002  0.29261874876820104        0.0000000000000000     
   8.3210959006473767E-002  0.30205763383638073        0.0000000000000000     
   4.5776522142687778E-002   5.9514789306441281E-002   0.0000000000000000     
   4.8108643994743822E-002   6.5000189125482194E-002   0.0000000000000000     
   5.0353473048362511E-002   7.0666515892969628E-002   0.0000000000000000     
   5.2511009303543847E-002   7.6513769608903548E-002   0.0000000000000000     
   5.4581252760287823E-002   8.2541950273283982E-002   0.0000000000000000     
   4.1260592282805646E-002   5.8838065718764182E-002   0.0000000000000000     
   4.3416222159831507E-002   6.4346355872709732E-002   0.0000000000000000     
   4.5489619026597386E-002   7.0034900999127209E-002   0.0000000000000000     
   4.7480782883103291E-002   7.5903701098016613E-002   0.0000000000000000     
   4.9389713729349201E-002   8.1952756169377944E-002   0.0000000000000000     
   3.6943452417814986E-002   5.8221420760690104E-002   0.0000000000000000     
   3.8911289205732696E-002   6.3749400450260951E-002   0.0000000000000000     
   4.0803806688520801E-002   6.9457497664941276E-002   0.0000000000000000     
   4.2621004866179278E-002   7.5345712404731091E-002   0.0000000000000000     
   4.4362883738708128E-002   8.1414044669630384E-002   0.0000000000000000     
   3.2825102547715812E-002   5.7664854432219075E-002   0.0000000000000000     
   3.4593845132447398E-002   6.3209322858135839E-002   0.0000000000000000     
   3.6296036034132735E-002   6.8934305890411801E-002   0.0000000000000000     
   3.7931675252771815E-002   7.4839803529046942E-002   0.0000000000000000     
   3.9500762788364625E-002   8.0925815774041274E-002   0.0000000000000000     
   2.8905542672508118E-002   5.7168366733351059E-002   0.0000000000000000     
   3.0463889939975619E-002   6.2726123096334407E-002   0.0000000000000000     
   3.1966307063433216E-002   6.8465325675538799E-002   0.0000000000000000     
   3.3412794042880903E-002   7.4385974470964192E-002   0.0000000000000000     
   3.4803350878318678E-002   8.0488069482610641E-002   0.0000000000000000     
   5.4581252760287823E-002   8.2541950273283982E-002   0.0000000000000000     
   5.6576490119698557E-002   8.8739320808613242E-002   0.0000000000000000     
   5.8509008082880162E-002   9.5094144137393699E-002   0.0000000000000000     
   6.0378806649832639E-002  0.10160642025962530        0.0000000000000000     
   6.2185885820555994E-002  0.10827614917530809        0.0000000000000000     
   4.9389713729349201E-002   8.1952756169377944E-002   0.0000000000000000     
   5.1227763928595883E-002   8.8170823217529143E-002   0.0000000000000000     
   5.3006285844104085E-002   9.4546659246788178E-002   0.0000000000000000     
   5.4725279475873807E-002  0.10108026425715505        0.0000000000000000     
   5.6384744823905049E-002  0.10777163824862972        0.0000000000000000     
   4.4362883738708128E-002   8.1414044669630384E-002   0.0000000000000000     
   4.6039393391290526E-002   8.7651427849671587E-002   0.0000000000000000     
   4.7660483909109611E-002   9.4046795334887134E-002   0.0000000000000000     
   4.9226155292165404E-002  0.10060014712527700        0.0000000000000000     
   5.0736407540457884E-002  0.10731148322084121        0.0000000000000000     
   3.9500762788364625E-002   8.0925815774041274E-002   0.0000000000000000     
   4.1011378507782505E-002   8.7181134705040547E-002   0.0000000000000000     
   4.2471602277896779E-002   9.3594552401690512E-002   0.0000000000000000     
   4.3881434098707435E-002  0.10016606886399117        0.0000000000000000     
   4.5240873970214486E-002  0.10689568409194253        0.0000000000000000     
   3.4803350878318678E-002   8.0488069482610641E-002   0.0000000000000000     
   3.6143719278071806E-002   8.6759943783636037E-002   0.0000000000000000     
   3.7439640950465543E-002   9.3189930447198338E-002   0.0000000000000000     
   3.8691115895499902E-002   9.9778029473297572E-002   0.0000000000000000     
   3.9898144113174869E-002  0.10652424086193368        0.0000000000000000     
   6.2185885820555994E-002  0.10827614917530809        0.0000000000000000     
   6.3921724782651554E-002  0.11509148434951312        0.0000000000000000     
   6.5577802723720657E-002  0.12204057924731153        0.0000000000000000     
   6.7154119643763319E-002  0.12912343386870329        0.0000000000000000     
   6.8650675542779538E-002  0.13634004821368839        0.0000000000000000     
   5.6384744823905049E-002  0.10777163824862972        0.0000000000000000     
   5.7977494984751243E-002  0.11460877425674948        0.0000000000000000     
   5.9496343054965810E-002  0.12157966531705156        0.0000000000000000     
   6.0941289034548735E-002  0.12868431142953593        0.0000000000000000     
   6.2312332923500038E-002  0.13592271259420266        0.0000000000000000     
   5.0736407540457884E-002  0.10731148322084121        0.0000000000000000     
   5.2185027845330897E-002  0.11416876338140872        0.0000000000000000     
   5.3565803398128296E-002  0.12115994736680856        0.0000000000000000     
   5.4878734198850060E-002  0.12828503517704065        0.0000000000000000     
   5.6123820247496195E-002  0.13554402681210509        0.0000000000000000     
   4.5240873970214486E-002  0.10689568409194253        0.0000000000000000     
   4.6544323364390516E-002  0.11377145172349087        0.0000000000000000     
   4.7786183753208117E-002  0.12078142539658251        0.0000000000000000     
   4.8966455136667274E-002  0.12792560511121745        0.0000000000000000     
   5.0085137514768008E-002  0.13520399086739571        0.0000000000000000     
   3.9898144113174869E-002  0.10652424086193368        0.0000000000000000     
   4.1055381541930100E-002  0.11341683928299591        0.0000000000000000     
   4.2157484120205285E-002  0.12044409940637345        0.0000000000000000     
   4.3204451848000397E-002  0.12760602123206630        0.0000000000000000     
   4.4196284725315449E-002  0.13490260476007448        0.0000000000000000     
   6.8650675542779538E-002  0.13634004821368839        0.0000000000000000     
   7.0072216990466660E-002  0.14367826171655210        0.0000000000000000     
   7.1423490556522085E-002  0.15112591381157967        0.0000000000000000     
   7.2704496240945798E-002  0.15868300449877110        0.0000000000000000     
   7.3915234043737815E-002  0.16634953377812642        0.0000000000000000     
   6.2312332923500038E-002  0.13592271259420266        0.0000000000000000     
   6.3613574432319547E-002  0.14328296094830392        0.0000000000000000     
   6.4849113271507136E-002  0.15075314862909192        0.0000000000000000     
   6.6018949441062777E-002  0.15833327563656668        0.0000000000000000     
   6.7123082940986484E-002  0.16602334197072818        0.0000000000000000     
   5.6123820247496195E-002  0.13554402681210509        0.0000000000000000     
   5.7304496136557345E-002  0.14292513060849893        0.0000000000000000     
   5.8424196458524119E-002  0.15041655490271924        0.0000000000000000     
   5.9482921213396524E-002  0.15801829969476605        0.0000000000000000     
   6.0480670401174552E-002  0.16573036498463942        0.0000000000000000     
   5.0085137514768008E-002  0.13520399086739571        0.0000000000000000     
   5.1144982103179998E-002  0.14260477069713717        0.0000000000000000     
   5.2148740117573006E-002  0.15011613263246171        0.0000000000000000     
   5.3096411557946990E-002  0.15773807667336942        0.0000000000000000     
   5.3987996424301993E-002  0.16547060281986009        0.0000000000000000     
   4.4196284725315449E-002  0.13490260476007448        0.0000000000000000     
   4.5135032332187547E-002  0.14232188121421863        0.0000000000000000     
   4.6022744248653810E-002  0.14985188181831924        0.0000000000000000     
   4.6859420474714232E-002  0.15749260657237651        0.0000000000000000     
   4.7645061010368812E-002  0.16524405547639026        0.0000000000000000     
   7.3915234043737815E-002  0.16634953377812642        0.0000000000000000     
   7.5053482557786502E-002  0.17411549123251649        0.0000000000000000     
   7.6117020375980213E-002  0.18197086644481222        0.0000000000000000     
   7.7105847498318961E-002  0.18991565941501362        0.0000000000000000     
   7.8019963924802746E-002  0.19794987014312077        0.0000000000000000     
   6.7123082940986484E-002  0.16602334197072818        0.0000000000000000     
   6.8158714326505027E-002  0.17381274664653337        0.0000000000000000     
   6.9123044152845189E-002  0.18169088867893918        0.0000000000000000     
   7.0016072420006945E-002  0.18965776806794557        0.0000000000000000     
   7.0837799127990306E-002  0.19771338481355255        0.0000000000000000     
   6.0480670401174552E-002  0.16573036498463942        0.0000000000000000     
   6.1414357859974449E-002  0.17354177032564377        0.0000000000000000     
   6.2280897427912464E-002  0.18144153527108373        0.0000000000000000     
   6.3080289104988585E-002  0.18942965982095922        0.0000000000000000     
   6.3812532891202783E-002  0.19750614397527033        0.0000000000000000     
   5.3987996424301993E-002  0.16547060281986009        0.0000000000000000     
   5.4820413158194747E-002  0.17330256226984775        0.0000000000000000     
   5.5590580201182023E-002  0.18122280622124592        0.0000000000000000     
   5.6298497553263840E-002  0.18923133467405467        0.0000000000000000     
   5.6944165214440200E-002  0.19732814762827403        0.0000000000000000     
   4.7645061010368812E-002  0.16524405547639026        0.0000000000000000     
   4.8376880221165909E-002  0.17309512247914513        0.0000000000000000     
   4.9052092472653901E-002  0.18103470152942569        0.0000000000000000     
   4.9670697764832766E-002  0.18906279262723186        0.0000000000000000     
   5.0232696097702513E-002  0.19717939577256371        0.0000000000000000     
   7.8019963924802746E-002  0.19794987014312077        0.0000000000000000     
   7.8860095327221741E-002  0.20606638817924031        0.0000000000000000     
   7.9626967377366159E-002  0.21425810307347906        0.0000000000000000     
   8.0320580075235973E-002  0.22252501482583703        0.0000000000000000     
   8.0940933420831196E-002  0.23086712343631421        0.0000000000000000     
   7.0837799127990306E-002  0.19771338481355255        0.0000000000000000     
   7.1587010123285458E-002  0.20585157832416909        0.0000000000000000     
   7.2262491252382599E-002  0.21406618800820398        0.0000000000000000     
   7.2864242515281688E-002  0.22235721386565729        0.0000000000000000     
   7.3392263911982766E-002  0.23072465589652899        0.0000000000000000     
   6.3812532891202783E-002  0.19750614397527033        0.0000000000000000     
   6.4475304715827506E-002  0.20566491989254532        0.0000000000000000     
   6.5066280508135052E-002  0.21389991973131267        0.0000000000000000     
   6.5585460268125478E-002  0.22221114349157234        0.0000000000000000     
   6.6032843995798771E-002  0.23059859117332432        0.0000000000000000     
   5.6944165214440200E-002  0.19732814762827403        0.0000000000000000     
   5.7524979104847836E-002  0.20550641288436922        0.0000000000000000     
   5.8038335144623560E-002  0.21375929824280526        0.0000000000000000     
   5.8484233333767358E-002  0.22208680370358222        0.0000000000000000     
   5.8862673672279216E-002  0.23048892926670014        0.0000000000000000     
   5.0232696097702513E-002  0.19717939577256371        0.0000000000000000     
   5.0736033290346511E-002  0.20537605729964051        0.0000000000000000     
   5.1178655161848101E-002  0.21364432354268162        0.0000000000000000     
   5.1560561712207298E-002  0.22198419450168691        0.0000000000000000     
   5.1881752941424109E-002  0.23039567017665652        0.0000000000000000     
   8.0940933420831196E-002  0.23086712343631421        0.0000000000000000     
   8.1477409648057497E-002  0.23930511475531313        0.0000000000000000     
   8.1919390990820573E-002  0.24785967463323627        0.0000000000000000     
   8.2266877449120410E-002  0.25653080307008364        0.0000000000000000     
   8.2519869022956993E-002  0.26531850006585522        0.0000000000000000     
   7.3392263911982766E-002  0.23072465589652899        0.0000000000000000     
   7.3843260121779553E-002  0.23918219589386827        0.0000000000000000     
   7.4213935823965779E-002  0.24774351565072425        0.0000000000000000     
   7.4504291018541460E-002  0.25640861516709701        0.0000000000000000     
   7.4714325705506610E-002  0.26517749444298638        0.0000000000000000     
   6.6032843995798771E-002  0.23059859117332432        0.0000000000000000     
   6.6410696271980013E-002  0.23906876719541803        0.0000000000000000     
   6.6721281677494360E-002  0.24762817597670300        0.0000000000000000     
   6.6964600212341754E-002  0.25627681751717918        0.0000000000000000     
   6.7140651876522212E-002  0.26501469181684650        0.0000000000000000     
   5.8862673672279216E-002  0.23048892926670014        0.0000000000000000     
   5.9179718098658927E-002  0.23896482865996241        0.0000000000000000     
   5.9441428551406258E-002  0.24751365561117242        0.0000000000000000     
   5.9647805030521209E-002  0.25613541012033025        0.0000000000000000     
   5.9798847536003792E-002  0.26483009218743564        0.0000000000000000     
   5.1881752941424109E-002  0.23039567017665652        0.0000000000000000     
   5.2150325601816261E-002  0.23887038028750138        0.0000000000000000     
   5.2374376445701525E-002  0.24739995455413255        0.0000000000000000     
   5.2553905473079879E-002  0.25598439297655001        0.0000000000000000     
   5.2688912683951331E-002  0.26462369555475396        0.0000000000000000     
   8.2519869022956993E-002  0.26531850006585522        0.0000000000000000     
   8.2717370245630528E-002  0.27424918188293834        0.0000000000000000     
   8.2898385650441150E-002  0.28334926478372030        0.0000000000000000     
   8.3062915237388901E-002  0.29261874876820104        0.0000000000000000     
   8.3210959006473767E-002  0.30205763383638073        0.0000000000000000     
   7.4714325705506610E-002  0.26517749444298638        0.0000000000000000     
   7.4885036800925689E-002  0.27404385626477912        0.0000000000000000     
   7.5057421220863188E-002  0.28300140341886215        0.0000000000000000     
   7.5231478965319079E-002  0.29205013590523521        0.0000000000000000     
   7.5407210034293376E-002  0.30119005372389851        0.0000000000000000     
   6.7140651876522212E-002  0.26501469181684650        0.0000000000000000     
   6.7289741410411719E-002  0.27381199571251919        0.0000000000000000     
   6.7452173554386208E-002  0.28263892604101104        0.0000000000000000     
   6.7627948308445665E-002  0.29149548280232224        0.0000000000000000     
   6.7817065672590118E-002  0.30038166599645283        0.0000000000000000     
   5.9798847536003792E-002  0.26483009218743564        0.0000000000000000     
   5.9931484074088590E-002  0.27355360022615821        0.0000000000000000     
   6.0082642651010224E-002  0.28226183265016713        0.0000000000000000     
   6.0252323266768701E-002  0.29095478945946218        0.0000000000000000     
   6.0440525921364015E-002  0.29963247065404375        0.0000000000000000     
   5.2688912683951331E-002  0.26462369555475396        0.0000000000000000     
   5.2810264791956316E-002  0.27326866980569647        0.0000000000000000     
   5.2948828510735263E-002  0.28187012324633026        0.0000000000000000     
   5.3104603840288173E-002  0.29042805587665510        0.0000000000000000     
   5.3277590780615058E-002  0.29894246769667121        0.0000000000000000     
   2.8905542672508118E-002   5.7168366733351059E-002   0.0000000000000000     
   3.0463889939975619E-002   6.2726123096334407E-002   0.0000000000000000     
   3.1966307063433216E-002   6.8465325675538799E-002   0.0000000000000000     
   3.3412794042880903E-002   7.4385974470964192E-002   0.0000000000000000     
   3.4803350878318678E-002   8.0488069482610641E-002   0.0000000000000000     
   2.5110146756479018E-002   5.6731560325017520E-002   0.0000000000000000     
   2.6457394456233668E-002   6.2300213732431192E-002   0.0000000000000000     
   2.7759182252806595E-002   6.8051439348779386E-002   0.0000000000000000     
   2.9015510146197798E-002   7.3985237174062107E-002   0.0000000000000000     
   3.0226378136407273E-002   8.0101607208279357E-002   0.0000000000000000     
   2.1364288763915641E-002   5.6354037868149860E-002   0.0000000000000000     
   2.2510329509137901E-002   6.1932007334000685E-002   0.0000000000000000     
   2.3619224078637285E-002   6.7693529238590719E-002   0.0000000000000000     
   2.4690972472413784E-002   7.3638603581919926E-002   0.0000000000000000     
   2.5725574690467410E-002   7.9767230363988348E-002   0.0000000000000000     
   1.7667968694817987E-002   5.6035799362748114E-002   0.0000000000000000     
   1.8622695098688309E-002   6.1621503901042908E-002   0.0000000000000000     
   1.9546432540925265E-002   6.7391595344972771E-002   0.0000000000000000     
   2.0439181021528856E-002   7.3346073694537661E-002   0.0000000000000000     
   2.1300940540499080E-002   7.9484938949737599E-002   0.0000000000000000     
   1.4021186549186052E-002   5.5776844808812245E-002   0.0000000000000000     
   1.4794491224884895E-002   6.1368703433557853E-002   0.0000000000000000     
   1.5540807639670551E-002   6.7145637667925542E-002   0.0000000000000000     
   1.6260135793543014E-002   7.3107647511915286E-002   0.0000000000000000     
   1.6952475686502291E-002   7.9254732965527111E-002   0.0000000000000000     
   3.4803350878318678E-002   8.0488069482610641E-002   0.0000000000000000     
   3.6143719278071806E-002   8.6759943783636037E-002   0.0000000000000000     
   3.7439640950465543E-002   9.3189930447198338E-002   0.0000000000000000     
   3.8691115895499902E-002   9.9778029473297572E-002   0.0000000000000000     
   3.9898144113174869E-002  0.10652424086193368        0.0000000000000000     
   3.0226378136407273E-002   8.0101607208279357E-002   0.0000000000000000     
   3.1395396902607078E-002   8.6388318033214603E-002   0.0000000000000000     
   3.2526177123969283E-002   9.2833138230651285E-002   0.0000000000000000     
   3.3618718800493864E-002   9.9436067800589389E-002   0.0000000000000000     
   3.4673021932180838E-002  0.10619710674302897        0.0000000000000000     
   2.5725574690467410E-002   7.9767230363988348E-002   0.0000000000000000     
   2.6725392581836972E-002   8.6066720401532751E-002   0.0000000000000000     
   2.7692787995561303E-002   9.2524384511289942E-002   0.0000000000000000     
   2.8627760931640385E-002   9.9140222693259922E-002   0.0000000000000000     
   2.9530311390074237E-002  0.10591423494744263        0.0000000000000000     
   2.1300940540499080E-002   7.9484938949737599E-002   0.0000000000000000     
   2.2133706315761489E-002   8.5795150888590521E-002   0.0000000000000000     
   2.2939473565241609E-002   9.2263669289114350E-002   0.0000000000000000     
   2.3718242288939467E-002   9.8890494151309072E-002   0.0000000000000000     
   2.4470012486855049E-002  0.10567562547517473        0.0000000000000000     
   1.6952475686502291E-002   7.9254732965527111E-002   0.0000000000000000     
   1.7620338104380615E-002   8.5573609494387887E-002   0.0000000000000000     
   1.8266233833010220E-002   9.2050992564124509E-002   0.0000000000000000     
   1.8890162872391116E-002   9.8686882174736951E-002   0.0000000000000000     
   1.9492125222523290E-002  0.10548127832622523        0.0000000000000000     
   3.9898144113174869E-002  0.10652424086193368        0.0000000000000000     
   4.1055381541930100E-002  0.11341683928299591        0.0000000000000000     
   4.2157484120205285E-002  0.12044409940637345        0.0000000000000000     
   4.3204451848000397E-002  0.12760602123206630        0.0000000000000000     
   4.4196284725315449E-002  0.13490260476007448        0.0000000000000000     
   3.4673021932180838E-002  0.10619710674302897        0.0000000000000000     
   3.5683918407987465E-002  0.11310478042531705        0.0000000000000000     
   3.6646240116870996E-002  0.12014761421480069        0.0000000000000000     
   3.7559987058831436E-002  0.12732560811147994        0.0000000000000000     
   3.8425159233868772E-002  0.13463876211535478        0.0000000000000000     
   2.9530311390074237E-002  0.10591423494744263        0.0000000000000000     
   3.0395649992600405E-002  0.11283512951584744        0.0000000000000000     
   3.1218987360956456E-002  0.11989161464048359        0.0000000000000000     
   3.2000323495142403E-002  0.12708369032135108        0.0000000000000000     
   3.2739658395158223E-002  0.13441135655844991        0.0000000000000000     
   2.4470012486855049E-002  0.10567562547517473        0.0000000000000000     
   2.5190576295768929E-002  0.11260788655458714        0.0000000000000000     
   2.5875725852461680E-002  0.11967610068342213        0.0000000000000000     
   2.6525461156933307E-002  0.12688026786167975        0.0000000000000000     
   2.7139782209183796E-002  0.13422038808935993        0.0000000000000000     
   1.9492125222523290E-002  0.10548127832622523        0.0000000000000000     
   2.0068697317493039E-002  0.11242305154153609        0.0000000000000000     
   2.0616455591386661E-002  0.11950107234361630        0.0000000000000000     
   2.1135400044204142E-002  0.12671534073246588        0.0000000000000000     
   2.1625530675945494E-002  0.13406585670808480        0.0000000000000000     
   4.4196284725315449E-002  0.13490260476007448        0.0000000000000000     
   4.5135032332187547E-002  0.14232188121421863        0.0000000000000000     
   4.6022744248653810E-002  0.14985188181831924        0.0000000000000000     
   4.6859420474714232E-002  0.15749260657237651        0.0000000000000000     
   4.7645061010368812E-002  0.16524405547639026        0.0000000000000000     
   3.8425159233868772E-002  0.13463876211535478        0.0000000000000000     
   3.9243209824460785E-002  0.14207490749640506        0.0000000000000000     
   4.0015592013085202E-002  0.14962187552461065        0.0000000000000000     
   4.0742305799742036E-002  0.15727966619997158        0.0000000000000000     
   4.1423351184431287E-002  0.16504827952248780        0.0000000000000000     
   3.2739658395158223E-002  0.13441135655844991        0.0000000000000000     
   3.3438077580880521E-002  0.14186229488035834        0.0000000000000000     
   3.4096666572185866E-002  0.14942418681565464        0.0000000000000000     
   3.4715425369074251E-002  0.15709703236433872        0.0000000000000000     
   3.5294353971545692E-002  0.16488083152641070        0.0000000000000000     
   2.7139782209183796E-002  0.13422038808935993        0.0000000000000000     
   2.7719635601446763E-002  0.14168404336607848        0.0000000000000000     
   2.8265967925955784E-002  0.14925881569145119        0.0000000000000000     
   2.8778779182710868E-002  0.15694470506547803        0.0000000000000000     
   2.9258069371712010E-002  0.16474171148815894        0.0000000000000000     
   2.1625530675945494E-002  0.13406585670808480        0.0000000000000000     
   2.2087883886159506E-002  0.14154015295356545        0.0000000000000000     
   2.2523496074394970E-002  0.14912576215200030        0.0000000000000000     
   2.2932367240651889E-002  0.15682268430338936        0.0000000000000000     
   2.3314497384930258E-002  0.16463091940773256        0.0000000000000000     
   4.7645061010368812E-002  0.16524405547639026        0.0000000000000000     
   4.8376880221165909E-002  0.17309512247914513        0.0000000000000000     
   4.9052092472653901E-002  0.18103470152942569        0.0000000000000000     
   4.9670697764832766E-002  0.18906279262723186        0.0000000000000000     
   5.0232696097702513E-002  0.19717939577256371        0.0000000000000000     
   4.1423351184431287E-002  0.16504827952248780        0.0000000000000000     
   4.2056331670176389E-002  0.17291669350803573        0.0000000000000000     
   4.2638850760000784E-002  0.18087388617249170        0.0000000000000000     
   4.3170908453904464E-002  0.18891985751585574        0.0000000000000000     
   4.3652504751887443E-002  0.19705460753812787        0.0000000000000000     
   3.5294353971545692E-002  0.16488083152641070        0.0000000000000000     
   3.5831340126514594E-002  0.17276451791101916        0.0000000000000000     
   3.6324271580895393E-002  0.18073702512731266        0.0000000000000000     
   3.6773148334688081E-002  0.18879835317529128        0.0000000000000000     
   3.7177970387892674E-002  0.19694850205495501        0.0000000000000000     
   2.9258069371712010E-002  0.16474171148815894        0.0000000000000000     
   2.9701905590180527E-002  0.17263859568809534        0.0000000000000000     
   3.0108354935337728E-002  0.18062411839388853        0.0000000000000000     
   3.0477417407183623E-002  0.18869827960553839        0.0000000000000000     
   3.0809093005718199E-002  0.19686107932304506        0.0000000000000000     
   2.3314497384930258E-002  0.16463091940773256        0.0000000000000000     
   2.3668028061174184E-002  0.17253892683926436        0.0000000000000000     
   2.3991100823327793E-002  0.18053516597221922        0.0000000000000000     
   2.4283715671391072E-002  0.18861963680659716        0.0000000000000000     
   2.4545872605364026E-002  0.19679233934239812        0.0000000000000000     
   5.0232696097702513E-002  0.19717939577256371        0.0000000000000000     
   5.0736033290346511E-002  0.20537605729964051        0.0000000000000000     
   5.1178655161848101E-002  0.21364432354268162        0.0000000000000000     
   5.1560561712207298E-002  0.22198419450168691        0.0000000000000000     
   5.1881752941424109E-002  0.23039567017665652        0.0000000000000000     
   4.3652504751887443E-002  0.19705460753812787        0.0000000000000000     
   4.4082478127470882E-002  0.20526770710980893        0.0000000000000000     
   4.4459667054175943E-002  0.21354872710139983        0.0000000000000000     
   4.4784071532002645E-002  0.22189766751290052        0.0000000000000000     
   4.5055691560950989E-002  0.23031452834431107        0.0000000000000000     
   3.7177970387892674E-002  0.19694850205495501        0.0000000000000000     
   3.7538324471368366E-002  0.20517521628632382        0.0000000000000000     
   3.7853797315974394E-002  0.21346624038941789        0.0000000000000000     
   3.8124388921710751E-002  0.22182157436423711        0.0000000000000000     
   3.8350099288577431E-002  0.23024121821078153        0.0000000000000000     
   3.0809093005718199E-002  0.19686107932304506        0.0000000000000000     
   3.1103572322038971E-002  0.20509858482918528        0.0000000000000000     
   3.1361045947243427E-002  0.21339686340673583        0.0000000000000000     
   3.1581513881331583E-002  0.22175591505569667        0.0000000000000000     
   3.1764976124303422E-002  0.23017573977606787        0.0000000000000000     
   2.4545872605364026E-002  0.19679233934239812        0.0000000000000000     
   2.4778221679482682E-002  0.20503781273839322        0.0000000000000000     
   2.4981412947983055E-002  0.21334059615335363        0.0000000000000000     
   2.5155446410865152E-002  0.22170068958727923        0.0000000000000000     
   2.5300322068128975E-002  0.23011809304017020        0.0000000000000000     
   5.1881752941424109E-002  0.23039567017665652        0.0000000000000000     
   5.2150325601816261E-002  0.23887038028750138        0.0000000000000000     
   5.2374376445701525E-002  0.24739995455413255        0.0000000000000000     
   5.2553905473079879E-002  0.25598439297655001        0.0000000000000000     
   5.2688912683951331E-002  0.26462369555475396        0.0000000000000000     
   4.5055691560950989E-002  0.23031452834431107        0.0000000000000000     
   4.5283374315989958E-002  0.23878403880860682        0.0000000000000000     
   4.5475966972088541E-002  0.24729092811876330        0.0000000000000000     
   4.5633469529246753E-002  0.25583519627478046        0.0000000000000000     
   4.5755881987464581E-002  0.26441684327665826        0.0000000000000000     
   3.8350099288577431E-002  0.23024121821078153        0.0000000000000000     
   3.8539719775717934E-002  0.23870442095385080        0.0000000000000000     
   3.8702041742275747E-002  0.24719043161824461        0.0000000000000000     
   3.8837065188250849E-002  0.25569925020396295        0.0000000000000000     
   3.8944790113643282E-002  0.26423087671100581        0.0000000000000000     
   3.1764976124303422E-002  0.23017573977606787        0.0000000000000000     
   3.1919361981000198E-002  0.23863152672323326        0.0000000000000000     
   3.2052600756263115E-002  0.24709846505257649        0.0000000000000000     
   3.2164692450092187E-002  0.25557655476409757        0.0000000000000000     
   3.2255637062487415E-002  0.26406579585779660        0.0000000000000000     
   2.5300322068128975E-002  0.23011809304017020        0.0000000000000000     
   2.5422300931836735E-002  0.23856535611675411        0.0000000000000000     
   2.5527644014050662E-002  0.24701502842175885        0.0000000000000000     
   2.5616351314770750E-002  0.25546710995518429        0.0000000000000000     
   2.5688422833996992E-002  0.26392160071703064        0.0000000000000000     
   5.2688912683951331E-002  0.26462369555475396        0.0000000000000000     
   5.2810264791956316E-002  0.27326866980569647        0.0000000000000000     
   5.2948828510735263E-002  0.28187012324633026        0.0000000000000000     
   5.3104603840288173E-002  0.29042805587665510        0.0000000000000000     
   5.3277590780615058E-002  0.29894246769667121        0.0000000000000000     
   4.5755881987464581E-002  0.26441684327665826        0.0000000000000000     
   4.5867352712960954E-002  0.27298593800490162        0.0000000000000000     
   4.5992030071954765E-002  0.28149254934001550        0.0000000000000000     
   4.6129914064446026E-002  0.28993667728199973        0.0000000000000000     
   4.6281004690434738E-002  0.29831832183085449        0.0000000000000000     
   3.8944790113643282E-002  0.26423087671100581        0.0000000000000000     
   3.9044016986048535E-002  0.27273413837754135        0.0000000000000000     
   3.9153546273062168E-002  0.28115786244173774        0.0000000000000000     
   3.9273377974684179E-002  0.28950204890359499        0.0000000000000000     
   3.9403512090914562E-002  0.29776669776311299        0.0000000000000000     
   3.2255637062487415E-002  0.26406579585779660        0.0000000000000000     
   3.2340257611219086E-002  0.27251327092361577        0.0000000000000000     
   3.2433377114057499E-002  0.28086606255149710        0.0000000000000000     
   3.2534995571002638E-002  0.28912417074144070        0.0000000000000000     
   3.2645112982054532E-002  0.29728759549344663        0.0000000000000000     
   2.5688422833996992E-002  0.26392160071703064        0.0000000000000000     
   2.5756074588472597E-002  0.27232333564312472        0.0000000000000000     
   2.5831522594940742E-002  0.28061714966929352        0.0000000000000000     
   2.5914766853401421E-002  0.28880304279553709        0.0000000000000000     
   2.6005807363854654E-002  0.29688101502185538        0.0000000000000000     
   1.4021186549186052E-002   5.5776844808812245E-002   0.0000000000000000     
   1.4794491224884895E-002   6.1368703433557853E-002   0.0000000000000000     
   1.5540807639670551E-002   6.7145637667925542E-002   0.0000000000000000     
   1.6260135793543014E-002   7.3107647511915286E-002   0.0000000000000000     
   1.6952475686502291E-002   7.9254732965527111E-002   0.0000000000000000     
   1.0428352504651201E-002   5.5576196309951809E-002   0.0000000000000000     
   1.1020969072816418E-002   6.1172748073949477E-002   0.0000000000000000     
   1.1590475979152151E-002   6.6954914294039533E-002   0.0000000000000000     
   1.2136873223658402E-002   7.2922694970221941E-002   0.0000000000000000     
   1.2660160806335169E-002   7.9076090102496763E-002   0.0000000000000000     
   6.8938767388447928E-003   5.5432875969776307E-002   0.0000000000000000     
   7.2973798275716333E-003   6.1032779964621739E-002   0.0000000000000000     
   7.6835641636490877E-003   6.6818683309905230E-002   0.0000000000000000     
   8.0524297470771587E-003   7.2790586005626795E-002   0.0000000000000000     
   8.4039765778558435E-003   7.8948488051786433E-002   0.0000000000000000     
   3.4177592517668281E-003   5.5346883788285749E-002   0.0000000000000000     
   3.6237234891505436E-003   6.0948799105574623E-002   0.0000000000000000     
   3.8200721931613640E-003   6.6736944715522648E-002   0.0000000000000000     
   4.0068053637992871E-003   7.2711320618129821E-002   0.0000000000000000     
   4.1839230010643153E-003   7.8871926813396137E-002   0.0000000000000000     
   4.3417305341242329E-011   5.5318219765480132E-002   0.0000000000000000     
   5.7553147794417447E-011   6.0920805496808138E-002   0.0000000000000000     
   6.7688975301585796E-011   6.6709698510891757E-002   0.0000000000000000     
   7.3824787808537268E-011   7.2684898807730991E-002   0.0000000000000000     
   7.5960585261061753E-011   7.8846406387325846E-002   0.0000000000000000     
   1.6952475686502291E-002   7.9254732965527111E-002   0.0000000000000000     
   1.7620338104380615E-002   8.5573609494387887E-002   0.0000000000000000     
   1.8266233833010220E-002   9.2050992564124509E-002   0.0000000000000000     
   1.8890162872391116E-002   9.8686882174736951E-002   0.0000000000000000     
   1.9492125222523290E-002  0.10548127832622523        0.0000000000000000     
   1.2660160806335169E-002   7.9076090102496763E-002   0.0000000000000000     
   1.3163410089539602E-002   8.5401648074931502E-002   0.0000000000000000     
   1.3649692435628850E-002   9.1885917271593745E-002   0.0000000000000000     
   1.4119007844602915E-002   9.8528897692483478E-002   0.0000000000000000     
   1.4571356316461793E-002  0.10533058933760073        0.0000000000000000     
   8.4039765778558435E-003   7.8948488051786433E-002   0.0000000000000000     
   8.7410444130836852E-003   8.5278818486228036E-002   0.0000000000000000     
   9.0664730098592248E-003   9.1768006346795467E-002   0.0000000000000000     
   9.3802623681824640E-003   9.8416051633488724E-002   0.0000000000000000     
   9.6824124880534029E-003  0.10522295434630782        0.0000000000000000     
   4.1839230010643153E-003   7.8871926813396137E-002   0.0000000000000000     
   4.3532410750128630E-003   8.5205120728277461E-002   0.0000000000000000     
   4.5165755557013462E-003   9.1697259789729618E-002   0.0000000000000000     
   4.6739264431297656E-003   9.8348343997752663E-002   0.0000000000000000     
   4.8252937372981206E-003  0.10515837335234657        0.0000000000000000     
   7.5960585261061753E-011   7.8846406387325846E-002   0.0000000000000000     
   7.5327137322861448E-011   8.5180554801079778E-002   0.0000000000000000     
   7.3155215121311484E-011   9.1673677600396269E-002   0.0000000000000000     
   6.9444817233396509E-011   9.8325774785275294E-002   0.0000000000000000     
   6.4195945000816712E-011  0.10513684635571691        0.0000000000000000     
   1.9492125222523290E-002  0.10548127832622523        0.0000000000000000     
   2.0068697317493039E-002  0.11242305154153609        0.0000000000000000     
   2.0616455591386661E-002  0.11950107234361630        0.0000000000000000     
   2.1135400044204142E-002  0.12671534073246588        0.0000000000000000     
   2.1625530675945494E-002  0.13406585670808480        0.0000000000000000     
   1.4571356316461793E-002  0.10533058933760073        0.0000000000000000     
   1.5004192524534164E-002  0.11227987438293045        0.0000000000000000     
   1.5414971142148699E-002  0.11936563500445777        0.0000000000000000     
   1.5803692169305401E-002  0.12658787120218257        0.0000000000000000     
   1.6170355606004265E-002  0.13394658297610493        0.0000000000000000     
   9.6824124880534029E-003  0.10522295434630782        0.0000000000000000     
   9.9712413836537239E-003  0.11217760498500640        0.0000000000000000     
   1.0245067069165109E-002  0.11926889404933806        0.0000000000000000     
   1.0503889544587558E-002  0.12649682153930283        0.0000000000000000     
   1.0747708809921073E-002  0.13386138745490070        0.0000000000000000     
   4.8252937372981206E-003  0.10515837335234657        0.0000000000000000     
   4.9698438948517247E-003  0.11211624334776389        0.0000000000000000     
   5.1067433724358924E-003  0.11921084947825727        0.0000000000000000     
   5.2359921700506212E-003  0.12644219174382670        0.0000000000000000     
   5.3575902876959137E-003  0.13381027014447219        0.0000000000000000     
   6.4195945000816712E-011  0.10513684635571691        0.0000000000000000     
   5.8128165041776425E-011  0.11209578947120297        0.0000000000000000     
   5.1961046901825847E-011  0.11919150129121536        0.0000000000000000     
   4.5694588168615144E-011  0.12642398181575415        0.0000000000000000     
   3.9328790658182955E-011  0.13379323104481927        0.0000000000000000     
   2.1625530675945494E-002  0.13406585670808480        0.0000000000000000     
   2.2087883886159506E-002  0.14154015295356545        0.0000000000000000     
   2.2523496074394970E-002  0.14912576215200030        0.0000000000000000     
   2.2932367240651889E-002  0.15682268430338936        0.0000000000000000     
   2.3314497384930258E-002  0.16463091940773256        0.0000000000000000     
   1.6170355606004265E-002  0.13394658297610493        0.0000000000000000     
   1.6516086207943523E-002  0.14142928182532033        0.0000000000000000     
   1.6842008730821392E-002  0.14902347924892428        0.0000000000000000     
   1.7148123174637871E-002  0.15672917524691682        0.0000000000000000     
   1.7434429539392962E-002  0.16454636981929799        0.0000000000000000     
   1.0747708809921073E-002  0.13386138745490070        0.0000000000000000     
   1.0977506339723582E-002  0.14135008816384406        0.0000000000000000     
   1.1194263608553020E-002  0.14895042003384534        0.0000000000000000     
   1.1397980616409386E-002  0.15666238306490454        0.0000000000000000     
   1.1588657363292681E-002  0.16448597725702169        0.0000000000000000     
   5.3575902876959137E-003  0.13381027014447219        0.0000000000000000     
   5.4721442814996872E-003  0.14130257196913676        0.0000000000000000     
   5.5802607075898592E-003  0.14890658450676350        0.0000000000000000     
   5.6819395659664304E-003  0.15662230775735250        0.0000000000000000     
   5.7771808566293992E-003  0.16444974172090368        0.0000000000000000     
   3.9328790658182955E-011  0.13379323104481927        0.0000000000000000     
   3.3271836674675370E-011  0.14128673324119834        0.0000000000000000     
   2.7931908522238480E-011  0.14889197266767876        0.0000000000000000     
   2.3309004032467939E-011  0.15660894932426067        0.0000000000000000     
   1.9403124940087224E-011  0.16443766321094397        0.0000000000000000     
   2.3314497384930258E-002  0.16463091940773256        0.0000000000000000     
   2.3668028061174184E-002  0.17253892683926436        0.0000000000000000     
   2.3991100823327793E-002  0.18053516597221922        0.0000000000000000     
   2.4283715671391072E-002  0.18861963680659716        0.0000000000000000     
   2.4545872605364026E-002  0.19679233934239812        0.0000000000000000     
   1.7434429539392962E-002  0.16454636981929799        0.0000000000000000     
   1.7699202039358371E-002  0.17246320244796864        0.0000000000000000     
   1.7940714888805793E-002  0.18046781261482989        0.0000000000000000     
   1.8158968087735226E-002  0.18856020031988169        0.0000000000000000     
   1.8353961636146669E-002  0.19674036556312402        0.0000000000000000     
   1.1588657363292681E-002  0.16448597725702169        0.0000000000000000     
   1.1764922024595869E-002  0.17240911359765065        0.0000000000000000     
   1.1925402775711929E-002  0.18041970307424551        0.0000000000000000     
   1.2070099616640850E-002  0.18851774568680621        0.0000000000000000     
   1.2199012547382643E-002  0.19670324143533274        0.0000000000000000     
   5.7771808566293992E-003  0.16444974172090368        0.0000000000000000     
   5.8651880168866860E-003  0.17237666028831042        0.0000000000000000     
   5.9451644840462052E-003  0.18039083735046610        0.0000000000000000     
   6.0171102581079595E-003  0.18849227290737069        0.0000000000000000     
   6.0810253390719471E-003  0.19668096695902423        0.0000000000000000     
   1.9403124940087224E-011  0.16443766321094397        0.0000000000000000     
   1.6230815736567594E-011  0.17236584251994791        0.0000000000000000     
   1.3808623623885741E-011  0.18038121544349164        0.0000000000000000     
   1.2136545484960418E-011  0.18848378198157520        0.0000000000000000     
   1.1214582647939286E-011  0.19667354213419855        0.0000000000000000     
   2.4545872605364026E-002  0.19679233934239812        0.0000000000000000     
   2.4778221679482682E-002  0.20503781273839322        0.0000000000000000     
   2.4981412947983055E-002  0.21334059615335363        0.0000000000000000     
   2.5155446410865152E-002  0.22170068958727923        0.0000000000000000     
   2.5300322068128975E-002  0.23011809304017020        0.0000000000000000     
   1.8353961636146669E-002  0.19674036556312402        0.0000000000000000     
   1.8526595408304956E-002  0.20499157563184287        0.0000000000000000     
   1.8677769278474921E-002  0.21329709781332412        0.0000000000000000     
   1.8807483246656549E-002  0.22165693210756779        0.0000000000000000     
   1.8915737312849845E-002  0.23007107851457387        0.0000000000000000     
   1.2199012547382643E-002  0.19670324143533274        0.0000000000000000     
   1.2313016373111258E-002  0.20495854912742928        0.0000000000000000     
   1.2412985899000662E-002  0.21326602757070012        0.0000000000000000     
   1.2498921125050848E-002  0.22162567676514514        0.0000000000000000     
   1.2570822051261817E-002  0.23003749671076443        0.0000000000000000     
   6.0810253390719471E-003  0.19668096695902423        0.0000000000000000     
   6.1374845739015855E-003  0.20493873322515263        0.0000000000000000     
   6.1870628095602870E-003  0.21324738542548166        0.0000000000000000     
   6.2297600460480551E-003  0.22160692356001147        0.0000000000000000     
   6.2655762833648872E-003  0.23001734762874190        0.0000000000000000     
   1.1214582647939286E-011  0.19667354213419855        0.0000000000000000     
   1.0675933661413728E-011  0.20493212792501272        0.0000000000000000     
   1.0153795881352734E-011  0.21324117137766871        0.0000000000000000     
   9.6481678169783175E-012  0.22160067249216658        0.0000000000000000     
   9.1590519890605293E-012  0.23001063126850627        0.0000000000000000     
   2.5300322068128975E-002  0.23011809304017020        0.0000000000000000     
   2.5422300931836735E-002  0.23856535611675411        0.0000000000000000     
   2.5527644014050662E-002  0.24701502842175885        0.0000000000000000     
   2.5616351314770750E-002  0.25546710995518429        0.0000000000000000     
   2.5688422833996992E-002  0.26392160071703064        0.0000000000000000     
   1.8915737312849845E-002  0.23007107851457387        0.0000000000000000     
   1.9006847616852514E-002  0.23851039842170943        0.0000000000000000     
   1.9085130298462243E-002  0.24694575321634171        0.0000000000000000     
   1.9150585357679033E-002  0.25537714289847058        0.0000000000000000     
   1.9203212794502891E-002  0.26380456746809611        0.0000000000000000     
   1.2570822051261817E-002  0.23003749671076443        0.0000000000000000     
   1.2631313024672474E-002  0.23847114292539531        0.0000000000000000     
   1.2683018392321719E-002  0.24689627092687502        0.0000000000000000     
   1.2725938154209551E-002  0.25531288071520364        0.0000000000000000     
   1.2760072310335966E-002  0.26372097229038116        0.0000000000000000     
   6.2655762833648872E-003  0.23001734762874190        0.0000000000000000     
   6.2956971552966196E-003  0.23844758962781151        0.0000000000000000     
   6.3213082956290858E-003  0.24686658155335875        0.0000000000000000     
   6.3424097043622901E-003  0.25527432340538347        0.0000000000000000     
   6.3590013814962291E-003  0.26367081518388591        0.0000000000000000     
   9.1590519890605293E-012  0.23001063126850627        0.0000000000000000     
   8.7249461128147132E-012  0.23843973852895822        0.0000000000000000     
   8.3843466024136060E-012  0.24685668509579289        0.0000000000000000     
   8.1372574694052457E-012  0.25526147096901025        0.0000000000000000     
   7.9836749190820289E-012  0.26365409614861030        0.0000000000000000     
   2.5688422833996992E-002  0.26392160071703064        0.0000000000000000     
   2.5756074588472597E-002  0.27232333564312472        0.0000000000000000     
   2.5831522594940742E-002  0.28061714966929352        0.0000000000000000     
   2.5914766853401421E-002  0.28880304279553709        0.0000000000000000     
   2.6005807363854654E-002  0.29688101502185538        0.0000000000000000     
   1.9203212794502891E-002  0.26380456746809611        0.0000000000000000     
   1.9253023792156494E-002  0.27217067509861542        0.0000000000000000     
   1.9310029533862544E-002  0.28041811396342575        0.0000000000000000     
   1.9374230019621037E-002  0.28854688406252715        0.0000000000000000     
   1.9445625249431966E-002  0.29655698539591951        0.0000000000000000     
   1.2760072310335966E-002  0.26372097229038116        0.0000000000000000     
   1.2792661096618222E-002  0.27206163185263504        0.0000000000000000     
   1.2830944748973566E-002  0.28027594560219266        0.0000000000000000     
   1.2874923267401998E-002  0.28836391353905405        0.0000000000000000     
   1.2924596651903514E-002  0.29632553566321923        0.0000000000000000     
   6.3590013814962291E-003  0.26367081518388591        0.0000000000000000     
   6.3749865018577776E-003  0.27199620590518353        0.0000000000000000     
   6.3942682402738050E-003  0.28019064458559423        0.0000000000000000     
   6.4168465967443149E-003  0.28825413122511784        0.0000000000000000     
   6.4427215712693055E-003  0.29618666582375436        0.0000000000000000     
   7.9836749190820289E-012  0.26365409614861030        0.0000000000000000     
   7.8751575573188237E-012  0.27197439725626099        0.0000000000000000     
   7.7632611710648503E-012  0.28016221091363036        0.0000000000000000     
   7.6479854892695653E-012  0.28821753712071846        0.0000000000000000     
   7.5293313250845983E-012  0.29614037587752517        0.0000000000000000     
   4.3417305341242329E-011   5.5318219765480132E-002   0.0000000000000000     
   5.7553147794417447E-011   6.0920805496808138E-002   0.0000000000000000     
   6.7688975301585796E-011   6.6709698510891757E-002   0.0000000000000000     
   7.3824787808537268E-011   7.2684898807730991E-002   0.0000000000000000     
   7.5960585261061753E-011   7.8846406387325846E-002   0.0000000000000000     
  -3.4177591687679161E-003   5.5346883872436158E-002   0.0000000000000000     
  -3.6237233786243208E-003   6.0948799126132339E-002   0.0000000000000000     
  -3.8200720629401404E-003   6.6736944695047623E-002   0.0000000000000000     
  -4.0068052217153765E-003   7.2711320579182004E-002   0.0000000000000000     
  -4.1839228549500279E-003   7.8871926778535495E-002   0.0000000000000000     
  -6.8938766673529777E-003   5.5432876080230509E-002   0.0000000000000000     
  -7.2973797307856270E-003   6.1032779981357262E-002   0.0000000000000000     
  -7.6835640488980474E-003   6.6818683267025267E-002   0.0000000000000000     
  -8.0524296216902408E-003   7.2790585937234517E-002   0.0000000000000000     
  -8.4039764491622062E-003   7.8948487991985006E-002   0.0000000000000000     
  -1.0428352452337881E-002   5.5576196388863207E-002   0.0000000000000000     
  -1.1020968998930770E-002   6.1172748062482928E-002   0.0000000000000000     
  -1.1590475890184745E-002   6.6954914226824688E-002   0.0000000000000000     
  -1.2136873126099805E-002   7.2922694881888517E-002   0.0000000000000000     
  -1.2660160706675952E-002   7.9076090027674378E-002   0.0000000000000000     
  -1.4021186523722624E-002   5.5776844798334224E-002   0.0000000000000000     
  -1.4794491183059751E-002   6.1368703369509316E-002   0.0000000000000000     
  -1.5540807586800234E-002   6.7145637574445916E-002   0.0000000000000000     
  -1.6260135734944069E-002   7.3107647413144003E-002   0.0000000000000000     
  -1.6952475627491258E-002   7.9254732885603585E-002   0.0000000000000000     
   7.5960585261061753E-011   7.8846406387325846E-002   0.0000000000000000     
   7.5327137322861448E-011   8.5180554801079778E-002   0.0000000000000000     
   7.3155215121311484E-011   9.1673677600396269E-002   0.0000000000000000     
   6.9444817233396509E-011   9.8325774785275294E-002   0.0000000000000000     
   6.4195945000816712E-011  0.10513684635571691        0.0000000000000000     
  -4.1839228549500279E-003   7.8871926778535495E-002   0.0000000000000000     
  -4.3532409302310228E-003   8.5205120707338100E-002   0.0000000000000000     
  -4.5165754151452863E-003   9.1697259779819879E-002   0.0000000000000000     
  -4.6739263096928158E-003   9.8348343995980816E-002   0.0000000000000000     
  -4.8252936138736165E-003  0.10515837335582090        0.0000000000000000     
  -8.4039764491622062E-003   7.8948487991985006E-002   0.0000000000000000     
  -8.7410442859191494E-003   8.5278818449755558E-002   0.0000000000000000     
  -9.0664728865662708E-003   9.1768006329025015E-002   0.0000000000000000     
  -9.3802622511035740E-003   9.8416051629793347E-002   0.0000000000000000     
  -9.6824123795310538E-003  0.10522295435206057        0.0000000000000000     
  -1.2660160706675952E-002   7.9076090027674378E-002   0.0000000000000000     
  -1.3163409991737244E-002   8.5401648028332111E-002   0.0000000000000000     
  -1.3649692341107748E-002   9.1885917248011650E-002   0.0000000000000000     
  -1.4119007754787456E-002   9.8528897686712913E-002   0.0000000000000000     
  -1.4571356232776375E-002  0.10533058934443595        0.0000000000000000     
  -1.6952475627491258E-002   7.9254732885603585E-002   0.0000000000000000     
  -1.7620338047685303E-002   8.5573609443067827E-002   0.0000000000000000     
  -1.8266233778769705E-002   9.2050992536779799E-002   0.0000000000000000     
  -1.8890162820744457E-002   9.8686882166739529E-002   0.0000000000000000     
  -1.9492125173609570E-002  0.10548127833294704        0.0000000000000000     
   6.4195945000816712E-011  0.10513684635571691        0.0000000000000000     
   5.8128165041776425E-011  0.11209578947120297        0.0000000000000000     
   5.1961046901825847E-011  0.11919150129121536        0.0000000000000000     
   4.5694588168615144E-011  0.12642398181575415        0.0000000000000000     
   3.9328790658182955E-011  0.13379323104481927        0.0000000000000000     
  -4.8252936138736165E-003  0.10515837335582090        0.0000000000000000     
  -4.9698437829854706E-003  0.11211624335453260        0.0000000000000000     
  -5.1067432723261681E-003  0.11921084948730837        0.0000000000000000     
  -5.2359920818957021E-003  0.12644219175414820        0.0000000000000000     
  -5.3575902116940795E-003  0.13381027015505215        0.0000000000000000     
  -9.6824123795310538E-003  0.10522295435206057        0.0000000000000000     
  -9.9712412849576985E-003  0.11217760499696186        0.0000000000000000     
  -1.0245066980492485E-002  0.11926889406563231        0.0000000000000000     
  -1.0503889466135409E-002  0.12649682155807193        0.0000000000000000     
  -1.0747708741886479E-002  0.13386138747428078        0.0000000000000000     
  -1.4571356232776375E-002  0.10533058934443595        0.0000000000000000     
  -1.5004192447788518E-002  0.11227987439849071        0.0000000000000000     
  -1.5414971072537904E-002  0.11936563502618718        0.0000000000000000     
  -1.5803692107024533E-002  0.12658787122752535        0.0000000000000000     
  -1.6170355551248405E-002  0.13394658300250523        0.0000000000000000     
  -1.9492125173609570E-002  0.10548127833294704        0.0000000000000000     
  -2.0068697271477927E-002  0.11242305155911922        0.0000000000000000     
  -2.0616455548462431E-002  0.11950107236897302        0.0000000000000000     
  -2.1135400004563074E-002  0.12671534076250845        0.0000000000000000     
  -2.1625530639779865E-002  0.13406585673972546        0.0000000000000000     
   3.9328790658182955E-011  0.13379323104481927        0.0000000000000000     
   3.3271836674675370E-011  0.14128673324119834        0.0000000000000000     
   2.7931908522238480E-011  0.14889197266767876        0.0000000000000000     
   2.3309004032467939E-011  0.15660894932426067        0.0000000000000000     
   1.9403124940087224E-011  0.16443766321094397        0.0000000000000000     
  -5.3575902116940795E-003  0.13381027015505215        0.0000000000000000     
  -5.4721442170664915E-003  0.14130257197923940        0.0000000000000000     
  -5.5802606533581333E-003  0.14890658451592922        0.0000000000000000     
  -5.6819395205690059E-003  0.15662230776512162        0.0000000000000000     
  -5.7771808186991083E-003  0.16444974172681659        0.0000000000000000     
  -1.0747708741886479E-002  0.13386138747428078        0.0000000000000000     
  -1.0977506281621823E-002  0.14135008818247052        0.0000000000000000     
  -1.1194263559217564E-002  0.14895042005085288        0.0000000000000000     
  -1.1397980574673710E-002  0.15666238307942792        0.0000000000000000     
  -1.1588657327990259E-002  0.16448597726819553        0.0000000000000000     
  -1.6170355551248405E-002  0.13394658300250523        0.0000000000000000     
  -1.6516086160394149E-002  0.14142928185089174        0.0000000000000000     
  -1.6842008689646387E-002  0.14902347927244980        0.0000000000000000     
  -1.7148123139005111E-002  0.15672917526717953        0.0000000000000000     
  -1.7434429508470330E-002  0.16454636983508081        0.0000000000000000     
  -2.1625530639779865E-002  0.13406585673972546        0.0000000000000000     
  -2.2087883853383481E-002  0.14154015298450301        0.0000000000000000     
  -2.2523496044644594E-002  0.14912576218072005        0.0000000000000000     
  -2.2932367213563207E-002  0.15682268432837645        0.0000000000000000     
  -2.3314497360139321E-002  0.16463091942747238        0.0000000000000000     
   1.9403124940087224E-011  0.16443766321094397        0.0000000000000000     
   1.6230815736567594E-011  0.17236584251994791        0.0000000000000000     
   1.3808623623885741E-011  0.18038121544349164        0.0000000000000000     
   1.2136545484960418E-011  0.18848378198157520        0.0000000000000000     
   1.1214582647939286E-011  0.19667354213419855        0.0000000000000000     
  -5.7771808186991083E-003  0.16444974172681659        0.0000000000000000     
  -5.8651879850259662E-003  0.17237666029240029        0.0000000000000000     
  -5.9451644568271076E-003  0.18039083735325886        0.0000000000000000     
  -6.0171102341025316E-003  0.18849227290939230        0.0000000000000000     
  -6.0810253168522409E-003  0.19668096696080056        0.0000000000000000     
  -1.1588657327990259E-002  0.16448597726819553        0.0000000000000000     
  -1.1764921994537887E-002  0.17240911360550473        0.0000000000000000     
  -1.1925402749687270E-002  0.18041970307970442        0.0000000000000000     
  -1.2070099593438414E-002  0.18851774569079466        0.0000000000000000     
  -1.2199012525791312E-002  0.19670324143877529        0.0000000000000000     
  -1.7434429508470330E-002  0.16454636983508081        0.0000000000000000     
  -1.7699202012304949E-002  0.17246320245926122        0.0000000000000000     
  -1.7940714864771876E-002  0.18046781262282832        0.0000000000000000     
  -1.8158968065871098E-002  0.18856020032578219        0.0000000000000000     
  -1.8353961615602626E-002  0.19674036556812269        0.0000000000000000     
  -2.3314497360139321E-002  0.16463091942747238        0.0000000000000000     
  -2.3668028038327155E-002  0.17253892685366978        0.0000000000000000     
  -2.3991100802080903E-002  0.18053516598263061        0.0000000000000000     
  -2.4283715651400584E-002  0.18861963681435495        0.0000000000000000     
  -2.4545872586286193E-002  0.19679233934884277        0.0000000000000000     
   1.1214582647939286E-011  0.19667354213419855        0.0000000000000000     
   1.0675933661413728E-011  0.20493212792501272        0.0000000000000000     
   1.0153795881352734E-011  0.21324117137766871        0.0000000000000000     
   9.6481678169783175E-012  0.22160067249216658        0.0000000000000000     
   9.1590519890605293E-012  0.23001063126850627        0.0000000000000000     
  -6.0810253168522409E-003  0.19668096696080056        0.0000000000000000     
  -6.1374845527361766E-003  0.20493873322690850        0.0000000000000000     
  -6.1870627894142797E-003  0.21324738542714078        0.0000000000000000     
  -6.2297600268865520E-003  0.22160692356149742        0.0000000000000000     
  -6.2655762651529943E-003  0.23001734762997841        0.0000000000000000     
  -1.2199012525791312E-002  0.19670324143877529        0.0000000000000000     
  -1.2313016352505221E-002  0.20495854913073874        0.0000000000000000     
  -1.2412985879339400E-002  0.21326602757377724        0.0000000000000000     
  -1.2498921106293845E-002  0.22162567676789072        0.0000000000000000     
  -1.2570822033368560E-002  0.23003749671307927        0.0000000000000000     
  -1.8353961615602626E-002  0.19674036556812269        0.0000000000000000     
  -1.8526595388631207E-002  0.20499157563650344        0.0000000000000000     
  -1.8677769259621568E-002  0.21329709781757811        0.0000000000000000     
  -1.8807483228573712E-002  0.22165693211134654        0.0000000000000000     
  -1.8915737295487647E-002  0.23007107851780884        0.0000000000000000     
  -2.4545872586286193E-002  0.19679233934884277        0.0000000000000000     
  -2.4778221661114125E-002  0.20503781274420271        0.0000000000000000     
  -2.4981412930260776E-002  0.21334059615854342        0.0000000000000000     
  -2.5155446393726157E-002  0.22170068959186487        0.0000000000000000     
  -2.5300322051510258E-002  0.23011809304416711        0.0000000000000000     
   9.1590519890605293E-012  0.23001063126850627        0.0000000000000000     
   8.7249461128147132E-012  0.23843973852895822        0.0000000000000000     
   8.3843466024136060E-012  0.24685668509579289        0.0000000000000000     
   8.1372574694052457E-012  0.25526147096901025        0.0000000000000000     
   7.9836749190820289E-012  0.26365409614861030        0.0000000000000000     
  -6.2655762651529943E-003  0.23001734762997841        0.0000000000000000     
  -6.2956971379271552E-003  0.23844758962879642        0.0000000000000000     
  -6.3213082789225902E-003  0.24686658155416402        0.0000000000000000     
  -6.3424096881392941E-003  0.25527432340608125        0.0000000000000000     
  -6.3590013655772694E-003  0.26367081518454805        0.0000000000000000     
  -1.2570822033368560E-002  0.23003749671307927        0.0000000000000000     
  -1.2631313007544300E-002  0.23847114292728719        0.0000000000000000     
  -1.2683018375801811E-002  0.24689627092845876        0.0000000000000000     
  -1.2725938138141105E-002  0.25531288071659397        0.0000000000000000     
  -1.2760072294562174E-002  0.26372097229169295        0.0000000000000000     
  -1.8915737295487647E-002  0.23007107851780884        0.0000000000000000     
  -1.9006847600126477E-002  0.23851039842443048        0.0000000000000000     
  -1.9085130282253324E-002  0.24694575321867704        0.0000000000000000     
  -1.9150585341868177E-002  0.25537714290054853        0.0000000000000000     
  -1.9203212778971041E-002  0.26380456747004488        0.0000000000000000     
  -2.5300322051510258E-002  0.23011809304416711        0.0000000000000000     
  -2.5422300915673702E-002  0.23856535612022642        0.0000000000000000     
  -2.5527643998277123E-002  0.24701502842481898        0.0000000000000000     
  -2.5616351299320512E-002  0.25546710995794486        0.0000000000000000     
  -2.5688422818803874E-002  0.26392160071960402        0.0000000000000000     
   7.9836749190820289E-012  0.26365409614861030        0.0000000000000000     
   7.8751575573188237E-012  0.27197439725626099        0.0000000000000000     
   7.7632611710648503E-012  0.28016221091363036        0.0000000000000000     
   7.6479854892695653E-012  0.28821753712071846        0.0000000000000000     
   7.5293313250845983E-012  0.29614037587752517        0.0000000000000000     
  -6.3590013655772694E-003  0.26367081518454805        0.0000000000000000     
  -6.3749864861558213E-003  0.27199620590585227        0.0000000000000000     
  -6.3942682247942586E-003  0.28019064458628168        0.0000000000000000     
  -6.4168465814925793E-003  0.28825413122583632        0.0000000000000000     
  -6.4427215562507818E-003  0.29618666582451614        0.0000000000000000     
  -1.2760072294562174E-002  0.26372097229169295        0.0000000000000000     
  -1.2792661081061345E-002  0.27206163185394222        0.0000000000000000     
  -1.2830944733634943E-002  0.28027594560352842        0.0000000000000000     
  -1.2874923252282965E-002  0.28836391354045171        0.0000000000000000     
  -1.2924596637005412E-002  0.29632553566471204        0.0000000000000000     
  -1.9203212778971041E-002  0.26380456747004488        0.0000000000000000     
  -1.9253023776841412E-002  0.27217067510053078        0.0000000000000000     
  -1.9310029518758796E-002  0.28041811396537070        0.0000000000000000     
  -1.9374230004723176E-002  0.28854688406456480        0.0000000000000000     
  -1.9445625234734563E-002  0.29655698539811282        0.0000000000000000     
  -2.5688422818803874E-002  0.26392160071960402        0.0000000000000000     
  -2.5756074573496029E-002  0.27232333564561806        0.0000000000000000     
  -2.5831522580165810E-002  0.28061714967180851        0.0000000000000000     
  -2.5914766838813209E-002  0.28880304279817531        0.0000000000000000     
  -2.6005807349438234E-002  0.29688101502471853        0.0000000000000000     
  -1.4021186523722624E-002   5.5776844798334224E-002   0.0000000000000000     
  -1.4794491183059751E-002   6.1368703369509316E-002   0.0000000000000000     
  -1.5540807586800234E-002   6.7145637574445916E-002   0.0000000000000000     
  -1.6260135734944069E-002   7.3107647413144003E-002   0.0000000000000000     
  -1.6952475627491258E-002   7.9254732885603585E-002   0.0000000000000000     
  -1.7667968692791455E-002   5.6035799256584543E-002   0.0000000000000000     
  -1.8622695087179317E-002   6.1621503786419868E-002   0.0000000000000000     
  -1.9546432523530912E-002   6.7391595232319329E-002   0.0000000000000000     
  -2.0439181001846250E-002   7.3346073594282954E-002   0.0000000000000000     
  -2.1300940522125320E-002   7.9484938872310701E-002   0.0000000000000000     
  -2.1364288770828622E-002   5.6354037711555123E-002   0.0000000000000000     
  -2.2510329515296204E-002   6.1932007197198005E-002   0.0000000000000000     
  -2.3619224085163176E-002   6.7693529122875393E-002   0.0000000000000000     
  -2.4690972480429549E-002   7.3638603488587320E-002   0.0000000000000000     
  -2.5725574701095322E-002   7.9767230294333760E-002   0.0000000000000000     
  -2.5110146757834125E-002   5.6731560163245966E-002   0.0000000000000000     
  -2.6457394467410415E-002   6.2300213601843735E-002   0.0000000000000000     
  -2.7759182271697030E-002   6.8051439246114134E-002   0.0000000000000000     
  -2.9015510170693978E-002   7.3985237096057130E-002   0.0000000000000000     
  -3.0226378164401255E-002   8.0101607151672777E-002   0.0000000000000000     
  -2.8905542653807965E-002   5.7168366611657070E-002   0.0000000000000000     
  -3.0463889943521949E-002   6.2726123000357042E-002   0.0000000000000000     
  -3.1966307083132472E-002   6.8465325602035471E-002   0.0000000000000000     
  -3.3412794072639529E-002   7.4385974416692369E-002   0.0000000000000000     
  -3.4803350912043132E-002   8.0488069444327723E-002   0.0000000000000000     
  -1.6952475627491258E-002   7.9254732885603585E-002   0.0000000000000000     
  -1.7620338047685303E-002   8.5573609443067827E-002   0.0000000000000000     
  -1.8266233778769705E-002   9.2050992536779799E-002   0.0000000000000000     
  -1.8890162820744457E-002   9.8686882166739529E-002   0.0000000000000000     
  -1.9492125173609570E-002  0.10548127833294704        0.0000000000000000     
  -2.1300940522125320E-002   7.9484938872310701E-002   0.0000000000000000     
  -2.2133706299977445E-002   8.5795150837427531E-002   0.0000000000000000     
  -2.2939473551011943E-002   9.2263669260658335E-002   0.0000000000000000     
  -2.3718242275228812E-002   9.8890494142003113E-002   0.0000000000000000     
  -2.4470012472628051E-002  0.10567562548146191        0.0000000000000000     
  -2.5725574701095322E-002   7.9767230294333760E-002   0.0000000000000000     
  -2.6725392594827788E-002   8.6066720354876211E-002   0.0000000000000000     
  -2.7692788009294259E-002   9.2524384484976213E-002   0.0000000000000000     
  -2.8627760944494738E-002   9.9140222684633697E-002   0.0000000000000000     
  -2.9530311400429225E-002  0.10591423495384868        0.0000000000000000     
  -3.0226378164401255E-002   8.0101607151672777E-002   0.0000000000000000     
  -3.1395396932236329E-002   8.6388317995413924E-002   0.0000000000000000     
  -3.2526177153616657E-002   9.2833138209733379E-002   0.0000000000000000     
  -3.3618718828542241E-002   9.9436067794631211E-002   0.0000000000000000     
  -3.4673021957013092E-002  0.10619710675010738        0.0000000000000000     
  -3.4803350912043132E-002   8.0488069444327723E-002   0.0000000000000000     
  -3.6143719312203060E-002   8.6759943759040559E-002   0.0000000000000000     
  -3.7439640983979131E-002   9.3189930434929860E-002   0.0000000000000000     
  -3.8691115927371317E-002   9.9778029471995683E-002   0.0000000000000000     
  -3.9898144142379653E-002  0.10652424087023797        0.0000000000000000     
  -1.9492125173609570E-002  0.10548127833294704        0.0000000000000000     
  -2.0068697271477927E-002  0.11242305155911922        0.0000000000000000     
  -2.0616455548462431E-002  0.11950107236897302        0.0000000000000000     
  -2.1135400004563074E-002  0.12671534076250845        0.0000000000000000     
  -2.1625530639779865E-002  0.13406585673972546        0.0000000000000000     
  -2.4470012472628051E-002  0.10567562548146191        0.0000000000000000     
  -2.5190576280574507E-002  0.11260788657300075        0.0000000000000000     
  -2.5875725836433033E-002  0.11967610071058565        0.0000000000000000     
  -2.6525461140203620E-002  0.12688026789421669        0.0000000000000000     
  -2.7139782191886279E-002  0.13422038812389384        0.0000000000000000     
  -2.9530311400429225E-002  0.10591423495384868        0.0000000000000000     
  -3.0395649999626830E-002  0.11283512953428862        0.0000000000000000     
  -3.1218987364616670E-002  0.11989161466762092        0.0000000000000000     
  -3.2000323495398747E-002  0.12708369035384562        0.0000000000000000     
  -3.2739658391973063E-002  0.13441135659296266        0.0000000000000000     
  -3.4673021957013092E-002  0.10619710675010738        0.0000000000000000     
  -3.5683918428634900E-002  0.11310478044298292        0.0000000000000000     
  -3.6646240133013354E-002  0.12014761424007886        0.0000000000000000     
  -3.7559987070148459E-002  0.12732560814139518        0.0000000000000000     
  -3.8425159240040224E-002  0.13463876214693191        0.0000000000000000     
  -3.9898144142379653E-002  0.10652424087023797        0.0000000000000000     
  -4.1055381567598706E-002  0.11341683929908360        0.0000000000000000     
  -4.2157484141623076E-002  0.12044409942795942        0.0000000000000000     
  -4.3204451864452750E-002  0.12760602125686543        0.0000000000000000     
  -4.4196284736087749E-002  0.13490260478580163        0.0000000000000000     
  -2.1625530639779865E-002  0.13406585673972546        0.0000000000000000     
  -2.2087883853383481E-002  0.14154015298450301        0.0000000000000000     
  -2.2523496044644594E-002  0.14912576218072005        0.0000000000000000     
  -2.2932367213563207E-002  0.15682268432837645        0.0000000000000000     
  -2.3314497360139321E-002  0.16463091942747238        0.0000000000000000     
  -2.7139782191886279E-002  0.13422038812389384        0.0000000000000000     
  -2.7719635583697909E-002  0.14168404340008489        0.0000000000000000     
  -2.8265967907855405E-002  0.14925881572325767        0.0000000000000000     
  -2.8778779164358764E-002  0.15694470509341224        0.0000000000000000     
  -2.9258069353208002E-002  0.16474171151054851        0.0000000000000000     
  -3.2739658391973063E-002  0.13441135659296266        0.0000000000000000     
  -3.3438077574445516E-002  0.14186229491441782        0.0000000000000000     
  -3.4096666562922005E-002  0.14942418684765701        0.0000000000000000     
  -3.4715425357402546E-002  0.15709703239268016        0.0000000000000000     
  -3.5294353957887131E-002  0.16488083154948724        0.0000000000000000     
  -3.8425159240040224E-002  0.13463876214693191        0.0000000000000000     
  -3.9243209825626318E-002  0.14207490752750193        0.0000000000000000     
  -4.0015592009844433E-002  0.14962187555391801        0.0000000000000000     
  -4.0742305792694555E-002  0.15727966622618025        0.0000000000000000     
  -4.1423351174176712E-002  0.16504827954428866        0.0000000000000000     
  -4.4196284736087749E-002  0.13490260478580163        0.0000000000000000     
  -4.5135032337240297E-002  0.14232188123933703        0.0000000000000000     
  -4.6022744248622655E-002  0.14985188184204071        0.0000000000000000     
  -4.6859420470234801E-002  0.15749260659391259        0.0000000000000000     
  -4.7645061002076737E-002  0.16524405549495269        0.0000000000000000     
  -2.3314497360139321E-002  0.16463091942747238        0.0000000000000000     
  -2.3668028038327155E-002  0.17253892685366978        0.0000000000000000     
  -2.3991100802080903E-002  0.18053516598263061        0.0000000000000000     
  -2.4283715651400584E-002  0.18861963681435495        0.0000000000000000     
  -2.4545872586286193E-002  0.19679233934884277        0.0000000000000000     
  -2.9258069353208002E-002  0.16474171151054851        0.0000000000000000     
  -2.9701905571661635E-002  0.17263859570477957        0.0000000000000000     
  -3.0108354916978185E-002  0.18062411840621853        0.0000000000000000     
  -3.0477417389157657E-002  0.18869827961486538        0.0000000000000000     
  -3.0809092988200046E-002  0.19686107933072011        0.0000000000000000     
  -3.5294353957887131E-002  0.16488083154948724        0.0000000000000000     
  -3.5831340111365531E-002  0.17276451792863978        0.0000000000000000     
  -3.6324271564827502E-002  0.18073702514069931        0.0000000000000000     
  -3.6773148318273073E-002  0.18879835318566585        0.0000000000000000     
  -3.7177970371702222E-002  0.19694850206353937        0.0000000000000000     
  -4.1423351174176712E-002  0.16504827954428866        0.0000000000000000     
  -4.2056331657438835E-002  0.17291669352525044        0.0000000000000000     
  -4.2638850745628884E-002  0.18087388618607306        0.0000000000000000     
  -4.3170908438746845E-002  0.18891985752675639        0.0000000000000000     
  -4.3652504736792740E-002  0.19705460754730048        0.0000000000000000     
  -4.7645061002076737E-002  0.16524405549495269        0.0000000000000000     
  -4.8376880209881554E-002  0.17309512249461154        0.0000000000000000     
  -4.9052092459382288E-002  0.18103470154233961        0.0000000000000000     
  -4.9670697750578974E-002  0.18906279263813694        0.0000000000000000     
  -5.0232696083471577E-002  0.19717939578200350        0.0000000000000000     
  -2.4545872586286193E-002  0.19679233934884277        0.0000000000000000     
  -2.4778221661114125E-002  0.20503781274420271        0.0000000000000000     
  -2.4981412930260776E-002  0.21334059615854342        0.0000000000000000     
  -2.5155446393726157E-002  0.22170068959186487        0.0000000000000000     
  -2.5300322051510258E-002  0.23011809304416711        0.0000000000000000     
  -3.0809092988200046E-002  0.19686107933072011        0.0000000000000000     
  -3.1103572305075492E-002  0.20509858483593793        0.0000000000000000     
  -3.1361045930754131E-002  0.21339686341267397        0.0000000000000000     
  -3.1581513865235951E-002  0.22175591506092826        0.0000000000000000     
  -3.1764976108520970E-002  0.23017573978070077        0.0000000000000000     
  -3.7177970371702222E-002  0.19694850206353937        0.0000000000000000     
  -3.7538324455636818E-002  0.20517521629381069        0.0000000000000000     
  -3.7853797300598707E-002  0.21346624039597065        0.0000000000000000     
  -3.8124388906587883E-002  0.22182157437001926        0.0000000000000000     
  -3.8350099273604360E-002  0.23024121821595656        0.0000000000000000     
  -4.3652504736792740E-002  0.19705460754730048        0.0000000000000000     
  -4.4082478112798112E-002  0.20526770711782100        0.0000000000000000     
  -4.4459667039794509E-002  0.21354872710843348        0.0000000000000000     
  -4.4784071517781965E-002  0.22189766751913795        0.0000000000000000     
  -4.5055691546760437E-002  0.23031452834993441        0.0000000000000000     
  -5.0232696083471577E-002  0.19717939578200350        0.0000000000000000     
  -5.0736033276559359E-002  0.20537605730796879        0.0000000000000000     
  -5.1178655148341551E-002  0.21364432355006241        0.0000000000000000     
  -5.1560561698818175E-002  0.22198419450828424        0.0000000000000000     
  -5.1881752927989203E-002  0.23039567018263438        0.0000000000000000     
  -2.5300322051510258E-002  0.23011809304416711        0.0000000000000000     
  -2.5422300915673702E-002  0.23856535612022642        0.0000000000000000     
  -2.5527643998277123E-002  0.24701502842481898        0.0000000000000000     
  -2.5616351299320512E-002  0.25546710995794486        0.0000000000000000     
  -2.5688422818803874E-002  0.26392160071960402        0.0000000000000000     
  -3.1764976108520970E-002  0.23017573978070077        0.0000000000000000     
  -3.1919361965484457E-002  0.23863152672736523        0.0000000000000000     
  -3.2052600741001705E-002  0.24709846505629515        0.0000000000000000     
  -3.2164692435072730E-002  0.25557655476749064        0.0000000000000000     
  -3.2255637047697509E-002  0.26406579586095164        0.0000000000000000     
  -3.8350099273604360E-002  0.23024121821595656        0.0000000000000000     
  -3.8539719760857231E-002  0.23870442095853725        0.0000000000000000     
  -3.8702041727555585E-002  0.24719043162251625        0.0000000000000000     
  -3.8837065173699448E-002  0.25569925020789341        0.0000000000000000     
  -3.8944790099288799E-002  0.26423087671466894        0.0000000000000000     
  -4.5055691546760437E-002  0.23031452834993441        0.0000000000000000     
  -4.5283374301792016E-002  0.23878403881374266        0.0000000000000000     
  -4.5475966957938756E-002  0.24729092812348230        0.0000000000000000     
  -4.5633469515200663E-002  0.25583519627915341        0.0000000000000000     
  -4.5755881973577724E-002  0.26441684328075593        0.0000000000000000     
  -5.1881752927989203E-002  0.23039567018263438        0.0000000000000000     
  -5.2150325588288825E-002  0.23887038029298124        0.0000000000000000     
  -5.2374376432151211E-002  0.24739995455919322        0.0000000000000000     
  -5.2553905459576382E-002  0.25598439298127040        0.0000000000000000     
  -5.2688912670564317E-002  0.26462369555921272        0.0000000000000000     
  -2.5688422818803874E-002  0.26392160071960402        0.0000000000000000     
  -2.5756074573496029E-002  0.27232333564561806        0.0000000000000000     
  -2.5831522580165810E-002  0.28061714967180851        0.0000000000000000     
  -2.5914766838813209E-002  0.28880304279817531        0.0000000000000000     
  -2.6005807349438234E-002  0.29688101502471853        0.0000000000000000     
  -3.2255637047697509E-002  0.26406579586095164        0.0000000000000000     
  -3.2340257596640838E-002  0.27251327092664479        0.0000000000000000     
  -3.2433377099667531E-002  0.28086606255453689        0.0000000000000000     
  -3.2534995556777559E-002  0.28912417074462793        0.0000000000000000     
  -3.2645112967970930E-002  0.29728759549691786        0.0000000000000000     
  -3.8944790099288799E-002  0.26423087671466894        0.0000000000000000     
  -3.9044016971891519E-002  0.27273413838105176        0.0000000000000000     
  -3.9153546259075481E-002  0.28115786244525115        0.0000000000000000     
  -3.9273377960840704E-002  0.28950204890726705        0.0000000000000000     
  -3.9403512077187168E-002  0.29776669776709952        0.0000000000000000     
  -4.5755881973577724E-002  0.26441684328075593        0.0000000000000000     
  -4.5867352699248048E-002  0.27298593800883891        0.0000000000000000     
  -4.5992030058389678E-002  0.28149254934395118        0.0000000000000000     
  -4.6129914051002641E-002  0.28993667728609268        0.0000000000000000     
  -4.6281004677086929E-002  0.29831832183526363        0.0000000000000000     
  -5.2688912670564317E-002  0.26462369555921272        0.0000000000000000     
  -5.2810264778710425E-002  0.27326866981000619        0.0000000000000000     
  -5.2948828497610123E-002  0.28187012325063687        0.0000000000000000     
  -5.3104603827263390E-002  0.29042805588110487        0.0000000000000000     
  -5.3277590767670240E-002  0.29894246770141009        0.0000000000000000     
  -2.8905542653807965E-002   5.7168366611657070E-002   0.0000000000000000     
  -3.0463889943521949E-002   6.2726123000357042E-002   0.0000000000000000     
  -3.1966307083132472E-002   6.8465325602035471E-002   0.0000000000000000     
  -3.3412794072639529E-002   7.4385974416692369E-002   0.0000000000000000     
  -3.4803350912043132E-002   8.0488069444327723E-002   0.0000000000000000     
  -3.2825102508694616E-002   5.7664854367829296E-002   0.0000000000000000     
  -3.4593845125340257E-002   6.3209322806683760E-002   0.0000000000000000     
  -3.6296036049657726E-002   6.8934305850835542E-002   0.0000000000000000     
  -3.7931675281647065E-002   7.4839803500284602E-002   0.0000000000000000     
  -3.9500762821308232E-002   8.0925815755030966E-002   0.0000000000000000     
  -3.6943452372438540E-002   5.8221420742803502E-002   0.0000000000000000     
  -3.8911289194574761E-002   6.3749400434769732E-002   0.0000000000000000     
  -4.0803806701461040E-002   6.9457497652710379E-002   0.0000000000000000     
  -4.2621004893097413E-002   7.5345712396625436E-002   0.0000000000000000     
  -4.4362883769483850E-002   8.1414044666514890E-002   0.0000000000000000     
  -4.1260592245039744E-002   5.8838065736579681E-002   0.0000000000000000     
  -4.3416222151225467E-002   6.4346355884614945E-002   0.0000000000000000     
  -4.5489619038542414E-002   7.0034901007660008E-002   0.0000000000000000     
  -4.7480782906990579E-002   7.5903701105714858E-002   0.0000000000000000     
  -4.9389713756569982E-002   8.1952756178779479E-002   0.0000000000000000     
  -4.5776522126498229E-002   5.9514789349157833E-002   0.0000000000000000     
  -4.8108643995292369E-002   6.5000189156219385E-002   0.0000000000000000     
  -5.0353473060901821E-002   7.0666515915684389E-002   0.0000000000000000     
  -5.2511009323326592E-002   7.6513769627552852E-002   0.0000000000000000     
  -5.4581252782566647E-002   8.2541950291824734E-002   0.0000000000000000     
  -3.4803350912043132E-002   8.0488069444327723E-002   0.0000000000000000     
  -3.6143719312203060E-002   8.6759943759040559E-002   0.0000000000000000     
  -3.7439640983979131E-002   9.3189930434929860E-002   0.0000000000000000     
  -3.8691115927371317E-002   9.9778029471995683E-002   0.0000000000000000     
  -3.9898144142379653E-002  0.10652424087023797        0.0000000000000000     
  -3.9500762821308232E-002   8.0925815755030966E-002   0.0000000000000000     
  -4.1011378539993960E-002   8.7181134694759313E-002   0.0000000000000000     
  -4.2471602309056958E-002   9.3594552399154290E-002   0.0000000000000000     
  -4.3881434128497217E-002  0.10016606886821593        0.0000000000000000     
  -4.5240873998314758E-002  0.10689568410194425        0.0000000000000000     
  -4.4362883769483850E-002   8.1414044666514890E-002   0.0000000000000000     
  -4.6039393420874979E-002   8.7651427851573316E-002   0.0000000000000000     
  -4.7660483937525422E-002   9.4046795340995290E-002   0.0000000000000000     
  -4.9226155319435180E-002  0.10060014713478085        0.0000000000000000     
  -5.0736407566604247E-002  0.10731148323292994        0.0000000000000000     
  -4.9389713756569982E-002   8.1952756178779479E-002   0.0000000000000000     
  -5.1227763954846135E-002   8.8170823229482581E-002   0.0000000000000000     
  -5.3006285869384544E-002   9.4546659260452900E-002   0.0000000000000000     
  -5.4725279500185200E-002  0.10108026427169040        0.0000000000000000     
  -5.6384744847248112E-002  0.10777163826319509        0.0000000000000000     
  -5.4581252782566647E-002   8.2541950291824734E-002   0.0000000000000000     
  -5.6576490141907410E-002   8.8739320828487123E-002   0.0000000000000000     
  -5.8509008104634296E-002   9.5094144157527080E-002   0.0000000000000000     
  -6.0378806670747284E-002  0.10160642027894459        0.0000000000000000     
  -6.2185885840246383E-002  0.10827614919273967        0.0000000000000000     
  -3.9898144142379653E-002  0.10652424087023797        0.0000000000000000     
  -4.1055381567598706E-002  0.11341683929908360        0.0000000000000000     
  -4.2157484141623076E-002  0.12044409942795942        0.0000000000000000     
  -4.3204451864452750E-002  0.12760602125686543        0.0000000000000000     
  -4.4196284736087749E-002  0.13490260478580163        0.0000000000000000     
  -4.5240873998314758E-002  0.10689568410194425        0.0000000000000000     
  -4.6544323390118006E-002  0.11377145173802472        0.0000000000000000     
  -4.7786183775515446E-002  0.12078142541414287        0.0000000000000000     
  -4.8966455154507052E-002  0.12792560513029874        0.0000000000000000     
  -5.0085137527092830E-002  0.13520399088649232        0.0000000000000000     
  -5.0736407566604247E-002  0.10731148323292994        0.0000000000000000     
  -5.2185027869792559E-002  0.11416876339524024        0.0000000000000000     
  -5.3565803419760055E-002  0.12115994738150941        0.0000000000000000     
  -5.4878734216506748E-002  0.12828503519173748        0.0000000000000000     
  -5.6123820260032625E-002  0.13554402682592440        0.0000000000000000     
  -5.6384744847248112E-002  0.10777163826319509        0.0000000000000000     
  -5.7977495006622345E-002  0.11460877427073021        0.0000000000000000     
  -5.9496343074356930E-002  0.12157966533005908        0.0000000000000000     
  -6.0941289050451861E-002  0.12868431144118161        0.0000000000000000     
  -6.2312332934907157E-002  0.13592271260409794        0.0000000000000000     
  -6.2185885840246383E-002  0.10827614919273967        0.0000000000000000     
  -6.3921724800607371E-002  0.11509148436449465        0.0000000000000000     
  -6.5577802739306051E-002  0.12204057925979181        0.0000000000000000     
  -6.7154119656342368E-002  0.12912343387863121        0.0000000000000000     
  -6.8650675551716389E-002  0.13634004822101281        0.0000000000000000     
  -4.4196284736087749E-002  0.13490260478580163        0.0000000000000000     
  -4.5135032337240297E-002  0.14232188123933703        0.0000000000000000     
  -4.6022744248622655E-002  0.14985188184204071        0.0000000000000000     
  -4.6859420470234801E-002  0.15749260659391259        0.0000000000000000     
  -4.7645061002076737E-002  0.16524405549495269        0.0000000000000000     
  -5.0085137527092830E-002  0.13520399088649232        0.0000000000000000     
  -5.1144982109762455E-002  0.14260477071540070        0.0000000000000000     
  -5.2148740119005617E-002  0.15011613264970103        0.0000000000000000     
  -5.3096411554822275E-002  0.15773807668939330        0.0000000000000000     
  -5.3987996417212483E-002  0.16547060283447751        0.0000000000000000     
  -5.6123820260032625E-002  0.13554402682592440        0.0000000000000000     
  -5.7304496143667769E-002  0.14292513062117021        0.0000000000000000     
  -5.8424196460742248E-002  0.15041655491457495        0.0000000000000000     
  -5.9482921211256062E-002  0.15801829970613857        0.0000000000000000     
  -6.0480670395209213E-002  0.16573036499586108        0.0000000000000000     
  -6.2312332934907157E-002  0.13592271260409794        0.0000000000000000     
  -6.3613574438956225E-002  0.14328296095664561        0.0000000000000000     
  -6.4849113273832582E-002  0.15075314863666242        0.0000000000000000     
  -6.6018949439536109E-002  0.15833327564414845        0.0000000000000000     
  -6.7123082936066919E-002  0.16602334197910354        0.0000000000000000     
  -6.8650675551716389E-002  0.13634004822101281        0.0000000000000000     
  -7.0072216995627851E-002  0.14367826172182688        0.0000000000000000     
  -7.1423490558276556E-002  0.15112591381596352        0.0000000000000000     
  -7.2704496239662464E-002  0.15868300450342285        0.0000000000000000     
  -7.3915234039785616E-002  0.16634953378420475        0.0000000000000000     
  -4.7645061002076737E-002  0.16524405549495269        0.0000000000000000     
  -4.8376880209881554E-002  0.17309512249461154        0.0000000000000000     
  -4.9052092459382288E-002  0.18103470154233961        0.0000000000000000     
  -4.9670697750578974E-002  0.18906279263813694        0.0000000000000000     
  -5.0232696083471577E-002  0.19717939578200350        0.0000000000000000     
  -5.3987996417212483E-002  0.16547060283447751        0.0000000000000000     
  -5.4820413147960038E-002  0.17330256228301794        0.0000000000000000     
  -5.5590580188848784E-002  0.18122280623307901        0.0000000000000000     
  -5.6298497539878721E-002  0.18923133468466069        0.0000000000000000     
  -5.6944165201049848E-002  0.19732814763776288        0.0000000000000000     
  -6.0480670395209213E-002  0.16573036499586108        0.0000000000000000     
  -6.1414357850940668E-002  0.17354177033676460        0.0000000000000000     
  -6.2280897416789389E-002  0.18144153528187112        0.0000000000000000     
  -6.3080289092755384E-002  0.18942965983118062        0.0000000000000000     
  -6.3812532878838646E-002  0.19750614398469318        0.0000000000000000     
  -6.7123082936066919E-002  0.16602334197910354        0.0000000000000000     
  -6.8158714318823435E-002  0.17381274665585147        0.0000000000000000     
  -6.9123044143204110E-002  0.18169088868871594        0.0000000000000000     
  -7.0016072409208985E-002  0.18965776807769688        0.0000000000000000     
  -7.0837799116837991E-002  0.19771338482279435        0.0000000000000000     
  -7.3915234039785616E-002  0.16634953378420475        0.0000000000000000     
  -7.5053482551608319E-002  0.17411549124027853        0.0000000000000000     
  -7.6117020368092939E-002  0.18197086645361343        0.0000000000000000     
  -7.7105847489239446E-002  0.18991565942420938        0.0000000000000000     
  -7.8019963915047869E-002  0.19794987015206644        0.0000000000000000     
  -5.0232696083471577E-002  0.19717939578200350        0.0000000000000000     
  -5.0736033276559359E-002  0.20537605730796879        0.0000000000000000     
  -5.1178655148341551E-002  0.21364432355006241        0.0000000000000000     
  -5.1560561698818175E-002  0.22198419450828424        0.0000000000000000     
  -5.1881752927989203E-002  0.23039567018263438        0.0000000000000000     
  -5.6944165201049848E-002  0.19732814763776288        0.0000000000000000     
  -5.7524979091887238E-002  0.20550641289285906        0.0000000000000000     
  -5.8038335131916002E-002  0.21375929825042261        0.0000000000000000     
  -5.8484233321136128E-002  0.22208680371045358        0.0000000000000000     
  -5.8862673659547615E-002  0.23048892927295184        0.0000000000000000     
  -6.3812532878838646E-002  0.19750614398469318        0.0000000000000000     
  -6.4475304703748446E-002  0.20566491990109675        0.0000000000000000     
  -6.5066280496194048E-002  0.21389991973907943        0.0000000000000000     
  -6.5585460256175440E-002  0.22221114349864124        0.0000000000000000     
  -6.6032843983692649E-002  0.23059859117978215        0.0000000000000000     
  -7.0837799116837991E-002  0.19771338482279435        0.0000000000000000     
  -7.1587010112142968E-002  0.20585157833268183        0.0000000000000000     
  -7.2262491241175689E-002  0.21406618801603280        0.0000000000000000     
  -7.2864242503936125E-002  0.22235721387284735        0.0000000000000000     
  -7.3392263900424290E-002  0.23072465590312535        0.0000000000000000     
  -7.8019963915047869E-002  0.19794987015206644        0.0000000000000000     
  -7.8860095317070819E-002  0.20606638818761433        0.0000000000000000     
  -7.9626967366860910E-002  0.21425810308128276        0.0000000000000000     
  -8.0320580064418168E-002  0.22252501483307183        0.0000000000000000     
  -8.0940933409742566E-002  0.23086712344298146        0.0000000000000000     
  -5.1881752927989203E-002  0.23039567018263438        0.0000000000000000     
  -5.2150325588288825E-002  0.23887038029298124        0.0000000000000000     
  -5.2374376432151211E-002  0.24739995455919322        0.0000000000000000     
  -5.2553905459576382E-002  0.25598439298127040        0.0000000000000000     
  -5.2688912670564317E-002  0.26462369555921272        0.0000000000000000     
  -5.8862673659547615E-002  0.23048892927295184        0.0000000000000000     
  -5.9179718085775664E-002  0.23896482866570309        0.0000000000000000     
  -5.9441428538445501E-002  0.24751365561649288        0.0000000000000000     
  -5.9647805017557121E-002  0.25613541012532137        0.0000000000000000     
  -5.9798847523110502E-002  0.26483009219218834        0.0000000000000000     
  -6.6032843983692649E-002  0.23059859117978215        0.0000000000000000     
  -6.6410696259680560E-002  0.23906876720135814        0.0000000000000000     
  -6.6721281665074142E-002  0.24762817598222511        0.0000000000000000     
  -6.6964600199873367E-002  0.25627681752238307        0.0000000000000000     
  -6.7140651864078263E-002  0.26501469182183213        0.0000000000000000     
  -7.3392263900424290E-002  0.23072465590312535        0.0000000000000000     
  -7.3843260110003542E-002  0.23918219589994638        0.0000000000000000     
  -7.4213935812037141E-002  0.24774351565638980        0.0000000000000000     
  -7.4504291006525170E-002  0.25640861517245567        0.0000000000000000     
  -7.4714325693467573E-002  0.26517749444814398        0.0000000000000000     
  -8.0940933409742566E-002  0.23086712344298146        0.0000000000000000     
  -8.1477409636744533E-002  0.23930511476146782        0.0000000000000000     
  -8.1919390979334525E-002  0.24785967463898700        0.0000000000000000     
  -8.2266877437512473E-002  0.25653080307553899        0.0000000000000000     
  -8.2519869011278446E-002  0.26531850007112390        0.0000000000000000     
  -5.2688912670564317E-002  0.26462369555921272        0.0000000000000000     
  -5.2810264778710425E-002  0.27326866981000619        0.0000000000000000     
  -5.2948828497610123E-002  0.28187012325063687        0.0000000000000000     
  -5.3104603827263390E-002  0.29042805588110487        0.0000000000000000     
  -5.3277590767670240E-002  0.29894246770141009        0.0000000000000000     
  -5.9798847523110502E-002  0.26483009219218834        0.0000000000000000     
  -5.9931484061297245E-002  0.27355360023078090        0.0000000000000000     
  -6.0082642638308904E-002  0.28226183265478594        0.0000000000000000     
  -6.0252323254145486E-002  0.29095478946420322        0.0000000000000000     
  -6.0440525908806990E-002  0.29963247065903320        0.0000000000000000     
  -6.7140651864078263E-002  0.26501469182183213        0.0000000000000000     
  -6.7289741398027070E-002  0.27381199571739023        0.0000000000000000     
  -6.7452173542058166E-002  0.28263892604587548        0.0000000000000000     
  -6.7627948296171483E-002  0.29149548280728776        0.0000000000000000     
  -6.7817065660367062E-002  0.30038166600162725        0.0000000000000000     
  -7.4714325693467573E-002  0.26517749444814398        0.0000000000000000     
  -7.4885036788899961E-002  0.27404385626983407        0.0000000000000000     
  -7.5057421208857888E-002  0.28300140342390556        0.0000000000000000     
  -7.5231478953341424E-002  0.29205013591035822        0.0000000000000000     
  -7.5407210022350513E-002  0.30119005372919222        0.0000000000000000     
  -8.2519869011278446E-002  0.26531850007112390        0.0000000000000000     
  -8.2717370233915830E-002  0.27424918188811259        0.0000000000000000     
  -8.2898385638708105E-002  0.28334926478887629        0.0000000000000000     
  -8.3062915225655259E-002  0.29261874877341471        0.0000000000000000     
  -8.3210958994757278E-002  0.30205763384172812        0.0000000000000000     
  -4.5776522126498229E-002   5.9514789349157833E-002   0.0000000000000000     
  -4.8108643995292369E-002   6.5000189156219385E-002   0.0000000000000000     
  -5.0353473060901821E-002   7.0666515915684389E-002   0.0000000000000000     
  -5.2511009323326592E-002   7.6513769627552852E-002   0.0000000000000000     
  -5.4581252782566647E-002   8.2541950291824734E-002   0.0000000000000000     
  -5.0454722217567194E-002   6.0249426760429076E-002   0.0000000000000000     
  -5.2963989053763878E-002   6.5710234849830171E-002   0.0000000000000000     
  -5.5380853318151103E-002   7.1352581751674346E-002   0.0000000000000000     
  -5.7705315010728883E-002   7.7176467465961629E-002   0.0000000000000000     
  -5.9937374131497231E-002   8.3181891992692020E-002   0.0000000000000000     
  -5.5258672718999854E-002   6.1039813150284547E-002   0.0000000000000000     
  -5.7957691653628338E-002   6.6475827565694340E-002   0.0000000000000000     
  -6.0557244359902049E-002   7.2093337890520637E-002   0.0000000000000000     
  -6.3057330837820988E-002   7.7892344124763396E-002   0.0000000000000000     
  -6.5457951087385155E-002   8.3872846268422646E-002   0.0000000000000000     
  -6.0188373630796189E-002   6.1885948518724213E-002   0.0000000000000000     
  -6.3089751794885754E-002   6.7296967303811905E-002   0.0000000000000000     
  -6.5882646186154664E-002   7.2888784332223192E-002   0.0000000000000000     
  -6.8567056804602872E-002   7.8661399603958140E-002   0.0000000000000000     
  -7.1142983650230446E-002   8.4614813119016682E-002   0.0000000000000000     
  -6.5243824952956206E-002   6.2787832865748100E-002   0.0000000000000000     
  -6.8360169477536162E-002   6.8173654064182881E-002   0.0000000000000000     
  -7.1357058796908956E-002   7.3738921076782121E-002   0.0000000000000000     
  -7.4234492911074576E-002   7.9483633903545847E-002   0.0000000000000000     
  -7.6992471820033062E-002   8.5407792544474045E-002   0.0000000000000000     
  -5.4581252782566647E-002   8.2541950291824734E-002   0.0000000000000000     
  -5.6576490141907410E-002   8.8739320828487123E-002   0.0000000000000000     
  -5.8509008104634296E-002   9.5094144157527080E-002   0.0000000000000000     
  -6.0378806670747284E-002  0.10160642027894459        0.0000000000000000     
  -6.2185885840246383E-002  0.10827614919273967        0.0000000000000000     
  -5.9937374131497231E-002   8.3181891992692020E-002   0.0000000000000000     
  -6.2090213809120089E-002   8.9356709292905137E-002   0.0000000000000000     
  -6.4177017172261416E-002   9.5688773327640628E-002   0.0000000000000000     
  -6.6197784220921221E-002  0.10217808409689851        0.0000000000000000     
  -6.8152514955099497E-002  0.10882464160067876        0.0000000000000000     
  -6.5457951087385155E-002   8.3872846268422646E-002   0.0000000000000000     
  -6.7773576783545425E-002   9.0022777267054835E-002   0.0000000000000000     
  -7.0018679601252645E-002   9.6330070066216369E-002   0.0000000000000000     
  -7.2193259540506816E-002  0.10279472466590722        0.0000000000000000     
  -7.4297316601307950E-002  0.10941674106612742        0.0000000000000000     
  -7.1142983650230446E-002   8.4614813119016682E-002   0.0000000000000000     
  -7.3626579065183426E-002   9.0737524750936230E-002   0.0000000000000000     
  -7.6033995391607975E-002   9.7018034373254250E-002   0.0000000000000000     
  -7.8365232629504067E-002  0.10345634198597072        0.0000000000000000     
  -8.0620290778871714E-002  0.11005244758908563        0.0000000000000000     
  -7.6992471820033062E-002   8.5407792544474045E-002   0.0000000000000000     
  -7.9649220654034084E-002   9.1500951744549336E-002   0.0000000000000000     
  -8.2222964543327379E-002   9.7752666248754339E-002   0.0000000000000000     
  -8.4713703487912947E-002  0.10416293605708903        0.0000000000000000     
  -8.7121437487790804E-002  0.11073176116955342        0.0000000000000000     
  -6.2185885840246383E-002  0.10827614919273967        0.0000000000000000     
  -6.3921724800607371E-002  0.11509148436449465        0.0000000000000000     
  -6.5577802739306051E-002  0.12204057925979181        0.0000000000000000     
  -6.7154119656342368E-002  0.12912343387863121        0.0000000000000000     
  -6.8650675551716389E-002  0.13634004822101281        0.0000000000000000     
  -6.8152514955099497E-002  0.10882464160067876        0.0000000000000000     
  -7.0031412051010739E-002  0.11561671615810791        0.0000000000000000     
  -7.1824678184869373E-002  0.12254257808831252        0.0000000000000000     
  -7.3532313356675441E-002  0.12960222739129257        0.0000000000000000     
  -7.5154317566428930E-002  0.13679566406704805        0.0000000000000000     
  -7.4297316601307950E-002  0.10941674106612742        0.0000000000000000     
  -7.6320251557095500E-002  0.11618429213314448        0.0000000000000000     
  -7.8251465181308877E-002  0.12308555073322602        0.0000000000000000     
  -8.0090957473948177E-002  0.13012051686637199        0.0000000000000000     
  -8.1838728435013317E-002  0.13728919053258240        0.0000000000000000     
  -8.0620290778871714E-002  0.11005244758908563        0.0000000000000000     
  -8.2788243318861657E-002  0.11679421228960440        0.0000000000000000     
  -8.4858163728624592E-002  0.12366949719453234        0.0000000000000000     
  -8.6830052008160574E-002  0.13067830230386954        0.0000000000000000     
  -8.8703908157469549E-002  0.13782062761761590        0.0000000000000000     
  -8.7121437487790804E-002  0.11073176116955342        0.0000000000000000     
  -8.9435387336309222E-002  0.11744647662748756        0.0000000000000000     
  -9.1644773826816489E-002  0.12429441747223147        0.0000000000000000     
  -9.3749596959312634E-002  0.13127558370378514        0.0000000000000000     
  -9.5749856733797656E-002  0.13838997532214858        0.0000000000000000     
  -6.8650675551716389E-002  0.13634004822101281        0.0000000000000000     
  -7.0072216995627851E-002  0.14367826172182688        0.0000000000000000     
  -7.1423490558276556E-002  0.15112591381596352        0.0000000000000000     
  -7.2704496239662464E-002  0.15868300450342285        0.0000000000000000     
  -7.3915234039785616E-002  0.16634953378420475        0.0000000000000000     
  -7.5154317566428930E-002  0.13679566406704805        0.0000000000000000     
  -7.6696107211652015E-002  0.14411052534488669        0.0000000000000000     
  -7.8163098689866900E-002  0.15153444845411623        0.0000000000000000     
  -7.9555292001073558E-002  0.15906743339473664        0.0000000000000000     
  -8.0872687145272015E-002  0.16670948016674794        0.0000000000000000     
  -8.1838728435013317E-002  0.13728919053258240        0.0000000000000000     
  -8.3500928484998099E-002  0.14457924425399774        0.0000000000000000     
  -8.5083708044396272E-002  0.15197835055275846        0.0000000000000000     
  -8.6587067113207850E-002  0.15948650942886466        0.0000000000000000     
  -8.8011005691432845E-002  0.16710372088231620        0.0000000000000000     
  -8.8703908157469549E-002  0.13782062761761590        0.0000000000000000     
  -9.0486680815666076E-002  0.14508441844916006        0.0000000000000000     
  -9.2185318621864687E-002  0.15245762011189032        0.0000000000000000     
  -9.3799821576065368E-002  0.15994023260580684        0.0000000000000000     
  -9.5330189678268118E-002  0.16753225593090953        0.0000000000000000     
  -9.5749856733797656E-002  0.13838997532214858        0.0000000000000000     
  -9.7653364203656001E-002  0.14562604793037354        0.0000000000000000     
  -9.9467930422272144E-002  0.15297225713151172        0.0000000000000000     
 -0.10119355538964610       0.16042860292556319        0.0000000000000000     
 -0.10283023910577785       0.16799508531252794        0.0000000000000000     
  -7.3915234039785616E-002  0.16634953378420475        0.0000000000000000     
  -7.5053482551608319E-002  0.17411549124027853        0.0000000000000000     
  -7.6117020368092939E-002  0.18197086645361343        0.0000000000000000     
  -7.7105847489239446E-002  0.18991565942420938        0.0000000000000000     
  -7.8019963915047869E-002  0.19794987015206644        0.0000000000000000     
  -8.0872687145272015E-002  0.16670948016674794        0.0000000000000000     
  -8.2113798559607307E-002  0.17445108481996857        0.0000000000000000     
  -8.3277140681224521E-002  0.18228274340421696        0.0000000000000000     
  -8.4362713510123657E-002  0.19020445591949317        0.0000000000000000     
  -8.5370517046304675E-002  0.19821622236579711        0.0000000000000000     
  -8.8011005691432845E-002  0.16710372088231620        0.0000000000000000     
  -8.9354798353132370E-002  0.17482060812484426        0.0000000000000000     
  -9.0617719672367522E-002  0.18262779436817994        0.0000000000000000     
  -9.1799769649138357E-002  0.19052527961232321        0.0000000000000000     
  -9.2900948283444834E-002  0.19851306385727405        0.0000000000000000     
  -9.5330189678268118E-002  0.16753225593090953        0.0000000000000000     
  -9.6776481932183467E-002  0.17522406115490563        0.0000000000000000     
  -9.8138757341521957E-002  0.18300601934550229        0.0000000000000000     
  -9.9417015906283560E-002  0.19087813050269956        0.0000000000000000     
 -0.10061125762646828       0.19884039462649736        0.0000000000000000     
 -0.10283023910577785       0.16799508531252794        0.0000000000000000     
 -0.10437884929676067       0.17566144391015265        0.0000000000000000     
 -0.10584025368868780       0.18341741833618405        0.0000000000000000     
 -0.10721445228155929       0.19126300859062212        0.0000000000000000     
 -0.10850144507537510       0.19919821467346688        0.0000000000000000     
  -7.8019963915047869E-002  0.19794987015206644        0.0000000000000000     
  -7.8860095317070819E-002  0.20606638818761433        0.0000000000000000     
  -7.9626967366860910E-002  0.21425810308128276        0.0000000000000000     
  -8.0320580064418168E-002  0.22252501483307183        0.0000000000000000     
  -8.0940933409742566E-002  0.23086712344298146        0.0000000000000000     
  -8.5370517046304675E-002  0.19821622236579711        0.0000000000000000     
  -8.6303383852929225E-002  0.20631008176040952        0.0000000000000000     
  -8.7164146493158859E-002  0.21447807312061107        0.0000000000000000     
  -8.7952804966993578E-002  0.22272019644640173        0.0000000000000000     
  -8.8669359274433382E-002  0.23103645173778153        0.0000000000000000     
  -9.2900948283444834E-002  0.19851306385727405        0.0000000000000000     
  -9.3925699254115397E-002  0.20658339134558279        0.0000000000000000     
  -9.4878466239978587E-002  0.21472850631979939        0.0000000000000000     
  -9.5759249241034336E-002  0.22294840877992397        0.0000000000000000     
  -9.6568048257282699E-002  0.23124309872595650        0.0000000000000000     
 -0.10061125762646828       0.19884039462649736        0.0000000000000000     
 -0.10172704152062939       0.20688631694313395        0.0000000000000000     
 -0.10276992660732012       0.21500940267884777        0.0000000000000000     
 -0.10373991288654050       0.22320965183363861        0.0000000000000000     
 -0.10463700035829046       0.23148706440750660        0.0000000000000000     
 -0.10850144507537510       0.19919821467346688        0.0000000000000000     
 -0.10970741065247118       0.20721885855306327        0.0000000000000000     
 -0.11083852759518346       0.21532076219775617        0.0000000000000000     
 -0.11189479590351199       0.22350392560754564        0.0000000000000000     
 -0.11287621557745672       0.23176834878243163        0.0000000000000000     
  -8.0940933409742566E-002  0.23086712344298146        0.0000000000000000     
  -8.1477409636744533E-002  0.23930511476146782        0.0000000000000000     
  -8.1919390979334525E-002  0.24785967463898700        0.0000000000000000     
  -8.2266877437512473E-002  0.25653080307553899        0.0000000000000000     
  -8.2519869011278446E-002  0.26531850007112390        0.0000000000000000     
  -8.8669359274433382E-002  0.23103645173778153        0.0000000000000000     
  -8.9299447969515389E-002  0.23945247594305080        0.0000000000000000     
  -8.9828709606276605E-002  0.24799390601050997        0.0000000000000000     
  -9.0257144184717072E-002  0.25666074194015914        0.0000000000000000     
  -9.0584751704836805E-002  0.26545298373199810        0.0000000000000000     
  -9.6568048257282699E-002  0.23124309872595650        0.0000000000000000     
  -9.7295678237927785E-002  0.23963923160182374        0.0000000000000000     
  -9.7932954132173802E-002  0.24816346285145216        0.0000000000000000     
  -9.8479875940020750E-002  0.25681579247484188        0.0000000000000000     
  -9.8936443661468615E-002  0.26559622047199288        0.0000000000000000     
 -0.10463700035829046       0.23148706440750660        0.0000000000000000     
 -0.10546610044198179       0.23986538173778657        0.0000000000000000     
 -0.10623212455702612       0.24836834516181347        0.0000000000000000     
 -0.10693507270342351       0.25699595467958736        0.0000000000000000     
 -0.10757494488117389       0.26574821029110807        0.0000000000000000     
 -0.11287621557745672       0.23176834878243163        0.0000000000000000     
 -0.11381071458167735       0.24013092635093936        0.0000000000000000     
 -0.11472622088083355       0.24860855294159395        0.0000000000000000     
 -0.11562273447492528       0.25720122855439548        0.0000000000000000     
 -0.11650025536395259       0.26590895318934388        0.0000000000000000     
  -8.2519869011278446E-002  0.26531850007112390        0.0000000000000000     
  -8.2717370233915830E-002  0.27424918188811259        0.0000000000000000     
  -8.2898385638708105E-002  0.28334926478887629        0.0000000000000000     
  -8.3062915225655259E-002  0.29261874877341471        0.0000000000000000     
  -8.3210958994757278E-002  0.30205763384172812        0.0000000000000000     
  -9.0584751704836805E-002  0.26545298373199810        0.0000000000000000     
  -9.0841869708342335E-002  0.27443366435549083        0.0000000000000000     
  -9.1058835736940222E-002  0.28366581678010111        0.0000000000000000     
  -9.1235649790630508E-002  0.29314944100582896        0.0000000000000000     
  -9.1372311869413136E-002  0.30288453703267443        0.0000000000000000     
  -9.8936443661468615E-002  0.26559622047199288        0.0000000000000000     
  -9.9313663187447068E-002  0.27460299545523392        0.0000000000000000     
  -9.9622540408885768E-002  0.28393436603689381        0.0000000000000000     
  -9.9863075325784700E-002  0.29359033221697267        0.0000000000000000     
 -0.10003526793814385       0.30357089399547044        0.0000000000000000     
 -0.10757494488117389       0.26574821029110807        0.0000000000000000     
 -0.10813275067123004       0.27475717518734177        0.0000000000000000     
 -0.10858949965454466       0.28415491255925435        0.0000000000000000     
 -0.10894519183111778       0.29394142240684584        0.0000000000000000     
 -0.10919982720094942       0.30411670473011621        0.0000000000000000     
 -0.11650025536395259       0.26590895318934388        0.0000000000000000     
 -0.11729913215969122       0.27489620355181454        0.0000000000000000     
 -0.11795971347391697       0.28432745634718265        0.0000000000000000     
 -0.11848199930662985       0.29420271157544842        0.0000000000000000     
 -0.11886598965782980       0.30452196923661162        0.0000000000000000     
 </DataArray>
 <DataArray  type="Float64" Name="stress" NumberOfComponents="3" format="ascii">
   6112656400.6321335        48659925.252176046        131277579.90771303     
   5876632222.9076023        26425926.174602032        100392094.89993194     
   5641671309.1727753        7736140.3960416317        78330021.228733256     
   5407773659.4276476       -7409432.0835435390        65091358.894093961     
   5174939273.6722097       -19010791.264139414        60676107.896037079     
   5682814056.6089544        26745277.589852810        242247530.14921826     
   5469810551.0001431        11029719.168321848        221670635.78143123     
   5257455866.3501921       -2523102.7236971855        208474283.86084118     
   5045750002.6590834       -13913188.086216450        202658474.38745838     
   4834692959.9268322       -23140536.919226885        204223207.36127767     
   5281632595.0562649        13428894.668672800        353310099.98743868     
   5087527279.0221329        2995032.1408627033        342558279.39030796     
   4893656340.9160080       -6657570.6269090176        337744132.35101056     
   4700019780.7378902       -15528913.634674788        338867658.86955863     
   4506617598.4877796       -23618996.882412910        345928858.94594264     
   4909112015.9740934        8710776.4886519909        464465289.42236793     
   4729782406.9735870        2321865.0922563076        463055025.72657466     
   4550272732.8702488       -4667263.3135972023        466139566.69925934     
   4370582993.6640673       -12256608.728920698        473718912.34041095     
   4190713189.3550482       -20446171.153707743        485793062.65003866     
   4565252319.3624048        12590923.049772263        575713098.45400345     
   4396575934.8544941        9010218.0224797726        583160874.79023099     
   4227305042.2128944        3447819.2162387371        593660586.90556765     
   4057439641.4376087       -4096273.3689570427        607212234.80001128     
   3886979732.5286350       -13622059.733110666        623815818.47356343     
   5174939273.6722097       -19010791.264139414        60676107.896037079     
   5019252054.9841700       -6736543.9837360382        47981979.732229039     
   4862983851.2124281        3601086.3510046005        40760353.529649511     
   4706134662.3569899        12002099.740080595        39011229.288317725     
   4548704488.4178581        18466496.183524609        42734607.008222148     
   4834692959.9268322       -23140536.919226885        204223207.36127767     
   4691930794.9622765       -11468259.165292501        194797795.93069333     
   4548790905.6915979       -1055062.4317646027        189981147.60152134     
   4405273292.1147890        8099053.2813231945        189773262.37373644     
   4261377954.2318525        15994087.974003792        194174140.24735427     
   4506617598.4877796       -23618996.882412910        345928858.94594264     
   4374312661.9328842       -13289036.249091387        340009301.82243091     
   4241833261.8494434       -3540620.7109375000        337834768.94047827     
   4109179398.2374411        5626249.7320151329        339405260.30008435     
   3976351071.0968866        14211575.079798698        344720775.90125847     
   4190713189.3550482       -20446171.153707743        485793062.65003866     
   4066397655.8960018       -12198875.235134125        483616497.40742296     
   3942110919.6859703       -3855588.4865098000        484321217.54652715     
   3817852980.7249546        4583689.0921649933        487907223.06735951     
   3693623839.0129547        13118957.500901699        494374513.96991217     
   3886979732.5286350       -13622059.733110666        623815818.47356343     
   3768185776.8516140       -8197776.1234354973        625619382.68567276     
   3649623879.2011776       -1999965.7584741116        629440493.41967046     
   3531294039.5773296        4971371.3617794514        635279150.67555535     
   3413196257.9800682        12716235.237321615        643135354.45332932     
   4548704488.4178581        18466496.183524609        42734607.008222148     
   4345608248.6054916        10684531.887132645        32941289.127496310     
   4142732637.1881452        3637995.5741305351        28052421.459473509     
   3940077654.1658068       -2673112.7554976940        28068004.004155662     
   3737643299.5384960       -8248793.1017193794        32988036.761526763     
   4261377954.2318525        15994087.974003792        194174140.24735427     
   4071262529.3921180        9681645.0887031555        185322022.58146334     
   3881299696.0073376        3877840.3866038322        181211576.66386786     
   3691489454.0775247       -1417326.1322748661        181842802.49457327     
   3501831803.6026683       -6203854.4679634571        187215700.07357728     
   3976351071.0968866        14211575.079798698        344720775.90125847     
   3798751379.9029317        9229129.2075181007        336730482.02011853     
   3621236243.2238908        4528531.7182867527        333319081.42288691     
   3443805661.0597563        109782.61207580566        334486574.10956341     
   3266459633.4105344       -4027118.1110930443        340232960.08015186     
   3693623839.0129547        13118957.500901699        494374513.96991217     
   3528074800.1379542        9326984.2436149120        487166667.44347000     
   3362542278.8378048        5590069.5691769123        484374935.73654509     
   3197026275.1125135        1908213.4775971174        485999318.84913439     
   3031526788.9620805       -1718584.0311216116        492039816.78124082     
   3413196257.9800682        12716235.237321615        643135354.45332932     
   3259232790.0971708        9975210.1969581842        636630578.85151887     
   3105217802.8490782        7062453.9392677546        634379139.60483670     
   2951151296.2357931        3977966.4642717838        636381036.71327627     
   2797033270.2573094        721747.77195441723        642636270.17683721     
   3737643299.5384960       -8248793.1017193794        32988036.761526763     
   3567992344.5937757       -4527969.3815128803        25101770.417344473     
   3397765695.8661423       -2726124.9376966953        20798828.127277512     
   3226963353.3556023       -2843259.7702286243        20079209.891321402     
   3055585317.0621271       -4879373.8792103529        22942915.709461402     
   3501831803.6026683       -6203854.4679634571        187215700.07357728     
   3341400644.2573876       -2511332.8779985905        178913267.10140401     
   3180626411.6462078        37611.158975362778        174126191.79705140     
   3019509105.7691441        1442977.6430026293        172854474.16052458     
   2858048726.6261902        1704766.5740553141        175098114.19180816     
   3266459633.4105344       -4027118.1110930443        340232960.08015186     
   3115054079.9895573       -421155.55395710468        331785751.08318502     
   2963538073.8197222        2816631.1736551523        326785933.36775309     
   2811911614.9010210        5686242.0717213154        325233506.93384117     
   2660174703.2334728        8187677.1402803659        327128471.78146607     
   3031526788.9620805       -1718584.0311216116        492039816.78124082     
   2888952651.7903004        1742562.5906766653        483719222.36268264     
   2746500682.3866906        5610935.1063712835        478778052.83936518     
   2604170880.7512574        9886533.5159809589        477216308.21128553     
   2461963246.8839874        14569357.819478273        479033988.47844499     
   2797033270.2573094        721747.77195441723        642636270.17683721     
   2663096359.6596174        3979821.5558856726        634713680.93989074     
   2529514237.3471184        8420522.9571335316        630102550.21189260     
   2396286903.3198199        14043851.975717306        628802877.99284577     
   2263414357.5777202        20849808.611634970        630814664.28274596     
   3055585317.0621271       -4879373.8792103529        22942915.709461402     
   2887812933.5375886       -6003544.8319551945        13629970.865066590     
   2720504318.9556136       -5581819.3094519377        6687989.8875532160     
   2553659473.3162417       -3614197.3116166592        2116972.7769340887     
   2387278396.6194777       -100678.83843171597       -83080.466803600386     
   2858048726.6261902        1704766.5740553141        175098114.19180816     
   2696773901.2623277        1829816.8144158125        166047679.96918431     
   2535715288.8405690        2675576.8617829084        159336121.72795600     
   2374872889.3608952        4242046.7161027193        154963439.46811110     
   2214246702.8233118        6529226.3774018288        152929633.18965533     
   2660174703.2334728        8187677.1402803659        327128471.78146607     
   2505305756.3574533        9534444.6719393730        318051732.84671128     
   2350405466.4230180        10776735.342227578        311281782.00784564     
   2195473833.4301853        11914549.151173592        306818619.26485997     
   2040510857.3789558        12947886.098811865        304662244.61775512     
   2461963246.8839874        14569357.819478273        479033988.47844499     
   2313408498.8229351        17110338.740558147        469642129.49764138     
   2164574851.7029819        18721656.131959200        462524970.72722298     
   2015462305.5241196        19403309.993670702        457682512.16718149     
   1866070860.2863586        19155300.325726271        455114753.81752765     
   2263414357.5777202        20849808.611634970        630814664.28274596     
   2121082128.6587799        24557499.020272374        620818869.92197752     
   1978223444.6804464        26510339.230932713        613065687.88608551     
   1834838305.6427054        26708329.243567824        607555118.17507958     
   1690926711.5455642        25151469.058201313        604287160.78895390     
   2387278396.6194777       -100678.83843171597       -83080.466803600386     
   2245632793.8740330        6778574.3720567226       -6357269.4353624796     
   2100849856.8355842        3200046.6058799028       -10809430.790131431     
   1952929585.5041945       -10836262.136780262       -13439564.531141197     
   1801871979.8798168       -35330351.856054544       -14247670.658355910     
   2214246702.8233118        6529226.3774018288        152929633.18965533     
   2076162272.4982760        12800161.845215678        143001841.75330281     
   1936029472.4900959        12243198.369257927        134131767.12102370     
   1793848302.7988017        4858335.9495702982        126319409.29281476     
   1649618763.4243631       -9354425.4139205217        119564768.26867539     
   2040510857.3789558        12947886.098811865        304662244.61775512     
   1903803854.3037367        17955380.272833109        292351309.42509335     
   1766137446.1552176        19764857.535858989        280333780.22680378     
   1627511632.9334183        18376317.887936950        268609657.02287048     
   1487926414.6383226        13789761.329043925        257178939.81329790     
   1866070860.2863586        19155300.325726271        455114753.81752765     
   1728557539.2903647        22244229.654754162        441691133.58003438     
   1591173777.8309171        25765024.105599940        427796608.52720571     
   1453919575.9080238        29717683.678293645        413431178.65903002     
   1316794933.5216837        34102208.372832298        398594843.97551072     
   1690926711.5455642        25151469.058201313        604287160.78895390     
   1550423327.4581878        25666709.991027057        591021314.21811914     
   1411138467.5172119        30243698.078519523        576520252.02222872     
   1273072131.7226326        38882433.320658028        560783974.20129478     
   1136224320.0744414        51582915.717432976        543812480.75530899     
   1801871979.8798168       -35330351.856054544       -14247670.658355910     
   1771105258.1929057       -16332778.068853021       -8572082.1124833319     
   1748357891.6727812        29395979.607637286       -41655265.121631756     
   1733629880.3194213        101855921.17334884       -113497219.68577813     
   1726921224.1328678        201047046.62840313       -224097945.80496600     
   1649618763.4243631       -9354425.4139205217        119564768.26867539     
   1527155102.6311641       -13880428.467925310        135228705.65780747     
   1408821346.5113130       -4640082.6107707024        124543825.32968156     
   1294617495.0647953        18366612.157495677        87510127.284334823     
   1184543548.2916069        55139655.836882651        24127611.521742929     
   1487926414.6383226        13789761.329043925        257178939.81329790     
   1309222825.7039256       -3622715.2766134739        278293533.80331731     
   1130759690.9494193       -20233677.949304640        285469263.91388088     
   952537010.37480974       -36043126.689004719        278706130.14498401     
   774554783.98009634       -51051061.495712906        258004132.49664158     
   1316794933.5216837        34102208.372832298        398594843.97551072     
   1117308427.4111626        14440361.505011141        420622402.32407701     
   914172924.98709702       -17384806.407981277        441121050.63096410     
   707388426.24948990       -61373295.366099119        460090788.89618653     
   496954931.19832456       -117525105.36941341        477531617.11973184     
   1136224320.0744414        51582915.717432976        543812480.75530899     
   951411907.75289607        40308801.876991212        562215311.22007632     
   759061048.62435389        3906532.0132373869        591499185.48094904     
   559171742.68882585       -57623893.873807967        631664103.53793156     
   351743989.94630533       -144282475.78416148        682710065.39102340     
   1726921224.1328678        201047046.62840313       -224097945.80496600     
   1456442902.7699628        184543723.90272200       -96573719.544757769     
   1153837391.9802005        60949769.754182279        60120299.488541059     
   819104691.76361084       -169734815.81715369        245984111.29490742     
   452244802.12013793       -507510032.81135595        461017715.87434387     
   1184543548.2916069        55139655.836882651        24127611.521742929     
   977504011.78555584        11771430.807305455        155532293.93158686     
   732674180.41552711       -157564443.76886377        312765841.68221653     
   450054054.18153501       -452867967.89154422        495828254.77364737     
   129643633.08362758       -874139141.56069803        704719533.20583820     
   774554783.98009634       -51051061.495712906        258004132.49664158     
   621408525.38149858       -124147840.91403955        386682314.71281964     
   424808866.48182702       -342089288.00261796        537848434.83750808     
   184755807.28108811       -704875402.76141942        711502492.87069523     
  -98750652.220706224       -1212506185.1904140        907644488.81238770     
   496954931.19832456       -117525105.36941341        477531617.11973184     
   388156443.55780560       -223214091.26128519        596876342.79895079     
   230241450.17910209       -492624762.94710606        735368078.95440662     
   23209951.062233388       -925757120.42680359        893006825.58605504     
  -232938053.79281461       -1522611163.7004488        1069792582.6939552     
   351743989.94630533       -144282475.78416148        682710065.39102340     
   277747766.31447643       -285427320.23441505        786114378.18999314     
   148971931.50736654       -609170868.60227752        905324774.03290069     
  -34583514.475025415       -1115513120.8877442        1040341252.9197460     
  -272918571.63269919       -1804454077.0908165        1191163814.8505497     
   4565252319.3624048        12590923.049772263        575713098.45400345     
   4396575934.8544941        9010218.0224797726        583160874.79023099     
   4227305042.2128944        3447819.2162387371        593660586.90556765     
   4057439641.4376087       -4096273.3689570427        607212234.80001128     
   3886979732.5286350       -13622059.733110666        623815818.47356343     
   4225563640.1790237        26035288.132577419        739663610.04789913     
   4065536852.2817097        18903927.472108364        738269719.88378286     
   3905253895.2403765        10918669.664897203        741296811.86406362     
   3744714769.0550213        2079514.7109451294        748744885.98873568     
   3583919473.7256351       -7613537.3897600174        760613942.25781190     
   3860075071.6499515        31739686.411679029        901053090.07102656     
   3712609441.4069209        22231138.431138754        891212262.22783971     
   3565225981.0095272        12996489.936061621        887161462.89433169     
   3417924690.4577751        4035740.9264483452        888900692.07051206     
   3270705569.7516608       -4651108.5977034569        896429949.75637245     
   3468786613.7751908        29704117.887071133        1059881538.5233791     
   3337793702.2301145        18991850.899562359        1041988501.8223920     
   3207221299.5203476        9681280.0297223330        1031254539.9963764     
   3077069405.6458802        1772405.2775591612        1027679653.0453289     
   2947338020.6067085       -4734773.3569376469        1031263840.9692549     
   3051698266.5547409        19928582.558758140        1216148955.4049613     
   2941089634.7513103        9186064.8773864508        1190598438.6674447     
   2831239850.7728357        973039.94588935375        1173576043.1701887     
   2722148914.6193290       -4710492.2357238531        1165081768.9131925     
   2613816826.2907848       -7864531.6674667597        1165115615.8964524     
   3886979732.5286350       -13622059.733110666        623815818.47356343     
   3768185776.8516140       -8197776.1234354973        625619382.68567276     
   3649623879.2011776       -1999965.7584741116        629440493.41967046     
   3531294039.5773296        4971371.3617794514        635279150.67555535     
   3413196257.9800682        12716235.237321615        643135354.45332932     
   3583919473.7256351       -7613537.3897600174        760613942.25781190     
   3470984679.1093278       -3081836.8511931896        759436190.40081584     
   3358218099.1922212        2010579.3513684273        760953919.70043838     
   3245619733.9743109        7663711.2179229259        765167130.15666246     
   3133189583.4556003        13877558.748474836        772075821.76950848     
   3270705569.7516608       -4651108.5977034569        896429949.75637245     
   3165566892.2952838       -430904.30047333241        892196397.94832158     
   3060532586.2107162        4137204.5694532394        891336261.93160784     
   2955602651.4979587        9053218.0120728016        893849541.70623124     
   2850777088.1570053        14317136.027388334        899736237.27219009     
   2947338020.6067085       -4734773.3569376469        1031263840.9692549     
   2851932416.4094777       -244978.47128129005        1023900005.3281902     
   2756567340.2566657        4379909.8957710266        1020587520.1131880     
   2661242792.1482735        9139891.7442253828        1021326385.3242478     
   2565958772.0843000        14034967.074069500        1026116600.9613663     
   2613816826.2907848       -7864531.6674667597        1165115615.8964524     
   2530081251.4519124       -2524059.3636220694        1154547012.5404203     
   2446322361.3300714        2738695.3303341866        1148707694.2451746     
   2362540155.9252543        7923732.4143646955        1147597661.0107169     
   2278734635.2374701        13031051.888513207        1151216912.8370438     
   3413196257.9800682        12716235.237321615        643135354.45332932     
   3259232790.0971708        9975210.1969581842        636630578.85151887     
   3105217802.8490782        7062453.9392677546        634379139.60483670     
   2951151296.2357931        3977966.4642717838        636381036.71327627     
   2797033270.2573094        721747.77195441723        642636270.17683721     
   3133189583.4556003        13877558.748474836        772075821.76950848     
   2990539190.1145644        11349627.654134750        764798817.63735938     
   2847934402.4403667        8973715.4492424726        761921666.65628028     
   2705375220.4329982        6749822.1337848902        763444368.82628059     
   2562861644.0924654        4677947.7077827454        769366924.14735258     
   2850777088.1570053        14317136.027388334        899736237.27219009     
   2719858388.7748461        12127884.704186797        891800317.14706230     
   2589082420.0915446        10414402.377184153        888410766.96895587     
   2458449182.1071038        9176689.0463813543        889567586.73787999     
   2327958674.8215241        8414744.7117819786        895270776.45382512     
   2565958772.0843000        14034967.074069500        1026116600.9613663     
   2447190386.0780134        12309981.347108364        1017635077.3806244     
   2328661855.8026133        11384514.723092794        1013846440.5428604     
   2210373181.2581024        11258567.202047706        1014750690.4480745     
   2092324362.4444757        11932138.783948898        1020347827.0962631     
   2278734635.2374701        13031051.888513207        1151216912.8370438     
   2172535182.0240626        11895917.582881093        1142303098.3380554     
   2066672709.5735688        11884052.486964345        1138228687.3779943     
   1961147217.8859878        12995456.600758791        1138993679.9568622     
   1855958706.9613264        15230129.924285650        1144598076.0746577     
   2797033270.2573094        721747.77195441723        642636270.17683721     
   2663096359.6596174        3979821.5558856726        634713680.93989074     
   2529514237.3471184        8420522.9571335316        630102550.21189260     
   2396286903.3198199        14043851.975717306        628802877.99284577     
   2263414357.5777202        20849808.611634970        630814664.28274596     
   2562861644.0924654        4677947.7077827454        769366924.14735258     
   2437810302.1620874        8337226.9175785780        761617912.97720695     
   2313038068.8370247        12926868.145096302        757299910.25161254     
   2188544944.1172848        18446871.390356183        756412915.97057998     
   2064330928.0028610        24897236.653330088        758956930.13409877     
   2327958674.8215241        8414744.7117819786        895270776.45382512     
   2212134472.8030481        12577700.720836878        887607050.39062274     
   2096513699.7100081        17418753.147994995        883493882.70757675     
   1981096355.5424061        22937901.993298650        882931273.40468597     
   1865882440.3002443        29135147.256714702        885919222.48196721     
   2092324362.4444757        11932138.783948898        1020347827.0962631     
   1986068871.5824893        16701242.965623498        1012681093.1801339     
   1879941129.9660594        21896177.965814114        1008684467.5797757     
   1773941137.5951900        27516943.784536600        1008357950.2951831     
   1668068894.4698706        33563540.421770394        1011701541.3263474     
   1855958706.9613264        15230129.924285650        1144598076.0746577     
   1759613498.5004172        20707853.651962757        1136840041.3457503     
   1663320359.6051784        26359142.598543704        1132871664.8682120     
   1567079290.2756228        32183996.764068365        1132692946.6420453     
   1470890290.5117373        38182416.148491621        1136303886.6672525     
   2263414357.5777202        20849808.611634970        630814664.28274596     
   2121082128.6587799        24557499.020272374        620818869.92197752     
   1978223444.6804464        26510339.230932713        613065687.88608551     
   1834838305.6427054        26708329.243567824        607555118.17507958     
   1690926711.5455642        25151469.058201313        604287160.78895390     
   2064330928.0028610        24897236.653330088        758956930.13409877     
   1928275980.4450631        27710723.535718679        748955819.22422171     
   1791886144.7560654        29407916.647441745        741747128.61948240     
   1655161420.9358723        29988815.988507390        737330858.31987214     
   1518101808.9844859        29453421.558929741        735707008.32540107     
   1865882440.3002443        29135147.256714702        885919222.48196721     
   1737675654.0471590        31525694.595895410        876136289.77255595     
   1609325546.5910921        33438504.591787338        869695585.34853983     
   1480832117.9320219        34873577.244348764        866597109.20990622     
   1352195368.0699689        35830912.553623080        866840861.35666239     
   1668068894.4698706        33563540.421770394        1011701541.3263474     
   1549281149.4650879        36002412.200828671        1002360281.5669855     
   1430541650.1855161        38602103.063928306        996911058.07326317     
   1311850396.6311650        41362613.011091352        995353870.84517646     
   1193207388.8020194        44283942.042278349        997688719.88272846     
   1470890290.5117373        38182416.148491621        1136303886.6672525     
   1363092466.6988342        41140876.350503862        1127627794.6075001     
   1255534455.5393553        44898712.063930571        1123393546.7936392     
   1148216257.0332882        49455923.288732052        1123601143.2256744     
   1041137871.1806405        54812510.024931550        1128250583.9036024     
   1690926711.5455642        25151469.058201313        604287160.78895390     
   1550423327.4581878        25666709.991027057        591021314.21811914     
   1411138467.5172119        30243698.078519523        576520252.02222872     
   1273072131.7226326        38882433.320658028        560783974.20129478     
   1136224320.0744414        51582915.717432976        543812480.75530899     
   1518101808.9844859        29453421.558929741        735707008.32540107     
   1375913816.3169677        27364589.667920649        726650799.97186530     
   1234050872.2774329        26359253.203515053        718134894.37186027     
   1092512976.8658593        26437412.165661275        710159291.52537191     
   951300130.08226609        27599066.554386675        702723991.43241048     
   1352195368.0699689        35830912.553623080        866840861.35666239     
   1213395676.4753964        32659880.734725535        860951903.11559808     
   1074027557.9903722        27594092.614339292        857378766.00663424     
   934091012.61489022        20633548.192412376        856121450.02976656     
   793586040.34895110        11778247.468981862        857179955.18499863     
   1193207388.8020194        44283942.042278349        997688719.88272846     
   1062868907.9334592        41552583.191422403        993924623.64930665     
   931068524.65602338        33948216.310970426        994251866.92656028     
   797806238.96969748        21470841.400886506        998670449.71448338     
   663082050.87449789        4120458.4612305164        1007180372.0130882     
   1041137871.1806405        54812510.024931550        1128250583.9036024     
   924333510.69116092        54042697.037994206        1125568961.5729878     
   805173772.27438498        45421624.293399692        1128754197.1316326     
   683658655.93030024        28949291.791105509        1137806290.5795174     
   559788161.65892076        4625699.5311620533        1152725241.9166617     
   1136224320.0744414        51582915.717432976        543812480.75530899     
   951411907.75289607        40308801.876991212        562215311.22007632     
   759061048.62435389        3906532.0132373869        591499185.48094904     
   559171742.68882585       -57623893.873807967        631664103.53793156     
   351743989.94630533       -144282475.78416148        682710065.39102340     
   951300130.08226609        27599066.554386675        702723991.43241048     
   792018613.46584523        10711926.540487200        720792508.84349251     
   624085766.82404208       -35012980.224692166        748914446.73321545     
   447501590.15682811       -109575653.74123818        787089805.10157025     
   262266083.46423554       -212976094.00904632        835318583.94856584     
   793586040.34895110        11778247.468981862        857179955.18499863     
   657470781.38776124       -11431310.133316785        873615795.78759527     
   511591309.18277013       -67188245.214943916        899277433.55134928     
   355947623.73397654       -155492557.77591145        934164868.47627842     
   190539725.04139313       -276344247.81618965        978278100.56237543     
   663082050.87449789        4120458.4612305164        1007180372.0130882     
   547768411.51862955       -26120908.144433349        1020685172.0523763     
   421577675.70055705       -92619262.957454264        1042588145.9353691     
   284509843.42027211       -195374605.97783387        1072889293.6620607     
   136564914.67778572       -334386937.20556235        1111588615.2324507     
   559788161.65892076        4625699.5311620533        1152725241.9166617     
   462911503.85845375       -33356867.492879808        1162000637.6378405     
   354044866.37739033       -111306033.45225407        1178846583.8852615     
   233188249.21570355       -229221798.34703958        1203263080.6589143     
   100341652.37342158       -387104162.17714220        1235250127.9587936     
   351743989.94630533       -144282475.78416148        682710065.39102340     
   277747766.31447643       -285427320.23441505        786114378.18999314     
   148971931.50736654       -609170868.60227752        905324774.03290069     
  -34583514.475025415       -1115513120.8877442        1040341252.9197460     
  -272918571.63269919       -1804454077.0908165        1191163814.8505497     
   262266083.46423554       -212976094.00904632        835318583.94856584     
   223584700.72700009       -352623313.38431740        884780359.62718487     
   140666944.96415693       -639725109.51161420        945255708.70194578     
   13512816.175709188       -1074281482.3909237        1016744631.1728481     
  -157877685.63835210       -1656292432.0222948        1099247127.0398836     
   190539725.04139313       -276344247.81618965        978278100.56237543     
   173480298.49077246       -418601707.52883518        986097783.62859225     
   122727737.06420875       -673169616.82795918        1000138530.4431494     
   38282040.761712790       -1040047975.7135426        1020400341.0060557     
  -79856790.416739047       -1519236784.1856067        1046883215.3172966     
   136564914.67778572       -334386937.20556235        1111588615.2324507     
   127434559.60577896       -483362502.66801435        1090066650.1942146     
   95154307.807505280       -709504390.55135071        1069973239.2565156     
   39724159.282971084       -1012812600.8555684        1051308382.4193648     
  -38855885.967854619       -1393287133.5807371        1034072079.6827633     
   100341652.37342158       -387104162.17714220        1235250127.9587936     
   85447484.072044402       -546905698.80176914        1196686959.3240542     
   57946657.194064826       -748729430.68174839        1154759835.1420474     
   17839171.739486635       -992575357.81703997        1109468755.4127972     
  -34874972.291689932       -1278443480.2076700        1060813720.1362836     
   3051698266.5547409        19928582.558758140        1216148955.4049613     
   2941089634.7513103        9186064.8773864508        1190598438.6674447     
   2831239850.7728357        973039.94588935375        1173576043.1701887     
   2722148914.6193290       -4710492.2357238531        1165081768.9131925     
   2613816826.2907848       -7864531.6674667597        1165115615.8964524     
   2632780634.5114746        8078479.7602951527        1260362103.6185868     
   2543262348.2663355        627572.63952767849        1242948403.5412288     
   2454410646.7302332       -4601385.4510945082        1232470322.5236883     
   2366225529.9031868       -7608394.5115453005        1228927860.5659809     
   2278706997.7851839       -8393454.5418449640        1232321017.6680954     
   2237010332.2935305        3172575.9094303846        1303461574.6343708     
   2164032385.3768711       -2351722.5196865797        1294077050.9152575     
   2091628760.0533400       -5961615.6383632421        1290035644.0755372     
   2019799456.3229434       -7657103.4465951920        1291337354.1152115     
   1948544474.1856771       -7438185.9443913698        1297982181.0342817     
   1864387359.9008970        5210871.0061597824        1345447368.4522939     
   1803399746.0829141        248179.39975333214        1343984380.7895334     
   1742894190.7421482       -3107650.6159226894        1346272007.8257272     
   1682870693.8785987       -4856619.0408815145        1352310249.5608873     
   1623329255.4922657       -4998725.8751127124        1362099105.9950099     
   1514911717.3335829        14193365.050481439        1386319485.0723681     
   1461364430.3844731        8427278.3978530169        1392670393.1640506     
   1408206938.7966628        3960509.6162304878        1401179413.7742643     
   1355439242.5701554        793058.70561355352        1411846546.9030049     
   1303061341.7049489       -1075074.3340022564        1424671792.5502801     
   2613816826.2907848       -7864531.6674667597        1165115615.8964524     
   2530081251.4519124       -2524059.3636220694        1154547012.5404203     
   2446322361.3300714        2738695.3303341866        1148707694.2451746     
   2362540155.9252543        7923732.4143646955        1147597661.0107169     
   2278734635.2374701        13031051.888513207        1151216912.8370438     
   2278706997.7851839       -8393454.5418449640        1232321017.6680954     
   2206767795.6195335       -3464108.1332980394        1223336981.9583061     
   2134848123.5491104        1530338.5926660299        1218792669.2198951     
   2062947981.5739052        6589885.6360214949        1218688079.4528611     
   1991067369.6939180        11714532.996774912        1223023212.6572084     
   1948544474.1856771       -7438185.9443913698        1297982181.0342817     
   1887574324.4378033       -3168161.5077737570        1290632699.2452908     
   1826666550.1633420        1309781.1735522747        1287433378.3382697     
   1765821151.3622921        5995642.0995887518        1288384218.3132212     
   1705038128.0346572        10889421.270333886        1293485219.1701386     
   1623329255.4922657       -4998725.8751127124        1362099105.9950099     
   1572500837.9067121       -1636219.4870656133        1356434164.4013743     
   1521777641.1727648        2077023.0729975700        1354629821.6003022     
   1471159665.2904234        6141001.8050794005        1356686077.5917940     
   1420646910.2596819        10555716.709171891        1362602932.3758454     
   1303061341.7049489       -1075074.3340022564        1424671792.5502801     
   1261547336.0262666        1131717.9288429618        1420741377.4265585     
   1220181396.5773787        3832064.2909967899        1420381999.0059924     
   1178963523.3582950        7025964.7524996996        1423593657.2885795     
   1137893716.3689988        10713419.313300908        1430376352.2743232     
   2278734635.2374701        13031051.888513207        1151216912.8370438     
   2172535182.0240626        11895917.582881093        1142303098.3380554     
   2066672709.5735688        11884052.486964345        1138228687.3779943     
   1961147217.8859878        12995456.600758791        1138993679.9568622     
   1855958706.9613264        15230129.924285650        1144598076.0746577     
   1991067369.6939180        11714532.996774912        1223023212.6572084     
   1897535213.5865836        10819187.613451004        1215055725.2093661     
   1804297024.4328909        10903732.075598359        1211937573.0144329     
   1711352802.2328472        11968166.383241534        1213668756.0723968     
   1618702546.9864428        14012490.536351442        1220249274.3832698     
   1705038128.0346572        10889421.270333886        1293485219.1701386     
   1624201645.3590369        10242377.706999123        1286413875.9959676     
   1543616115.8277905        10431844.624908864        1284201799.7886734     
   1463281539.4409170        11457822.024064064        1286848990.5482593     
   1383197916.1984217        13320309.904475987        1294355448.2747247     
   1420646910.2596819        10555716.709171891        1362602932.3758454     
   1352534477.3414195        10165487.863516688        1356377550.6978571     
   1284629983.7582633        10468390.134876311        1355021367.7007251     
   1216933429.5102148        11464423.523260057        1358534383.3844478     
   1149444814.5972655        13153588.028649926        1366916597.7490211     
   1137893716.3689988        10713419.313300908        1430376352.2743232     
   1082533709.5337458        10588518.083037496        1424946749.3150365     
   1027338628.2243216        11013368.605544448        1424396276.7505810     
   972308472.44073260        11987970.880831480        1428724934.5809572     
   917443242.18297958        13512324.908905029        1437932722.8061635     
   1855958706.9613264        15230129.924285650        1144598076.0746577     
   1759613498.5004172        20707853.651962757        1136840041.3457503     
   1663320359.6051784        26359142.598543704        1132871664.8682120     
   1567079290.2756228        32183996.764068365        1132692946.6420453     
   1470890290.5117373        38182416.148491621        1136303886.6672525     
   1618702546.9864428        14012490.536351442        1220249274.3832698     
   1532367696.5890353        18507428.470882356        1213350889.0888076     
   1446105467.5852647        23244437.717530966        1210589917.6979375     
   1359915859.9751351        28223518.276323736        1211966360.2106462     
   1273798873.7586405        33444670.147228241        1217480216.6269567     
   1383197916.1984217        13320309.904475987        1294355448.2747247     
   1307867011.4422855        17130538.319184959        1288340689.5473313     
   1232629279.9077473        21251344.139227152        1286811100.3757434     
   1157484721.5948164        25682727.364623308        1289766680.7599664     
   1082433336.5034859        30424687.995350838        1297207430.6999972     
   1149444814.5972655        13153588.028649926        1366916597.7490211     
   1086111443.0601704        16577183.196887970        1361809442.7213175     
   1022891796.5726382        20379861.863660812        1361535212.9016454     
   959785875.13466597        24561624.028973281        1366093908.2899935     
   896793678.74626398        29122469.692848235        1375485528.8863754     
   917443242.18297958        13512324.908905029        1437932722.8061635     
   867100991.44269073        16847363.103981644        1433757148.6107779     
   816893017.57992077        20629990.890786946        1434762255.2756357     
   766819320.59469092        24860208.269391268        1440948042.8007381     
   716879900.48698175        29538015.239734173        1452314511.1860890     
   1470890290.5117373        38182416.148491621        1136303886.6672525     
   1363092466.6988342        41140876.350503862        1127627794.6075001     
   1255534455.5393553        44898712.063930571        1123393546.7936392     
   1148216257.0332882        49455923.288732052        1123601143.2256744     
   1041137871.1806405        54812510.024931550        1128250583.9036024     
   1273798873.7586405        33444670.147228241        1217480216.6269567     
   1177654370.2488227        35915925.673700809        1211101497.3609583     
   1081607591.8356099        38712931.522189498        1209357458.2381022     
   985658538.51901722        41835687.692746103        1212248099.2583880     
   889807210.29902840        45284194.185318917        1219773420.4218223     
   1082433336.5034859        30424687.995350838        1297207430.6999972     
   998493113.00317168        32574026.758180797        1292960315.4114797     
   914508527.04266262        34575490.653701127        1293540716.1633556     
   830479578.62196422        36429079.681922138        1298948632.9556253     
   746406267.74107134        38134793.842826128        1309184065.7882864     
   896793678.74626398        29122469.692848235        1375485528.8863754     
   825608694.96187770        31115179.603960454        1373204248.7590623     
   754237261.16050458        32486389.458446264        1375943320.5693991     
   682679377.34212792        33236099.256254941        1383702744.3173757     
   610935043.50675499        33364308.997410566        1396482520.0029926     
   716879900.48698175        29538015.239734173        1452314511.1860890     
   659001116.12496293        31539384.211087197        1451833297.4037185     
   600793794.18913865        32445627.936427325        1456565271.4562354     
   542257934.67951643        32256746.415773034        1466510433.3436432     
   483393537.59609056        30972739.649103910        1481668783.0659420     
   1041137871.1806405        54812510.024931550        1128250583.9036024     
   924333510.69116092        54042697.037994206        1125568961.5729878     
   805173772.27438498        45421624.293399692        1128754197.1316326     
   683658655.93030024        28949291.791105509        1137806290.5795174     
   559788161.65892076        4625699.5311620533        1152725241.9166617     
   889807210.29902840        45284194.185318917        1219773420.4218223     
   787949009.18874478        43577329.972582728        1217136274.8161709     
   683782110.12149286        34174805.903291494        1220345559.5881383     
   577306513.09724760        17076621.977357298        1229401274.7377322     
   468522218.11602747       -7717221.8051631153        1244303420.2649450     
   746406267.74107134        38134793.842826128        1309184065.7882864     
   659435861.69103241        35473369.108594000        1306645856.8729782     
   570203437.65434492        25271884.418860704        1309933650.8236606     
   478708995.63100600        7530339.7736259401        1319047447.6403327     
   384952535.62101132       -17751264.827128440        1333987247.3229935     
   610935043.50675499        33364308.997410566        1396482520.0029926     
   538794068.19802582        29730814.446017891        1394097707.7434056     
   464437754.87296313        18712859.840179339        1397518470.8381808     
   387866103.53157783        310445.17993853986        1406744809.2873232     
   309079114.17386663       -25476429.534734040        1421776723.0908153     
   483393537.59609056        30972739.649103910        1481668783.0659420     
   426023628.70971447        26349665.984823704        1479491827.4274609     
   366485061.77734298        14497732.167228162        1483100019.6317091     
   304777836.79897475       -4583061.8036926240        1492493359.6786876     
   240901953.77460051       -30892715.927969351        1507671847.5683978     
   559788161.65892076        4625699.5311620533        1152725241.9166617     
   462911503.85845375       -33356867.492879808        1162000637.6378405     
   354044866.37739033       -111306033.45225407        1178846583.8852615     
   233188249.21570355       -229221798.34703958        1203263080.6589143     
   100341652.37342158       -387104162.17714220        1235250127.9587936     
   468522218.11602747       -7717221.8051631153        1244303420.2649450     
   390844073.18756843       -42067738.348272592        1242754688.6229866     
   303020658.45142239       -110235820.91700256        1247565327.7838085     
   205051973.90758485       -212221469.51136938        1258735337.7474144     
   96938019.556062415       -348024684.13135278        1276264718.5138137     
   384952535.62101132       -17751264.827128440        1333987247.3229935     
   323012390.06898433       -49507884.937980011        1323766549.8363011     
   252771684.58218613       -108933038.16472994        1318694043.4289382     
   174230419.16062236       -196026724.50737196        1318769728.1009181     
   87388593.804293007       -310788943.96589649        1323993603.8522224     
   309079114.17386663       -25476429.534734040        1421776723.0908153     
   259416454.50270247       -55677307.261997595        1405036221.2777927     
   203297944.76968452       -107397685.19543436        1392232730.8206575     
   140723584.97482157       -180637563.33502281        1383366251.7194021     
   71693375.118115604       -275396941.68075752        1378436783.9740365     
   240901953.77460051       -30892715.927969351        1507671847.5683978     
   200056266.48872551       -60576005.320317015        1486563702.9474554     
   154599439.01391497       -105629762.00911921        1468181389.9589524     
   104531471.35018301       -166053985.99432337        1452524908.6028817     
   49852363.497531980       -241848677.27592716        1439594258.8792424     
   100341652.37342158       -387104162.17714220        1235250127.9587936     
   85447484.072044402       -546905698.80176914        1196686959.3240542     
   57946657.194064826       -748729430.68174839        1154759835.1420474     
   17839171.739486635       -992575357.81703997        1109468755.4127972     
  -34874972.291689932       -1278443480.2076700        1060813720.1362836     
   96938019.556062415       -348024684.13135278        1276264718.5138137     
   79952867.914170533       -489164310.65467095        1221953818.1351771     
   51568995.278058887       -668299673.82538021        1165091829.9415557     
   11786401.647743344       -885430773.64344132        1105678753.9329345     
  -39394912.976792514       -1140557610.1089060        1043714590.1093441     
   87388593.804293007       -310788943.96589649        1323993603.8522224     
   70634938.056920320       -432569916.61739570        1255344232.2424884     
   43690498.897718042       -588320167.30832672        1184956640.5500252     
   6555276.3266993165       -778039696.03865290        1112830828.7748325     
  -40770729.656155884       -1001728502.8084202        1038966796.9169343     
   71693375.118115604       -275396941.68075752        1378436783.9740365     
   57493694.500308216       -377122516.68991059        1296858201.6459846     
   34311168.053045809       -508790911.13057220        1214354266.9674699     
   2145795.7763525248       -670402125.00267875        1130924979.9384985     
  -39002422.329770863       -861956158.30620980        1046570340.5590688     
   49852363.497531980       -241848677.27592716        1439594258.8792424     
   40529137.244319454       -322822110.87224519        1346495726.3456671     
   23431002.744040638       -429711905.29211754        1253284709.1938872     
  -1442040.0032675564       -562518060.53541982        1159961207.4239168     
  -34089990.997639269       -721240576.60227549        1066525221.0357447     
   1514911717.3335829        14193365.050481439        1386319485.0723681     
   1461364430.3844731        8427278.3978530169        1392670393.1640506     
   1408206938.7966628        3960509.6162304878        1401179413.7742643     
   1355439242.5701554        793058.70561355352        1411846546.9030049     
   1303061341.7049489       -1075074.3340022564        1424671792.5502801     
   1165874791.8584266        19552352.083024204        1432681573.4997098     
   1119662171.9420965        13412121.403951168        1433208585.8859532     
   1073741900.7675343        8246386.5307672620        1437305878.2465308     
   1028113978.3347396        4055147.4634765387        1444973450.5814307     
   982778404.64370823        838404.20206207037        1456211302.8906617     
   797043875.44958103        18973141.835458457        1478110296.5052583     
   762200686.72545493        13669196.377771527        1472699725.4632807     
   727552400.12356067        9014924.6608551145        1472271601.8514237     
   693099015.64389634        5010326.6847079694        1476825925.6696944     
   658840533.28646255        1655402.4493281841        1486362696.9180870     
   408418968.10705066        12455734.307788134        1522605654.0890229     
   388979974.73454922        9198503.3193151653        1511143811.8960283     
   369638436.86473972        6266124.0064864606        1506076584.5889518     
   350394354.49762660        3658596.3693096936        1507403972.1677947     
   331247727.63321048        1375920.4077906907        1515125974.6325648     
   69.830835344944290        129.50001231616125        1566167646.2510002     
   35.969374822964042        42.228571509558314        1548540845.1841938     
   10.991072978490038       -15.432337596466247        1538720826.4591069     
  -5.1040667571565539       -43.482707727511581        1536707590.0757365     
  -12.316047495040264       -41.922548559903341        1542501136.0340853     
   1303061341.7049489       -1075074.3340022564        1424671792.5502801     
   1261547336.0262666        1131717.9288429618        1420741377.4265585     
   1220181396.5773787        3832064.2909967899        1420381999.0059924     
   1178963523.3582950        7025964.7524996996        1423593657.2885795     
   1137893716.3689988        10713419.313300908        1430376352.2743232     
   982778404.64370823        838404.20206207037        1456211302.8906617     
   950605004.14493752        2182133.4100099206        1451273899.4954047     
   918542653.04397488        3896027.2773174047        1450149708.7018998     
   886591351.34081089        5980085.8039523363        1452838730.5101485     
   854751099.03545070        8434308.9899359941        1459340964.9201536     
   658840533.28646255        1655402.4493281841        1486362696.9180870     
   636699669.10645962        2343647.9440437853        1480375118.9473028     
   614632837.49226594        3278668.6581230462        1478442929.4768710     
   592640038.44388533        4460464.5915790796        1480566128.5067894     
   570721271.96131444        5889035.7444013357        1486744716.0370634     
   331247727.63321048        1375920.4077906907        1515125974.6325648     
   319831330.91082668        1616261.5309220701        1508045035.7822592     
   308451949.92226201        1979988.4334519058        1505261661.3309059     
   297109584.66751295        2467101.1153668463        1506775851.2785025     
   285804235.14658314        3077599.5766781718        1512587605.6250510     
  -12.316047495040264       -41.922548559903341        1542501136.0340853     
  -10.441955953745573       -25.829336265979453        1534283650.0002711     
  -9.6660399236008061       -13.396708662277284        1530605904.2640040     
  -9.9883014290854462       -4.6246730174788242        1531467898.8252869     
  -11.408733939251551       0.48679261171475385        1536869633.6841218     
   1137893716.3689988        10713419.313300908        1430376352.2743232     
   1082533709.5337458        10588518.083037496        1424946749.3150365     
   1027338628.2243216        11013368.605544448        1424396276.7505810     
   972308472.44073260        11987970.880831480        1428724934.5809572     
   917443242.18297958        13512324.908905029        1437932722.8061635     
   854751099.03545070        8434308.9899359941        1459340964.9201536     
   812287499.31745172        8057555.5267428756        1453879286.0373118     
   769947593.65742242        8093115.5901177824        1453516909.6728194     
   727731382.05537641        8540989.1801018715        1458253835.8266740     
   685638864.51130569        9401176.2966714501        1468090064.4988863     
   570721271.96131444        5889035.7444013357        1486744716.0370634     
   541783142.57062197        5449149.0112808943        1481202857.8514967     
   512927475.77005053        5284137.5785634518        1480980474.3078036     
   484154271.55959994        5394001.4462496936        1486077565.4059775     
   455463529.93926966        5778740.6143358350        1496494131.1460223     
   285804235.14658314        3077599.5766781718        1512587605.6250510     
   271020639.29326099        2763298.5366694927        1506917464.7575977     
   256278274.56219995        2586434.5708634555        1506786970.6555347     
   241577140.95340458        2547007.6792767495        1512196123.3188591     
   226917238.46686935        2645017.8618909717        1523144922.7475746     
  -11.408733939251551       0.48679261171475385        1536869633.6841218     
  -10.514637878327012        4.1028834176269298        1531023106.7556148     
  -9.9661305307264776        6.5670111519030243        1530936398.7160151     
  -9.7632146186314088        7.8791670875495479        1536609509.5653243     
  -9.9058949687669013        8.0393368702063110        1548042439.3035412     
   917443242.18297958        13512324.908905029        1437932722.8061635     
   867100991.44269073        16847363.103981644        1433757148.6107779     
   816893017.57992077        20629990.890786946        1434762255.2756357     
   766819320.59469092        24860208.269391268        1440948042.8007381     
   716879900.48698175        29538015.239734173        1452314511.1860890     
   685638864.51130569        9401176.2966714501        1468090064.4988863     
   648404769.65349078        12059232.763506919        1464560760.5108156     
   611271382.41532588        15052981.295836180        1466090199.0478418     
   574238702.79680622        18382421.893652707        1472678380.1099682     
   537306730.79792988        22047554.556944311        1484325303.6971939     
   455463529.93926966        5778740.6143358350        1496494131.1460223     
   430989195.72066122        7655296.7799700946        1493571933.2310760     
   406581999.86381197        9755647.4848022312        1495586539.5060744     
   382241942.36872858        12079792.728852719        1502537949.9710264     
   357969023.23540556        14627732.512106016        1514426164.6259360     
   226917238.46686935        2645017.8618909717        1523144922.7475746     
   214854269.64418513        3635555.1533259526        1520790666.7715540     
   202824869.92537883        4737989.4576862231        1523251276.6503298     
   190829039.31045645        5952320.7749928162        1530526752.3839152     
   178866777.79941306        7278549.1052305996        1542617093.9723079     
  -9.9058949687669013        8.0393368702063110        1548042439.3035412     
  -8.5759285204403088        7.8835972091121818        1546216961.1322474     
  -7.3999668114777597        7.2145098045833613        1549084410.4806099     
  -6.3780053125353176        6.0320876727647903        1556644787.3486302     
  -5.5100469974246575        4.3363215948402791        1568898091.7363107     
   716879900.48698175        29538015.239734173        1452314511.1860890     
   659001116.12496293        31539384.211087197        1451833297.4037185     
   600793794.18913865        32445627.936427325        1456565271.4562354     
   542257934.67951643        32256746.415773034        1466510433.3436432     
   483393537.59609056        30972739.649103910        1481668783.0659420     
   537306730.79792988        22047554.556944311        1484325303.6971939     
   493019474.56216222        23285130.419499308        1483693572.5367122     
   448485815.19269115        23701362.503042892        1488479935.1251073     
   403705752.68950826        23296250.807545930        1498684391.4623725     
   358679287.05261970        22069795.333030224        1514306941.5485017     
   357969023.23540556        14627732.512106016        1514426164.6259360     
   327858740.59440494        15277148.906421095        1513739739.6007946     
   297584189.25979143        15379002.988697022        1518676314.2385039     
   267145369.23156720        14933294.758935824        1529235888.5390639     
   236542280.50972909        13940024.217127249        1545418462.5024722     
   178866777.79941306        7278549.1052305996        1542617093.9723079     
   163518914.22169280        7515439.6718647704        1541971798.5959513     
   148088916.39045483        7478549.3934396133        1547154408.7964199     
   132576784.30569270        7167878.2699339315        1558164924.5737240     
   116982517.96742323        6583426.3014013804        1575003345.9278502     
  -5.5100469974246575        4.3363215948402791        1568898091.7363107     
  -4.5559796777718553        2.7158070206620391        1568389749.5221827     
  -3.4153316164198135        1.7172289460373227        1573914218.7988660     
  -2.0881056270518834        1.3405769511875376        1585471499.5663564     
 -0.57430003975843424        1.5858569494228183        1603061591.8246582     
   483393537.59609056        30972739.649103910        1481668783.0659420     
   426023628.70971447        26349665.984823704        1479491827.4274609     
   366485061.77734298        14497732.167228162        1483100019.6317091     
   304777836.79897475       -4583061.8036926240        1492493359.6786876     
   240901953.77460051       -30892715.927969351        1507671847.5683978     
   358679287.05261970        22069795.333030224        1514306941.5485017     
   316513644.70056015        18861026.884806871        1510717640.7982767     
   272721508.80584651        10230613.294401646        1512712403.7203159     
   227302879.36847293       -3821445.4382004887        1520291230.3146260     
   180257756.38844609       -23295149.312984206        1533454120.5812106     
   236542280.50972909        13940024.217127249        1545418462.5024722     
   209006378.49066547        11973203.124561258        1541049341.8944085     
   180386147.43228382        6391951.9009344652        1542063200.7881441     
   150681587.33459640       -2803729.4537142813        1548460039.1836922     
   119892698.19759659       -15613840.939400919        1560239857.0810430     
   116982517.96742323        6583426.3014013804        1575003345.9278502     
   103501830.08003150        5686194.7040838823        1570486930.7158489     
   89478977.656673118        2981747.9868732654        1571152410.8351882     
   74913960.697343647       -1529913.8502375335        1576999786.2858703     
   59806779.202048257       -7848790.8072372787        1588029057.0679028     
 -0.57430003975843424        1.5858569494228183        1603061591.8246582     
 -0.53133193815420443        1.6234143150652089        1599030407.2626147     
 -0.52100517124008427        1.5521651500723967        1599980033.8614504     
 -0.54328640944986051        1.3722243693900729        1605910471.6211710     
 -0.59819274076291618        1.0835318905847031        1616821720.5417747     
   240901953.77460051       -30892715.927969351        1507671847.5683978     
   200056266.48872551       -60576005.320317015        1486563702.9474554     
   154599439.01391497       -105629762.00911921        1468181389.9589524     
   104531471.35018301       -166053985.99432337        1452524908.6028817     
   49852363.497531980       -241848677.27592716        1439594258.8792424     
   180257756.38844609       -23295149.312984206        1533454120.5812106     
   148883370.41379696       -45779652.580345131        1507822816.4690168     
   114050629.30430752       -79792006.297175199        1485090038.7811096     
   75759533.059971631       -125332210.46349330        1465255787.5174766     
   34010081.680812180       -182400265.07922474        1448320062.6781237     
   119892698.19759659       -15613840.939400919        1560239857.0810430     
   98483027.225160182       -30751533.974479064        1531430309.3740370     
   74767786.171968326       -53574460.612077370        1505691982.8831577     
   48746975.038025677       -84082620.852176964        1483024877.6084011     
   20420593.823335364       -122276014.69476940        1463428993.5497744     
   59806779.202048257       -7848790.8072372787        1588029057.0679028     
   48855236.922813386       -15491649.502729319        1557386181.6625152     
   36750909.616909981       -26977124.953781955        1529987222.2650936     
   23493797.284336630       -42305217.160400182        1505832178.8756461     
   9083899.9251134060       -61475926.122520961        1484921051.4941785     
 -0.59819274076291618        1.0835318905847031        1616821720.5417747     
 -0.49324354124889530       0.83491071199505640        1585690433.3344429     
 -0.36087177202536797       0.67769809910376433        1557975756.9269235     
 -0.20108882507858974       0.61185607862330904        1533677691.3192239     
  -1.3866014563652246E-002  0.63748027003671803        1512796236.5113378     
   49852363.497531980       -241848677.27592716        1439594258.8792424     
   40529137.244319454       -322822110.87224519        1346495726.3456671     
   23431002.744040638       -429711905.29211754        1253284709.1938872     
  -1442040.0032675564       -562518060.53541982        1159961207.4239168     
  -34089990.997639269       -721240576.60227549        1066525221.0357447     
   34010081.680812180       -182400265.07922474        1448320062.6781237     
   29860855.081590623       -242277382.34559155        1347741416.6678016     
   19880447.297703385       -321591770.22751200        1246386874.3179853     
   4068858.3291575313       -420343428.72495902        1144256435.6286795     
  -17573911.824052423       -538532357.83795607        1041350100.5998795     
   20420593.823335364       -122276014.69476940        1463428993.5497744     
   19549904.817279361       -161625454.24938262        1357637915.6354821     
   14791761.688938946       -213933074.21161464        1250407529.6604049     
   6146164.4383181334       -279198874.58144772        1141737835.6245575     
  -6386886.9345852286       -357422855.35888577        1031628833.5279038     
   9083899.9251134060       -61475926.122520961        1484921051.4941785     
   9596286.4513790496       -80866326.583645374        1376185223.2487061     
   8164945.9177392051       -106735817.24445787        1265346675.2211554     
   4789878.3242070153       -139084398.10490623        1152405407.4115212     
  -528916.32922922820       -177912069.16504222        1037361419.8198090     
  -1.3866014563652246E-002  0.63748027003671803        1512796236.5113378     
  -1.6117052747344818E-002  0.65159979060776507        1403383339.5074613     
  -1.5893742366169167E-002  0.67397060917532492        1291204311.0002196     
  -1.3187619494594183E-002  0.70461399993059726        1176259150.9895916     
  -7.9893966900100033E-003  0.74356647213073812        1058547859.4755944     
   69.830835344944290        129.50001231616125        1566167646.2510002     
   35.969374822964042        42.228571509558314        1548540845.1841938     
   10.991072978490038       -15.432337596466247        1538720826.4591069     
  -5.1040667571565539       -43.482707727511581        1536707590.0757365     
  -12.316047495040264       -41.922548559903341        1542501136.0340853     
  -408418866.80785537       -12455597.881995410        1522605593.1334071     
  -388979919.62108517       -9198470.7191633135        1511143766.5006866     
  -369638417.14391768       -6266159.2550112456        1506076555.0015917     
  -350394359.37634981       -3658663.4895240366        1507403958.6361265     
  -331247746.31838727       -1375983.4227193147        1515125977.4042900     
  -797043816.00781822       -18973129.032383084        1478110203.3756199     
  -762200651.22450149       -13669216.470785886        1472699655.3187604     
  -727552384.74355197       -9014964.9170737863        1472271555.1874361     
  -693099016.56496716       -5010374.3712471128        1476825902.9816520     
  -658840546.68874955       -1655444.8333067894        1486362698.7014046     
  -1165874777.7690511       -19552463.951153517        1432681476.9776342     
  -1119662158.8408780       -13412195.026293635        1433208511.6384156     
  -1073741891.8078341       -8246432.4185344577        1437305827.0166388     
  -1028113976.6699184       -4055176.1278671622        1444973423.1123102     
  -982778413.42713177       -838426.15429866314        1456211299.9254293     
  -1514911752.0915561       -14193602.638303936        1386319413.9394569     
  -1461364442.4702117       -8427406.3856902122        1392670335.4596503     
  -1408206938.3367598       -3960561.7593849301        1401179370.4891999     
  -1355439239.6911995       -793068.75938445330        1411846519.0281048     
  -1303061346.5335324        1075072.6143073440        1424671781.0763671     
  -12.316047495040264       -41.922548559903341        1542501136.0340853     
  -10.441955953745573       -25.829336265979453        1534283650.0002711     
  -9.6660399236008061       -13.396708662277284        1530605904.2640040     
  -9.9883014290854462       -4.6246730174788242        1531467898.8252869     
  -11.408733939251551       0.48679261171475385        1536869633.6841218     
  -331247746.31838727       -1375983.4227193147        1515125977.4042900     
  -319831348.31738394       -1616301.7664571106        1508045036.3217616     
  -308451967.51455158       -1980010.7707649767        1505261659.9093702     
  -297109603.90989113       -2467110.4356452525        1506775848.1671202     
  -285804257.50339550       -3077600.7610762119        1512587601.0950100     
  -658840546.68874955       -1655444.8333067894        1486362698.7014046     
  -636699682.92486238       -2343676.7232006192        1480375117.1201670     
  -614632852.45914161       -3278686.2736481428        1478442924.5816600     
  -592640055.29158747       -4460473.4846494496        1480566121.0858829     
  -570721291.42219448       -5889038.3561896086        1486744706.6328351     
  -982778413.42713177       -838426.15429866314        1456211299.9254293     
  -950605014.26439238       -2182150.6995658875        1451273892.3954918     
  -918542664.49981034       -3896039.9053599834        1450149698.2808726     
  -886591364.13338876       -5980093.7716868520        1452838717.5815759     
  -854751113.16512501       -8434312.2985391021        1459340950.2975979     
  -1303061346.5335324        1075072.6143073440        1424671781.0763671     
  -1261547342.3359656       -1131723.6955289841        1420741362.1477334     
  -1220181403.6365530       -3832071.6658822298        1420381981.0070107     
  -1178963530.4352989       -7025971.2967623472        1423593637.6541970     
  -1137893722.7321908       -10713422.588129163        1430376332.0892940     
  -11.408733939251551       0.48679261171475385        1536869633.6841218     
  -10.514637878327012        4.1028834176269298        1531023106.7556148     
  -9.9661305307264776        6.5670111519030243        1530936398.7160151     
  -9.7632146186314088        7.8791670875495479        1536609509.5653243     
  -9.9058949687669013        8.0393368702063110        1548042439.3035412     
  -285804257.50339550       -3077600.7610762119        1512587601.0950100     
  -271020660.10536557       -2763293.3030600399        1506917460.3329012     
  -256278294.41949588       -2586424.8855786622        1506786966.3367693     
  -241577160.44578740       -2546995.5086361468        1512196119.1066222     
  -226917258.18424091       -2645005.1722314507        1523144918.6424525     
  -570721291.42219448       -5889038.3561896086        1486744706.6328351     
  -541783160.72860134       -5449146.0187692344        1481202848.7761269     
  -512927493.11373556       -5284130.6104416251        1480980465.5624697     
  -484154288.57760185       -5393992.1312187612        1486077556.9918640     
  -455463547.12019730       -5778730.5810928941        1496494123.0643108     
  -854751113.16512501       -8434312.2985391021        1459340950.2975979     
  -812287512.38433576       -8057554.0442197025        1453879272.0852921     
  -769947606.04884601       -8093110.6075636744        1453516896.3931131     
  -727731394.15865397       -8540981.9885658920        1458253823.2210557     
  -685638876.71376085       -9401168.1872348189        1468090052.5691195     
  -1137893722.7321908       -10713422.588129163        1430376332.0892940     
  -1082533715.0725760       -10588517.379425228        1424946730.2603991     
  -1027338633.2248256       -11013364.876939118        1424396258.8286965     
  -972308477.18894541       -11987965.080686271        1428724917.7941883     
  -917443246.96493113       -13512317.990652084        1437932707.1568739     
  -9.9058949687669013        8.0393368702063110        1548042439.3035412     
  -8.5759285204403088        7.8835972091121818        1546216961.1322474     
  -7.3999668114777597        7.2145098045833613        1549084410.4806099     
  -6.3780053125353176        6.0320876727647903        1556644787.3486302     
  -5.5100469974246575        4.3363215948402791        1568898091.7363107     
  -226917258.18424091       -2645005.1722314507        1523144918.6424525     
  -214854286.71549213       -3635542.3933333531        1520790663.1323352     
  -202824884.62447247       -4737977.5401976556        1523251273.3782482     
  -190829051.91118029       -5952310.6128184497        1530526749.3801866     
  -178866788.57561374       -7278541.6111947671        1542617091.1381488     
  -455463547.12019730       -5778730.5810928941        1496494123.0643108     
  -430989210.55160856       -7655286.3792231232        1493571926.1210275     
  -406582012.58447671       -9755637.5155413598        1495586533.1701391     
  -382241953.21880114       -12079783.990048364        1502537944.2116468     
  -357969032.45457935       -14627725.802734137        1514426159.2455471     
  -685638876.71376085       -9401168.1872348189        1468090052.5691195     
  -648404780.08428180       -12059224.074083209        1464560750.0983160     
  -611271391.27999222       -15052972.711565077        1466090189.8562794     
  -574238710.30087316       -18382414.099611878        1472678371.8430047     
  -537306737.14694202       -22047548.238290906        1484325296.0584958     
  -917443246.96493113       -13512317.990652084        1437932707.1568739     
  -867100995.31350660       -16847355.477898806        1433757135.0642078     
  -816893020.71099997       -20629983.128203183        1434762243.4366751     
  -766819323.15739655       -24860200.941520900        1440948032.2742732     
  -716879902.65270209       -29538008.917866945        1452314501.5770037     
  -5.5100469974246575        4.3363215948402791        1568898091.7363107     
  -4.5559796777718553        2.7158070206620391        1568389749.5221827     
  -3.4153316164198135        1.7172289460373227        1573914218.7988660     
  -2.0881056270518834        1.3405769511875376        1585471499.5663564     
 -0.57430003975843424        1.5858569494228183        1603061591.8246582     
  -178866788.57561374       -7278541.6111947671        1542617091.1381488     
  -163518923.03573304       -7515434.7761764824        1541971796.5563936     
  -148088922.94969589       -7478546.1206393763        1547154407.4447172     
  -132576788.31751055       -7167875.6446059197        1558164923.8031144     
  -116982519.13917115       -6583423.3480610400        1575003345.6315956     
  -357969032.45457935       -14627725.802734137        1514426159.2455471     
  -327858748.10240030       -15277144.244227484        1513739735.7156625     
  -297584194.84449464       -15378999.666632205        1518676311.6351230     
  -267145372.68087012       -14933292.069975406        1529235887.0039289     
  -236542281.61151838       -13940021.454225197        1545418461.8220804     
  -537306737.14694202       -22047548.238290906        1484325296.0584958     
  -493019479.75598449       -23285125.688353568        1483693566.9999824     
  -448485819.09973091       -23701358.920759201        1488479931.3700879     
  -403705755.17818069       -23296247.935513437        1498684389.1688042     
  -358679287.99134064       -22069792.732630193        1514306940.3961341     
  -716879902.65270209       -29538008.917866945        1452314501.5770037     
  -659001117.99648893       -31539379.108562410        1451833290.4093635     
  -600793795.71539962       -32445623.883005977        1456565266.6496060     
  -542257935.80945551       -32256743.241268188        1466510430.2977328     
  -483393538.27863657       -30972737.183277309        1481668781.3537400     
 -0.57430003975843424        1.5858569494228183        1603061591.8246582     
 -0.53133193815420443        1.6234143150652089        1599030407.2626147     
 -0.52100517124008427        1.5521651500723967        1599980033.8614504     
 -0.54328640944986051        1.3722243693900729        1605910471.6211710     
 -0.59819274076291618        1.0835318905847031        1616821720.5417747     
  -116982519.13917115       -6583423.3480610400        1575003345.6315956     
  -103501831.22028546       -5686191.8690948002        1570486930.3971853     
  -89478978.796829432       -2981745.3748927228        1571152410.4968860     
  -74913961.868801266        1529916.1345494688        1576999785.9306965     
  -59806780.436194673        7848792.6592523940        1588029056.6986268     
  -236542281.61151838       -13940021.454225197        1545418461.8220804     
  -209006379.60748008       -11973200.671049587        1541049341.2086992     
  -180386148.56167728       -6391949.7486576661        1542063200.1026614     
  -150681588.47411034        2803731.3129496276        1548460038.5039616     
  -119892699.34477624        15613842.513779022        1560239856.4126091     
  -358679287.99134064       -22069792.732630193        1514306940.3961341     
  -316513645.69292516       -18861024.782482848        1510717639.6971729     
  -272721509.81555200       -10230611.569140688        1512712402.6787786     
  -227302880.35921216        3821446.9074219614        1520291229.3409586     
  -180257757.32392433        23295150.647145689        1533454119.6837082     
  -483393538.27863657       -30972737.183277309        1481668781.3537400     
  -426023629.47662389       -26349664.203405559        1479491825.8625922     
  -366485062.55844510       -14497730.836315855        1483100018.2252457     
  -304777837.52412486        4583062.9179126918        1492493358.4416976     
  -240901954.37364516        30892717.059340537        1507671846.5119479     
 -0.59819274076291618        1.0835318905847031        1616821720.5417747     
 -0.49324354124889530       0.83491071199505640        1585690433.3344429     
 -0.36087177202536797       0.67769809910376433        1557975756.9269235     
 -0.20108882507858974       0.61185607862330904        1533677691.3192239     
  -1.3866014563652246E-002  0.63748027003671803        1512796236.5113378     
  -59806780.436194673        7848792.6592523940        1588029056.6986268     
  -48855237.912163585        15491651.022158094        1557386181.3844957     
  -36750910.325141974        26977126.261699505        1529987222.0671880     
  -23493797.675127394        42305218.377882794        1505832178.7466962     
  -9083899.9621318243        61475927.370671451        1484921051.4230270     
  -119892699.34477624        15613842.513779022        1560239856.4126091     
  -98483028.124509260        30751535.371376120        1531430308.8665180     
  -74767786.805684775        53574461.890831634        1505691982.5142455     
  -48746975.388307169        84082622.072133631        1483024877.3557909     
  -20420593.872369014        122276015.91530122        1463428993.3911557     
  -180257757.32392433        23295150.647145689        1533454119.6837082     
  -148883371.13027820        45779653.882571332        1507822815.7804861     
  -114050629.80251023        79792007.565062702        1485090038.2680769     
  -75759533.340612531        125332211.69465688        1465255787.1465044     
  -34010081.744592026        182400266.27132690        1448320062.4157305     
  -240901954.37364516        30892717.059340537        1507671846.5119479     
  -200056266.92947012        60576006.555739641        1486563702.1264148     
  -154599439.31560802        105629763.28442541        1468181389.3287065     
  -104531471.53204557        166053987.24544686        1452524908.1188202     
  -49852363.578800976        241848678.43874347        1439594258.4967535     
  -1.3866014563652246E-002  0.63748027003671803        1512796236.5113378     
  -1.6117052747344818E-002  0.65159979060776507        1403383339.5074613     
  -1.5893742366169167E-002  0.67397060917532492        1291204311.0002196     
  -1.3187619494594183E-002  0.70461399993059726        1176259150.9895916     
  -7.9893966900100033E-003  0.74356647213073812        1058547859.4755944     
  -9083899.9621318243        61475927.370671451        1484921051.4230270     
  -9596286.5012508780        80866327.823528379        1376185223.1866331     
  -8164945.9699464589        106735818.51113160        1265346675.1701698     
  -4789878.3682231680        139084399.43346268        1152405407.3736045     
   528916.30392694473        177912070.59055182        1037361419.7969919     
  -20420593.872369014        122276015.91530122        1463428993.3911557     
  -19549904.881796621        161625455.42686671        1357637915.5015137     
  -14791761.752867043        213933075.39962474        1250407529.5550852     
  -6146164.4855680466        279198875.83361501        1141737835.5518785     
   6386886.9200986028        357422856.72882712        1031628833.4918787     
  -34010081.744592026        182400266.27132690        1448320062.4157305     
  -29860855.157776758        242277383.46154475        1347741416.4521046     
  -19880447.364644527        321591771.33948457        1246386874.1549890     
  -4068858.3652195334        420343429.90507042        1144256435.5243819     
   17573911.840523869        538532359.15837848        1041350100.5602926     
  -49852363.578800976        241848678.43874347        1439594258.4967535     
  -40529137.329170540        322822111.92762536        1346495726.0383976     
  -23431002.805301338        429711906.33063722        1253284708.9698536     
   1442039.9928239584        562518061.64783359        1159961207.2911217     
   34089991.065196246        721240577.87919068        1066525221.0021920     
  -1514911752.0915561       -14193602.638303936        1386319413.9394569     
  -1461364442.4702117       -8427406.3856902122        1392670335.4596503     
  -1408206938.3367598       -3960561.7593849301        1401179370.4891999     
  -1355439239.6911995       -793068.75938445330        1411846519.0281048     
  -1303061346.5335324        1075072.6143073440        1424671781.0763671     
  -1864387382.3427272       -5211018.0107518435        1345447346.4001832     
  -1803399752.8961918       -248251.28771889210        1343984360.6763110     
  -1742894189.1566591        3107629.7453169823        1346271991.2000501     
  -1682870691.1241236        4856625.0883595943        1352310237.9714060     
  -1623329258.7985897        4998734.7413964272        1362099100.9903784     
  -2237010347.1163087       -3172633.7399230003        1303461587.5231650     
  -2164032390.0209880        2351705.8006117344        1294077057.6329279     
  -2091628758.8517754        5961625.5874570608        1290035646.7285683     
  -2019799453.6086705        7657125.6206152439        1291337354.8100810     
  -1948544474.2916720        7438205.9000796080        1297982181.8774679     
  -2632780646.4123025       -8078449.8258196115        1260362137.3083863     
  -2543262353.8445988       -627535.12070095539        1242948426.3295014     
  -2454410647.4221120        4601425.7670328617        1232470337.0747471     
  -2366225527.1448398        7608432.8373799324        1228927869.5441265     
  -2278706993.0127807        8393486.0903557539        1232321023.7376387     
  -3051698280.2307062       -19928466.268435597        1216148995.7558608     
  -2941089644.3670282       -9185974.0516657829        1190598466.7660310     
  -2831239854.8676672       -972969.71596300602        1173576062.2385919     
  -2722148911.7326283        4710546.7386707067        1165081782.1735437     
  -2613816814.9619145        7864575.3122209311        1165115626.5708857     
  -1303061346.5335324        1075072.6143073440        1424671781.0763671     
  -1261547342.3359656       -1131723.6955289841        1420741362.1477334     
  -1220181403.6365530       -3832071.6658822298        1420381981.0070107     
  -1178963530.4352989       -7025971.2967623472        1423593637.6541970     
  -1137893722.7321908       -10713422.588129163        1430376332.0892940     
  -1623329258.7985897        4998734.7413964272        1362099100.9903784     
  -1572500840.8025625        1636223.0953238010        1356434156.7526712     
  -1521777643.0337830       -2077022.6415739059        1354629811.9573092     
  -1471159665.4922464       -6141002.4692820907        1356686066.6042907     
  -1420646908.1779532       -10555716.387800813        1362602920.6936162     
  -1948544474.2916720        7438205.9000796080        1297982181.8774679     
  -1887574323.4845173        3168174.6215599775        1290632698.4800808     
  -1826666547.6336985       -1309773.1780744791        1287433376.1794767     
  -1765821146.7392108       -5995637.4988168478        1288384214.9756501     
  -1705038120.8010569       -10889418.340669632        1293485214.8686016     
  -2278706993.0127807        8393486.0903557539        1232321023.7376387     
  -2206767790.3818259        3464130.8831945658        1223336987.3299696     
  -2134848117.4362955       -1530323.2753763199        1218792673.6735160     
  -2062947974.1761897       -6589876.3853610754        1218688082.7682743     
  -1991067360.6015019       -11714528.446746945        1223023214.6142495     
  -2613816814.9619145        7864575.3122209311        1165115626.5708857     
  -2530081241.4944897        2524091.8802260160        1154547023.3023303     
  -2446322352.4415774       -2738672.9334833622        1148707704.4394245     
  -2362540147.8031764       -7923719.1288967133        1147597669.9821665     
  -2278734627.5792885       -13031046.706016660        1151216919.9305592     
  -1137893722.7321908       -10713422.588129163        1430376332.0892940     
  -1082533715.0725760       -10588517.379425228        1424946730.2603991     
  -1027338633.2248256       -11013364.876939118        1424396258.8286965     
  -972308477.18894541       -11987965.080686271        1428724917.7941883     
  -917443246.96493113       -13512317.990652084        1437932707.1568739     
  -1420646908.1779532       -10555716.387800813        1362602920.6936162     
  -1352534475.1692240       -10165486.388142824        1356377538.8214819     
  -1284629981.5751154       -10468387.770549357        1355021355.7150958     
  -1216933427.3956208       -11464420.535006821        1358534371.3744586     
  -1149444812.6307461       -13153584.681526363        1366916585.7995746     
  -1705038120.8010569       -10889418.340669632        1293485214.8686016     
  -1624201638.5330522       -10242376.377014518        1286413870.4166849     
  -1543616109.2824180       -10431844.471250594        1284201793.0990725     
  -1463281533.0491488       -11457822.623379827        1286848982.9157660     
  -1383197909.8332522       -13320310.833407879        1294355439.8667681     
  -1991067360.6015019       -11714528.446746945        1223023214.6142495     
  -1897535205.1640658       -10819187.346048355        1215055725.0460081     
  -1804297016.3467405       -10903734.979060888        1211937570.9806273     
  -1711352794.1495361       -11968171.345815778        1213668752.4181097     
  -1618702538.5724542       -14012496.446298242        1220249269.3584602     
  -2278734627.5792885       -13031046.706016660        1151216919.9305592     
  -2172535175.0622511       -11895919.295220494        1142303102.7094495     
  -2066672702.7680805       -11884059.293979764        1138228689.3597610     
  -1961147210.6967800       -12995466.702302575        1138993679.8814912     
  -1855958698.8483477       -15230141.520192742        1144598074.2746451     
  -917443246.96493113       -13512317.990652084        1437932707.1568739     
  -867100995.31350660       -16847355.477898806        1433757135.0642078     
  -816893020.71099997       -20629983.128203183        1434762243.4366751     
  -766819323.15739655       -24860200.941520900        1440948032.2742732     
  -716879902.65270209       -29538008.917866945        1452314501.5770037     
  -1149444812.6307461       -13153584.681526363        1366916585.7995746     
  -1086111441.2251480       -16577179.649300277        1361809431.9883640     
  -1022891794.8973308       -20379858.209678590        1361535203.0953524     
  -959785873.64729738       -24561620.362669528        1366093899.1205425     
  -896793677.47504735       -29122466.108270526        1375485520.0639336     
  -1383197909.8332522       -13320310.833407879        1294355439.8667681     
  -1307867005.9504263       -17130539.464784563        1288340681.6366615     
  -1232629275.1742570       -21251345.118349254        1286811092.7778223     
  -1157484717.5047379       -25682727.794086695        1289766673.2902491     
  -1082433332.9418809       -30424687.492020607        1297207423.1739464     
  -1618702538.5724542       -14012496.446298242        1220249269.3584602     
  -1532367689.4893477       -18507434.924359262        1213350884.0091047     
  -1446105461.5417695       -23244443.854180753        1210589912.4840837     
  -1359915854.7297220       -28223523.235773683        1211966354.7834001     
  -1273798869.0532007       -33444673.069116473        1217480210.9070489     
  -1855958698.8483477       -15230141.520192742        1144598074.2746451     
  -1759613491.8419142       -20707866.028037429        1136840039.1056871     
  -1663320353.9998741       -26359154.417199194        1132871662.2141330     
  -1567079285.3222375       -32184006.687705696        1132692943.5999854     
  -1470890285.8090065       -38182422.839558184        1136303883.2632420     
  -716879902.65270209       -29538008.917866945        1452314501.5770037     
  -659001117.99648893       -31539379.108562410        1451833290.4093635     
  -600793795.71539962       -32445623.883005977        1456565266.6496060     
  -542257935.80945551       -32256743.241268188        1466510430.2977328     
  -483393538.27863657       -30972737.183277309        1481668781.3537400     
  -896793677.47504735       -29122466.108270526        1375485520.0639336     
  -825608694.09671438       -31115176.257798046        1373204242.2024693     
  -754237260.73889709       -32486386.475717127        1375943315.9406331     
  -682679377.40159333       -33236096.762011945        1383702741.2784390     
  -610935044.08480942       -33364307.116711706        1396482518.2158692     
  -1082433332.9418809       -30424687.492020607        1297207423.1739464     
  -998493110.29356885       -32574025.436022341        1292960309.6990466     
  -914508525.31115818       -34575488.933037341        1293540712.0155230     
  -830479577.99464738       -36429077.983043849        1298948630.1233852     
  -746406268.34404027       -38134792.586070150        1309184064.0226297     
  -1273798869.0532007       -33444673.069116473        1217480210.9070489     
  -1177654366.5870495       -35915926.643231213        1211101492.8990915     
  -1081607589.4321890       -38712931.254985154        1209357454.8742614     
  -985658537.58861256       -41835686.904349148        1212248096.8325760     
  -889807211.05632460       -45284193.591344625        1219773418.7740152     
  -1470890285.8090065       -38182422.839558184        1136303883.2632420     
  -1363092462.9771631       -41140879.879443288        1127627791.8026145     
  -1255534453.1019931       -44898713.441571593        1123393544.5168681     
  -1148216256.1834941       -49455923.525937676        1123601141.4060037     
  -1041137872.2216629       -54812510.132528603        1128250582.4700284     
  -483393538.27863657       -30972737.183277309        1481668781.3537400     
  -426023629.47662389       -26349664.203405559        1479491825.8625922     
  -366485062.55844510       -14497730.836315855        1483100018.2252457     
  -304777837.52412486        4583062.9179126918        1492493358.4416976     
  -240901954.37364516        30892717.059340537        1507671846.5119479     
  -610935044.08480942       -33364307.116711706        1396482518.2158692     
  -538794068.75255227       -29730813.002109706        1394097706.1284237     
  -464437755.35713065       -18712858.676965028        1397518469.4101191     
  -387866103.89856637       -310444.14134280384        1406744808.0609586     
  -309079114.37684405        25476430.604807779        1421776722.0809464     
  -746406268.34404027       -38134792.586070150        1309184064.0226297     
  -659435862.15198576       -35473368.037875444        1306645855.2770498     
  -570203437.94977033       -25271883.455820441        1309933649.4159541     
  -478708995.73740530       -7530338.8399241865        1319047446.4393458     
  -384952535.51488471        17751265.809815824        1333987246.3472266     
  -889807211.05632460       -45284193.591344625        1219773418.7740152     
  -787949009.67491806       -43577329.310692519        1217136273.3084669     
  -683782110.33634818       -34174805.172840595        1220345558.2427557     
  -577306513.04062986       -17076621.177824587        1229401273.5768697     
  -468522217.78775501        7717222.6743849814        1244303419.3108191     
  -1041137872.2216629       -54812510.132528603        1128250582.4700284     
  -924333511.32134449       -54042696.820541143        1125568960.2226808     
  -805173772.51687813       -45421623.828059733        1128754195.8905151     
  -683658655.80824590       -28949291.155025780        1137806289.4735215     
  -559788161.19546998       -4625698.8015125394        1152725240.9717047     
  -240901954.37364516        30892717.059340537        1507671846.5119479     
  -200056266.92947012        60576006.555739641        1486563702.1264148     
  -154599439.31560802        105629763.28442541        1468181389.3287065     
  -104531471.53204557        166053987.24544686        1452524908.1188202     
  -49852363.578800976        241848678.43874347        1439594258.4967535     
  -309079114.37684405        25476430.604807779        1421776722.0809464     
  -259416454.66810644        55677308.378023148        1405036220.4593885     
  -203297944.90980473        107397686.31644882        1392232730.1588762     
  -140723585.10194016        180637564.42008317        1383366251.1793931     
  -71693375.244520947        275396942.68891084        1378436783.5209532     
  -384952535.51488471        17751265.809815824        1333987246.3472266     
  -323012390.01811254        49507885.916885719        1323766549.0161724     
  -252771684.59190637        108933039.12207408        1318694042.7393718     
  -174230419.23626497        196026725.42537707        1318769727.5168192     
  -87388593.951189667        310788944.82679361        1323993603.3485248     
  -468522217.78775501        7717222.6743849814        1244303419.3108191     
  -390844072.97948474        42067739.172336787        1242754687.7967784     
  -303020658.36189413        110235821.70135348        1247565327.0702069     
  -205051973.93500674        212221470.26135924        1258735337.1310976     
  -96938019.698810548        348024684.85239732        1276264717.9794598     
  -559788161.19546998       -4625698.8015125394        1152725240.9717047     
  -462911503.55221742        33356868.144396365        1162000636.8011944     
  -354044866.21978068        111306034.05424988        1178846583.1513665     
  -233188249.19817430        229221798.92800370        1203263080.0222211     
  -100341652.48738465        387104162.76570183        1235250127.4137604     
  -49852363.578800976        241848678.43874347        1439594258.4967535     
  -40529137.329170540        322822111.92762536        1346495726.0383976     
  -23431002.805301338        429711906.33063722        1253284708.9698536     
   1442039.9928239584        562518061.64783359        1159961207.2911217     
   34089991.065196246        721240577.87919068        1066525221.0021920     
  -71693375.244520947        275396942.68891084        1378436783.5209532     
  -57493694.600354373        377122517.63621080        1296858201.3008583     
  -34311168.109625340        508790912.07205200        1214354266.7348046     
  -2145795.7723475695        670402125.99639142        1130924979.8228002     
   39002422.411480099        861956159.40923321        1046570340.5648392     
  -87388593.951189667        310788944.82679361        1323993603.3485248     
  -70634938.157509118        432569917.45903832        1255344231.8677087     
  -43690498.944972426        588320168.15414822        1184956640.3051713     
  -6555276.3135716617        778039696.91212380        1112830828.6609113     
   40770729.736680865        1001728503.7329507        1038966796.9349506     
  -96938019.698810548        348024684.85239732        1276264717.9794598     
  -79952868.000649929        489164311.39608002        1221953817.7389340     
  -51568995.311328441        668299674.57695436        1165091829.6809280     
  -11786401.630852938        885430774.39503062        1105678753.8054564     
   39394913.040802002        1140557610.8503447        1043714590.1125032     
  -100341652.48738465        387104162.76570183        1235250127.4137604     
  -85447484.129779547        546905699.44729841        1196686958.9145560     
  -57946657.208711177        748729431.34043908        1154759834.8621213     
  -17839171.724170148        992575358.44515002        1109468755.2564397     
   34874972.323832631        1278443480.7614112        1060813720.0975250     
  -3051698280.2307062       -19928466.268435597        1216148995.7558608     
  -2941089644.3670282       -9185974.0516657829        1190598466.7660310     
  -2831239854.8676672       -972969.71596300602        1173576062.2385919     
  -2722148911.7326283        4710546.7386707067        1165081782.1735437     
  -2613816814.9619145        7864575.3122209311        1165115626.5708857     
  -3468786658.0488801       -29704031.514092922        1059881558.3191624     
  -3337793734.3008108       -18991783.254056454        1041988516.4135731     
  -3207221318.0880909       -9681226.7785162926        1031254550.8697578     
  -3077069409.4107175       -1772362.0874691010        1027679661.6877102     
  -2947338008.2686958        4734810.8190747499        1031263848.8674359     
  -3860075128.5069818       -31739624.551730156        901053091.05708265     
  -3712609482.8762951       -22231090.048959255        891212264.86953819     
  -3565226005.9519820       -12996451.234110117        887161466.94314492     
  -3417924697.7340479       -4035708.1071813107        888900697.27790165     
  -3270705558.2224903        4651139.3318214417        896429955.87380886     
  -4225563691.6049976       -26035245.381340981        739663593.96961880     
  -4065536890.0934668       -18903894.436366081        738269712.13391769     
  -3905253918.4593387       -10918643.082742929        741296810.45875299     
  -3744714776.7026124       -2079491.3204636574        748744888.94411314     
  -3583919464.8232937        7613560.8504655361        760613947.59000587     
  -4565252347.3429422       -12590894.002930164        575713067.05677247     
  -4396575955.9523373       -9010196.4162857533        583160858.20672071     
  -4227305055.6101642       -3447802.3244159222        593660581.41657948     
  -4057439646.3164167        4096288.2726874352        607212236.68634570     
  -3886979728.0711088        13622075.375009298        623815824.01602232     
  -2613816814.9619145        7864575.3122209311        1165115626.5708857     
  -2530081241.4944897        2524091.8802260160        1154547023.3023303     
  -2446322352.4415774       -2738672.9334833622        1148707704.4394245     
  -2362540147.8031764       -7923719.1288967133        1147597669.9821665     
  -2278734627.5792885       -13031046.706016660        1151216919.9305592     
  -2947338008.2686958        4734810.8190747499        1031263848.8674359     
  -2851932406.1421256        245006.98882925510        1023900013.0897515     
  -2756567331.8860250       -4379889.7429789305        1020587527.3515078     
  -2661242785.5003934       -9139879.3763457537        1021326391.6527064     
  -2565958766.9852271       -14034961.911276340        1026116605.9933469     
  -3270705558.2224903        4651139.3318214417        896429955.87380886     
  -3165566882.7687969        430928.50371658802        892196403.55504572     
  -3060532578.6415281       -4137186.7457944155        891336266.90951669     
  -2955602645.8406839       -9053206.4167264700        893849545.93722296     
  -2850777084.3662615       -14317130.509063005        899736240.63816524     
  -3583919464.8232937        7613560.8504655361        760613947.59000587     
  -3470984671.3744993        3081856.4249005318        759436194.69821477     
  -3358218092.7080803       -2010563.9419178963        760953923.11345470     
  -3245619728.8240480       -7663700.2500244379        765167132.83571792     
  -3133189579.7223849       -13877552.499375582        772075823.86501336     
  -3886979728.0711088        13622075.375009298        623815824.01602232     
  -3768185771.9592333        8197790.7523715496        625619386.51925814     
  -3649623874.0856876        1999978.6686234474        629440495.96331525     
  -3531294034.4504800       -4971360.8762431145        635279152.34819400     
  -3413196253.0536051       -12716227.882220507        643135355.67389274     
  -2278734627.5792885       -13031046.706016660        1151216919.9305592     
  -2172535175.0622511       -11895919.295220494        1142303102.7094495     
  -2066672702.7680805       -11884059.293979764        1138228689.3597610     
  -1961147210.6967800       -12995466.702302575        1138993679.8814912     
  -1855958698.8483477       -15230141.520192742        1144598074.2746451     
  -2565958766.9852271       -14034961.911276340        1026116605.9933469     
  -2447190380.6808186       -12309981.893868685        1017635080.6171540     
  -2328661849.6605272       -11384519.490172505        1013846442.1429125     
  -2210373173.9243340       -11258574.700140715        1014750690.5706236     
  -2092324353.4722548       -11932147.523831725        1020347825.9002914     
  -2850777084.3662615       -14317130.509063005        899736240.63816524     
  -2719858384.1872478       -12127883.858878374        891800319.53543901     
  -2589082414.3535843       -10414405.026531935        888410768.36519742     
  -2458449174.8652673       -9176694.0120091438        889567587.12744594     
  -2327958665.7223043       -8414750.8153216839        895270775.82217872     
  -3133189579.7223849       -13877552.499375582        772075823.86501336     
  -2990539185.5815258       -11349625.190244675        764798819.46430731     
  -2847934396.8472567       -8973715.9030773640        761921668.02661920     
  -2705375213.5195808       -6749824.6378835440        763444369.55195189     
  -2562861635.5984898       -4677951.3946517706        769366924.04030645     
  -3413196253.0536051       -12716227.882220507        643135355.67389274     
  -3259232784.8636589       -9975205.8879623413        636630580.40375793     
  -3105217797.1415524       -7062452.1198234558        634379141.12717664     
  -2951151289.8872705       -3977966.5777724981        636381037.84414577     
  -2797033263.1008196       -721749.26182496548        642636270.55467343     
  -1855958698.8483477       -15230141.520192742        1144598074.2746451     
  -1759613491.8419142       -20707866.028037429        1136840039.1056871     
  -1663320353.9998741       -26359154.417199194        1132871662.2141330     
  -1567079285.3222375       -32184006.687705696        1132692943.5999854     
  -1470890285.8090065       -38182422.839558184        1136303883.2632420     
  -2092324353.4722548       -11932147.523831725        1020347825.9002914     
  -1986068864.0311241       -16701252.649516225        1012681091.7346148     
  -1879941123.4808536       -21896187.411398411        1008684465.9223346     
  -1773941131.8214462       -27516951.809481382        1008357948.4634600     
  -1668068889.0529060       -33563545.843798935        1011701539.3579830     
  -2327958665.7223043       -8414750.8153216839        895270775.82217872     
  -2212134465.0579147       -12577707.922267675        887607049.64557517     
  -2096513693.0108485       -17418760.420295835        883493881.89836204     
  -1981096349.5811095       -22937908.309413433        882931272.58055651     
  -1865882434.7686973       -29135151.589620471        885919221.69213808     
  -2562861635.5984898       -4677951.3946517706        769366924.04030645     
  -2437810294.9222770       -8337231.8462946415        761617912.83856595     
  -2313038062.5898571       -12926873.443897367        757299910.14221764     
  -2188544938.6012306       -18446876.187476397        756412915.95126617     
  -2064330922.9563823       -24897240.077000141        758956930.26570439     
  -2797033263.1008196       -721749.26182496548        642636270.55467343     
  -2663096353.6242270       -3979824.4216045141        634713681.31359565     
  -2529514232.2178869       -8420526.4822150469        630102550.65389931     
  -2396286898.8817978       -14043855.443660259        628802878.57559955     
  -2263414353.6159620       -20849811.305961609        630814665.07869136     
  -1470890285.8090065       -38182422.839558184        1136303883.2632420     
  -1363092462.9771631       -41140879.879443288        1127627791.8026145     
  -1255534453.1019931       -44898713.441571593        1123393544.5168681     
  -1148216256.1834941       -49455923.525937676        1123601141.4060037     
  -1041137872.2216629       -54812510.132528603        1128250582.4700284     
  -1668068889.0529060       -33563545.843798935        1011701539.3579830     
  -1549281145.3085375       -36002415.125626504        1002360279.7079649     
  -1430541647.5350173       -38602104.310276031        996911056.33314228     
  -1311850395.7323451       -41362613.397757173        995353869.23351586     
  -1193207389.9005196       -44283942.388057172        997688718.40909505     
  -1865882434.7686973       -29135151.589620471        885919221.69213808     
  -1737675649.8251905       -31525697.027396679        876136288.66951966     
  -1609325543.8667064       -33438505.748586595        869695584.02241600     
  -1480832116.8932486       -34873577.753202319        866597107.75082481     
  -1352195368.9048185       -35830913.041231573        866840859.85474718     
  -2064330922.9563823       -24897240.077000141        758956930.26570439     
  -1928275976.5271244       -27710725.584749341        748955818.68728483     
  -1791886142.0970678       -29407917.756502151        741747127.58469212     
  -1655161419.6662068       -29988816.592255592        737330856.95792282     
  -1518101809.2345619       -29453422.092032790        735707006.80698931     
  -2263414353.6159620       -20849811.305961609        630814665.07869136     
  -2121082125.4143345       -24557500.797681689        620818869.76125860     
  -1978223442.2260871       -26510340.334000230        613065687.01996422     
  -1834838304.0512218       -26708329.914932251        607555116.85481513     
  -1690926710.8897400       -25151469.540464282        604287159.26580811     
  -1041137872.2216629       -54812510.132528603        1128250582.4700284     
  -924333511.32134449       -54042696.820541143        1125568960.2226808     
  -805173772.51687813       -45421623.828059733        1128754195.8905151     
  -683658655.80824590       -28949291.155025780        1137806289.4735215     
  -559788161.19546998       -4625698.8015125394        1152725240.9717047     
  -1193207389.9005196       -44283942.388057172        997688718.40909505     
  -1062868908.5831413       -41552583.172093332        993924622.32762992     
  -931068524.88133383       -33948216.008016646        994251865.75088406     
  -797806238.79507804       -21470840.895785302        998670448.67886102     
  -663082050.32439089       -4120457.8354519606        1007180371.1115528     
  -1352195368.9048185       -35830913.041231573        866840859.85474718     
  -1213395676.9145341       -32659880.844499469        860951901.83282030     
  -1074027558.0595374       -27594092.432064593        857378764.90516663     
  -934091012.33982003       -20633547.803891063        856121449.07177067     
  -793586039.75538826       -11778246.960014313        857179954.33264005     
  -1518101809.2345619       -29453422.092032790        735707006.80698931     
  -1375913816.3155284       -27364589.837798476        726650798.73825884     
  -1234050872.0515008       -26359253.100250483        718134893.35334325     
  -1092512976.4424789       -26437411.879381955        710159290.65223420     
  -951300129.48846710       -27599066.175214469        702723990.63493621     
  -1690926710.8897400       -25151469.540464282        604287159.26580811     
  -1550423326.7861218       -25666710.151980519        591021313.04394305     
  -1411138466.8572273       -30243698.012575209        576520251.09543169     
  -1273072131.1030571       -38882433.122251153        560783973.42026961     
  -1136224319.5236132       -51582915.481014729        543812480.01846504     
  -559788161.19546998       -4625698.8015125394        1152725240.9717047     
  -462911503.55221742        33356868.144396365        1162000636.8011944     
  -354044866.21978068        111306034.05424988        1178846583.1513665     
  -233188249.19817430        229221798.92800370        1203263080.0222211     
  -100341652.48738465        387104162.76570183        1235250127.4137604     
  -663082050.32439089       -4120457.8354519606        1007180371.1115528     
  -547768411.13124311        26120908.702440858        1020685171.2551432     
  -421577675.46924436        92619263.469809175        1042588145.2413558     
  -284509843.33840358        195374606.46666601        1072889293.0701985     
  -136564914.73871085        334386937.69302696        1111588614.7416654     
  -793586039.75538826       -11778246.960014313        857179954.33264005     
  -657470780.94964516        11431310.588650852        873615795.03326595     
  -511591308.89537907        67188245.632380456        899277432.89846158     
  -355947623.59260398        155492558.17114374        934164867.92823684     
  -190539725.04131168        276344248.20496970        978278100.12257731     
  -951300129.48846710       -27599066.175214469        702723990.63493621     
  -792018613.00741434       -10711926.196925223        720792508.13554919     
  -624085766.49818730        35012980.541933030        748914446.12268138     
  -447501589.96077061        109575654.04143488        787089804.59632516     
  -262266083.39517474        212976094.30153388        835318583.55650187     
  -1136224319.5236132       -51582915.481014729        543812480.01846504     
  -951411907.30456781       -40308801.654346585        562215310.56200778     
  -759061048.27766430       -3906531.8014950752        591499184.91401529     
  -559171742.44291449        57623894.077516168        631664103.07448947     
  -351743989.80031002        144282475.98270959        682710065.04342711     
  -100341652.48738465        387104162.76570183        1235250127.4137604     
  -85447484.129779547        546905699.44729841        1196686958.9145560     
  -57946657.208711177        748729431.34043908        1154759834.8621213     
  -17839171.724170148        992575358.44515002        1109468755.2564397     
   34874972.323832631        1278443480.7614112        1060813720.0975250     
  -136564914.73871085        334386937.69302696        1111588614.7416654     
  -127434559.63062683        483362503.19946063        1090066649.8267746     
  -95154307.808383346        709504391.08643401        1069973239.0059178     
  -39724159.271962941        1012812601.3539901        1051308382.2790748     
   38855885.978612125        1393287134.0020566        1034072079.6462926     
  -190539725.04131168        276344248.20496970        978278100.12257731     
  -173480298.47625390        418601707.94820875        986097783.30114007     
  -122727737.04633886        673169617.24097741        1000138530.2210047     
  -38282040.751561284        1040047976.0832757        1020400340.8821619     
   79856790.408070087        1519236784.4751058        1046883215.2846228     
  -262266083.39517474        212976094.30153388        835318583.55650187     
  -223584700.66666719        352623313.69351774        884780359.33766353     
  -140666944.92261729        639725109.80398715        945255708.50739694     
  -13512816.162999451        1074281482.6330023        1016744631.0657048     
   157877685.61216652        1656292432.1805396        1099247127.0125694     
  -351743989.80031002        144282475.98270959        682710065.04342711     
  -277747766.20187604        285427320.43536144        786114377.93633199     
  -148971931.43717965        609170868.77554345        905324773.86507976     
   34583514.493763626        1115513121.0032208        1040341252.8296559     
   272918571.59095234        1804454077.1183937        1191163814.8300838     
  -4565252347.3429422       -12590894.002930164        575713067.05677247     
  -4396575955.9523373       -9010196.4162857533        583160858.20672071     
  -4227305055.6101642       -3447802.3244159222        593660581.41657948     
  -4057439646.3164167        4096288.2726874352        607212236.68634570     
  -3886979728.0711088        13622075.375009298        623815824.01602232     
  -4909112021.6595440       -8710757.4162213802        464465270.34736735     
  -4729782411.6832542       -2321850.4090309143        463055015.22805113     
  -4550272736.1907539        4667274.9855451584        466139563.24845946     
  -4370582995.1820269        12256618.767515898        473718914.40858883     
  -4190713188.6570873        20446180.936877728        485793068.70843571     
  -5281632601.4486437       -13428892.471264839        353310095.32582080     
  -5087527284.0872173       -2995029.4036900997        342558276.59600633     
  -4893656344.6449137        6657573.9334349632        337744132.08572024     
  -4700019783.1217499        15528917.540118694        338867661.79496491     
  -4506617599.5177193        23619001.416353703        345928865.72374564     
  -5682814086.7102604       -26745299.168065548        242247541.99215499     
  -5469810573.1642208       -11029733.400266409        221670642.31058890     
  -5257455880.9726677        2523094.5192470551        208474287.92836556     
  -5045750010.1355972        13913184.590477943        202658478.84548628     
  -4834692960.6530094        23140536.813438892        204223215.06195271     
  -6112656477.4443731       -48659977.506608248        131277610.34634669     
  -5876632278.9142637       -26425962.398744583        100392112.37179051     
  -5641671345.1739950       -7736163.2570133209        78330030.776391432     
  -5407773676.2235603        7409419.9186015129        65091365.560145162     
  -5174939272.0629587        19010787.128109455        60676116.723056965     
  -3886979728.0711088        13622075.375009298        623815824.01602232     
  -3768185771.9592333        8197790.7523715496        625619386.51925814     
  -3649623874.0856876        1999978.6686234474        629440495.96331525     
  -3531294034.4504800       -4971360.8762431145        635279152.34819400     
  -3413196253.0536051       -12716227.882220507        643135355.67389274     
  -4190713188.6570873        20446180.936877728        485793068.70843571     
  -4066397653.6550765        12198884.928479671        483616502.14545435     
  -3942110916.0731621        3855597.5197610855        484321221.18462259     
  -3817852975.9113522       -4583681.2892930508        487907225.82594287     
  -3693623833.1696258       -13118951.498653412        494374516.06940985     
  -4506617599.5177193        23619001.416353703        345928865.72374564     
  -4374312660.8789253        13289041.446182966        340009307.71582806     
  -4241833258.8419929        3540626.1364855766        337834773.97138166     
  -4109179393.4069171       -5626244.5127508640        339405264.49041688     
  -3976351064.5737009       -14211570.501502991        344720779.27293289     
  -4834692960.6530094        23140536.813438892        204223215.06195271     
  -4691930793.6307793        11468260.305477858        194797803.23037010     
  -4548790902.3921719        1055064.5187950134        189981154.32359216     
  -4405273286.9371805       -8099050.5466094017        189773268.34162652     
  -4261377947.2658095       -15994084.890765905        194174145.28446203     
  -5174939272.0629587        19010787.128109455        60676116.723056965     
  -5019252051.9106379        6736541.5063884258        47981988.689086087     
  -4862983846.7236986       -3601087.3332765102        40760362.241260111     
  -4706134656.5021429       -12002099.390882492        39011237.379564546     
  -4548704481.2459736       -18466494.666445255        42734614.104002520     
  -3413196253.0536051       -12716227.882220507        643135355.67389274     
  -3259232784.8636589       -9975205.8879623413        636630580.40375793     
  -3105217797.1415524       -7062452.1198234558        634379141.12717664     
  -2951151289.8872705       -3977966.5777724981        636381037.84414577     
  -2797033263.1008196       -721749.26182496548        642636270.55467343     
  -3693623833.1696258       -13118951.498653412        494374516.06940985     
  -3528074794.7339773       -9326980.5163240433        487166669.96147132     
  -3362542273.7242508       -5590067.6204280853        484374938.28250718     
  -3197026270.1404657       -1908212.8109891415        485999321.03252131     
  -3031526783.9826112        1718583.9120125771        492039818.21150374     
  -3976351064.5737009       -14211570.501502991        344720779.27293289     
  -3798751374.6482763       -9229126.1578788757        336730485.87606931     
  -3621236239.1068840       -4528529.7610297203        333319085.34361088     
  -3443805657.9495335       -109781.31098437309        334486577.67553550     
  -3266459631.1762128        4027119.1922907829        340232962.87186486     
  -4261377947.2658095       -15994084.890765905        194174145.28446203     
  -4071262524.6065617       -9681642.8126320839        185322028.14756069     
  -3881299693.2894440       -3877838.5416042805        181211582.31047556     
  -3691489453.3144698        1417327.9222815037        181842807.77320316     
  -3501831804.6816373        6203856.5790235996        187215704.53575951     
  -4548704481.2459736       -18466494.666445255        42734614.104002520     
  -4345608244.6088409       -10684530.480586529        32941296.775938448     
  -4142732636.2719336       -3637993.9621579647        28052429.183110625     
  -3940077656.2352734        2673114.8887755871        28068011.325520653     
  -3737643304.4988575        8248796.0722441673        32988043.203173980     
  -2797033263.1008196       -721749.26182496548        642636270.55467343     
  -2663096353.6242270       -3979824.4216045141        634713681.31359565     
  -2529514232.2178869       -8420526.4822150469        630102550.65389931     
  -2396286898.8817978       -14043855.443660259        628802878.57559955     
  -2263414353.6159620       -20849811.305961609        630814665.07869136     
  -3031526783.9826112        1718583.9120125771        492039818.21150374     
  -2888952647.5112495       -1742563.3693432808        483719223.76539421     
  -2746500678.7337756       -5610936.2969903946        478778054.30039090     
  -2604170877.6501913       -9886534.8709403276        477216309.81649220     
  -2461963244.2604976       -14569359.091174483        479033990.31369394     
  -3266459631.1762128        4027119.1922907829        340232962.87186486     
  -3115054077.9966187        421156.70341062546        331785753.65982133     
  -2963538072.1345468       -2816630.1772434711        326785935.82859010     
  -2811911613.5900002       -5686241.4496284723        325233509.37817466     
  -2660174702.3629732       -8187677.1137660742        327128474.30858243     
  -3501831804.6816373        6203856.5790235996        187215704.53575951     
  -3341400645.0803294        2511335.7966537476        178913270.99685529     
  -3180626412.4201932       -37608.122925996780        174126195.23850238     
  -3019509106.7012191       -1442975.1797279119        172854477.26066712     
  -2858048727.9234133       -1704765.3737553358        175098117.06336820     
  -3737643304.4988575        8248796.0722441673        32988043.203173980     
  -3567992348.7623940        4527973.9104044437        25101775.776524238     
  -3397765699.5907259        2726129.8658888340        20798832.530120987     
  -3226963356.9838610        2843263.9387066364        20079213.463952374     
  -3055585320.9417920        4879376.1288738251        22942918.578036010     
  -2263414353.6159620       -20849811.305961609        630814665.07869136     
  -2121082125.4143345       -24557500.797681689        620818869.76125860     
  -1978223442.2260871       -26510340.334000230        613065687.01996422     
  -1834838304.0512218       -26708329.914932251        607555116.85481513     
  -1690926710.8897400       -25151469.540464282        604287159.26580811     
  -2461963244.2604976       -14569359.091174483        479033990.31369394     
  -2313408496.4390025       -17110339.748618126        469642130.19507229     
  -2164574849.5610194       -18721656.884450316        462524970.55384225     
  -2015462303.6265671       -19403310.498704553        457682511.38999367     
  -1866070858.6356277       -19155300.591348290        455114752.70353031     
  -2660174702.3629732       -8187677.1137660742        327128474.30858243     
  -2505305755.2037683       -9534445.0215590000        318051734.13694519     
  -2350405464.9182167       -10776735.841554284        311281782.34393865     
  -2195473831.5063405       -11914549.573785543        306818618.92956179     
  -2040510854.9681225       -12947886.218227983        304662243.89380985     
  -2858048727.9234133       -1704765.3737553358        175098117.06336820     
  -2696773901.7086539       -1829816.6165748835        166047681.58687684     
  -2535715288.2976923       -2675577.2053678036        159336122.39026219     
  -2374872887.6905327       -4242047.1401855946        154963439.47352195     
  -2214246699.8871884       -6529226.4210354090        152929632.83665085     
  -3055585320.9417920        4879376.1288738251        22942918.578036010     
  -2887812935.9536443        6003545.4664176702        13629972.544869041     
  -2720504319.6994367        5581819.0241413116        6687990.6928148419     
  -2553659472.1791749        3614196.8020503521        2116973.0218729335     
  -2387278393.3928752        100678.80009758472       -83080.467948838137     
  -1690926710.8897400       -25151469.540464282        604287159.26580811     
  -1550423326.7861218       -25666710.151980519        591021313.04394305     
  -1411138466.8572273       -30243698.012575209        576520251.09543169     
  -1273072131.1030571       -38882433.122251153        560783973.42026961     
  -1136224319.5236132       -51582915.481014729        543812480.01846504     
  -1866070858.6356277       -19155300.591348290        455114752.70353031     
  -1728557537.8957124       -22244229.719028950        441691132.71483445     
  -1591173776.7131925       -25765024.038038373        427796607.83059239     
  -1453919575.0880699       -29717683.548380435        413431178.05080646     
  -1316794933.0203409       -34102208.250030696        398594843.37547755     
  -2040510854.9681225       -12947886.218227983        304662243.89380985     
  -1903803852.3601851       -17955380.292567134        292351308.85850298     
  -1766137444.6923208       -19764857.500472069        280333779.75875515     
  -1627511631.9645166       -18376317.841933668        268609656.59455866     
  -1487926414.1767886       -13789761.316959321        257178939.36592180     
  -2214246699.8871884       -6529226.4210354090        152929632.83665085     
  -2076162270.1795259       -12800161.872546554        143001841.47495097     
  -1936029470.7946041       -12243198.399861455        134131766.87989990     
  -1793848301.7324021       -4858336.0029115677        126319409.05151379     
  -1649618762.9929464        9354425.3182239532        119564767.98978581     
  -2387278393.3928752        100678.80009758472       -83080.467948838137     
  -2245632791.3537488       -6778574.4590106010       -6357269.4358338974     
  -2100849855.0200357       -3200046.7361621857       -10809430.805953389     
  -1952929584.3917334        10836261.968661666       -13439564.578310838     
  -1801871979.4688356        35330351.655447841       -14247670.752913605     
  -1136224319.5236132       -51582915.481014729        543812480.01846504     
  -951411907.30456781       -40308801.654346585        562215310.56200778     
  -759061048.27766430       -3906531.8014950752        591499184.91401529     
  -559171742.44291449        57623894.077516168        631664103.07448947     
  -351743989.80031002        144282475.98270959        682710065.04342711     
  -1316794933.0203409       -34102208.250030696        398594843.37547755     
  -1117308426.9747076       -14440361.350736558        420622401.80132467     
  -914172924.61941385        17384806.580755413        441121050.19163042     
  -707388425.95446491        61373295.544427872        460090788.54639703     
  -496954930.97987849        117525105.54023635        477531616.86561525     
  -1487926414.1767886       -13789761.316959321        257178939.36592180     
  -1309222825.2874379        3622715.3601179719        278293533.42617220     
  -1130759690.5866416        20233678.075349152        285469263.60687995     
  -952537010.07438433        36043126.828795612        278706129.90803576     
  -774554783.75067985        51051061.620396495        258004132.32964247     
  -1649618762.9929464        9354425.3182239532        119564767.98978581     
  -1527155102.2427745        13880428.478179753        135228705.43655431     
  -1408821346.1793497        4640082.6822955012        124543825.15976058     
  -1294617494.8026464       -18366612.069316208        87510127.159408629     
  -1184543548.1127102       -55139655.776827037        24127611.435514309     
  -1801871979.4688356        35330351.655447841       -14247670.752913605     
  -1771105257.8407114        16332778.003448009       -8572082.1675392929     
  -1748357891.3975275       -29395979.598375916       -41655265.149727874     
  -1733629880.1392767       -101855921.14997083       -113497219.69947374     
  -1726921224.0659778       -201047046.65139508       -224097945.81678987     
  -351743989.80031002        144282475.98270959        682710065.04342711     
  -277747766.20187604        285427320.43536144        786114377.93633199     
  -148971931.43717965        609170868.77554345        905324773.86507976     
   34583514.493763626        1115513121.0032208        1040341252.8296559     
   272918571.59095234        1804454077.1183937        1191163814.8300838     
  -496954930.97987849        117525105.54023635        477531616.86561525     
  -388156443.39381194        223214091.41827706        596876342.61112022     
  -230241450.07425556        492624763.07460320        735368078.82849455     
  -23209951.021214485        925757120.50924659        893006825.51773477     
   232938053.76532286        1522611163.7221773        1069792582.6788455     
  -774554783.75067985        51051061.620396495        258004132.32964247     
  -621408525.21689892        124147841.01184732        386682314.58952725     
  -424808866.38240445        342089288.07235527        537848434.75730526     
  -184755807.24715269        704875402.80202472        711502492.83297563     
   98750652.188787460        1212506185.2007024        907644488.81654847     
  -1184543548.1127102       -55139655.776827037        24127611.435514309     
  -977504011.67114878       -11771430.783964515        155532293.87154949     
  -732674180.36161220        157564443.76880252        312765841.65150803     
  -450054054.18410468        452867967.88144529        495828254.77538502     
  -129643633.13866615        874139141.55392540        704719533.24318910     
  -1726921224.0659778       -201047046.65139508       -224097945.81678987     
  -1456442902.7565114       -184543723.96901697       -96573719.542817011     
  -1153837392.0118902       -60949769.836111248        60120299.511097379     
  -819104691.83201730        169734815.74764431        245984111.34495330     
  -452244802.21697468        507510032.78193194        461017715.95878917     
 </DataArray>
 <DataArray  type="Float64" Name="VM" NumberOfComponents="1" format="ascii">
   6092716640.8693924     
   5866041670.6470366     
   5639439424.6212521     
   5412656467.7562933     
   5185535879.4365854     
   5684993761.6518402     
   5477776214.5380859     
   5271100286.9398508     
   5064898864.4081583     
   4859196461.0851116     
   5310308917.2697439     
   5120521848.5648737     
   4931805943.6437874     
   4744249904.7189398     
   4558026124.2534943     
   4970299638.9266081     
   4796157312.0844946     
   4623645675.7379265     
   4452970163.6503983     
   4284409389.8262773     
   4666748680.3261328     
   4506725734.3778286     
   4348889915.9617338     
   4193515672.9868922     
   4040938529.3309240     
   5185535879.4365854     
   5023311238.2032022     
   4861696936.2007332     
   4700630770.5519695     
   4540102822.6535959     
   4859196461.0851116     
   4709776314.0009356     
   4561203523.6969910     
   4413486320.7115765     
   4266679249.2517295     
   4558026124.2534943     
   4420377499.5284510     
   4283757424.6614099     
   4148235227.6908107     
   4013920382.5814700     
   4284409389.8262773     
   4157763694.0773926     
   4032264085.0323386     
   3908028008.6684108     
   3785206884.3315997     
   4040938529.3309240     
   3924841504.0312543     
   3809940102.7519307     
   3696382790.2800303     
   3584346055.2858953     
   4540102822.6535959     
   4340650850.4205523     
   4141199887.7482314     
   3941714700.0727825     
   3742210730.9913363     
   4266679249.2517295     
   4079079375.8852587     
   3892038567.8600411     
   3705607758.1560717     
   3519906032.6202364     
   4013920382.5814700     
   3838710761.2312369     
   3664734421.9974174     
   3492143063.7929416     
   3321175179.7374873     
   3785206884.3315997     
   3623049347.6540303     
   3462915277.0015717     
   3305066724.0129261     
   3149869378.7440767     
   3584346055.2858953     
   3435997938.6617050     
   3290563432.2984576     
   3148414313.3121424     
   3010036712.4929967     
   3742210730.9913363     
   3570523201.2004290     
   3399320470.8165221     
   3228573243.2637067     
   3058286107.1947861     
   3519906032.6202364     
   3356990588.7517309     
   3194874729.4439654     
   3033597904.4010959     
   2873247495.9256587     
   3321175179.7374873     
   3167825654.1078377     
   3015723096.2753100     
   2864999224.3166509     
   2715852527.1677890     
   3149869378.7440767     
   3007152995.4830732     
   2866281967.1984138     
   2727501367.8222561     
   2591143909.1770382     
   3010036712.4929967     
   2879250559.0571904     
   2751054528.8658419     
   2625816869.5389042     
   2504010569.9589696     
   3058286107.1947861     
   2890915776.0799022     
   2723324155.7567387     
   2555471119.3837523     
   2387328741.9677601     
   2873247495.9256587     
   2711157265.1912775     
   2549360445.8134947     
   2387887333.3043990     
   2226799540.1260109     
   2715852527.1677890     
   2560513982.3193898     
   2406217226.3507748     
   2253109456.7824206     
   2101401711.8479950     
   2591143909.1770382     
   2444229864.8971405     
   2299347387.5485830     
   2156798089.6142445     
   2016985510.8080807     
   2504010569.9589696     
   2367224578.0092220     
   2233646353.7377992     
   2103736946.9568114     
   1978086289.1775177     
   2387328741.9677601     
   2242278227.5425653     
   2099335150.7542965     
   1958508543.0301905     
   1819961709.7742937     
   2226799540.1260109     
   2084559184.3404377     
   1943870061.0455389     
   1804735437.3084807     
   1667227641.0358102     
   2101401711.8479950     
   1961381108.6938961     
   1822220008.2047811     
   1683947023.1564448     
   1546615674.3074212     
   2016985510.8080807     
   1880220389.7322011     
   1743711848.8397102     
   1607586442.5726666     
   1472018950.7233317     
   1978086289.1775177     
   1847321192.9708998     
   1716588247.9491222     
   1586240949.8807695     
   1456795380.9851851     
   1819961709.7742937     
   1779389812.8661630     
   1735347294.1743336     
   1696440856.2664454     
   1681113941.8221369     
   1667227641.0358102     
   1551919247.0776343     
   1427539721.8527632     
   1294437376.1127985     
   1158712604.9118969     
   1546615674.3074212     
   1396840128.9380004     
   1243537056.0392268     
   1084430540.0519588     
   917486547.76573873     
   1472018950.7233317     
   1327863669.3616633     
   1198194655.1069751     
   1087488127.6960866     
   1001643834.2716010     
   1456795380.9851851     
   1347856562.1536305     
   1273906393.5464411     
   1243066298.8030477     
   1262367165.7453914     
   1681113941.8221369     
   1383648932.3712678     
   1129412603.7111392     
   1010097785.7562811     
   1152919152.3526766     
   1158712604.9118969     
   1008323818.1102213     
   985164363.67658591     
   1161460325.4875469     
   1544066755.6766100     
   917486547.76573873     
   962952442.28731704     
   1144837557.5823636     
   1476455640.3412764     
   1957458228.9398496     
   1001643834.2716010     
   1164438082.8572059     
   1425275958.1567457     
   1808710948.9743538     
   2334801773.4992905     
   1262367165.7453914     
   1446311454.7911992     
   1715479520.0985522     
   2110430511.9483888     
   2663584752.7727027     
   4666748680.3261328     
   4506725734.3778286     
   4348889915.9617338     
   4193515672.9868922     
   4040938529.3309240     
   4403107869.9736414     
   4252907144.5113478     
   4105733785.3588581     
   3961939241.0021315     
   3821965956.4793911     
   4149019089.8026509     
   4010511867.8970237     
   3876317345.6991963     
   3746847333.3429551     
   3622638393.2256322     
   3911569031.3648801     
   3786166494.2936110     
   3666847414.6808281     
   3554051471.5432129     
   3448375578.7904620     
   3699932199.7631650     
   3588265529.4315333     
   3484968768.4753675     
   3390455153.5433669     
   3305319938.0211000     
   4040938529.3309240     
   3924841504.0312543     
   3809940102.7519307     
   3696382790.2800303     
   3584346055.2858953     
   3821965956.4793911     
   3713309996.5792751     
   3606665147.1860123     
   3502238556.8212347     
   3400278187.6899672     
   3622638393.2256322     
   3522814390.3983564     
   3426026236.5926666     
   3332538415.1967978     
   3242668023.9229255     
   3448375578.7904620     
   3358471511.3513207     
   3272828413.9320250     
   3191754379.8725147     
   3115617770.1642156     
   3305319938.0211000     
   3225932422.9741120     
   3152203826.6619720     
   3084457782.5855813     
   3023079254.3495111     
   3584346055.2858953     
   3435997938.6617050     
   3290563432.2984576     
   3148414313.3121424     
   3010036712.4929967     
   3400278187.6899672     
   3265618417.6576071     
   3134777219.1317797     
   3008219033.7085385     
   2886532374.5140324     
   3242668023.9229255     
   3122613333.1900587     
   3007376525.1947651     
   2897496789.1385798     
   2793636073.5023904     
   3115617770.1642156     
   3010898687.3514009     
   2912033443.4321566     
   2819600612.1527638     
   2734287251.5010400     
   3023079254.3495111     
   2934071477.6457577     
   2851913481.6043100     
   2777175021.0423365     
   2710509629.9078817     
   3010036712.4929967     
   2879250559.0571904     
   2751054528.8658419     
   2625816869.5389042     
   2504010569.9589696     
   2886532374.5140324     
   2768185242.5573721     
   2653473447.3667169     
   2542868252.7238064     
   2436951534.6950536     
   2793636073.5023904     
   2688756661.8560529     
   2588597839.3275900     
   2493697981.6963816     
   2404695819.5276508     
   2734287251.5010400     
   2643510481.3237095     
   2558481509.5307355     
   2479751634.9541907     
   2407948104.9939728     
   2710509629.9078817     
   2633903282.0735478     
   2563918944.0607438     
   2501063448.0094881     
   2445889115.8449636     
   2504010569.9589696     
   2367224578.0092220     
   2233646353.7377992     
   2103736946.9568114     
   1978086289.1775177     
   2436951534.6950536     
   2312657924.5134888     
   2193078099.7012730     
   2078892183.6033931     
   1970934225.2422931     
   2404695819.5276508     
   2295337341.4121556     
   2192337711.7462773     
   2096523232.3327920     
   2008856642.5925610     
   2407948104.9939728     
   2315160641.8137088     
   2230294283.7627983     
   2154202579.4320221     
   2087825030.6738164     
   2445889115.8449636     
   2370288622.7979417     
   2303920564.2379856     
   2247553993.4140158     
   2201988473.6975403     
   1978086289.1775177     
   1847321192.9708998     
   1716588247.9491222     
   1586240949.8807695     
   1456795380.9851851     
   1970934225.2422931     
   1854804703.7348528     
   1743043569.6600385     
   1636575382.7844403     
   1536535608.0384107     
   2008856642.5925610     
   1912454160.4588027     
   1824816390.3696196     
   1747143372.1470146     
   1680726897.6522858     
   2087825030.6738164     
   2012687371.7476122     
   1949882890.8376353     
   1900487890.5540719     
   1865529278.1481917     
   2201988473.6975403     
   2146642969.3777494     
   2106194136.2475817     
   2081404633.9082060     
   2072949883.9210200     
   1456795380.9851851     
   1347856562.1536305     
   1273906393.5464411     
   1243066298.8030477     
   1262367165.7453914     
   1536535608.0384107     
   1475652298.6988204     
   1447473178.1024628     
   1455963893.8730147     
   1504416874.1648023     
   1680726897.6522858     
   1652128303.6085348     
   1651276039.2319977     
   1680540346.8230453     
   1742529831.3760371     
   1865529278.1481917     
   1854841072.4923038     
   1867169623.8578379     
   1904725018.3643568     
   1970537457.5954406     
   2072949883.9210200     
   2069197299.5151558     
   2084749849.5612159     
   2122238758.0285826     
   2185472348.6505218     
   1262367165.7453914     
   1446311454.7911992     
   1715479520.0985522     
   2110430511.9483888     
   2663584752.7727027     
   1504416874.1648023     
   1612973450.4571812     
   1788728220.3895338     
   2066419319.2229860     
   2476241326.4876199     
   1742529831.3760371     
   1787486634.7229059     
   1884586759.5920932     
   2060735556.3504374     
   2341159870.5490875     
   1970537457.5954406     
   1968809759.5303004     
   2003619579.6234651     
   2093644775.7913496     
   2257551020.1170177     
   2185472348.6505218     
   2156227693.8561292     
   2146567206.8844407     
   2167024124.6876140     
   2228682472.0711684     
   3699932199.7631650     
   3588265529.4315333     
   3484968768.4753675     
   3390455153.5433669     
   3305319938.0211000     
   3416996950.9700022     
   3331868827.8035150     
   3254596099.7759151     
   3185573006.9790096     
   3125307589.2132597     
   3177131479.2720604     
   3116414147.7617078     
   3062677225.3087716     
   3016251112.6850691     
   2977523762.7023435     
   2982773568.7984309     
   2944602721.3390112     
   2912121405.6055031     
   2885563975.0526180     
   2865184001.1782699     
   2835366362.9197235     
   2818143744.4718275     
   2804887965.6312680     
   2795724099.8274193     
   2790777678.9454417     
   3305319938.0211000     
   3225932422.9741120     
   3152203826.6619720     
   3084457782.5855813     
   3023079254.3495111     
   3125307589.2132597     
   3060578491.1317554     
   3001779226.3450832     
   2949204149.4278455     
   2903191246.3076191     
   2977523762.7023435     
   2926794372.8464203     
   2882147459.5400348     
   2843830996.5050483     
   2812119975.3432007     
   2865184001.1782699     
   2827556444.3546824     
   2796017989.3255520     
   2770758996.7217851     
   2751983534.5464773     
   2790777678.9454417     
   2765066623.1897416     
   2745293532.7597790     
   2731588860.1045599     
   2724088045.9384565     
   3023079254.3495111     
   2934071477.6457577     
   2851913481.6043100     
   2777175021.0423365     
   2710509629.9078817     
   2903191246.3076191     
   2830072154.2453561     
   2764473026.6478796     
   2706910682.6857443     
   2657957318.3723817     
   2812119975.3432007     
   2754284332.7131109     
   2704492477.4689493     
   2663174628.0199733     
   2630790254.0043001     
   2751983534.5464773     
   2708317532.4983006     
   2673047791.4340520     
   2646498437.0189943     
   2629003619.3841510     
   2724088045.9384565     
   2692944231.9483075     
   2670383072.1447582     
   2656621216.4046168     
   2651874702.9842958     
   2710509629.9078817     
   2633903282.0735478     
   2563918944.0607438     
   2501063448.0094881     
   2445889115.8449636     
   2657957318.3723817     
   2595533516.8477941     
   2540616316.0316501     
   2493666673.3776307     
   2455168948.8133674     
   2630790254.0043001     
   2582221970.7136045     
   2541904789.0196247     
   2510218594.2807097     
   2487548240.3090520     
   2629003619.3841510     
   2593353635.0139332     
   2566556249.2692313     
   2548893092.7896266     
   2540639977.3044858     
   2651874702.9842958     
   2627645006.7182441     
   2612760128.8052540     
   2607404916.4890671     
   2611755424.0100565     
   2445889115.8449636     
   2370288622.7979417     
   2303920564.2379856     
   2247553993.4140158     
   2201988473.6975403     
   2455168948.8133674     
   2397115711.3042855     
   2348858841.7644911     
   2310989753.1139603     
   2284087327.3032117     
   2487548240.3090520     
   2445560008.3089437     
   2413637189.5285778     
   2392189886.8573585     
   2381596373.0706210     
   2540639977.3044858     
   2512763147.4538012     
   2495012390.8452730     
   2487642664.2286820     
   2490875682.3559651     
   2611755424.0100565     
   2595756630.4959760     
   2589837821.1835437     
   2594137861.0317936     
   2608770543.5203266     
   2201988473.6975403     
   2146642969.3777494     
   2106194136.2475817     
   2081404633.9082060     
   2072949883.9210200     
   2284087327.3032117     
   2243365339.2201262     
   2216548583.9490738     
   2204086763.0321894     
   2206368355.3087239     
   2381596373.0706210     
   2352592567.7271142     
   2336480049.5112057     
   2333510804.4542646     
   2343907610.0714431     
   2490875682.3559651     
   2470969331.8600793     
   2463033753.2533073     
   2467207464.8989606     
   2483626447.4598069     
   2608770543.5203266     
   2595698953.8604636     
   2593832162.4904194     
   2603251166.5178857     
   2624052862.7878661     
   2072949883.9210200     
   2069197299.5151558     
   2084749849.5612159     
   2122238758.0285826     
   2185472348.6505218     
   2206368355.3087239     
   2191868691.0133700     
   2192403915.3326073     
   2209942227.0358400     
   2247400693.9586740     
   2343907610.0714431     
   2319451083.8659000     
   2306546565.6298280     
   2306598647.6467218     
   2321694022.0292635     
   2483626447.4598069     
   2450963242.9648142     
   2426856809.9727693     
   2412251973.0198097     
   2408524746.3971167     
   2624052862.7878661     
   2585618978.1960740     
   2553048906.0299468     
   2526923911.1184602     
   2508052563.1676040     
   2185472348.6505218     
   2156227693.8561292     
   2146567206.8844407     
   2167024124.6876140     
   2228682472.0711684     
   2247400693.9586740     
   2182727118.6269422     
   2134493915.3397970     
   2112377602.9877136     
   2127325055.1271844     
   2321694022.0292635     
   2224933257.6002569     
   2141518199.9057872     
   2079823638.1663120     
   2050033428.7630844     
   2408524746.3971167     
   2283140965.8176947     
   2168287691.9505420     
   2070713908.4003346     
   1999199755.6240747     
   2508052563.1676040     
   2357560741.7566700     
   2215273707.9577861     
   2086180117.4747837     
   1977167457.0901501     
   2835366362.9197235     
   2818143744.4718275     
   2804887965.6312680     
   2795724099.8274193     
   2790777678.9454417     
   2737623093.7593627     
   2720490171.1398973     
   2709553421.6052608     
   2704941859.1778355     
   2706784846.6420536     
   2678609086.6174173     
   2660310415.5431023     
   2650585962.1171937     
   2649525078.3031378     
   2657217556.5419493     
   2667743985.8924537     
   2645463827.0658774     
   2634227718.7016845     
   2634066787.9535146     
   2645012539.9947515     
   2712681936.4772949     
   2682151421.4546752     
   2665142650.0915465     
   2661655622.3879032     
   2671690338.3437481     
   2790777678.9454417     
   2765066623.1897416     
   2745293532.7597790     
   2731588860.1045599     
   2724088045.9384565     
   2706784846.6420536     
   2687037045.2865257     
   2673753849.9649858     
   2667020664.3285513     
   2666925101.9992952     
   2657217556.5419493     
   2641672053.8042207     
   2633087462.3399587     
   2631506572.9822640     
   2636972886.6700268     
   2645012539.9947515     
   2631421146.6999230     
   2625256902.0364385     
   2626531475.2520413     
   2635256673.5567436     
   2671690338.3437481     
   2657457235.0226941     
   2651087192.5501599     
   2652580210.9261498     
   2661936290.1506677     
   2724088045.9384565     
   2692944231.9483075     
   2670383072.1447582     
   2656621216.4046168     
   2651874702.9842958     
   2666925101.9992952     
   2644735485.6817207     
   2631499143.2146573     
   2627349066.2974100     
   2632414962.5855012     
   2636972886.6700268     
   2621543844.3873682     
   2615400855.3189111     
   2618606980.1115403     
   2631222618.6722560     
   2635256673.5567436     
   2623949627.6758366     
   2622259201.8103642     
   2630201902.8180995     
   2647793344.6851835     
   2661936290.1506677     
   2651809808.4626741     
   2651659625.7326627     
   2661485741.9606361     
   2681288157.1465931     
   2651874702.9842958     
   2627645006.7182441     
   2612760128.8052540     
   2607404916.4890671     
   2611755424.0100565     
   2632414962.5855012     
   2616786114.6922340     
   2610160771.6292267     
   2612637926.8570528     
   2624310031.1794186     
   2631222618.6722560     
   2621980606.2214441     
   2621407048.9075198     
   2629543362.2154832     
   2646427656.5487137     
   2647793344.6851835     
   2642689390.8132286     
   2645955923.6237221     
   2657602621.9132466     
   2677638307.6693945     
   2681288157.1465931     
   2678126336.2058048     
   2683092904.1652985     
   2696187861.0250783     
   2717411206.7851477     
   2611755424.0100565     
   2595756630.4959760     
   2589837821.1835437     
   2594137861.0317936     
   2608770543.5203266     
   2624310031.1794186     
   2614607088.7213488     
   2614916654.1097116     
   2625315397.2862024     
   2645864408.4754424     
   2646427656.5487137     
   2641389784.9432540     
   2646384242.2409978     
   2661444626.4086709     
   2686597074.8059249     
   2677638307.6693945     
   2675555471.9725695     
   2683642871.0909877     
   2701908859.3955059     
   2730359815.8993702     
   2717411206.7851477     
   2716530732.2426457     
   2726099393.7147145     
   2746117191.2013464     
   2776584124.7025490     
   2608770543.5203266     
   2595698953.8604636     
   2593832162.4904194     
   2603251166.5178857     
   2624052862.7878661     
   2645864408.4754424     
   2634648026.5705342     
   2633740311.3496113     
   2643181057.5290837     
   2663020704.7358990     
   2686597074.8059249     
   2676905633.4653292     
   2676808499.9363537     
   2686321043.9021153     
   2705463966.0328603     
   2730359815.8993702     
   2722029395.2729325     
   2722739111.3953090     
   2732492274.8082643     
   2751293645.4566946     
   2776584124.7025490     
   2769601908.2264023     
   2771246709.7438049     
   2781518529.2547660     
   2800417366.7592826     
   2624052862.7878661     
   2585618978.1960740     
   2553048906.0299468     
   2526923911.1184602     
   2508052563.1676040     
   2663020704.7358990     
   2617568872.2825150     
   2577780422.9037657     
   2543986310.5236239     
   2516649161.5119390     
   2705463966.0328603     
   2655091231.0237508     
   2610323951.2463007     
   2571309645.0915399     
   2538255036.5829020     
   2751293645.4566946     
   2698099114.2072463     
   2650594750.1254721     
   2608817213.3972878     
   2572817878.3977118     
   2800417366.7592826     
   2746496395.6111650     
   2698493167.9580107     
   2656407683.7998333     
   2620239943.1366210     
   2508052563.1676040     
   2357560741.7566700     
   2215273707.9577861     
   2086180117.4747837     
   1977167457.0901501     
   2516649161.5119390     
   2348626277.0120330     
   2184181908.2939672     
   2026421437.6517000     
   1879918061.6990736     
   2538255036.5829020     
   2357797039.2719297     
   2177086946.8629231     
   1997598970.0109899     
   1821615552.4673779     
   2572817878.3977118     
   2385176046.7494283     
   2194456041.6375775     
   2001036801.0529504     
   1805523477.9698191     
   2620239943.1366210     
   2430731246.5226064     
   2236431469.6043463     
   2037340612.3818040     
   1833458674.8550098     
   2712681936.4772949     
   2682151421.4546752     
   2665142650.0915465     
   2661655622.3879032     
   2671690338.3437481     
   2667743876.0559897     
   2645463743.5490713     
   2634227662.8204069     
   2634066760.9966345     
   2645012543.1800051     
   2678608916.7822452     
   2660310286.1956167     
   2650585874.7750063     
   2649525034.4576945     
   2657217557.6253638     
   2737622913.2488561     
   2720490033.6476350     
   2709553327.5897908     
   2704941809.1199789     
   2706784841.0656128     
   2835366214.7835498     
   2818143632.3701196     
   2804887887.5159154     
   2795724053.7670741     
   2790777663.2267313     
   2671690338.3437481     
   2657457235.0226941     
   2651087192.5501599     
   2652580210.9261498     
   2661936290.1506677     
   2645012543.1800051     
   2631421147.3173146     
   2625256900.3561621     
   2626531471.5465131     
   2635256668.1050582     
   2657217557.6253638     
   2641672050.6142139     
   2633087455.5444922     
   2631506563.2502317     
   2636972874.6769018     
   2706784841.0656128     
   2687037034.3141303     
   2673753834.7854700     
   2667020646.1321158     
   2666925081.9814005     
   2790777663.2267313     
   2765066601.2024555     
   2745293506.3263836     
   2731588831.0565495     
   2724088016.1163173     
   2661936290.1506677     
   2651809808.4626741     
   2651659625.7326627     
   2661485741.9606361     
   2681288157.1465931     
   2635256668.1050582     
   2623949622.4560504     
   2622259196.7601194     
   2630201897.8808289     
   2647793339.8117795     
   2636972874.6769018     
   2621543833.0410628     
   2615400844.5157766     
   2618606969.7572088     
   2631222608.6844468     
   2666925081.9814005     
   2644735466.8888912     
   2631499125.5295291     
   2627349049.6132946     
   2632414946.8095069     
   2724088016.1163173     
   2692944204.0548620     
   2670383046.0811882     
   2656621192.0833006     
   2651874680.3312855     
   2681288157.1465931     
   2678126336.2058048     
   2683092904.1652985     
   2696187861.0250783     
   2717411206.7851477     
   2647793339.8117795     
   2642689386.4077625     
   2645955919.5216236     
   2657602617.9564295     
   2677638303.7061601     
   2631222608.6844468     
   2621980597.3116860     
   2621407040.7483635     
   2629543354.4899459     
   2646427648.9501219     
   2632414946.8095069     
   2616786100.8063493     
   2610160759.1470294     
   2612637915.3020520     
   2624310020.0849423     
   2651874680.3312855     
   2627644987.0177593     
   2612760111.4204340     
   2607404900.7862558     
   2611755409.3584580     
   2717411206.7851477     
   2716530732.2426457     
   2726099393.7147145     
   2746117191.2013464     
   2776584124.7025490     
   2677638303.7061601     
   2675555469.1084151     
   2683642869.1871586     
   2701908858.3112712     
   2730359815.4916263     
   2646427648.9501219     
   2641389779.4363127     
   2646384238.5382490     
   2661444624.2188735     
   2686597073.8332176     
   2624310020.0849423     
   2614607080.6558394     
   2614916648.6244640     
   2625315393.9252801     
   2645864406.7747464     
   2611755409.3584580     
   2595756619.8094068     
   2589837813.8374543     
   2594137856.3875599     
   2608770540.9245548     
   2776584124.7025490     
   2769601908.2264023     
   2771246709.7438049     
   2781518529.2547660     
   2800417366.7592826     
   2730359815.4916263     
   2722029394.8115115     
   2722739110.8865633     
   2732492274.2583580     
   2751293644.8712635     
   2686597073.8332176     
   2676905632.4505844     
   2676808498.8938093     
   2686321042.8452730     
   2705463964.9745221     
   2645864406.7747464     
   2634648024.9032993     
   2633740309.7401781     
   2643181056.0002103     
   2663020703.3097043     
   2608770540.9245548     
   2595698951.4347239     
   2593832160.2726226     
   2603251164.5430379     
   2624052861.0906634     
   2800417366.7592826     
   2746496395.6111650     
   2698493167.9580107     
   2656407683.7998333     
   2620239943.1366210     
   2751293644.8712635     
   2698099113.7690496     
   2650594749.8185673     
   2608817213.2059078     
   2572817878.3071151     
   2705463964.9745221     
   2655091230.2262077     
   2610323950.6771250     
   2571309644.7182794     
   2538255036.3738298     
   2663020703.3097043     
   2617568871.1994801     
   2577780422.1141195     
   2543986309.9768763     
   2516649161.1565495     
   2624052861.0906634     
   2585618976.8959403     
   2553048905.0585279     
   2526923910.4053087     
   2508052562.6381898     
   2620239943.1366210     
   2430731246.5226064     
   2236431469.6043463     
   2037340612.3818040     
   1833458674.8550098     
   2572817878.3071151     
   2385176046.6875615     
   2194456041.6148109     
   2001036801.0830095     
   1805523478.0719874     
   2538255036.3738298     
   2357797039.1288533     
   2177086946.8058043     
   1997598970.0667553     
   1821615552.6739399     
   2516649161.1565495     
   2348626276.7678156     
   2184181908.1892509     
   2026421437.7248089     
   1879918062.0031669     
   2508052562.6381898     
   2357560741.3910422     
   2215273707.7910776     
   2086180117.5542405     
   1977167457.4794872     
   2835366214.7835498     
   2818143632.3701196     
   2804887887.5159154     
   2795724053.7670741     
   2790777663.2267313     
   2982773507.2789135     
   2944602675.9634919     
   2912121375.3298621     
   2885563958.9233947     
   2865183998.4440207     
   3177131485.2633481     
   3116414153.5393100     
   3062677231.2561574     
   3016251119.2371030     
   2977523770.4540730     
   3416997008.8664155     
   3331868871.8766012     
   3254596132.0878925     
   3185573029.6432209     
   3125307604.4929233     
   3699932298.1273332     
   3588265602.2600036     
   3484968819.5738654     
   3390455186.8494134     
   3305319957.6977582     
   2790777663.2267313     
   2765066601.2024555     
   2745293506.3263836     
   2731588831.0565495     
   2724088016.1163173     
   2865183998.4440207     
   2827556435.9637303     
   2796017976.4391665     
   2770758980.5139594     
   2751983516.2047071     
   2977523770.4540730     
   2926794375.4617205     
   2882147457.5744863     
   2843830990.5217772     
   2812119965.9124470     
   3125307604.4929233     
   3060578502.0209594     
   3001779232.8630414     
   2949204151.5862212     
   2903191244.1054111     
   3305319957.6977582     
   3225932439.4923248     
   3152203839.5838237     
   3084457791.4424844     
   3023079258.6281590     
   2724088016.1163173     
   2692944204.0548620     
   2670383046.0811882     
   2656621192.0833006     
   2651874680.3312855     
   2751983516.2047071     
   2708317513.9366932     
   2673047772.7207427     
   2646498418.2299585     
   2629003600.6053553     
   2812119965.9124470     
   2754284321.2701530     
   2704492464.2595196     
   2663174613.2956090     
   2630790238.0240736     
   2903191244.1054111     
   2830072148.4924569     
   2764473017.7753153     
   2706910671.1311436     
   2657957304.5814285     
   3023079258.6281590     
   2934071476.9836440     
   2851913476.6216168     
   2777175012.3702307     
   2710509618.1903067     
   2651874680.3312855     
   2627644987.0177593     
   2612760111.4204340     
   2607404900.7862558     
   2611755409.3584580     
   2629003600.6053553     
   2593353618.0633669     
   2566556233.7008681     
   2548893078.1484084     
   2540639963.1253772     
   2630790238.0240736     
   2582221955.8271933     
   2541904774.9757276     
   2510218580.8070712     
   2487548227.1103253     
   2657957304.5814285     
   2595533503.6986160     
   2540616303.4759216     
   2493666661.3373442     
   2455168937.1767139     
   2710509618.1903067     
   2633903270.7141695     
   2563918933.2229171     
   2501063437.8234296     
   2445889106.4018440     
   2611755409.3584580     
   2595756619.8094068     
   2589837813.8374543     
   2594137856.3875599     
   2608770540.9245548     
   2540639963.1253772     
   2512763136.9338059     
   2495012383.4745851     
   2487642659.4824772     
   2490875679.6935263     
   2487548227.1103253     
   2445559998.4125519     
   2413637182.5174060     
   2392189882.2996945     
   2381596370.5197911     
   2455168937.1767139     
   2397115702.5462890     
   2348858835.5388579     
   2310989749.0619755     
   2284087325.0547037     
   2445889106.4018440     
   2370288615.7334104     
   2303920559.2544851     
   2247553990.2047772     
   2201988471.9504428     
   2608770540.9245548     
   2595698951.4347239     
   2593832160.2726226     
   2603251164.5430379     
   2624052861.0906634     
   2490875679.6935263     
   2470969329.3842330     
   2463033751.0127616     
   2467207462.9404044     
   2483626445.8293390     
   2381596370.5197911     
   2352592565.3275943     
   2336480047.3211336     
   2333510802.5320587     
   2343907608.4757361     
   2284087325.0547037     
   2243365337.0355368     
   2216548581.8929577     
   2204086761.1735668     
   2206368353.7195044     
   2201988471.9504428     
   2146642967.5584567     
   2106194134.4211574     
   2081404632.1507931     
   2072949882.3168612     
   2624052861.0906634     
   2585618976.8959403     
   2553048905.0585279     
   2526923910.4053087     
   2508052562.6381898     
   2483626445.8293390     
   2450963241.6611414     
   2426856808.9452233     
   2412251972.2158427     
   2408524745.7604651     
   2343907608.4757361     
   2319451082.5431280     
   2306546564.5460811     
   2306598646.7664838     
   2321694021.3143373     
   2206368353.7195044     
   2191868689.6582155     
   2192403914.1934214     
   2209942226.0933948     
   2247400693.1927385     
   2072949882.3168612     
   2069197298.1180496     
   2084749848.3685312     
   2122238757.0374033     
   2185472347.8594337     
   2508052562.6381898     
   2357560741.3910422     
   2215273707.7910776     
   2086180117.5542405     
   1977167457.4794872     
   2408524745.7604651     
   2283140965.4085875     
   2168287691.7955298     
   2070713908.5323489     
   1999199756.0819263     
   2321694021.3143373     
   2224933257.1558490     
   2141518199.7477834     
   2079823638.3090839     
   2050033429.2149737     
   2247400693.1927385     
   2182727118.1540489     
   2134493915.1634192     
   2112377603.1010377     
   2127325055.5065145     
   2185472347.8594337     
   2156227693.3604579     
   2146567206.6742704     
   2167024124.7341075     
   2228682472.3204184     
   3699932298.1273332     
   3588265602.2600036     
   3484968819.5738654     
   3390455186.8494134     
   3305319957.6977582     
   3911569124.1923523     
   3786166564.0108347     
   3666847463.2182484     
   3554051500.9741402     
   3448375591.3836346     
   4149019171.4277682     
   4010511930.0581803     
   3876317389.0462332     
   3746847358.6164870     
   3622638401.2640553     
   4403107931.3320560     
   4252907192.1805596     
   4105733819.2233806     
   3961939260.9457154     
   3821965962.3526297     
   4666748710.1696138     
   4506725758.9971695     
   4348889934.9276457     
   4193515685.7537980     
   4040938535.1782522     
   3305319957.6977582     
   3225932439.4923248     
   3152203839.5838237     
   3084457791.4424844     
   3023079258.6281590     
   3448375591.3836346     
   3358471521.8412662     
   3272828422.1188612     
   3191754385.5349011     
   3115617773.0507274     
   3622638401.2640553     
   3522814396.9746428     
   3426026241.6603699     
   3332538418.7019954     
   3242668025.8018694     
   3821965962.3526297     
   3713310001.1471009     
   3606665150.4760237     
   3502238558.8680615     
   3400278188.5386567     
   4040938535.1782522     
   3924841508.2153325     
   3809940105.3012896     
   3696382791.2425208     
   3584346054.7362757     
   3023079258.6281590     
   2934071476.9836440     
   2851913476.6216168     
   2777175012.3702307     
   2710509618.1903067     
   3115617773.0507274     
   3010898686.0374379     
   2912033438.3163347     
   2819600603.6414928     
   2734287240.0102072     
   3242668025.8018694     
   3122613331.6142545     
   3007376520.3709717     
   2897496781.2734714     
   2793636062.8016977     
   3400278188.5386567     
   3265618415.9174933     
   3134777214.8528109     
   3008219026.9309773     
   2886532365.2630324     
   3584346054.7362757     
   3435997936.5989861     
   3290563428.6535807     
   3148414307.9980831     
   3010036705.3939281     
   2710509618.1903067     
   2633903270.7141695     
   2563918933.2229171     
   2501063437.8234296     
   2445889106.4018440     
   2734287240.0102072     
   2643510470.4363961     
   2558481499.4434791     
   2479751625.8399682     
   2407948096.9957390     
   2793636062.8016977     
   2688756651.8353667     
   2588597830.1999040     
   2493697973.6617198     
   2404695812.7675791     
   2886532365.2630324     
   2768185233.9226809     
   2653473439.5589285     
   2542868245.9495869     
   2436951529.1538329     
   3010036705.3939281     
   2879250552.4048810     
   2751054522.8514109     
   2625816864.3554931     
   2504010565.8006287     
   2445889106.4018440     
   2370288615.7334104     
   2303920559.2544851     
   2247553990.2047772     
   2201988471.9504428     
   2407948096.9957390     
   2315160635.7167521     
   2230294279.3740978     
   2154202576.5489707     
   2087825029.0859213     
   2404695812.7675791     
   2295337336.0948467     
   2192337707.7820168     
   2096523229.6271408     
   2008856641.0473831     
   2436951529.1538329     
   2312657919.9188724     
   2193078096.0583472     
   2078892180.9208922     
   1970934223.5353303     
   2504010565.8006287     
   2367224574.2146535     
   2233646350.3901253     
   2103736944.1507316     
   1978086287.0251536     
   2201988471.9504428     
   2146642967.5584567     
   2106194134.4211574     
   2081404632.1507931     
   2072949882.3168612     
   2087825029.0859213     
   2012687370.1306479     
   1949882889.2118714     
   1900487888.9494665     
   1865529276.6029110     
   2008856641.0473831     
   1912454158.9682741     
   1824816388.9081361     
   1747143370.6925576     
   1680726896.1865737     
   1970934223.5353303     
   1854804702.2234354     
   1743043568.2778945     
   1636575381.4595156     
   1536535606.6925185     
   1978086287.0251536     
   1847321191.2192321     
   1716588246.5045316     
   1586240948.6375160     
   1456795379.8239682     
   2072949882.3168612     
   2069197298.1180496     
   2084749848.3685312     
   2122238757.0374033     
   2185472347.8594337     
   1865529276.6029110     
   1854841071.1493185     
   1867169622.7205629     
   1904725017.4344306     
   1970537456.8738809     
   1680726896.1865737     
   1652128302.3297932     
   1651276038.1520832     
   1680540345.9510643     
   1742529830.7182088     
   1536535606.6925185     
   1475652297.5067391     
   1447473177.0864308     
   1455963893.0547018     
   1504416873.5617023     
   1456795379.8239682     
   1347856561.0923169     
   1273906392.6131163     
   1243066298.0354950     
   1262367165.1827645     
   2185472347.8594337     
   2156227693.3604579     
   2146567206.6742704     
   2167024124.7341075     
   2228682472.3204184     
   1970537456.8738809     
   1968809759.0723145     
   2003619579.4243743     
   2093644775.8229840     
   2257551020.3201661     
   1742529830.7182088     
   1787486634.2964244     
   1884586759.3950429     
   2060735556.3536816     
   2341159870.6906986     
   1504416873.5617023     
   1612973450.0548077     
   1788728220.1864715     
   2066419319.1880877     
   2476241326.5591331     
   1262367165.1827645     
   1446311454.4037981     
   1715479519.8833489     
   2110430511.8706045     
   2663584752.7723784     
   4666748710.1696138     
   4506725758.9971695     
   4348889934.9276457     
   4193515685.7537980     
   4040938535.1782522     
   4970299648.5749073     
   4796157320.9199409     
   4623645683.7188663     
   4452970170.7564802     
   4284409396.0340290     
   5310308923.7762823     
   5120521854.3931971     
   4931805948.9367990     
   4744249909.6586361     
   4558026129.0825748     
   5684993782.5012894     
   5477776230.3633022     
   5271100297.9150591     
   5064898870.6509380     
   4859196462.7271614     
   6092716693.7984467     
   5866041709.5441227     
   5639439449.6062202     
   5412656478.6954069     
   5185535876.0585766     
   4040938535.1782522     
   3924841508.2153325     
   3809940105.3012896     
   3696382791.2425208     
   3584346054.7362757     
   4284409396.0340290     
   4157763698.3043661     
   4032264087.2337899     
   3908028008.8041687     
   3785206882.3701129     
   4558026129.0825748     
   4420377502.4309177     
   4283757425.5631323     
   4148235226.5155745     
   4013920379.2510915     
   4859196462.7271614     
   4709776314.1493216     
   4561203522.2872734     
   4413486317.6779795     
   4266679244.5232515     
   5185535876.0585766     
   5023311234.1457615     
   4861696931.4410524     
   4700630765.0731058     
   4540102816.4368877     
   3584346054.7362757     
   3435997936.5989861     
   3290563428.6535807     
   3148414307.9980831     
   3010036705.3939281     
   3785206882.3701129     
   3623049345.2196007     
   3462915274.0516968     
   3305066720.4900498     
   3149869374.5632110     
   4013920379.2510915     
   3838710758.5539393     
   3664734419.9662213     
   3492143062.3919930     
   3321175178.9296041     
   4266679244.5232515     
   4079079373.0036469     
   3892038566.8578277     
   3705607759.0651608     
   3519906035.4604468     
   4540102816.4368877     
   4340650847.2990026     
   4141199887.7939110     
   3941714703.3661351     
   3742210737.6114597     
   3010036705.3939281     
   2879250552.4048810     
   2751054522.8514109     
   2625816864.3554931     
   2504010565.8006287     
   3149869374.5632110     
   3007152991.6767821     
   2866281963.8657689     
   2727501365.0676618     
   2591143907.1125860     
   3321175178.9296041     
   3167825653.5228724     
   3015723095.9087105     
   2864999224.1677108     
   2715852527.2425375     
   3519906035.4604468     
   3356990591.6487255     
   3194874732.2884088     
   3033597907.0833049     
   2873247498.3368840     
   3742210737.6114597     
   3570523207.7503490     
   3399320477.0886335     
   3228573249.0452814     
   3058286112.2661066     
   2504010565.8006287     
   2367224574.2146535     
   2233646350.3901253     
   2103736944.1507316     
   1978086287.0251536     
   2591143907.1125860     
   2444229862.5811696     
   2299347385.0881939     
   2156798087.1233802     
   2016985508.4142573     
   2715852527.2425375     
   2560513981.5037842     
   2406217224.7730474     
   2253109454.5722313     
   2101401709.1423299     
   2873247498.3368840     
   2711157266.0305796     
   2549360445.2274790     
   2387887331.4355454     
   2226799537.1164479     
   3058286112.2661066     
   2890915778.8378415     
   2723324156.3633938     
   2555471117.9919739     
   2387328738.7219896     
   1978086287.0251536     
   1847321191.2192321     
   1716588246.5045316     
   1586240948.6375160     
   1456795379.8239682     
   2016985508.4142573     
   1880220387.8197656     
   1743711847.3451335     
   1607586441.4257560     
   1472018949.8453109     
   2101401709.1423299     
   1961381106.5535402     
   1822220006.5955904     
   1683947022.0420678     
   1546615673.6479878     
   2226799537.1164479     
   2084559181.9674191     
   1943870059.2972636     
   1804735436.1729155     
   1667227640.4998581     
   2387328738.7219896     
   2242278224.9790449     
   2099335148.8740766     
   1958508541.8340416     
   1819961709.2624283     
   1456795379.8239682     
   1347856561.0923169     
   1273906392.6131163     
   1243066298.0354950     
   1262367165.1827645     
   1472018949.8453109     
   1327863668.5632463     
   1198194654.4069688     
   1087488127.1199546     
   1001643833.8493763     
   1546615673.6479878     
   1396840128.3610303     
   1243537055.5543282     
   1084430539.6664288     
   917486547.48436272     
   1667227640.4998581     
   1551919246.6410048     
   1427539721.5156655     
   1294437375.8699808     
   1158712604.7557216     
   1819961709.2624283     
   1779389812.4816370     
   1735347293.9058790     
   1696440856.1010501     
   1681113941.7530928     
   1262367165.1827645     
   1446311454.4037981     
   1715479519.8833489     
   2110430511.8706045     
   2663584752.7723784     
   1001643833.8493763     
   1164438082.5542431     
   1425275957.9811628     
   1808710948.9048617     
   2334801773.4978285     
   917486547.48436272     
   962952442.06612849     
   1144837557.4513552     
   1476455640.2963245     
   1957458228.9600265     
   1158712604.7557216     
   1008323817.9832382     
   985164363.60289729     
   1161460325.4853747     
   1544066755.7438335     
   1681113941.7530928     
   1383648932.3315499     
   1129412603.7088323     
   1010097785.8141994     
   1152919152.4945536     
 </DataArray>
 <DataArray  type="Float64" Name="strain" NumberOfComponents="3" format="ascii">
  0.10163430705094134       -2.9752283248957734E-002   5.6886951293342314E-003
   9.7811740750920362E-002  -2.8942729011627977E-002   4.3503241123303837E-003
   9.3989174450899382E-002  -2.8079420872596517E-002   3.3943009199117746E-003
   9.0166608150878513E-002  -2.7162358831863964E-002   2.8206255520774048E-003
   8.6344041850857534E-002  -2.6191542889430042E-002   2.6292980088282736E-003
   9.4579841222199978E-002  -2.7968315656547227E-002   1.0497392973132791E-002
   9.1108360587494108E-002  -2.7165224102195351E-002   9.6057275505286865E-003
   8.7636879952788349E-002  -2.6329331043812576E-002   9.0338856339697848E-003
   8.4165399318082479E-002  -2.5460636481399027E-002   8.7818672234565298E-003
   8.0693918683376664E-002  -2.4559140414954606E-002   8.8496723189886994E-003
   8.7960065444261049E-002  -2.6184348064136775E-002   1.5310104332789010E-002
   8.4777146156331223E-002  -2.5387719192762948E-002   1.4844192106913345E-002
   8.1594226868401343E-002  -2.4579241215028524E-002   1.4635579068543791E-002
   7.8411307580471545E-002  -2.3758914130934033E-002   1.4684265217680875E-002
   7.5228388292541720E-002  -2.2926737940479114E-002   1.4990250554324180E-002
   8.1774979717124968E-002  -2.4400380471726268E-002   2.0126829208302610E-002
   7.8818097457431846E-002  -2.3610214283330336E-002   2.0065717781484901E-002
   7.5861215197738793E-002  -2.2829151386244528E-002   2.0199381223634572E-002
   7.2904332938045713E-002  -2.2057191780469013E-002   2.0527819534751142E-002
   6.9947450678352674E-002  -2.1294335466003705E-002   2.1051032714835008E-002
   7.6024584040791210E-002  -2.2616412879315817E-002   2.4947567599673481E-002
   7.3231214490795837E-002  -2.1832709373897807E-002   2.5270304574243341E-002
   7.0437844940800381E-002  -2.1079061557460491E-002   2.5725292099241265E-002
   6.7644475390804940E-002  -2.0355469430003995E-002   2.6312530174667156E-002
   6.4851105840809470E-002  -1.9661932991528352E-002   2.7032018800521085E-002
   8.6344041850857534E-002  -2.6191542889430042E-002   2.6292980088282736E-003
   8.3687883636321514E-002  -2.5208536007983118E-002   2.0792191217299250E-003
   8.1031725421785439E-002  -2.4254901150212060E-002   1.7662819862848123E-003
   7.8375567207249419E-002  -2.3330638316116939E-002   1.6904866024937681E-003
   7.5719408992713344E-002  -2.2435747505697212E-002   1.8518329703562930E-003
   8.0693918683376664E-002  -2.4559140414954606E-002   8.8496723189886994E-003
   7.8256187878531058E-002  -2.3650791627566253E-002   8.4412378236633778E-003
   7.5818457073685452E-002  -2.2761538902320730E-002   8.2325163960659253E-003
   7.3380726268839860E-002  -2.1891382239218559E-002   8.2235080361952456E-003
   7.0942995463994185E-002  -2.1040321638259196E-002   8.4142127440520187E-003
   7.5228388292541720E-002  -2.2926737940479114E-002   1.4990250554324180E-002
   7.2971656213460190E-002  -2.2093047247149278E-002   1.4733736412305340E-002
   7.0714924134378743E-002  -2.1268176654429510E-002   1.4639506654087392E-002
   6.8458192055297282E-002  -2.0452126162320290E-002   1.4707561279670323E-002
   6.6201459976215793E-002  -1.9644895770821125E-002   1.4937900289054534E-002
   6.9947450678352674E-002  -2.1294335466003705E-002   2.1051032714835008E-002
   6.7834288641109033E-002  -2.0535302866732247E-002   2.0956714887654996E-002
   6.5721126603865379E-002  -1.9774814406538346E-002   2.0987252760349510E-002
   6.3607964566621752E-002  -1.9012870085422021E-002   2.1142646332918912E-002
   6.1494802529378077E-002  -1.8249469903383081E-002   2.1422895605362861E-002
   6.4851105840809470E-002  -1.9661932991528352E-002   2.7032018800521085E-002
   6.2844085161477409E-002  -1.8977558486315327E-002   2.7110173249712488E-002
   6.0837064482145334E-002  -1.8281452158647127E-002   2.7275754714852385E-002
   5.8830043802813266E-002  -1.7573614008523655E-002   2.7528763195940734E-002
   5.6823023123481198E-002  -1.6854044035944982E-002   2.7869198692977604E-002
   7.5719408992713344E-002  -2.2435747505697212E-002   1.8518329703562930E-003
   7.2373381483989196E-002  -2.1549965711575247E-002   1.4274558621915068E-003
   6.9027353975265104E-002  -2.0653029926371885E-002   1.2156049299105187E-003
   6.5681326466540929E-002  -1.9744940150087327E-002   1.2162801735134121E-003
   6.2335298957816865E-002  -1.8825696382721135E-002   1.4294815929994931E-003
   7.0942995463994185E-002  -2.1040321638259196E-002   8.4142127440520187E-003
   6.7805967264425115E-002  -2.0194951895482205E-002   8.0306209785300786E-003
   6.4668939064855935E-002  -1.9341867806926621E-002   7.8525016554342741E-003
   6.1531910865286782E-002  -1.8481069372592203E-002   7.8798547747648412E-003
   5.8394882665717629E-002  -1.7612556592479400E-002   8.1126803365216826E-003
   6.6201459976215793E-002  -1.9644895770821125E-002   1.4937900289054534E-002
   6.3266377352344610E-002  -1.8839938079389357E-002   1.4591654220871803E-002
   6.0331294728473414E-002  -1.8030705687481344E-002   1.4443826861658432E-002
   5.7396212104602225E-002  -1.7217198595097519E-002   1.4494418211414416E-002
   5.4461129480731035E-002  -1.6399416802237554E-002   1.4743428270139913E-002
   6.1494802529378077E-002  -1.8249469903383081E-002   2.1422895605362861E-002
   5.8754611747747827E-002  -1.7484924263296189E-002   2.1110555589217032E-002
   5.6014420966117529E-002  -1.6719543568036073E-002   2.0989580548583620E-002
   5.3274230184487237E-002  -1.5953327817602614E-002   2.1059970483462490E-002
   5.0534039402856952E-002  -1.5186277011995764E-002   2.1321725393853769E-002
   5.6823023123481198E-002  -1.6854044035944982E-002   2.7869198692977604E-002
   5.4270670450634717E-002  -1.6129910447203216E-002   2.7587325083565817E-002
   5.1718317777788292E-002  -1.5408381448590927E-002   2.7489762716209593E-002
   4.9165965104941867E-002  -1.4689457040107771E-002   2.7576511590908639E-002
   4.6613612432095386E-002  -1.3973137221753973E-002   2.7847571707662944E-002
   6.2335298957816865E-002  -1.8825696382721135E-002   1.4294815929994931E-003
   5.9489178923470498E-002  -1.7915427879327428E-002   1.0877433847515938E-003
   5.6643058889124187E-002  -1.7034263894958990E-002   9.0128255218202558E-004
   5.3796938854777848E-002  -1.6182204429615155E-002   8.7009909529059404E-004
   5.0950818820431509E-002  -1.5359249483297477E-002   9.9419301407666083E-004
   5.8394882665717629E-002  -1.7612556592479400E-002   8.1126803365216826E-003
   5.5702567402013126E-002  -1.6748858769253583E-002   7.7529082410608408E-003
   5.3010252138308595E-002  -1.5902505205581452E-002   7.5454683112055609E-003
   5.0317936874604050E-002  -1.5073495901462342E-002   7.4903605469560652E-003
   4.7625621610899560E-002  -1.4261830856896696E-002   7.5875849483116875E-003
   5.4461129480731035E-002  -1.6399416802237554E-002   1.4743428270139913E-002
   5.1919673777595737E-002  -1.5582289659180404E-002   1.4377382546938017E-002
   4.9378218074460425E-002  -1.4770746516204358E-002   1.4160723779269302E-002
   4.6836762371325079E-002  -1.3964787373309751E-002   1.4093451967133117E-002
   4.4295306668189816E-002  -1.3164412230496025E-002   1.4175567110530196E-002
   5.0534039402856952E-002  -1.5186277011995764E-002   2.1321725393853769E-002
   4.8140498050218292E-002  -1.4415720549106892E-002   2.0961166302382914E-002
   4.5746956697579652E-002  -1.3638987826827265E-002   2.0747048956372492E-002
   4.3353415344941054E-002  -1.2856078845156604E-002   2.0679373355822372E-002
   4.0959873992302401E-002  -1.2066993604095300E-002   2.0758139500732617E-002
   4.6613612432095386E-002  -1.3973137221753973E-002   2.7847571707662944E-002
   4.4365040219880858E-002  -1.3249151439033324E-002   2.7504259507395268E-002
   4.2116468007666302E-002  -1.2507229137450032E-002   2.7304443842515347E-002
   3.9867895795451747E-002  -1.1747370317003812E-002   2.7248124713023320E-002
   3.7619323583237163E-002  -1.0969574977694685E-002   2.7335302118918992E-002
   5.0950818820431509E-002  -1.5359249483297477E-002   9.9419301407666083E-004
   4.8160233283119580E-002  -1.4539123748220528E-002   5.9063207081955227E-004
   4.5369647745807484E-002  -1.3695551916602267E-002   2.8981289512730601E-004
   4.2579062208495444E-002  -1.2828533988441485E-002   9.1735487000477178E-005
   3.9788476671183459E-002  -1.1938069963737918E-002  -3.6001535614893498E-006
   4.7625621610899560E-002  -1.4261830856896696E-002   7.5875849483116875E-003
   4.4937082603633383E-002  -1.3453372559404708E-002   7.1953994653313202E-003
   4.2248543596367233E-002  -1.2633983496506462E-002   6.9045652748780939E-003
   3.9560004589101069E-002  -1.1803663668202763E-002   6.7150823769514811E-003
   3.6871465581834850E-002  -1.0962413074493194E-002   6.6269507715517317E-003
   4.4295306668189816E-002  -1.3164412230496025E-002   1.4175567110530196E-002
   4.1707423715931197E-002  -1.2367621370588278E-002   1.3782241756690822E-002
   3.9119540763672495E-002  -1.1572415076411297E-002   1.3488877220339979E-002
   3.6531657811413890E-002  -1.0778793347964701E-002   1.3295473501477265E-002
   3.3943774859155201E-002  -9.9867561852479136E-003   1.3202030600102721E-002
   4.0959873992302401E-002  -1.2066993604095300E-002   2.0758139500732617E-002
   3.8471256620012800E-002  -1.1281870181772041E-002   2.0351158944897793E-002
   3.5982639247723235E-002  -1.0510846656315589E-002   2.0042748731512995E-002
   3.3494021875433641E-002  -9.7539230277260865E-003   1.9832908860577866E-002
   3.1005404503144013E-002  -9.0110992960030223E-003   1.9721639332092866E-002
   3.7619323583237163E-002  -1.0969574977694685E-002   2.7335302118918992E-002
   3.5228581315878305E-002  -1.0196118992956027E-002   2.6902151029952359E-002
   3.2837839048519446E-002  -9.4492782362200212E-003   2.6566179808397039E-002
   3.0447096781160587E-002  -8.7290527074873961E-003   2.6327388454253448E-002
   2.8056354513801729E-002  -8.0354424067577979E-003   2.6185776967521335E-002
   3.9788476671183459E-002  -1.1938069963737918E-002  -3.6001535614893498E-006
   3.7393320359373594E-002  -1.1115187729835885E-002  -2.7548167553237413E-004
   3.4998164047563673E-002  -1.0450915174079922E-002  -4.6840866757236199E-004
   3.2603007735753808E-002  -9.9452522964673107E-003  -5.8238112968278521E-004
   3.0207851423943888E-002  -9.5981990969999931E-003  -6.1739906186208948E-004
   3.6871465581834850E-002  -1.0962413074493194E-002   6.6269507715517317E-003
   3.4538703732411857E-002  -1.0167475331737785E-002   6.1967464759764557E-003
   3.2205941882988642E-002  -9.4760940562961804E-003   5.8123765752443601E-003
   2.9873180033565511E-002  -8.8882692481678377E-003   5.4738410693553063E-003
   2.7540418184142323E-002  -8.4040009073538258E-003   5.1811399583092665E-003
   3.3943774859155201E-002  -9.9867561852479136E-003   1.3202030600102721E-002
   3.1640287337031447E-002  -9.2197629336381315E-003   1.2668556741754045E-002
   2.9336799814907666E-002  -8.5012729385117725E-003   1.2147797143161498E-002
   2.7033312292783954E-002  -7.8312861998681427E-003   1.1639751804324389E-002
   2.4729824770660158E-002  -7.2098027177075474E-003   1.1144420725242909E-002
   3.1005404503144013E-002  -9.0110992960030223E-003   1.9721639332092866E-002
   2.8698071173232309E-002  -8.2720505355392548E-003   1.9139949121801489E-002
   2.6390737843320619E-002  -7.5264518207279196E-003   1.8537853036178914E-002
   2.4083404513408929E-002  -6.7743031515685587E-003   1.7915351075224635E-002
   2.1776071183497232E-002  -6.0156045280612136E-003   1.7272443238938798E-002
   2.8056354513801729E-002  -8.0354424067577979E-003   2.6185776967521335E-002
   2.5712055241014664E-002  -7.3243381374404892E-003   2.5610923616118497E-002
   2.3367755968227599E-002  -6.5516307029440668E-003   2.4982544254296579E-002
   2.1023456695440590E-002  -5.7173201032688636E-003   2.4300638882056108E-002
   1.8679157422653525E-002  -4.8214063384149908E-003   2.3565207499396723E-002
   3.0207851423943888E-002  -9.5981990969999931E-003  -6.1739906186208948E-004
   2.9600084860226028E-002  -9.1277392587787443E-003  -3.7145689154094441E-004
   2.8992318296508168E-002  -8.2518564649032844E-003  -1.8050614886040428E-003
   2.8384551732790281E-002  -6.9705507153746266E-003  -4.9182128530503855E-003
   2.7776785169072449E-002  -5.2838220101909528E-003  -9.7109109848818598E-003
   2.7540418184142323E-002  -8.4040009073538258E-003   5.1811399583092665E-003
   2.5521987186192363E-002  -7.8671159876212426E-003   5.8599105785049899E-003
   2.3503556188242403E-002  -7.1214414427360762E-003   5.3968990976195341E-003
   2.1485125190292442E-002  -6.1669772726990479E-003   3.7921055156545092E-003
   1.9466694192342371E-002  -5.0037234775099915E-003   1.0455298326088602E-003
   2.4729824770660158E-002  -7.2098027177075474E-003   1.1144420725242909E-002
   2.1838494004781828E-002  -6.6064927164631859E-003   1.2059386464810418E-002
   1.8947163238903511E-002  -5.9910264205688402E-003   1.2370334769601504E-002
   1.6055832473025188E-002  -5.3634038300241285E-003   1.2077265639615975E-002
   1.3164501707146836E-002  -4.7236249448290302E-003   1.1180179074854468E-002
   2.1776071183497232E-002  -6.0156045280612136E-003   1.7272443238938798E-002
   1.8549605315994325E-002  -5.3458694453056288E-003   1.8226970767376671E-002
   1.5323139448491525E-002  -4.8606113984018401E-003   1.9115245527341777E-002
   1.2096673580988660E-002  -4.5598303873491015E-003   1.9937267518834751E-002
   8.8702077134858101E-003  -4.4435264121485130E-003   2.0693036741855048E-002
   1.8679157422653525E-002  -4.8214063384149908E-003   2.3565207499396723E-002
   1.5655321119829979E-002  -4.0852461741479607E-003   2.4362663486203306E-002
   1.2631484817006378E-002  -3.7301963762344792E-003   2.5631631370841124E-002
   9.6076485141828039E-003  -3.7562569446742619E-003   2.7372111153310369E-002
   6.5838122113592301E-003  -4.1634278794675517E-003   2.9584102833611015E-002
   2.7776785169072449E-002  -5.2838220101909528E-003  -9.7109109848818598E-003
   2.3351329759985773E-002  -4.2064857821377810E-003  -4.1848611802728364E-003
   1.8925874350899097E-002  -4.7533574639979648E-003   2.6052129778367794E-003
   1.4500418941812615E-002  -6.9244370557706159E-003   1.0659311489445988E-002
   1.0074963532725745E-002  -1.0719724557456622E-002   1.9977434354554902E-002
   1.9466694192342371E-002  -5.0037234775099915E-003   1.0455298326088602E-003
   1.6232876375722738E-002  -4.6913295454726889E-003   6.7397327370354310E-003
   1.2999058559103105E-002  -6.2894449648920325E-003   1.3553186472896050E-002
   9.7652407424833054E-003  -9.7980697357667457E-003   2.1485891040191385E-002
   6.5314229258639500E-003  -1.5217203858096440E-002   3.0537846438919658E-002
   1.3164501707146836E-002  -4.7236249448290302E-003   1.1180179074854468E-002
   1.0977547960928508E-002  -5.1761733088081519E-003   1.6756233637555518E-002
   8.7905942147102067E-003  -7.8255324657861003E-003   2.3306765509625349E-002
   6.6036404684918990E-003  -1.2671702415762431E-002   3.0831774691063463E-002
   4.4166867222736328E-003  -1.9714683158736701E-002   3.9331261181870136E-002
   8.8702077134858101E-003  -4.4435264121485130E-003   2.0693036741855048E-002
   7.5853445156031860E-003  -5.6610170721437814E-003   2.5864641521287868E-002
   6.3004813177205653E-003  -9.3616199666806121E-003   3.1865950088024286E-002
   5.0156181198379082E-003  -1.5545335095757895E-002   3.8696962442062388E-002
   3.7307549219553343E-003  -2.4212162459376740E-002   4.6357678583404727E-002
   6.5838122113592301E-003  -4.1634278794675517E-003   2.9584102833611015E-002
   6.0562660397466828E-003  -6.1458608354792998E-003   3.4064956388233036E-002
   5.5287198681341632E-003  -1.0897707467574791E-002   3.9230740208092363E-002
   5.0011736965216297E-003  -1.8418967775753942E-002   4.5081454293188994E-002
   4.4736275249090962E-003  -2.8709641760016780E-002   5.1617098643523818E-002
   7.6024584040791210E-002  -2.2616412879315817E-002   2.4947567599673481E-002
   7.3231214490795837E-002  -2.1832709373897807E-002   2.5270304574243341E-002
   7.0437844940800381E-002  -2.1079061557460491E-002   2.5725292099241265E-002
   6.7644475390804940E-002  -2.0355469430003995E-002   2.6312530174667156E-002
   6.4851105840809470E-002  -1.9661932991528352E-002   2.7032018800521085E-002
   7.0295884228987499E-002  -2.0693896732018824E-002   3.2052089768742298E-002
   6.7664427900667956E-002  -2.0012618803540078E-002   3.1991687861630591E-002
   6.5032971572348455E-002  -1.9344291648453596E-002   3.2122861847442757E-002
   6.2401515244028961E-002  -1.8688915266759355E-002   3.2445611726178547E-002
   5.9770058915709384E-002  -1.8046489658457510E-002   3.2959937497838515E-002
   6.4175886095440796E-002  -1.8771380584721775E-002   3.9045633903077817E-002
   6.1765668331292989E-002  -1.8192528233182292E-002   3.8619198029873056E-002
   5.9355450567145147E-002  -1.7609521739446611E-002   3.8443663392087705E-002
   5.6945232802997348E-002  -1.7022361103514738E-002   3.8519029989722189E-002
   5.4535015038849534E-002  -1.6431046325386695E-002   3.8845297822776140E-002
   5.7664589640151157E-002  -1.6848864437424768E-002   4.5928200002679762E-002
   5.5534935782670762E-002  -1.6372437662824535E-002   4.5152835078970319E-002
   5.3405281925190513E-002  -1.5874751830439699E-002   4.4687696733176310E-002
   5.1275628067710209E-002  -1.5355806940270084E-002   4.4532784965297584E-002
   4.9145974210229829E-002  -1.4815602992315838E-002   4.4688099775334375E-002
   5.0761994863118554E-002  -1.4926348290127733E-002   5.2699788067548325E-002
   4.8972230254801574E-002  -1.4552347092466777E-002   5.1592599008922602E-002
   4.7182465646484484E-002  -1.4139981921432690E-002   5.0854961870708176E-002
   4.5392701038167435E-002  -1.3689252777025377E-002   5.0486876652905008E-002
   4.3602936429850414E-002  -1.3200159659245037E-002   5.0488343355512943E-002
   6.4851105840809470E-002  -1.9661932991528352E-002   2.7032018800521085E-002
   6.2844085161477409E-002  -1.8977558486315327E-002   2.7110173249712488E-002
   6.0837064482145334E-002  -1.8281452158647127E-002   2.7275754714852385E-002
   5.8830043802813266E-002  -1.7573614008523655E-002   2.7528763195940734E-002
   5.6823023123481198E-002  -1.6854044035944982E-002   2.7869198692977604E-002
   5.9770058915709384E-002  -1.8046489658457510E-002   3.2959937497838515E-002
   5.7865153836078098E-002  -1.7406287343066526E-002   3.2908901584035352E-002
   5.5960248756446840E-002  -1.6757580840104966E-002   3.2974669853685662E-002
   5.4055343676815568E-002  -1.6100370149572839E-002   3.3157242306788709E-002
   5.2150438597184295E-002  -1.5434655271470088E-002   3.3456618943345368E-002
   5.4535015038849534E-002  -1.6431046325386695E-002   3.8845297822776140E-002
   5.2761602726423766E-002  -1.5835016199817642E-002   3.8661843911093938E-002
   5.0988190413998005E-002  -1.5233709521562694E-002   3.8624571350369674E-002
   4.9214778101572279E-002  -1.4627126290621913E-002   3.8733480140603356E-002
   4.7441365789146484E-002  -1.4015266506995222E-002   3.8988570281794907E-002
   4.9145974210229829E-002  -1.4815602992315838E-002   4.4688099775334375E-002
   4.7533431832514371E-002  -1.4263745056568744E-002   4.4369000230888245E-002
   4.5920889454798906E-002  -1.3709838203020477E-002   4.4225459204904817E-002
   4.4308347077083435E-002  -1.3153882431670944E-002   4.4257476697384071E-002
   4.2695804699367984E-002  -1.2595877742520342E-002   4.4465052708325875E-002
   4.3602936429850414E-002  -1.3200159659245037E-002   5.0488343355512943E-002
   4.2180641154349982E-002  -1.2692473913319929E-002   5.0030370543418218E-002
   4.0758345878849522E-002  -1.2185966884478122E-002   4.9777333417290903E-002
   3.9336050603349076E-002  -1.1680638572720191E-002   4.9729231977131069E-002
   3.7913755327848603E-002  -1.1176488978045462E-002   4.9886066222938563E-002
   5.6823023123481198E-002  -1.6854044035944982E-002   2.7869198692977604E-002
   5.4270670450634717E-002  -1.6129910447203216E-002   2.7587325083565817E-002
   5.1718317777788292E-002  -1.5408381448590927E-002   2.7489762716209593E-002
   4.9165965104941867E-002  -1.4689457040107771E-002   2.7576511590908639E-002
   4.6613612432095386E-002  -1.3973137221753973E-002   2.7847571707662944E-002
   5.2150438597184295E-002  -1.5434655271470088E-002   3.3456618943345368E-002
   4.9785571696972064E-002  -1.4763535489670576E-002   3.3141282097618907E-002
   4.7420704796759902E-002  -1.4090110088047794E-002   3.3016605555105480E-002
   4.5055837896547719E-002  -1.3414379066601912E-002   3.3082589315805495E-002
   4.2690970996335509E-002  -1.2736342425332614E-002   3.3339233379718614E-002
   4.7441365789146484E-002  -1.4015266506995222E-002   3.8988570281794907E-002
   4.5270333722726500E-002  -1.3397160532137783E-002   3.8644680409706034E-002
   4.3099301656306488E-002  -1.2771838727504654E-002   3.8497799901988088E-002
   4.0928269589886490E-002  -1.2139301093095830E-002   3.8547928758641464E-002
   3.8757237523466492E-002  -1.1499547628911255E-002   3.8795066979665754E-002
   4.2695804699367984E-002  -1.2595877742520342E-002   4.4465052708325875E-002
   4.0724956527898017E-002  -1.2030785574604928E-002   4.4097520019827058E-002
   3.8754108356428084E-002  -1.1453567366961518E-002   4.3933345756857284E-002
   3.6783260184958137E-002  -1.0864223119589719E-002   4.3972529919416560E-002
   3.4812412013488184E-002  -1.0262752832489896E-002   4.4215072507504734E-002
   3.7913755327848603E-002  -1.1176488978045462E-002   4.9886066222938563E-002
   3.6149440112486636E-002  -1.0664410617072295E-002   4.9499800927982396E-002
   3.4385124897124655E-002  -1.0135296006418437E-002   4.9323243119713089E-002
   3.2620809681762668E-002  -9.5891451460839577E-003   4.9356392798130699E-002
   3.0856494466400680E-002  -9.0259580360685376E-003   4.9599249963235170E-002
   4.6613612432095386E-002  -1.3973137221753973E-002   2.7847571707662944E-002
   4.4365040219880858E-002  -1.3249151439033324E-002   2.7504259507395268E-002
   4.2116468007666302E-002  -1.2507229137450032E-002   2.7304443842515347E-002
   3.9867895795451747E-002  -1.1747370317003812E-002   2.7248124713023320E-002
   3.7619323583237163E-002  -1.0969574977694685E-002   2.7335302118918992E-002
   4.2690970996335509E-002  -1.2736342425332614E-002   3.3339233379718614E-002
   4.0588485568113564E-002  -1.2050097728850795E-002   3.3003442895678969E-002
   3.8486000139891591E-002  -1.1349742541766850E-002   3.2816329444236542E-002
   3.6383514711669632E-002  -1.0635276864080487E-002   3.2777893025391802E-002
   3.4281029283447700E-002  -9.9067006957921366E-003   3.2888133639144279E-002
   3.8757237523466492E-002  -1.1499547628911255E-002   3.8795066979665754E-002
   3.6806019376446619E-002  -1.0851044018667960E-002   3.8462972183593652E-002
   3.4854801229426829E-002  -1.0192255946083459E-002   3.8284734917328325E-002
   3.2903583082406943E-002  -9.5231834111570539E-003   3.8260355180869725E-002
   3.0952364935387167E-002  -8.8438264138893108E-003   3.8389832974218580E-002
   3.4812412013488184E-002  -1.0262752832489896E-002   4.4215072507504734E-002
   3.3017641644880039E-002  -9.6519903084853892E-003   4.3882847371139136E-002
   3.1222871276271921E-002  -9.0347693504000612E-003   4.3709660261790281E-002
   2.9428100907663818E-002  -8.4110899582336748E-003   4.3695511179457934E-002
   2.7633330539055659E-002  -7.7809521319865127E-003   4.3840400124141719E-002
   3.0856494466400680E-002  -9.0259580360685376E-003   4.9599249963235170E-002
   2.9223352373413808E-002  -8.4529365983027072E-003   4.9263068458315851E-002
   2.7590210280426922E-002  -7.8772827547168300E-003   4.9091105477622521E-002
   2.5957068187440042E-002  -7.2989965053103095E-003   4.9083361021155292E-002
   2.4323926094453163E-002  -6.7180778500838256E-003   4.9239835088914274E-002
   3.7619323583237163E-002  -1.0969574977694685E-002   2.7335302118918992E-002
   3.5228581315878305E-002  -1.0196118992956027E-002   2.6902151029952359E-002
   3.2837839048519446E-002  -9.4492782362200212E-003   2.6566179808397039E-002
   3.0447096781160587E-002  -8.7290527074873961E-003   2.6327388454253448E-002
   2.8056354513801729E-002  -8.0354424067577979E-003   2.6185776967521335E-002
   3.4281029283447700E-002  -9.9067006957921366E-003   3.2888133639144279E-002
   3.1999379389739124E-002  -9.1795345099633385E-003   3.2454752166382939E-002
   2.9717729496030548E-002  -8.4692987796562980E-003   3.2142375573510906E-002
   2.7436079602322000E-002  -7.7759935048709039E-003   3.1951003860527794E-002
   2.5154429708613452E-002  -7.0996186856069343E-003   3.1880637027434044E-002
   3.0952364935387167E-002  -8.8438264138893108E-003   3.8389832974218580E-002
   2.8803632427806508E-002  -8.1629500269708721E-003   3.7965905890144092E-002
   2.6654899920225933E-002  -7.4893193230923388E-003   3.7686808698436727E-002
   2.4506167412645288E-002  -6.8229343022542972E-003   3.7552541399095939E-002
   2.2357434905064699E-002  -6.1637949644561263E-003   3.7563103992122038E-002
   2.7633330539055659E-002  -7.7809521319865127E-003   4.3840400124141719E-002
   2.5641340430080654E-002  -7.1463655439782947E-003   4.3435612201236040E-002
   2.3649350321105628E-002  -6.5093398665287752E-003   4.3199479183174738E-002
   2.1657360212130630E-002  -5.8698750996376368E-003   4.3132001069957647E-002
   1.9665370103155597E-002  -5.2279712433054570E-003   4.3233177861584898E-002
   2.4323926094453163E-002  -6.7180778500838256E-003   4.9239835088914274E-002
   2.2512503396561384E-002  -6.1297810609857728E-003   4.8863871099658340E-002
   2.0701080698669605E-002  -5.5293604099646010E-003   4.8680387027724370E-002
   1.8889658000777812E-002  -4.9168158970209069E-003   4.8689382873112558E-002
   1.7078235302886019E-002  -4.2921475221543437E-003   4.8890858635822765E-002
   2.8056354513801729E-002  -8.0354424067577979E-003   2.6185776967521335E-002
   2.5712055241014664E-002  -7.3243381374404892E-003   2.5610923616118497E-002
   2.3367755968227599E-002  -6.5516307029440668E-003   2.4982544254296579E-002
   2.1023456695440590E-002  -5.7173201032688636E-003   2.4300638882056108E-002
   1.8679157422653525E-002  -4.8214063384149908E-003   2.3565207499396723E-002
   2.5154429708613452E-002  -7.0996186856069343E-003   3.1880637027434044E-002
   2.2795073990276526E-002  -6.4234925871194948E-003   3.1488201332114163E-002
   2.0435718271939643E-002  -5.7309334746619145E-003   3.1119178756113947E-002
   1.8076362553602683E-002  -5.0219413482349429E-003   3.0773569299432785E-002
   1.5717006835265834E-002  -4.2965162078382191E-003   3.0451372962071122E-002
   2.2357434905064699E-002  -6.1637949644561263E-003   3.7563103992122038E-002
   2.0059961870916312E-002  -5.5226470367982228E-003   3.7307915801675917E-002
   1.7762488836767842E-002  -4.9102362463795401E-003   3.7153079860287486E-002
   1.5465015802619442E-002  -4.3265625932009111E-003   3.7098596167956549E-002
   1.3167542768470944E-002  -3.7716260772617249E-003   3.7144464724683274E-002
   1.9665370103155597E-002  -5.2279712433054570E-003   4.3233177861584898E-002
   1.7506718882933876E-002  -4.6218014864769230E-003   4.3070067024803288E-002
   1.5348067662712205E-002  -4.0895390180972768E-003   4.3084247566817613E-002
   1.3189416442490526E-002  -3.6311838381670458E-003   4.3275719487627616E-002
   1.1030765222268812E-002  -3.2467359466853141E-003   4.3644482787233825E-002
   1.7078235302886019E-002  -4.2921475221543437E-003   4.8890858635822765E-002
   1.5135345026329378E-002  -3.7209559361559008E-003   4.8774655001496137E-002
   1.3192454749772750E-002  -3.2688417898152633E-003   4.8912681875704078E-002
   1.1249564473216143E-002  -2.9358050831330765E-003   4.9304939258445757E-002
   9.3066741966595368E-003  -2.7218458161085701E-003   4.9951427149722005E-002
   1.8679157422653525E-002  -4.8214063384149908E-003   2.3565207499396723E-002
   1.5655321119829979E-002  -4.0852461741479607E-003   2.4362663486203306E-002
   1.2631484817006378E-002  -3.7301963762344792E-003   2.5631631370841124E-002
   9.6076485141828039E-003  -3.7562569446742619E-003   2.7372111153310369E-002
   6.5838122113592301E-003  -4.1634278794675517E-003   2.9584102833611015E-002
   1.5717006835265834E-002  -4.2965162078382191E-003   3.0451372962071122E-002
   1.3146750591728318E-002  -3.7815609583211063E-003   3.1234342049884678E-002
   1.0576494348190829E-002  -3.7039785045317464E-003   3.2452959358439337E-002
   8.0062381046533265E-003  -4.0637688464714439E-003   3.4107224887734711E-002
   5.4359818611158239E-003  -4.8609319841386167E-003   3.6197138637771187E-002
   1.3167542768470944E-002  -3.7716260772617249E-003   3.7144464724683274E-002
   1.1015002907129270E-002  -3.4778757424940854E-003   3.7856684484129127E-002
   8.8624630457875553E-003  -3.6777606328295825E-003   3.8968688787225134E-002
   6.7099231844458332E-003  -4.3712807482684073E-003   4.0480477633972063E-002
   4.5573833231041666E-003  -5.5584360888101259E-003   4.2392051024369604E-002
   1.1030765222268812E-002  -3.2467359466853141E-003   4.3644482787233825E-002
   9.2600780660326600E-003  -3.1741905266670367E-003   4.4229690788936307E-002
   7.4893909097965561E-003  -3.6515427611270232E-003   4.5178819657199332E-002
   5.7187037535603707E-003  -4.6787926500652579E-003   4.6491869392022635E-002
   3.9480165973242408E-003  -6.2559401934816350E-003   4.8168839993406196E-002
   9.3066741966595368E-003  -2.7218458161085701E-003   4.9951427149722005E-002
   7.8819760684386286E-003  -2.8705053108402656E-003   5.0353360964306426E-002
   6.4572779402177760E-003  -3.6253248894245194E-003   5.1083351968361335E-002
   5.0325798119969234E-003  -4.9863045518625110E-003   5.2141400161886287E-002
   3.6078816837760708E-003  -6.9534442981528111E-003   5.3527505544881060E-002
   6.5838122113592301E-003  -4.1634278794675517E-003   2.9584102833611015E-002
   6.0562660397466828E-003  -6.1458608354792998E-003   3.4064956388233036E-002
   5.5287198681341632E-003  -1.0897707467574791E-002   3.9230740208092363E-002
   5.0011736965216297E-003  -1.8418967775753942E-002   4.5081454293188994E-002
   4.4736275249090962E-003  -2.8709641760016780E-002   5.1617098643523818E-002
   5.4359818611158239E-003  -4.8609319841386167E-003   3.6197138637771187E-002
   5.4895282457049221E-003  -6.9949787267069574E-003   3.8340482250511343E-002
   5.5430746302940204E-003  -1.1365419883347688E-002   4.0961080710417652E-002
   5.5966210148831047E-003  -1.7972255454060608E-002   4.4058934017490087E-002
   5.6501673994722723E-003  -2.6815485438846487E-002   4.7634042171728286E-002
   4.5573833231041666E-003  -5.5584360888101259E-003   4.2392051024369604E-002
   4.9843468458237172E-003  -7.8440966179344485E-003   4.2730903957238997E-002
   5.4113103685432748E-003  -1.1833132299120364E-002   4.3339336319203142E-002
   5.8382738912629260E-003  -1.7525543132367608E-002   4.4217348110262414E-002
   6.2652374139823830E-003  -2.4921329117676416E-002   4.5364939330416187E-002
   3.9480165973242408E-003  -6.2559401934816350E-003   4.8168839993406196E-002
   4.5407218401030541E-003  -8.6932145091624669E-003   4.7236221508415964E-002
   5.1334270828818414E-003  -1.2300844714893372E-002   4.6365507034449013E-002
   5.7261323256606938E-003  -1.7078830810674329E-002   4.5556696571505809E-002
   6.3188375684394421E-003  -2.3027172796506346E-002   4.4809790119586412E-002
   3.6078816837760708E-003  -6.9534442981528111E-003   5.3527505544881060E-002
   4.1586532285429190E-003  -9.5423324003897081E-003   5.1856434904042348E-002
   4.7094247733098227E-003  -1.2768557130666131E-002   5.0039592856155390E-002
   5.2601963180766431E-003  -1.6632118488981433E-002   4.8076979401221215E-002
   5.8109678628435191E-003  -2.1133016475336053E-002   4.5968594539238961E-002
   5.0761994863118554E-002  -1.4926348290127733E-002   5.2699788067548325E-002
   4.8972230254801574E-002  -1.4552347092466777E-002   5.1592599008922602E-002
   4.7182465646484484E-002  -1.4139981921432690E-002   5.0854961870708176E-002
   4.5392701038167435E-002  -1.3689252777025377E-002   5.0486876652905008E-002
   4.3602936429850414E-002  -1.3200159659245037E-002   5.0488343355512943E-002
   4.3839284843056436E-002  -1.3029261843219120E-002   5.4615691156805424E-002
   4.2384567941241291E-002  -1.2705852197339551E-002   5.3861097486786580E-002
   4.0929851039426021E-002  -1.2348742991169406E-002   5.3407047309359829E-002
   3.9475134137610841E-002  -1.1957934224708356E-002   5.3253540624525836E-002
   3.8020417235795620E-002  -1.1533425897956667E-002   5.3400577432284130E-002
   3.7267642658678352E-002  -1.1132175396310479E-002   5.6483334900822732E-002
   3.6078965035546279E-002  -1.0859357302212463E-002   5.6076672206327824E-002
   3.4890287412414150E-002  -1.0557504060906088E-002   5.5901544576606614E-002
   3.3701609789282036E-002  -1.0226615672391305E-002   5.5957952011659165E-002
   3.2512932166149908E-002  -9.8666921366682425E-003   5.6245894511485539E-002
   3.1047068309984154E-002  -9.2350889494018235E-003   5.8302719299599404E-002
   3.0055421537716467E-002  -9.0128624070853480E-003   5.8239323167546445E-002
   2.9063774765448754E-002  -8.7662651306427870E-003   5.8338453672448179E-002
   2.8072127993181054E-002  -8.4952971200743521E-003   5.8600110814305120E-002
   2.7080481220913322E-002  -8.1999583753798733E-003   5.9024294593117095E-002
   2.5177561796973974E-002  -7.3380025024932238E-003   6.0073844353135952E-002
   2.4313937447751954E-002  -7.1663675119581494E-003   6.0349050370442192E-002
   2.3450313098529893E-002  -6.9750262003794722E-003   6.0717774596884794E-002
   2.2586688749307852E-002  -6.7639785677572166E-003   6.1180017032463549E-002
   2.1723064400085826E-002  -6.5332246140914485E-003   6.1735777677178805E-002
   4.3602936429850414E-002  -1.3200159659245037E-002   5.0488343355512943E-002
   4.2180641154349982E-002  -1.2692473913319929E-002   5.0030370543418218E-002
   4.0758345878849522E-002  -1.2185966884478122E-002   4.9777333417290903E-002
   3.9336050603349076E-002  -1.1680638572720191E-002   4.9729231977131069E-002
   3.7913755327848603E-002  -1.1176488978045462E-002   4.9886066222938563E-002
   3.8020417235795620E-002  -1.1533425897956667E-002   5.3400577432284130E-002
   3.6796783800992050E-002  -1.1091574113652636E-002   5.3011269218193269E-002
   3.5573150366188515E-002  -1.0648734974534453E-002   5.2814348999528790E-002
   3.4349516931384980E-002  -1.0204908480602503E-002   5.2809816776290645E-002
   3.3125883496581424E-002  -9.7600946318566750E-003   5.2997672548479036E-002
   3.2512932166149908E-002  -9.8666921366682425E-003   5.6245894511485539E-002
   3.1475412881502254E-002  -9.4906743139852451E-003   5.5927416967295938E-002
   3.0437893596854608E-002  -9.1115030645908396E-003   5.5788779727991691E-002
   2.9400374312206923E-002  -8.7291783884849809E-003   5.5829982793572923E-002
   2.8362855027559288E-002  -8.3437002856677212E-003   5.6051026164039341E-002
   2.7080481220913322E-002  -8.1999583753798733E-003   5.9024294593117095E-002
   2.6216528395880526E-002  -7.8897745143179862E-003   5.8778813790726220E-002
   2.5352575570847760E-002  -7.5742711546471983E-003   5.8700625602679760E-002
   2.4488622745814991E-002  -7.2534482963674592E-003   5.8789730028977742E-002
   2.3624669920782174E-002  -6.9273059394788783E-003   5.9046127069619966E-002
   2.1723064400085826E-002  -6.5332246140914485E-003   6.1735777677178805E-002
   2.1020130344126892E-002  -6.2888747146506163E-003   6.1565459688484203E-002
   2.0317196288167992E-002  -6.0370392447036125E-003   6.1549886623593009E-002
   1.9614262232209082E-002  -5.7777182042498126E-003   6.1689058482505110E-002
   1.8911328176250145E-002  -5.5109115932899799E-003   6.1982975265220674E-002
   3.7913755327848603E-002  -1.1176488978045462E-002   4.9886066222938563E-002
   3.6149440112486636E-002  -1.0664410617072295E-002   4.9499800927982396E-002
   3.4385124897124655E-002  -1.0135296006418437E-002   4.9323243119713089E-002
   3.2620809681762668E-002  -9.5891451460839577E-003   4.9356392798130699E-002
   3.0856494466400680E-002  -9.0259580360685376E-003   4.9599249963235170E-002
   3.3125883496581424E-002  -9.7600946318566750E-003   5.2997672548479036E-002
   3.1571490955042469E-002  -9.3073562743754001E-003   5.2652414759072536E-002
   3.0017098413503522E-002  -8.8397562542378155E-003   5.2517294830625422E-002
   2.8462705871964578E-002  -8.3572945714435430E-003   5.2592312763137194E-002
   2.6908313330425621E-002  -7.8599712259930232E-003   5.2877468556608354E-002
   2.8362855027559288E-002  -8.3437002856677212E-003   5.6051026164039341E-002
   2.7018815534115621E-002  -7.9503019316785328E-003   5.5744601293158599E-002
   2.5674776040671966E-002  -7.5442165020571383E-003   5.5648744657509186E-002
   2.4330736547228296E-002  -7.1254439968035169E-003   5.5763456257091240E-002
   2.2986697053784651E-002  -6.6939844159175088E-003   5.6088736091904734E-002
   2.3624669920782174E-002  -6.9273059394788783E-003   5.9046127069619966E-002
   2.2491413849706071E-002  -6.5932475889818182E-003   5.8776360530240476E-002
   2.1358157778630007E-002  -6.2486767498767110E-003   5.8717592600364750E-002
   2.0224901707553949E-002  -5.8935934221634075E-003   5.8869823279992739E-002
   1.9091645636477840E-002  -5.5279976058421609E-003   5.9233052569124242E-002
   1.8911328176250145E-002  -5.5109115932899799E-003   6.1982975265220674E-002
   1.7989285901813909E-002  -5.2361932462847705E-003   6.1747692470318249E-002
   1.7067243627377639E-002  -4.9531369976958672E-003   6.1723838659191843E-002
   1.6145201352941386E-002  -4.6617428475231384E-003   6.1911413831841483E-002
   1.5223159078505133E-002  -4.3620107957664800E-003   6.2310417988267086E-002
   3.0856494466400680E-002  -9.0259580360685376E-003   4.9599249963235170E-002
   2.9223352373413808E-002  -8.4529365983027072E-003   4.9263068458315851E-002
   2.7590210280426922E-002  -7.8772827547168300E-003   4.9091105477622521E-002
   2.5957068187440042E-002  -7.2989965053103095E-003   4.9083361021155292E-002
   2.4323926094453163E-002  -6.7180778500838256E-003   4.9239835088914274E-002
   2.6908313330425621E-002  -7.8599712259930232E-003   5.2877468556608354E-002
   2.5446924467462842E-002  -7.3533813417638039E-003   5.2578538527181667E-002
   2.3985535604500091E-002  -6.8431200426341404E-003   5.2458896433577290E-002
   2.2524146741537299E-002  -6.3291873286036131E-003   5.2518542275794666E-002
   2.1062757878574534E-002  -5.8115831996727318E-003   5.2757476053834795E-002
   2.2986697053784651E-002  -6.6939844159175088E-003   5.6088736091904734E-002
   2.1712130832442167E-002  -6.2538260852250116E-003   5.5828096547051023E-002
   2.0437564611099652E-002  -5.8089573305516173E-003   5.5761814349615552E-002
   1.9162998389757158E-002  -5.3593781518970277E-003   5.5889889499598541E-002
   1.7888432168414681E-002  -4.9050885492615826E-003   5.6212321996999881E-002
   1.9091645636477840E-002  -5.5279976058421609E-003   5.9233052569124242E-002
   1.8018971468351734E-002  -5.1542708286860528E-003   5.9011742517923765E-002
   1.6946297300225666E-002  -4.7747946184688445E-003   5.8999859225737965E-002
   1.5873623132099567E-002  -4.3895689751904422E-003   5.9197402692566389E-002
   1.4800948963973493E-002  -3.9985938988505165E-003   5.9604372918409601E-002
   1.5223159078505133E-002  -4.3620107957664800E-003   6.2310417988267086E-002
   1.4367446375191606E-002  -4.0547155721470940E-003   6.2129476439800380E-002
   1.3511733671878079E-002  -3.7406319063864879E-003   6.2173031061944217E-002
   1.2656020968564559E-002  -3.4197597984836001E-003   6.2441081854698655E-002
   1.1800308265251025E-002  -3.0920992484393395E-003   6.2933628818063858E-002
   2.4323926094453163E-002  -6.7180778500838256E-003   4.9239835088914274E-002
   2.2512503396561384E-002  -6.1297810609857728E-003   4.8863871099658340E-002
   2.0701080698669605E-002  -5.5293604099646010E-003   4.8680387027724370E-002
   1.8889658000777812E-002  -4.9168158970209069E-003   4.8689382873112558E-002
   1.7078235302886019E-002  -4.2921475221543437E-003   4.8890858635822765E-002
   2.1062757878574534E-002  -5.8115831996727318E-003   5.2757476053834795E-002
   1.9447993209111877E-002  -5.2896730900157674E-003   5.2481064885641526E-002
   1.7833228539649221E-002  -4.7628224338082253E-003   5.2405489856984427E-002
   1.6218463870186557E-002  -4.2310312310493182E-003   5.2530750967863485E-002
   1.4603699200723880E-002  -3.6942994817398267E-003   5.2856848218278962E-002
   1.7888432168414681E-002  -4.9050885492615826E-003   5.6212321996999881E-002
   1.6478681749595291E-002  -4.4495651190461782E-003   5.6028280334497457E-002
   1.5068931330775873E-002  -3.9962844576516277E-003   5.6053431033745410E-002
   1.3659180911956458E-002  -3.5452465650777851E-003   5.6287774094743767E-002
   1.2249430493137058E-002  -3.0964514413249211E-003   5.6731309517492418E-002
   1.4800948963973493E-002  -3.9985938988505165E-003   5.9604372918409601E-002
   1.3604569018011494E-002  -3.6094571480767140E-003   5.9505517446226036E-002
   1.2408189072049512E-002  -3.2297464814950855E-003   5.9624210558007297E-002
   1.1211809126087524E-002  -2.8594618991063907E-003   5.9960452253752947E-002
   1.0015429180125530E-002  -2.4986034009102653E-003   6.0514242533463013E-002
   1.1800308265251025E-002  -3.0920992484393395E-003   6.2933628818063858E-002
   1.0825655014360613E-002  -2.7693491771066947E-003   6.2912776220827804E-002
   9.8510017634701741E-003  -2.4632085053385711E-003   6.3117828429770206E-002
   8.8763485125797417E-003  -2.1736772331346979E-003   6.3548785444891204E-002
   7.9016952616893232E-003  -1.9007553604953875E-003   6.4205647266190824E-002
   1.7078235302886019E-002  -4.2921475221543437E-003   4.8890858635822765E-002
   1.5135345026329378E-002  -3.7209559361559008E-003   4.8774655001496137E-002
   1.3192454749772750E-002  -3.2688417898152633E-003   4.8912681875704078E-002
   1.1249564473216143E-002  -2.9358050831330765E-003   4.9304939258445757E-002
   9.3066741966595368E-003  -2.7218458161085701E-003   4.9951427149722005E-002
   1.4603699200723880E-002  -3.6942994817398267E-003   5.2856848218278962E-002
   1.2914596836616166E-002  -3.2134562130673450E-003   5.2742571908700742E-002
   1.1225494472508424E-002  -2.8493304522192731E-003   5.2881640915486000E-002
   9.5363921084006750E-003  -2.6019221991969502E-003   5.3274055238635057E-002
   7.8472897442929401E-003  -2.4712314539995228E-003   5.3919814878147621E-002
   1.2249430493137058E-002  -3.0964514413249211E-003   5.6731309517492418E-002
   1.0813230849307569E-002  -2.7059564899785948E-003   5.6621320464495722E-002
   9.3770312054781112E-003  -2.4298191146240461E-003   5.6763791535691957E-002
   7.9408315616486379E-003  -2.2680393152612645E-003   5.7158722731081087E-002
   6.5046319178191647E-003  -2.2206170918905310E-003   5.7806114050663049E-002
   1.0015429180125530E-002  -2.4986034009102653E-003   6.0514242533463013E-002
   8.8312470644036738E-003  -2.1984567668898308E-003   6.0410900668880906E-002
   7.6470649486818218E-003  -2.0103077770284930E-003   6.0559133736321172E-002
   6.4628828329599385E-003  -1.9341564313255805E-003   6.0958941735784006E-002
   5.2787007172381134E-003  -1.9700027297815670E-003   6.1610324667268665E-002
   7.9016952616893232E-003  -1.9007553604953875E-003   6.4205647266190824E-002
   6.9686454819044563E-003  -1.6909570438015109E-003   6.4111312521856645E-002
   6.0355957021195755E-003  -1.5907964394329122E-003   6.4267667517374061E-002
   5.1025459223347086E-003  -1.6002735473897509E-003   6.4674712252743127E-002
   4.1694961425498556E-003  -1.7193883676724919E-003   6.5332446727963900E-002
   9.3066741966595368E-003  -2.7218458161085701E-003   4.9951427149722005E-002
   7.8819760684386286E-003  -2.8705053108402656E-003   5.0353360964306426E-002
   6.4572779402177760E-003  -3.6253248894245194E-003   5.1083351968361335E-002
   5.0325798119969234E-003  -4.9863045518625110E-003   5.2141400161886287E-002
   3.6078816837760708E-003  -6.9534442981528111E-003   5.3527505544881060E-002
   7.8472897442929401E-003  -2.4712314539995228E-003   5.3919814878147621E-002
   6.7244065782008366E-003  -2.6553493384090521E-003   5.3852703173662753E-002
   5.6015234121087193E-003  -3.3523669742071549E-003   5.4061164203965034E-002
   4.4786402460165950E-003  -4.5622843613940811E-003   5.4545197969054618E-002
   3.3557570799244707E-003  -6.2851014999695254E-003   5.5304804468931934E-002
   6.5046319178191647E-003  -2.2206170918905310E-003   5.7806114050663049E-002
   5.6310792591729719E-003  -2.4401933659779218E-003   5.7363217159573043E-002
   4.7575266005267514E-003  -3.0794090589897627E-003   5.7143408548587321E-002
   3.8839739418805655E-003  -4.1382641709259774E-003   5.7146688217706451E-002
   3.0104212832343658E-003  -5.6167587017864062E-003   5.7373056166929642E-002
   5.2787007172381134E-003  -1.9700027297815670E-003   6.1610324667268665E-002
   4.6019941113550292E-003  -2.2250373935468054E-003   6.0884902922037687E-002
   3.9252875054719139E-003  -2.8064511437723288E-003   6.0330085002228494E-002
   3.2485808995888071E-003  -3.7142439804578216E-003   5.9945870907840759E-002
   2.5718742937057143E-003  -4.9484159036032038E-003   5.9732260638874914E-002
   4.1694961425498556E-003  -1.7193883676724919E-003   6.5332446727963900E-002
   3.6371511347470104E-003  -2.0098814211155780E-003   6.4417760461056406E-002
   3.1048061269441790E-003  -2.5334932285548950E-003   6.3621193564887935E-002
   2.5724611191413338E-003  -3.2902237899896380E-003   6.2942746039458208E-002
   2.0401161113385025E-003  -4.2800731054197794E-003   6.2382417884767172E-002
   3.6078816837760708E-003  -6.9534442981528111E-003   5.3527505544881060E-002
   4.1586532285429190E-003  -9.5423324003897081E-003   5.1856434904042348E-002
   4.7094247733098227E-003  -1.2768557130666131E-002   5.0039592856155390E-002
   5.2601963180766431E-003  -1.6632118488981433E-002   4.8076979401221215E-002
   5.8109678628435191E-003  -2.1133016475336053E-002   4.5968594539238961E-002
   3.3557570799244707E-003  -6.2851014999695254E-003   5.5304804468931934E-002
   3.7783693518428640E-003  -8.5525028504820355E-003   5.2951332119191008E-002
   4.2009816237612158E-003  -1.1396172873479965E-002   5.0487312630800751E-002
   4.6235938956795952E-003  -1.4816111568962738E-002   4.7912746003760498E-002
   5.0462061675979886E-003  -1.8812318936931138E-002   4.5227632238071580E-002
   3.0104212832343658E-003  -5.6167587017864062E-003   5.7373056166929642E-002
   3.3400985507023168E-003  -7.5626733005745295E-003   5.4398250063841164E-002
   3.6697758181702678E-003  -1.0023788616294035E-002   5.1348121090501089E-002
   3.9994530856382535E-003  -1.3000104648944379E-002   4.8222669246909412E-002
   4.3291303531061698E-003  -1.6491621398526224E-002   4.5021894533067153E-002
   2.5718742937057143E-003  -4.9484159036032038E-003   5.9732260638874914E-002
   2.8438408251213569E-003  -6.5728437506667181E-003   5.6197188737992669E-002
   3.1158073565369579E-003  -8.6514043591080989E-003   5.2622018235257029E-002
   3.3877738879526022E-003  -1.1184097728926408E-002   4.9006749130668270E-002
   3.6597404193682015E-003  -1.4170923860121309E-002   4.5351381424226317E-002
   2.0401161113385025E-003  -4.2800731054197794E-003   6.2382417884767172E-002
   2.2895961750998839E-003  -5.5830142007590178E-003   5.8348148141645573E-002
   2.5390762388612653E-003  -7.2790201019221623E-003   5.4309004065068445E-002
   2.7885563026226398E-003  -9.3680908089073256E-003   5.0264985655036398E-002
   3.0380363663840559E-003  -1.1850226321716395E-002   4.6216092911548934E-002
   2.5177561796973974E-002  -7.3380025024932238E-003   6.0073844353135952E-002
   2.4313937447751954E-002  -7.1663675119581494E-003   6.0349050370442192E-002
   2.3450313098529893E-002  -6.9750262003794722E-003   6.0717774596884794E-002
   2.2586688749307852E-002  -6.7639785677572166E-003   6.1180017032463549E-002
   2.1723064400085826E-002  -6.5332246140914485E-003   6.1735777677178805E-002
   1.9333484770558657E-002  -5.5035014245750635E-003   6.2082868184987428E-002
   1.8593975592015186E-002  -5.3747755029779631E-003   6.2105705388391302E-002
   1.7854466413471735E-002  -5.2312697283248832E-003   6.2283254724016329E-002
   1.7114957234928275E-002  -5.0729841006157544E-003   6.2615516191861995E-002
   1.6375448056384828E-002  -4.8999186198508404E-003   6.3102489791928673E-002
   1.3189198881649059E-002  -3.6690003466569310E-003   6.4051446181894525E-002
   1.2634998796868725E-002  -3.5831834939977492E-003   6.3816988103408828E-002
   1.2080798712088402E-002  -3.4875132562702180E-003   6.3798436080228366E-002
   1.1526598627308067E-002  -3.3819896334743495E-003   6.3995790112353429E-002
   1.0972398542527736E-002  -3.2666126256101768E-003   6.4409050199783768E-002
   6.7447041302452371E-003  -1.8344992687387845E-003   6.5979578343857662E-002
   6.4370070623125785E-003  -1.7915914850174935E-003   6.5482898515494561E-002
   6.1293099943798965E-003  -1.7437567842155909E-003   6.5263318665521250E-002
   5.8216129264472283E-003  -1.6909951663329715E-003   6.5320838793937769E-002
   5.5139158585145549E-003  -1.6333066313695410E-003   6.5655458900744479E-002
   5.1634719416826513E-010   1.8091793618779661E-009   6.7867264670876670E-002
   3.8834672283494243E-010   5.2396265104448503E-010   6.7103436624648405E-002
   2.6034623762383191E-010  -3.1216099150022103E-010   6.6677902479894635E-002
   1.3234575935161530E-010  -6.9919146167274349E-010   6.6590662236615250E-002
   4.3452845488456404E-012  -6.3712890518985432E-010   6.6841715894810361E-002
   2.1723064400085826E-002  -6.5332246140914485E-003   6.1735777677178805E-002
   2.1020130344126892E-002  -6.2888747146506163E-003   6.1565459688484203E-002
   2.0317196288167992E-002  -6.0370392447036125E-003   6.1549886623593009E-002
   1.9614262232209082E-002  -5.7777182042498126E-003   6.1689058482505110E-002
   1.8911328176250145E-002  -5.5109115932899799E-003   6.1982975265220674E-002
   1.6375448056384828E-002  -4.8999186198508404E-003   6.3102489791928673E-002
   1.5832506068698911E-002  -4.7166561305578558E-003   6.2888535644800875E-002
   1.5289564081012993E-002  -4.5277794772645846E-003   6.2839820710415661E-002
   1.4746622093327087E-002  -4.3332886599715160E-003   6.2956344988773102E-002
   1.4203680105641166E-002  -4.1331836786783205E-003   6.3238108479873323E-002
   1.0972398542527736E-002  -3.2666126256101768E-003   6.4409050199783768E-002
   1.0599942912054107E-002  -3.1444375464649010E-003   6.4149588487716458E-002
   1.0227487281580483E-002  -3.0185197098259453E-003   6.4065860277331077E-002
   9.8550316511068596E-003  -2.8888591156931084E-003   6.4157865568627542E-002
   9.4825760206332342E-003  -2.7554557640665500E-003   6.4425604361606076E-002
   5.5139158585145549E-003  -1.6333066313695410E-003   6.5655458900744479E-002
   5.3224408741925008E-003  -1.5722189623720989E-003   6.5348618217231230E-002
   5.1309658898704407E-003  -1.5092599423871117E-003   6.5228005324339255E-002
   4.9394909055483814E-003  -1.4444295714147841E-003   6.5293620222068444E-002
   4.7480159212263283E-003  -1.3777278494549461E-003   6.5545462910418878E-002
   4.3452845488456404E-012  -6.3712890518985432E-010   6.6841715894810361E-002
  -4.4885917899195604E-011  -3.7827915799759637E-010   6.6485624833345081E-002
  -9.4117122081960325E-011  -1.7494827808661739E-010   6.6326255851440169E-002
  -1.4334832539736331E-010  -2.7136376479219848E-011   6.6363608949095765E-002
  -1.9257952871276629E-010   6.5156879891503650E-011   6.6597684126311951E-002
   1.8911328176250145E-002  -5.5109115932899799E-003   6.1982975265220674E-002
   1.7989285901813909E-002  -5.2361932462847705E-003   6.1747692470318249E-002
   1.7067243627377639E-002  -4.9531369976958672E-003   6.1723838659191843E-002
   1.6145201352941386E-002  -4.6617428475231384E-003   6.1911413831841483E-002
   1.5223159078505133E-002  -4.3620107957664800E-003   6.2310417988267086E-002
   1.4203680105641166E-002  -4.1331836786783205E-003   6.3238108479873323E-002
   1.3497837210990481E-002  -3.9271449044748774E-003   6.3001435728283511E-002
   1.2791994316339785E-002  -3.7148527084518157E-003   6.2985732752488838E-002
   1.2086151421689098E-002  -3.4963070906085178E-003   6.3190999552489205E-002
   1.1380308527038405E-002  -3.2715080509453376E-003   6.3617236128285071E-002
   9.4825760206332342E-003  -2.7554557640665500E-003   6.4425604361606076E-002
   9.0024732977872952E-003  -2.6180965626650954E-003   6.4185457173564858E-002
   8.5223705749413580E-003  -2.4765684192075282E-003   6.4175820553338161E-002
   8.0422678520954173E-003  -2.3308713336938382E-003   6.4396694500925694E-002
   7.5621651292494818E-003  -2.1810053061240842E-003   6.4848079016327637E-002
   4.7480159212263283E-003  -1.3777278494549461E-003   6.5545462910418878E-002
   4.5031941622043362E-003  -1.3090482208551468E-003   6.5299756806162568E-002
   4.2583724031823485E-003  -1.2382841299632755E-003   6.5294102061739842E-002
   4.0135506441603590E-003  -1.1654355767790770E-003   6.5528498677150562E-002
   3.7687288851383678E-003  -1.0905025613028307E-003   6.6002946652394895E-002
  -1.9257952871276629E-010   6.5156879891503650E-011   6.6597684126311951E-002
  -1.9575838172691817E-010   1.2095457968541723E-010   6.6344334626076640E-002
  -1.9893723127162311E-010   1.5928083851868280E-010   6.6340577277693991E-002
  -2.0211607908160456E-010   1.8013552455231618E-010   6.6586412081164059E-002
  -2.0529493383047992E-010   1.8351842268060636E-010   6.7081839036486790E-002
   1.5223159078505133E-002  -4.3620107957664800E-003   6.2310417988267086E-002
   1.4367446375191606E-002  -4.0547155721470940E-003   6.2129476439800380E-002
   1.3511733671878079E-002  -3.7406319063864879E-003   6.2173031061944217E-002
   1.2656020968564559E-002  -3.4197597984836001E-003   6.2441081854698655E-002
   1.1800308265251025E-002  -3.0920992484393395E-003   6.2933628818063858E-002
   1.1380308527038405E-002  -3.2715080509453376E-003   6.3617236128285071E-002
   1.0746449997073977E-002  -3.0410366355423379E-003   6.3464299622135345E-002
   1.0112591467109584E-002  -2.8054738904793597E-003   6.3530575292073149E-002
   9.4787329371451741E-003  -2.5648198157564861E-003   6.3816063138098622E-002
   8.8448744071807778E-003  -2.3190744113739115E-003   6.4320763160211736E-002
   7.5621651292494818E-003  -2.1810053061240842E-003   6.4848079016327637E-002
   7.1448767781111706E-003  -2.0273576989371378E-003   6.4721450440013290E-002
   6.7275884269728560E-003  -1.8703158745723564E-003   6.4808750045263222E-002
   6.3103000758345466E-003  -1.7098798330294311E-003   6.5109977832077809E-002
   5.8930117246962302E-003  -1.5460495743085945E-003   6.5625133800457230E-002
   3.7687288851383678E-003  -1.0905025613028307E-003   6.6002946652394895E-002
   3.5627267183031223E-003  -1.0136787623321597E-003   6.5900928893434005E-002
   3.3567245514678828E-003  -9.3515785866545714E-004   6.6007555321514297E-002
   3.1507223846326438E-003  -8.5493985030240215E-004   6.6322825936636326E-002
   2.9447202177973978E-003  -7.7302473724322196E-004   6.6846740738800009E-002
  -2.0529493383047992E-010   1.8351842268060636E-010   6.7081839036486790E-002
  -1.8235012805289941E-010   1.7427292942073791E-010   6.7002734982397394E-002
  -1.5940532921421280E-010   1.5724166413377816E-010   6.7126991120826429E-002
  -1.3646052690607924E-010   1.3242482110875642E-010   6.7454607451773979E-002
  -1.1351572459794568E-010   9.9822261567794612E-011   6.7985583975240127E-002
   1.1800308265251025E-002  -3.0920992484393395E-003   6.2933628818063858E-002
   1.0825655014360613E-002  -2.7693491771066947E-003   6.2912776220827804E-002
   9.8510017634701741E-003  -2.4632085053385711E-003   6.3117828429770206E-002
   8.8763485125797417E-003  -2.1736772331346979E-003   6.3548785444891204E-002
   7.9016952616893232E-003  -1.9007553604953875E-003   6.4205647266190824E-002
   8.8448744071807778E-003  -2.3190744113739115E-003   6.4320763160211736E-002
   8.1005655906052076E-003  -2.0770118658191561E-003   6.4293388143257524E-002
   7.3562567740296375E-003  -1.8474063675794072E-003   6.4500797188754649E-002
   6.6119479574540743E-003  -1.6302579166551090E-003   6.4942990296702807E-002
   5.8676391408785111E-003  -1.4255665130459283E-003   6.5619967467101747E-002
   5.8930117246962302E-003  -1.5460495743085945E-003   6.5625133800457230E-002
   5.3879265987079768E-003  -1.3846745545316730E-003   6.5595388716034431E-002
   4.8828414727197060E-003  -1.2316042298206736E-003   6.5809306950335170E-002
   4.3777563467314404E-003  -1.0868386001755721E-003   6.6266888503359433E-002
   3.8726712207431818E-003  -9.5037766559652459E-004   6.6968133375107125E-002
   2.9447202177973978E-003  -7.7302473724322196E-004   6.6846740738800009E-002
   2.6877380386688896E-003  -6.9233724324405110E-004   6.6818777939157886E-002
   2.4307558595403822E-003  -6.1580209206161390E-004   6.7043357714511531E-002
   2.1737736804118752E-003  -5.4341928369623128E-004   6.7520480064861374E-002
   1.9167915012833804E-003  -4.7518881814709313E-004   6.8250144990206846E-002
  -1.1351572459794568E-010   9.9822261567794612E-011   6.7985583975240127E-002
  -8.9512029732841114E-011   6.8043348733226594E-011   6.7963555812627918E-002
  -6.5508338337183503E-011   4.5697140516054446E-011   6.8202949481284192E-002
  -4.1504645206802415E-011   3.2783477321718379E-011   6.8703764981208781E-002
  -1.7500952076421328E-011   2.9302449355839144E-011   6.9466002312401853E-002
   7.9016952616893232E-003  -1.9007553604953875E-003   6.4205647266190824E-002
   6.9686454819044563E-003  -1.6909570438015109E-003   6.4111312521856645E-002
   6.0355957021195755E-003  -1.5907964394329122E-003   6.4267667517374061E-002
   5.1025459223347086E-003  -1.6002735473897509E-003   6.4674712252743127E-002
   4.1694961425498556E-003  -1.7193883676724919E-003   6.5332446727963900E-002
   5.8676391408785111E-003  -1.4255665130459283E-003   6.5619967467101747E-002
   5.1809222772519689E-003  -1.2682177754226864E-003   6.5464431101258658E-002
   4.4942054136254336E-003  -1.1930973224558716E-003   6.5550870827880359E-002
   3.8074885499988845E-003  -1.2002051541457059E-003   6.5879286646967128E-002
   3.1207716863723561E-003  -1.2895412704919673E-003   6.6449678558519132E-002
   3.8726712207431818E-003  -9.5037766559652459E-004   6.6968133375107125E-002
   3.4235736258882848E-003  -8.4547850704397298E-004   6.6778804815424364E-002
   2.9744760310333913E-003  -7.9539820547917806E-004   6.6822738700819576E-002
   2.5253784361785117E-003  -8.0013676090155347E-004   6.7099935031293328E-002
   2.0762808413236147E-003  -8.5969417331133169E-004   6.7610393806845193E-002
   1.9167915012833804E-003  -4.7518881814709313E-004   6.8250144990206846E-002
   1.6965995278134388E-003  -4.2273923866542606E-004   6.8054433664353459E-002
   1.4764075543435189E-003  -3.9769908850214447E-004   6.8083271136191489E-002
   1.2562155808735816E-003  -4.0006836765734376E-004   6.8336657405721049E-002
   1.0360236074036574E-003  -4.2984707613086259E-004   6.8814592472942457E-002
  -1.7500952076421328E-011   2.9302449355839144E-011   6.9466002312401853E-002
  -1.6972603877896120E-011   2.9713564941857840E-011   6.9291317648046635E-002
  -1.6444245271030056E-011   2.8474445024073702E-011   6.9332468133996183E-002
  -1.5915895337781372E-011   2.5586838203750517E-011   6.9589453770250748E-002
  -1.5387538465638784E-011   2.1049828546892968E-011   7.0062274556810245E-002
   4.1694961425498556E-003  -1.7193883676724919E-003   6.5332446727963900E-002
   3.6371511347470104E-003  -2.0098814211155780E-003   6.4417760461056406E-002
   3.1048061269441790E-003  -2.5334932285548950E-003   6.3621193564887935E-002
   2.5724611191413338E-003  -3.2902237899896380E-003   6.2942746039458208E-002
   2.0401161113385025E-003  -4.2800731054197794E-003   6.2382417884767172E-002
   3.1207716863723561E-003  -1.2895412704919673E-003   6.6449678558519132E-002
   2.7102877697983419E-003  -1.5074110617414038E-003   6.5338988713657398E-002
   2.2998038532243345E-003  -1.9001199181411244E-003   6.4353901680514747E-002
   1.8893199366503272E-003  -2.4676678396914134E-003   6.3494417459090652E-002
   1.4788360200763268E-003  -3.2100548263911399E-003   6.2760536049385363E-002
   2.0762808413236147E-003  -8.5969417331133169E-004   6.7610393806845193E-002
   1.7951414569583983E-003  -1.0049407023671186E-003   6.6361980072874943E-002
   1.5140020725931923E-003  -1.2667466077277978E-003   6.5246652591603505E-002
   1.2328626882279793E-003  -1.6451118893930777E-003   6.4264411363030710E-002
   9.5172330386276982E-004  -2.1400365473628336E-003   6.3415256387156893E-002
   1.0360236074036574E-003  -4.2984707613086259E-004   6.8814592472942457E-002
   8.9171219622720312E-004  -5.0247034299288895E-004   6.7486734538708987E-002
   7.4740078505074279E-004  -6.3337329731424918E-004   6.6299446298154055E-002
   6.0308937387427812E-004  -8.2255593909501962E-004   6.5252727751277995E-002
   4.5877796269782820E-004  -1.0700182683342496E-003   6.4346578898081069E-002
  -1.5387538465638784E-011   2.1049828546892968E-011   7.0062274556810245E-002
  -1.2395279247456870E-011   1.6381396239495416E-011   6.8713252111159195E-002
  -9.4030200292749555E-012   1.3099327178522913E-011   6.7512282800166690E-002
  -6.4107608110930414E-012   1.1203045435781434E-011   6.6459366623833033E-002
  -3.4185015929111273E-012   1.0694001240096895E-011   6.5554503582157975E-002
   2.0401161113385025E-003  -4.2800731054197794E-003   6.2382417884767172E-002
   2.2895961750998839E-003  -5.5830142007590178E-003   5.8348148141645573E-002
   2.5390762388612653E-003  -7.2790201019221623E-003   5.4309004065068445E-002
   2.7885563026226398E-003  -9.3680908089073256E-003   5.0264985655036398E-002
   3.0380363663840559E-003  -1.1850226321716395E-002   4.6216092911548934E-002
   1.4788360200763268E-003  -3.2100548263911399E-003   6.2760536049385363E-002
   1.7090678297544681E-003  -4.1872606478344787E-003   5.8402128055604741E-002
   1.9392996394326165E-003  -5.4592650736137172E-003   5.4010097887112696E-002
   2.1695314491107544E-003  -7.0260681037284389E-003   4.9584445543909450E-002
   2.3997632587889062E-003  -8.8876697381790049E-003   4.5125171025994781E-002
   9.5172330386276982E-004  -2.1400365473628336E-003   6.3415256387156893E-002
   1.1339590182015691E-003  -2.7915070949094400E-003   5.8830976344204228E-002
   1.3161947325403892E-003  -3.6395100453049389E-003   5.4184326285284218E-002
   1.4984304468792075E-003  -4.6840453985490527E-003   4.9475306210397488E-002
   1.6806661612180085E-003  -5.9251131546418367E-003   4.4703916119542497E-002
   4.5877796269782820E-004  -1.0700182683342496E-003   6.4346578898081069E-002
   5.6426974044121100E-004  -1.3957535419843181E-003   5.9634693007443937E-002
   6.6976151818460943E-004  -1.8197550169963272E-003   5.4831689259583399E-002
   7.7525329592798139E-004  -2.3420226933694721E-003   4.9937567654499249E-002
   8.8074507367139065E-004  -2.9625565711045576E-003   4.4952328192191721E-002
  -3.4185015929111273E-012   1.0694001240096895E-011   6.5554503582157975E-002
  -3.5266164988279058E-012   1.0940581773866143E-011   6.0813278045323327E-002
  -3.6347487519794441E-012   1.1312312198086261E-011   5.5952186810009519E-002
  -3.7428636578962227E-012   1.1809504762982925E-011   5.0971229876215635E-002
  -3.8509889721538570E-012   1.2432721518962353E-011   4.5870407243942424E-002
   5.1634719416826513E-010   1.8091793618779661E-009   6.7867264670876670E-002
   3.8834672283494243E-010   5.2396265104448503E-010   6.7103436624648405E-002
   2.6034623762383191E-010  -3.1216099150022103E-010   6.6677902479894635E-002
   1.3234575935161530E-010  -6.9919146167274349E-010   6.6590662236615250E-002
   4.3452845488456404E-012  -6.3712890518985432E-010   6.6841715894810361E-002
  -6.7447031240542785E-003   1.8345010360060199E-003   6.5979575702447640E-002
  -6.4370063067556021E-003   1.7915917527860370E-003   6.5482896548363090E-002
  -6.1293094894569050E-003   1.7437560981360678E-003   6.5263317383402311E-002
  -5.8216126721582096E-003   1.6909940720563482E-003   6.5320838207565485E-002
  -5.5139158548595246E-003   1.6333056745466146E-003   6.5655459020852569E-002
  -1.3189197954968387E-002   3.6690002628327056E-003   6.4051442146276866E-002
  -1.2634998104721094E-002   3.5831829816094091E-003   6.3816985063812948E-002
  -1.2080798254473831E-002   3.4875125084331965E-003   6.3798434058122230E-002
  -1.1526598404226551E-002   3.3819888433040506E-003   6.3995789129204922E-002
  -1.0972398553979291E-002   3.2666119862219678E-003   6.4409050277060870E-002
  -1.9333483976395085E-002   5.5034994896593636E-003   6.2082864002364145E-002
  -1.8593975005549834E-002   5.3747742104328297E-003   6.2105702170998006E-002
  -1.7854466034704562E-002   5.2312689187302627E-003   6.2283252504054351E-002
  -1.7114957063859307E-002   5.0729836145518067E-003   6.2615515001533437E-002
  -1.6375448093014038E-002   4.8999182978973488E-003   6.3102489663435277E-002
  -2.5177561188334419E-002   7.3379987164860494E-003   6.0073841270709805E-002
  -2.4313937009241747E-002   7.1663654392562226E-003   6.0349047869918182E-002
  -2.3450312830149075E-002   6.9750253290273845E-003   6.0717772721198660E-002
  -2.2586688651056404E-002   6.7639783857995905E-003   6.1180015824551209E-002
  -2.1723064471963746E-002   6.5332246095727853E-003   6.1735777179975915E-002
   4.3452845488456404E-012  -6.3712890518985432E-010   6.6841715894810361E-002
  -4.4885917899195604E-011  -3.7827915799759637E-010   6.6485624833345081E-002
  -9.4117122081960325E-011  -1.7494827808661739E-010   6.6326255851440169E-002
  -1.4334832539736331E-010  -2.7136376479219848E-011   6.6363608949095765E-002
  -1.9257952871276629E-010   6.5156879891503650E-011   6.6597684126311951E-002
  -5.5139158548595246E-003   1.6333056745466146E-003   6.5655459020852569E-002
  -5.3224409631241129E-003   1.5722183788126343E-003   6.5348618240609668E-002
  -5.1309660713887012E-003   1.5092596580600082E-003   6.5228005262739377E-002
  -4.9394911796532930E-003   1.4444295122887016E-003   6.5293620087241877E-002
  -4.7480162879178778E-003   1.3777279414990407E-003   6.5545462714117098E-002
  -1.0972398553979291E-002   3.2666119862219678E-003   6.4409050277060870E-002
  -1.0599942998465037E-002   3.1444371359043016E-003   6.4149588408540570E-002
  -1.0227487442950786E-002   3.0185194910682389E-003   6.4065860065205274E-002
  -9.8550318874365429E-003   2.8888590517137797E-003   6.4157865247054927E-002
  -9.4825763319222930E-003   2.7554558178411459E-003   6.4425603954089528E-002
  -1.6375448093014038E-002   4.8999182978973488E-003   6.3102489663435277E-002
  -1.5832506150908712E-002   4.7166558929958649E-003   6.2888535337137980E-002
  -1.5289564208803374E-002   4.5277793240763864E-003   6.2839820258837817E-002
  -1.4746622266698046E-002   4.3332885911388300E-003   6.2956344428534955E-002
  -1.4203680324592722E-002   4.1331836941833067E-003   6.3238107846229241E-002
  -2.1723064471963746E-002   6.5332246095727853E-003   6.1735777179975915E-002
  -2.1020130420455113E-002   6.2888746500876780E-003   6.1565459026401786E-002
  -2.0317196368946473E-002   6.0370391570847282E-003   6.1549885843637131E-002
  -1.9614262317437840E-002   5.7777181305637901E-003   6.1689057631681865E-002
  -1.8911328265929200E-002   5.5109115705254674E-003   6.1982974390536072E-002
  -1.9257952871276629E-010   6.5156879891503650E-011   6.6597684126311951E-002
  -1.9575838172691817E-010   1.2095457968541723E-010   6.6344334626076640E-002
  -1.9893723127162311E-010   1.5928083851868280E-010   6.6340577277693991E-002
  -2.0211607908160456E-010   1.8013552455231618E-010   6.6586412081164059E-002
  -2.0529493383047992E-010   1.8351842268060636E-010   6.7081839036486790E-002
  -4.7480162879178778E-003   1.3777279414990407E-003   6.5545462714117098E-002
  -4.5031945352407930E-003   1.3090484121424939E-003   6.5299756614425719E-002
  -4.2583727825637047E-003   1.2382843906711682E-003   6.5294101874593335E-002
  -4.0135510298866094E-003   1.1654358770850012E-003   6.5528498494620294E-002
  -3.7687292772095246E-003   1.0905028713840137E-003   6.6002946474506274E-002
  -9.4825763319222930E-003   2.7554558178411459E-003   6.4425603954089528E-002
  -9.0024736153828423E-003   2.6180967033301861E-003   6.4185456780298827E-002
  -8.5223708988433847E-003   2.4765686220613176E-003   6.4175820174373691E-002
  -8.0422681823039376E-003   2.3308715740343634E-003   6.4396694136314103E-002
  -7.5621654657644904E-003   2.1810055592494382E-003   6.4848078666120135E-002
  -1.4203680324592722E-002   4.1331836941833067E-003   6.3238107846229241E-002
  -1.3497837436184497E-002   3.9271449945180170E-003   6.3001435123695992E-002
  -1.2791994547776280E-002   3.7148528534515016E-003   6.2985732177034903E-002
  -1.2086151659368070E-002   3.4963072709838384E-003   6.3190999006245752E-002
  -1.1380308770959840E-002   3.2715082471148904E-003   6.3617235611328510E-002
  -1.8911328265929200E-002   5.5109115705254674E-003   6.1982974390536072E-002
  -1.7989285997645807E-002   5.2361932857057925E-003   6.1747691644617297E-002
  -1.7067243729362400E-002   4.9531370848418105E-003   6.1723837882576849E-002
  -1.6145201461078992E-002   4.6617429679332890E-003   6.1911413104414822E-002
  -1.5223159192795592E-002   4.3620109349804537E-003   6.2310417310131205E-002
  -2.0529493383047992E-010   1.8351842268060636E-010   6.7081839036486790E-002
  -1.8235012805289941E-010   1.7427292942073791E-010   6.7002734982397394E-002
  -1.5940532921421280E-010   1.5724166413377816E-010   6.7126991120826429E-002
  -1.3646052690607924E-010   1.3242482110875642E-010   6.7454607451773979E-002
  -1.1351572459794568E-010   9.9822261567794612E-011   6.7985583975240127E-002
  -3.7687292772095246E-003   1.0905028713840137E-003   6.6002946474506274E-002
  -3.5627270666248687E-003   1.0136790603552381E-003   6.5900928735734526E-002
  -3.3567248560402198E-003   9.3515813078573484E-004   6.6007555179724092E-002
  -3.1507226454555795E-003   8.5494008267559402E-004   6.6322825806474750E-002
  -2.9447204348709219E-003   7.7302491602482259E-004   6.6846740615986444E-002
  -7.5621654657644904E-003   2.1810055592494382E-003   6.4848078666120135E-002
  -7.1448770772973612E-003   2.0273579464376579E-003   6.4721450131911190E-002
  -6.7275886888302381E-003   1.8703161043300276E-003   6.4808749770706026E-002
  -6.3103003003631116E-003   1.7098800329265335E-003   6.5109977582504697E-002
  -5.8930119118959859E-003   1.5460497322273281E-003   6.5625133567307037E-002
  -1.1380308770959840E-002   3.2715082471148904E-003   6.3617235611328510E-002
  -1.0746450214367613E-002   3.0410368325200221E-003   6.3464299170927024E-002
  -1.0112591657775378E-002   2.8054740778738763E-003   6.3530574893772104E-002
  -9.4787331011831587E-003   2.5648199831775007E-003   6.3816062779863542E-002
  -8.8448745445909114E-003   2.3190745484298614E-003   6.4320762829201489E-002
  -1.5223159192795592E-002   4.3620109349804537E-003   6.2310417310131205E-002
  -1.4367446477835617E-002   4.0547157186025529E-003   6.2129475852782334E-002
  -1.3511733762875650E-002   3.7406320514182800E-003   6.2173030548922592E-002
  -1.2656021047915671E-002   3.4197599334283013E-003   6.2441081398551840E-002
  -1.1800308332955700E-002   3.0920993646323947E-003   6.2933628401670161E-002
  -1.1351572459794568E-010   9.9822261567794612E-011   6.7985583975240127E-002
  -8.9512029732841114E-011   6.8043348733226594E-011   6.7963555812627918E-002
  -6.5508338337183503E-011   4.5697140516054446E-011   6.8202949481284192E-002
  -4.1504645206802415E-011   3.2783477321718379E-011   6.8703764981208781E-002
  -1.7500952076421328E-011   2.9302449355839144E-011   6.9466002312401853E-002
  -2.9447204348709219E-003   7.7302491602482259E-004   6.6846740615986444E-002
  -2.6877382100480018E-003   6.9233736890905728E-004   6.6818777850777056E-002
  -2.4307559852250679E-003   6.1580217940448989E-004   6.7043357655937746E-002
  -2.1737737604021461E-003   5.4341934751078735E-004   6.7520480031468294E-002
  -1.9167915355792139E-003   4.7518887322817172E-004   6.8250144977369143E-002
  -5.8930119118959859E-003   1.5460497322273281E-003   6.5625133567307037E-002
  -5.3879267471522016E-003   1.3846746697748769E-003   6.5595388547678712E-002
  -4.8828415824084164E-003   1.2316043131119364E-003   6.5809306837521994E-002
  -4.3777564176646251E-003   1.0868386622380939E-003   6.6266888436836924E-002
  -3.8726712529208469E-003   9.5037771715383856E-004   6.6968133345623487E-002
  -8.8448745445909114E-003   2.3190745484298614E-003   6.4320762829201489E-002
  -8.1005657008246402E-003   2.0770119706406964E-003   6.4293387903332569E-002
  -7.3562568570583855E-003   1.8474064468193344E-003   6.4500797026037143E-002
  -6.6119480132921116E-003   1.6302579769656798E-003   6.4942990197314851E-002
  -5.8676391695258595E-003   1.4255665610795332E-003   6.5619967417165817E-002
  -1.1800308332955700E-002   3.0920993646323947E-003   6.2933628401670161E-002
  -1.0825655071065338E-002   2.7693492715064050E-003   6.2912775917739083E-002
  -9.8510018091749647E-003   2.4632085805268988E-003   6.3117828221482930E-002
  -8.8763485472845832E-003   2.1736772916928077E-003   6.3548785312901757E-002
  -7.9016952853942224E-003   1.9007554050052278E-003   6.4205647191995396E-002
  -1.7500952076421328E-011   2.9302449355839144E-011   6.9466002312401853E-002
  -1.6972603877896120E-011   2.9713564941857840E-011   6.9291317648046635E-002
  -1.6444245271030056E-011   2.8474445024073702E-011   6.9332468133996183E-002
  -1.5915895337781372E-011   2.5586838203750517E-011   6.9589453770250748E-002
  -1.5387538465638784E-011   2.1049828546892968E-011   7.0062274556810245E-002
  -1.9167915355792139E-003   4.7518887322817172E-004   6.8250144977369143E-002
  -1.6965995609926170E-003   4.2273929161651402E-004   6.8054433650544699E-002
  -1.4764075864060269E-003   3.9769913773593513E-004   6.8083271121531730E-002
  -1.2562156118194352E-003   4.0006841158649747E-004   6.8336657390330180E-002
  -1.0360236372328399E-003   4.2984711316851332E-004   6.8814592456940493E-002
  -3.8726712529208469E-003   9.5037771715383856E-004   6.6968133345623487E-002
  -3.4235736567694202E-003   8.4547855351990719E-004   6.6778804785710300E-002
  -2.9744760606179995E-003   7.9539824699742523E-004   6.6822738671115323E-002
  -2.5253784644665872E-003   8.0013679758637879E-004   6.7099935001838334E-002
  -2.0762808683151661E-003   8.5969420528686502E-004   6.7610393777879724E-002
  -5.8676391695258595E-003   1.4255665610795332E-003   6.5619967417165817E-002
  -5.1809223043030048E-003   1.2682178154232449E-003   6.5464431053544159E-002
  -4.4942054390801640E-003   1.1930973562587488E-003   6.5550870782747073E-002
  -3.8074885738573123E-003   1.2002051835864266E-003   6.5879286604774878E-002
  -3.1207717086344676E-003   1.2895412974053833E-003   6.6449678519627353E-002
  -7.9016952853942224E-003   1.9007554050052278E-003   6.4205647191995396E-002
  -6.9686455035933709E-003   1.6909570773263605E-003   6.4111312454045666E-002
  -6.0355957217925055E-003   1.5907964655202944E-003   6.4267667456427313E-002
  -5.1025459399916453E-003   1.6002735695858361E-003   6.4674712199140227E-002
  -4.1694961581907886E-003   1.7193883895239015E-003   6.5332446682184409E-002
  -1.5387538465638784E-011   2.1049828546892968E-011   7.0062274556810245E-002
  -1.2395279247456870E-011   1.6381396239495416E-011   6.8713252111159195E-002
  -9.4030200292749555E-012   1.3099327178522913E-011   6.7512282800166690E-002
  -6.4107608110930414E-012   1.1203045435781434E-011   6.6459366623833033E-002
  -3.4185015929111273E-012   1.0694001240096895E-011   6.5554503582157975E-002
  -1.0360236372328399E-003   4.2984711316851332E-004   6.8814592456940493E-002
  -8.9171222031351680E-004   5.0247037326345279E-004   6.7486734526661485E-002
  -7.4740080339419715E-004   6.3337332265403501E-004   6.6299446289578151E-002
  -6.0308938647487056E-004   8.2255596134035019E-004   6.5252727745690173E-002
  -4.5877796955555439E-004   1.0700182893218502E-003   6.4346578894997841E-002
  -2.0762808683151661E-003   8.5969420528686502E-004   6.7610393777879724E-002
  -1.7951414789320348E-003   1.0049407301454816E-003   6.6361980050882452E-002
  -1.5140020895489043E-003   1.2667466322089510E-003   6.5246652575617306E-002
  -1.2328627001657877E-003   1.6451119114770964E-003   6.4264411352084272E-002
  -9.5172331078265636E-004   2.1400365679501987E-003   6.3415256380283419E-002
  -3.1207717086344676E-003   1.2895412974053833E-003   6.6449678519627353E-002
  -2.7102877882508266E-003   1.5074110870275798E-003   6.5338988683821070E-002
  -2.2998038678671510E-003   1.9001199417635964E-003   6.4353901658283336E-002
  -1.8893199474834931E-003   2.4676678616140108E-003   6.3494417443015191E-002
  -1.4788360270998348E-003   3.2100548465784084E-003   6.2760536038014986E-002
  -4.1694961581907886E-003   1.7193883895239015E-003   6.5332446682184409E-002
  -3.6371511482698668E-003   2.0098814439096779E-003   6.4417760425477977E-002
  -3.1048061383489277E-003   2.5334932513184638E-003   6.3621193537577281E-002
  -2.5724611284279938E-003   3.2902238117510085E-003   6.2942746018482210E-002
  -2.0401161185070668E-003   4.2800731252063962E-003   6.2382417868192652E-002
  -3.4185015929111273E-012   1.0694001240096895E-011   6.5554503582157975E-002
  -3.5266164988279058E-012   1.0940581773866143E-011   6.0813278045323327E-002
  -3.6347487519794441E-012   1.1312312198086261E-011   5.5952186810009519E-002
  -3.7428636578962227E-012   1.1809504762982925E-011   5.0971229876215635E-002
  -3.8509889721538570E-012   1.2432721518962353E-011   4.5870407243942424E-002
  -4.5877796955555439E-004   1.0700182893218502E-003   6.4346578894997841E-002
  -5.6426974747182321E-004   1.3957535628983941E-003   5.9634693004754102E-002
  -6.6976152538809897E-004   1.8197550383685923E-003   5.4831689257374028E-002
  -7.7525330330436605E-004   2.3420227157321602E-003   4.9937567652856202E-002
  -8.8074508122064354E-004   2.9625565949895627E-003   4.4952328191202984E-002
  -9.5172331078265636E-004   2.1400365679501987E-003   6.3415256380283419E-002
  -1.1339590251642773E-003   2.7915071148567616E-003   5.8830976338398927E-002
  -1.3161947395459077E-003   3.6395100654247475E-003   5.4184326280720355E-002
  -1.4984304539275425E-003   4.6840454196547567E-003   4.9475306207248070E-002
  -1.6806661683091591E-003   5.9251131775466259E-003   4.4703916117981413E-002
  -1.4788360270998348E-003   3.2100548465784084E-003   6.2760536038014986E-002
  -1.7090678366040030E-003   4.1872606668146295E-003   5.8402128046257863E-002
  -1.9392996461081648E-003   5.4592650924812983E-003   5.4010097880049526E-002
  -2.1695314556123444E-003   7.0260681235772716E-003   4.9584445539389885E-002
  -2.3997632651164948E-003   8.8876697601036891E-003   4.5125171024279348E-002
  -2.0401161185070668E-003   4.2800731252063962E-003   6.2382417868192652E-002
  -2.2895961817909691E-003   5.5830142187729415E-003   5.8348148128330557E-002
  -2.5390762450748748E-003   7.2790201195371274E-003   5.4309004055360321E-002
  -2.7885563083587684E-003   9.3680908274997726E-003   5.0264985649281946E-002
  -3.0380363716426828E-003   1.1850226342660530E-002   4.6216092910094986E-002
  -2.5177561188334419E-002   7.3379987164860494E-003   6.0073841270709805E-002
  -2.4313937009241747E-002   7.1663654392562226E-003   6.0349047869918182E-002
  -2.3450312830149075E-002   6.9750253290273845E-003   6.0717772721198660E-002
  -2.2586688651056404E-002   6.7639783857995905E-003   6.1180015824551209E-002
  -2.1723064471963746E-002   6.5332246095727853E-003   6.1735777179975915E-002
  -3.1047067948991695E-002   9.2350866115344377E-003   5.8302718344007937E-002
  -3.0055421291831270E-002   9.0128612430189770E-003   5.8239322295973478E-002
  -2.9063774634670903E-002   8.7662647748719125E-003   5.8338452952002171E-002
  -2.8072127977510526E-002   8.4952972070932789E-003   5.8600110312094257E-002
  -2.7080481320350146E-002   8.1999585396828889E-003   5.9024294376249731E-002
  -3.7267642616572193E-002   1.1132174506582826E-002   5.6483335459337147E-002
  -3.6078965029352858E-002   1.0859357046781801E-002   5.6076672497426872E-002
  -3.4890287442133544E-002   1.0557504220716496E-002   5.5901544691571298E-002
  -3.3701609854914251E-002   1.0226616028386940E-002   5.5957952041770176E-002
  -3.2512932267694930E-002   9.8666924697930203E-003   5.6245894548023603E-002
  -4.3839285191075945E-002   1.3029262401631186E-002   5.4615692616696743E-002
  -4.2384568221806473E-002   1.2705852850544645E-002   5.3861098474278397E-002
  -4.0929851252537029E-002   1.2348743666561107E-002   5.3407047939905708E-002
  -3.9475134283267557E-002   1.1957934849680531E-002   5.3253541013578820E-002
  -3.8020417313998127E-002   1.1533426399903166E-002   5.3400577695297678E-002
  -5.0761995672502919E-002   1.4926350296679602E-002   5.2699789816087306E-002
  -4.8972230869192140E-002   1.4552348654307379E-002   5.1592600226528007E-002
  -4.7182466065881307E-002   1.4139983112405621E-002   5.0854962697005651E-002
  -4.5392701262570487E-002   1.3689253670974320E-002   5.0486877227520224E-002
  -4.3602936459259681E-002   1.3200160330013255E-002   5.0488343818071713E-002
  -2.1723064471963746E-002   6.5332246095727853E-003   6.1735777179975915E-002
  -2.1020130420455113E-002   6.2888746500876780E-003   6.1565459026401786E-002
  -2.0317196368946473E-002   6.0370391570847282E-003   6.1549885843637131E-002
  -1.9614262317437840E-002   5.7777181305637901E-003   6.1689057631681865E-002
  -1.8911328265929200E-002   5.5109115705254674E-003   6.1982974390536072E-002
  -2.7080481320350146E-002   8.1999585396828889E-003   5.9024294376249731E-002
  -2.6216528462185994E-002   7.8897745889348753E-003   5.8778813459282417E-002
  -2.5352575604021849E-002   7.5742711711426838E-003   5.8700625184816738E-002
  -2.4488622745857697E-002   7.2534482863065314E-003   5.8789729552852603E-002
  -2.3624669887693552E-002   6.9273059344264198E-003   5.9046126563390033E-002
  -3.2512932267694930E-002   9.8666924697930203E-003   5.6245894548023603E-002
  -3.1475412931183090E-002   9.4906745277819199E-003   5.5927416934136838E-002
  -3.0437893594671268E-002   9.1115031852005840E-003   5.5788779634443994E-002
  -2.9400374258159431E-002   8.7291784420491063E-003   5.5829982648944836E-002
  -2.8362854921647598E-002   8.3437002983274555E-003   5.6051025977639404E-002
  -3.8020417313998127E-002   1.1533426399903166E-002   5.3400577695297678E-002
  -3.6796783827446410E-002   1.1091574466629041E-002   5.3011269450965348E-002
  -3.5573150340894713E-002   1.0648735199258540E-002   5.2814349192519025E-002
  -3.4349516854343023E-002   1.0204908597791598E-002   5.2809816919958556E-002
  -3.3125883367791299E-002   9.7600946622283941E-003   5.2997672633284143E-002
  -4.3602936459259681E-002   1.3200160330013255E-002   5.0488343818071713E-002
  -4.2180641150975959E-002   1.2692474405476217E-002   5.0030371009767649E-002
  -4.0758345842692202E-002   1.2185967213316495E-002   4.9777333859041734E-002
  -3.9336050534408459E-002   1.1680638753534270E-002   4.9729232365893883E-002
  -3.7913755226124723E-002   1.1176489026129499E-002   4.9886066530324236E-002
  -1.8911328265929200E-002   5.5109115705254674E-003   6.1982974390536072E-002
  -1.7989285997645807E-002   5.2361932857057925E-003   6.1747691644617297E-002
  -1.7067243729362400E-002   4.9531370848418105E-003   6.1723837882576849E-002
  -1.6145201461078992E-002   4.6617429679332890E-003   6.1911413104414822E-002
  -1.5223159192795592E-002   4.3620109349804537E-003   6.2310417310131205E-002
  -2.3624669887693552E-002   6.9273059344264198E-003   5.9046126563390033E-002
  -2.2491413820879685E-002   6.5932476027104059E-003   5.8776360015597551E-002
  -2.1358157754065844E-002   6.2486767783664215E-003   5.8717592080987480E-002
  -2.0224901687251981E-002   5.8935934613946576E-003   5.8869822759559876E-002
  -1.9091645620438136E-002   5.5279976517949581E-003   5.9233052051314905E-002
  -2.8362854921647598E-002   8.3437002983274555E-003   5.6051025977639404E-002
  -2.7018815426999132E-002   7.9503019197150193E-003   5.5744601051389675E-002
  -2.5674775932350714E-002   7.5442164718912477E-003   5.5648744367626478E-002
  -2.4330736437702248E-002   7.1254439548560800E-003   5.5763455926349861E-002
  -2.2986696943053830E-002   6.6939843686094624E-003   5.6088735727559957E-002
  -3.3125883367791299E-002   9.7600946622283941E-003   5.2997672633284143E-002
  -3.1571490816004188E-002   9.3073562367195217E-003   5.2652414751993684E-002
  -3.0017098264217036E-002   8.8397561654160219E-003   5.2517294742493850E-002
  -2.8462705712429860E-002   8.3572944483174191E-003   5.2592312604784752E-002
  -2.6908313160642745E-002   7.8599710854239668E-003   5.2877468338866612E-002
  -3.7913755226124723E-002   1.1176489026129499E-002   4.9886066530324236E-002
  -3.6149439987894744E-002   1.0664410553724246E-002   4.9499801117409481E-002
  -3.4385124749664778E-002   1.0135295858940740E-002   4.9323243205589645E-002
  -3.2620809511434819E-002   9.5891449417788571E-003   4.9356392794864618E-002
  -3.0856494273204832E-002   9.0259578022385267E-003   4.9599249885234620E-002
  -1.5223159192795592E-002   4.3620109349804537E-003   6.2310417310131205E-002
  -1.4367446477835617E-002   4.0547157186025529E-003   6.2129475852782334E-002
  -1.3511733762875650E-002   3.7406320514182800E-003   6.2173030548922592E-002
  -1.2656021047915671E-002   3.4197599334283013E-003   6.2441081398551840E-002
  -1.1800308332955700E-002   3.0920993646323947E-003   6.2933628401670161E-002
  -1.9091645620438136E-002   5.5279976517949581E-003   5.9233052051314905E-002
  -1.8018971455505964E-002   5.1542708786374014E-003   5.9011742052829108E-002
  -1.6946297290573786E-002   4.7747946709920108E-003   5.8999858800798610E-002
  -1.5873623125641608E-002   4.3895690288586614E-003   5.9197402295223508E-002
  -1.4800948960709437E-002   3.9985939522373948E-003   5.9604372536103789E-002
  -2.2986696943053830E-002   6.6939843686094624E-003   5.6088735727559957E-002
  -2.1712130735183181E-002   6.2538260386723887E-003   5.5828096204255329E-002
  -2.0437564527312539E-002   5.8089572905654641E-003   5.5761814020372294E-002
  -1.9162998319441862E-002   5.3593781242889105E-003   5.5889889175910798E-002
  -1.7888432111571248E-002   4.9050885398423949E-003   5.6212321670871007E-002
  -2.6908313160642745E-002   7.8599710854239668E-003   5.2877468338866612E-002
  -2.5446924316867334E-002   7.3533811987074177E-003   5.2578538307061204E-002
  -2.3985535473091919E-002   6.8431199101391671E-003   5.2458896207643629E-002
  -2.2524146629316500E-002   6.3291872197190485E-003   5.2518542040614000E-002
  -2.1062757785541095E-002   5.8115831274473950E-003   5.2757475805972120E-002
  -3.0856494273204832E-002   9.0259578022385267E-003   4.9599249885234620E-002
  -2.9223352200558383E-002   8.4529363587422801E-003   4.9263068361246443E-002
  -2.7590210127911907E-002   7.8772825297127175E-003   4.9091105362612436E-002
  -2.5957068055265431E-002   7.2989963151494260E-003   4.9083360889332697E-002
  -2.4323925982618982E-002   6.7180777150523951E-003   4.9239834941407157E-002
  -1.1800308332955700E-002   3.0920993646323947E-003   6.2933628401670161E-002
  -1.0825655071065338E-002   2.7693492715064050E-003   6.2912775917739083E-002
  -9.8510018091749647E-003   2.4632085805268988E-003   6.3117828221482930E-002
  -8.8763485472845832E-003   2.1736772916928077E-003   6.3548785312901757E-002
  -7.9016952853942224E-003   1.9007554050052278E-003   6.4205647191995396E-002
  -1.4800948960709437E-002   3.9985939522373948E-003   5.9604372536103789E-002
  -1.3604569020322917E-002   3.6094571995202718E-003   5.9505517162107002E-002
  -1.2408189079936367E-002   3.2297465290992006E-003   5.9624210357427432E-002
  -1.1211809139549830E-002   2.8594619409744344E-003   5.9960452122065688E-002
  -1.0015429199163265E-002   2.4986034351455189E-003   6.0514242456020995E-002
  -1.7888432111571248E-002   4.9050885398423949E-003   5.6212321670871007E-002
  -1.6478681711046037E-002   4.4495651275341386E-003   5.6028280086958690E-002
  -1.5068931310520783E-002   3.9962844776718354E-003   5.6053430854005992E-002
  -1.3659180909995570E-002   3.5452465902558392E-003   5.6287773972013358E-002
  -1.2249430509470320E-002   3.0964514652856989E-003   5.6731309440980621E-002
  -2.1062757785541095E-002   5.8115831274473950E-003   5.2757475805972120E-002
  -1.9447993143234667E-002   5.2896730555480609E-003   5.2481064692293966E-002
  -1.7833228500928226E-002   4.7628224262445257E-003   5.2405489711217994E-002
  -1.6218463858621798E-002   4.2310312395372439E-003   5.2530750862744960E-002
  -1.4603699216315354E-002   3.6942994954258790E-003   5.2856848146873997E-002
  -2.4323925982618982E-002   6.7180777150523951E-003   4.9239834941407157E-002
  -2.2512503316888838E-002   6.1297809835617612E-003   4.8863870978113289E-002
  -2.0701080651158693E-002   5.5293603748171050E-003   4.8680386929064290E-002
  -1.8889657985428548E-002   4.9168158888185098E-003   4.8689382794260161E-002
  -1.7078235319698404E-002   4.2921475255661701E-003   4.8890858573701235E-002
  -7.9016952853942224E-003   1.9007554050052278E-003   6.4205647191995396E-002
  -6.9686455035933709E-003   1.6909570773263605E-003   6.4111312454045666E-002
  -6.0355957217925055E-003   1.5907964655202944E-003   6.4267667456427313E-002
  -5.1025459399916453E-003   1.6002735695858361E-003   6.4674712199140227E-002
  -4.1694961581907886E-003   1.7193883895239015E-003   6.5332446682184409E-002
  -1.0015429199163265E-002   2.4986034351455189E-003   6.0514242456020995E-002
  -8.8312470808653218E-003   2.1984567937275989E-003   6.0410900598898365E-002
  -7.6470649625673525E-003   2.0103077988362361E-003   6.0559133674438492E-002
  -6.4628828442693928E-003   1.9341564504704520E-003   6.0958941682641543E-002
  -5.2787007259714400E-003   1.9700027486310168E-003   6.1610324623507684E-002
  -1.2249430509470320E-002   3.0964514652856989E-003   5.6731309440980621E-002
  -1.0813230862343717E-002   2.7059565101286709E-003   5.6621320395338820E-002
  -9.3770312152170708E-003   2.4298191321518448E-003   5.6763791474691350E-002
  -7.9408315680904677E-003   2.2680393313549568E-003   5.7158722679038321E-002
  -6.5046319209638246E-003   2.2206171077380210E-003   5.7806114008379816E-002
  -1.4603699216315354E-002   3.6942994954258790E-003   5.2856848146873997E-002
  -1.2914596848028505E-002   3.2134562265297151E-003   5.2742571843366899E-002
  -1.1225494479741600E-002   2.8493304654677309E-003   5.2881640857186080E-002
  -9.5363921114547077E-003   2.6019222122394062E-003   5.3274055188331025E-002
  -7.8472897431678418E-003   2.4712314668451918E-003   5.3919814836802166E-002
  -1.7078235319698404E-002   4.2921475255661701E-003   4.8890858573701235E-002
  -1.5135345037919704E-002   3.7209559429310368E-003   4.8774654942982831E-002
  -1.3192454756141003E-002   3.2688417987833951E-003   4.8912681821922321E-002
  -1.1249564474362303E-002   2.9358050931241331E-003   4.9304939210519261E-002
  -9.3066741925836027E-003   2.7218458259521405E-003   4.9951427108773871E-002
  -4.1694961581907886E-003   1.7193883895239015E-003   6.5332446682184409E-002
  -3.6371511482698668E-003   2.0098814439096779E-003   6.4417760425477977E-002
  -3.1048061383489277E-003   2.5334932513184638E-003   6.3621193537577281E-002
  -2.5724611284279938E-003   3.2902238117510085E-003   6.2942746018482210E-002
  -2.0401161185070668E-003   4.2800731252063962E-003   6.2382417868192652E-002
  -5.2787007259714400E-003   1.9700027486310168E-003   6.1610324623507684E-002
  -4.6019941196918900E-003   2.2250374129742512E-003   6.0884902886573500E-002
  -3.9252875134123226E-003   2.8064511631565037E-003   6.0330084973551301E-002
  -3.2485809071327518E-003   3.7142439991777534E-003   5.9945870884440366E-002
  -2.5718743008532365E-003   4.9484159210377854E-003   5.9732260619241306E-002
  -6.5046319209638246E-003   2.2206171077380210E-003   5.7806114008379816E-002
  -5.6310792632196377E-003   2.4401933820386579E-003   5.7363217124034138E-002
  -4.7575266054754759E-003   3.0794090749940994E-003   5.7143408518706112E-002
  -3.8839739477313016E-003   4.1382641866042763E-003   5.7146688192395503E-002
  -3.0104212899871290E-003   5.6167587168691746E-003   5.7373056145102741E-002
  -7.8472897431678418E-003   2.4712314668451918E-003   5.3919814836802166E-002
  -6.7244065788530961E-003   2.6553493511030368E-003   5.3852703137860398E-002
  -5.6015234145383357E-003   3.3523669868320283E-003   5.4061164173042298E-002
  -4.4786402502235752E-003   4.5622843740310212E-003   5.4545197942347558E-002
  -3.3557570859088291E-003   6.2851015127006749E-003   5.5304804445776595E-002
  -9.3066741925836027E-003   2.7218458259521405E-003   4.9951427108773871E-002
  -7.8819760665922722E-003   2.8705053201676933E-003   5.0353360928051760E-002
  -6.4572779406009279E-003   3.6253248986697351E-003   5.1083351936559218E-002
  -5.0325798146095904E-003   4.9863045614575996E-003   5.2141400134296245E-002
  -3.6078816886182530E-003   6.9534443085319531E-003   5.3527505521262952E-002
  -2.0401161185070668E-003   4.2800731252063962E-003   6.2382417868192652E-002
  -2.2895961817909691E-003   5.5830142187729415E-003   5.8348148128330557E-002
  -2.5390762450748748E-003   7.2790201195371274E-003   5.4309004055360321E-002
  -2.7885563083587684E-003   9.3680908274997726E-003   5.0264985649281946E-002
  -3.0380363716426828E-003   1.1850226342660530E-002   4.6216092910094986E-002
  -2.5718743008532365E-003   4.9484159210377854E-003   5.9732260619241306E-002
  -2.8438408315202938E-003   6.5728437669386186E-003   5.6197188723037195E-002
  -3.1158073621873495E-003   8.6514043750823277E-003   5.2622018225174871E-002
  -3.3877738928544164E-003   1.1184097745468261E-002   4.9006749125654669E-002
  -3.6597404235214973E-003   1.4170923878096486E-002   4.5351381424476367E-002
  -3.0104212899871290E-003   5.6167587168691746E-003   5.7373056145102741E-002
  -3.3400985565870105E-003   7.5626733151048509E-003   5.4398250047600710E-002
  -3.6697758231869484E-003   1.0023788630627334E-002   5.1348121079890757E-002
  -3.9994530897868134E-003   1.3000104663436589E-002   4.8222669241972826E-002
  -4.3291303563867400E-003   1.6491621413532442E-002   4.5021894533847862E-002
  -3.3557570859088291E-003   6.2851015127006749E-003   5.5304804445776595E-002
  -3.7783693569912323E-003   8.5525028632712496E-003   5.2951332102020479E-002
  -4.2009816280735787E-003   1.1396172886172548E-002   5.0487312619506876E-002
  -4.6235938991560357E-003   1.4816111581404775E-002   4.7912745998236445E-002
  -5.0462061702383557E-003   1.8812318948968398E-002   4.5227632238208471E-002
  -3.6078816886182530E-003   6.9534443085319531E-003   5.3527505521262952E-002
  -4.1586532327328174E-003   9.5423324114372043E-003   5.1856434886297431E-002
  -4.7094247768473818E-003   1.2768557141717540E-002   5.0039592844025260E-002
  -5.2601963209619185E-003   1.6632118499373350E-002   4.8076979394445718E-002
  -5.8109678650765106E-003   2.1133016484404354E-002   4.5968594537559415E-002
  -5.0761995672502919E-002   1.4926350296679602E-002   5.2699789816087306E-002
  -4.8972230869192140E-002   1.4552348654307379E-002   5.1592600226528007E-002
  -4.7182466065881307E-002   1.4139983112405621E-002   5.0854962697005651E-002
  -4.5392701262570487E-002   1.3689253670974320E-002   5.0486877227520224E-002
  -4.3602936459259681E-002   1.3200160330013255E-002   5.0488343818071713E-002
  -5.7664590809910876E-002   1.6848866098342852E-002   4.5928200860497037E-002
  -5.5534936655409900E-002   1.6372438950603113E-002   4.5152835711254835E-002
  -5.3405282500908938E-002   1.5874752810798518E-002   4.4687697204356169E-002
  -5.1275628346407948E-002   1.5355807678929103E-002   4.4532785339800776E-002
  -4.9145974191906978E-002   1.4815603554994727E-002   4.4688100117588891E-002
  -6.4175887352357713E-002   1.8771381900006073E-002   3.9045633945806915E-002
  -6.1765669264360119E-002   1.8192529246898820E-002   3.8619198144346653E-002
  -5.9355451176362484E-002   1.7609522509191407E-002   3.8443663567536278E-002
  -5.6945233088364890E-002   1.7022361686883883E-002   3.8519030215375741E-002
  -5.4535015000367282E-002   1.6431046779976144E-002   3.8845298087865049E-002
  -7.0295885299843264E-002   2.0693897701669309E-002   3.2052089072016815E-002
  -6.7664428696042625E-002   2.0012619543194568E-002   3.1991687525803100E-002
  -6.5032972092241931E-002   1.9344292207584313E-002   3.2122861786545963E-002
  -6.2401515488441223E-002   1.8688915694838666E-002   3.2445611854244903E-002
  -5.9770058884640556E-002   1.8046490004957561E-002   3.2959937728900254E-002
  -7.6024584652367722E-002   2.2616413503332544E-002   2.4947566239126806E-002
  -7.3231214950457535E-002   2.1832709839490261E-002   2.5270303855624565E-002
  -7.0437845248547321E-002   2.1079061905977220E-002   2.5725291861385113E-002
  -6.7644475546637051E-002   2.0355469702793540E-002   2.6312530256408312E-002
  -6.4851105844726864E-002   1.9661933229939033E-002   2.7032019040694300E-002
  -4.3602936459259681E-002   1.3200160330013255E-002   5.0488343818071713E-002
  -4.2180641150975959E-002   1.2692474405476217E-002   5.0030371009767649E-002
  -4.0758345842692202E-002   1.2185967213316495E-002   4.9777333859041734E-002
  -3.9336050534408459E-002   1.1680638753534270E-002   4.9729232365893883E-002
  -3.7913755226124723E-002   1.1176489026129499E-002   4.9886066530324236E-002
  -4.9145974191906978E-002   1.4815603554994727E-002   4.4688100117588891E-002
  -4.7533431803979571E-002   1.4263745480524448E-002   4.4369000567222566E-002
  -4.5920889416052185E-002   1.3709838497047142E-002   4.4225459518565338E-002
  -4.4308347028124834E-002   1.3153882604562874E-002   4.4257476971617277E-002
  -4.2695804640197406E-002   1.2595877803071531E-002   4.4465052926378368E-002
  -5.4535015000367282E-002   1.6431046779976144E-002   3.8845298087865049E-002
  -5.2761602688665199E-002   1.5835016555572595E-002   3.8661844154051980E-002
  -5.0988190376963158E-002   1.5233709780777732E-002   3.8624571566079055E-002
  -4.9214778065261103E-002   1.4627126455591312E-002   3.8733480323946329E-002
  -4.7441365753559041E-002   1.4015266580013591E-002   3.8988570427653829E-002
  -5.9770058884640556E-002   1.8046490004957561E-002   3.2959937728900254E-002
  -5.7865153805032828E-002   1.7406287630620840E-002   3.2908901770255974E-002
  -5.5960248725425078E-002   1.6757581064508434E-002   3.2974670001583037E-002
  -5.4055343645817343E-002   1.6100370306619833E-002   3.3157242422881109E-002
  -5.2150438566209538E-002   1.5434655356955665E-002   3.3456619034150578E-002
  -6.4851105844726864E-002   1.9661933229939033E-002   2.7032019040694300E-002
  -6.2844085153082416E-002   1.8977558705669029E-002   2.7110173415834521E-002
  -6.0837064461437912E-002   1.8281452348238830E-002   2.7275754825076992E-002
  -5.8830043769793450E-002   1.7573614157648347E-002   2.7528763268421741E-002
  -5.6823023078148988E-002   1.6854044133897683E-002   2.7869198745868684E-002
  -3.7913755226124723E-002   1.1176489026129499E-002   4.9886066530324236E-002
  -3.6149439987894744E-002   1.0664410553724246E-002   4.9499801117409481E-002
  -3.4385124749664778E-002   1.0135295858940740E-002   4.9323243205589645E-002
  -3.2620809511434819E-002   9.5891449417788571E-003   4.9356392794864618E-002
  -3.0856494273204832E-002   9.0259578022385267E-003   4.9599249885234620E-002
  -4.2695804640197406E-002   1.2595877803071531E-002   4.4465052926378368E-002
  -4.0724956435210971E-002   1.2030785538506283E-002   4.4097520160076675E-002
  -3.8754108230224585E-002   1.1453567256799760E-002   4.3933345826192877E-002
  -3.6783260025238199E-002   1.0864222957952658E-002   4.3972529924727027E-002
  -3.4812411820251757E-002   1.0262752641964079E-002   4.4215072455679294E-002
  -4.7441365753559041E-002   1.4015266580013591E-002   3.8988570427653829E-002
  -4.5270333650493072E-002   1.3397160523288265E-002   3.8644680513202356E-002
  -4.3099301547427082E-002   1.2771838654659057E-002   3.8497799962491891E-002
  -4.0928269444361072E-002   1.2139300974126181E-002   3.8547928775522655E-002
  -3.8757237341295131E-002   1.1499547481689493E-002   3.8795066952294413E-002
  -5.2150438566209538E-002   1.5434655356955665E-002   3.3456619034150578E-002
  -4.9785571633740880E-002   1.4763535508070219E-002   3.3141282176786649E-002
  -4.7420704701272222E-002   1.4090110052518326E-002   3.3016605614486834E-002
  -4.5055837768803592E-002   1.3414378990299843E-002   3.3082589347251251E-002
  -4.2690970836334906E-002   1.2736342321414920E-002   3.3339233375079949E-002
  -5.6823023078148988E-002   1.6854044133897683E-002   2.7869198745868684E-002
  -5.4270670384954506E-002   1.6129910492852256E-002   2.7587325150829511E-002
  -5.1718317691760093E-002   1.5408381450377373E-002   2.7489762782177657E-002
  -4.9165964998565646E-002   1.4689457006473478E-002   2.7576511639912982E-002
  -4.6613612305371199E-002   1.3973137161140348E-002   2.7847571724035847E-002
  -3.0856494273204832E-002   9.0259578022385267E-003   4.9599249885234620E-002
  -2.9223352200558383E-002   8.4529363587422801E-003   4.9263068361246443E-002
  -2.7590210127911907E-002   7.8772825297127175E-003   4.9091105362612436E-002
  -2.5957068055265431E-002   7.2989963151494260E-003   4.9083360889332697E-002
  -2.4323925982618982E-002   6.7180777150523951E-003   4.9239834941407157E-002
  -3.4812411820251757E-002   1.0262752641964079E-002   4.4215072455679294E-002
  -3.3017641470604486E-002   9.6519901093303495E-003   4.3882847308499978E-002
  -3.1222871120957237E-002   9.0347691605476288E-003   4.3709660189967831E-002
  -2.9428100771310032E-002   8.4110897956158753E-003   4.3695511100083267E-002
  -2.7633330421662772E-002   7.7809520145345479E-003   4.3840400038845928E-002
  -3.8757237341295131E-002   1.1499547481689493E-002   3.8795066952294413E-002
  -3.6806019211353909E-002   1.0851043859918447E-002   3.8462972151308256E-002
  -3.4854801081412659E-002   1.0192255791382644E-002   3.8284734882262354E-002
  -3.2903582951471423E-002   9.5231832760819899E-003   3.8260355145157451E-002
  -3.0952364821530187E-002   8.8438263140164786E-003   3.8389832939992652E-002
  -4.2690970836334906E-002   1.2736342321414920E-002   3.3339233375079949E-002
  -4.0588485422806478E-002   1.2050097610506474E-002   3.3003442889671192E-002
  -3.8486000009278133E-002   1.1349742422217663E-002   3.2816329439496097E-002
  -3.6383514595749802E-002   1.0635276756548215E-002   3.2777893024554867E-002
  -3.4281029182221368E-002   9.9067006134985758E-003   3.2888133644847189E-002
  -4.6613612305371199E-002   1.3973137161140348E-002   2.7847571724035847E-002
  -4.4365040104962422E-002   1.3249151361094391E-002   2.7504259523589147E-002
  -4.2116467904553700E-002   1.2507229053052515E-002   2.7304443861668970E-002
  -3.9867895704144993E-002   1.1747370237014651E-002   2.7248124738275981E-002
  -3.7619323503736229E-002   1.0969574912980451E-002   2.7335302153409957E-002
  -2.4323925982618982E-002   6.7180777150523951E-003   4.9239834941407157E-002
  -2.2512503316888838E-002   6.1297809835617612E-003   4.8863870978113289E-002
  -2.0701080651158693E-002   5.5293603748171050E-003   4.8680386929064290E-002
  -1.8889657985428548E-002   4.9168158888185098E-003   4.8689382794260161E-002
  -1.7078235319698404E-002   4.2921475255661701E-003   4.8890858573701235E-002
  -2.7633330421662772E-002   7.7809520145345479E-003   4.3840400038845928E-002
  -2.5641340346180826E-002   7.1463654744489125E-003   4.3435612120678480E-002
  -2.3649350270698907E-002   6.5093398325038188E-003   4.3199479107769501E-002
  -2.1657360195216968E-002   5.8698750886991072E-003   4.3132001000119019E-002
  -1.9665370119735043E-002   5.2279712430349790E-003   4.3233177797727451E-002
  -3.0952364821530187E-002   8.8438263140164786E-003   3.8389832939992652E-002
  -2.8803632345282860E-002   8.1629499653360083E-003   3.7965905842345854E-002
  -2.6654899869035506E-002   7.4893192901904215E-003   3.7686808640971362E-002
  -2.4506167392788131E-002   6.8229342885795380E-003   3.7552541335869077E-002
  -2.2357434916540818E-002   6.1637949605035658E-003   3.7563103927039043E-002
  -3.4281029182221368E-002   9.9067006134985758E-003   3.2888133644847189E-002
  -3.1999379314194991E-002   9.1795344562231318E-003   3.2454752143115675E-002
  -2.9717729446168618E-002   8.4692987478769688E-003   3.2142375528669991E-002
  -2.7436079578142168E-002   7.7759934884601076E-003   3.1951003801509989E-002
  -2.5154429710115868E-002   7.0996186779722636E-003   3.1880636961636205E-002
  -3.7619323503736229E-002   1.0969574912980451E-002   2.7335302153409957E-002
  -3.5228581252917168E-002   1.0196118947110311E-002   2.6902151022987875E-002
  -3.2837839002098121E-002   9.4492782055637659E-003   2.6566179770865117E-002
  -3.0447096751279039E-002   8.7290526883405731E-003   2.6327388397041990E-002
  -2.8056354500460012E-002   8.0354423954409615E-003   2.6185776901518354E-002
  -1.7078235319698404E-002   4.2921475255661701E-003   4.8890858573701235E-002
  -1.5135345037919704E-002   3.7209559429310368E-003   4.8774654942982831E-002
  -1.3192454756141003E-002   3.2688417987833951E-003   4.8912681821922321E-002
  -1.1249564474362303E-002   2.9358050931241331E-003   4.9304939210519261E-002
  -9.3066741925836027E-003   2.7218458259521405E-003   4.9951427108773871E-002
  -1.9665370119735043E-002   5.2279712430349790E-003   4.3233177797727451E-002
  -1.7506718893858554E-002   4.6218014900474835E-003   4.3070066967530629E-002
  -1.5348067667982149E-002   4.0895390242730589E-003   4.3084247515871643E-002
  -1.3189416442105709E-002   3.6311838457123019E-003   4.3275719442750646E-002
  -1.1030765216229255E-002   3.2467359543644214E-003   4.3644482748167290E-002
  -2.2357434916540818E-002   6.1637949605035658E-003   3.7563103927039043E-002
  -2.0059961877686404E-002   5.5226470371643466E-003   3.7307915746088882E-002
  -1.7762488838831969E-002   4.9102362497632779E-003   3.7153079812557221E-002
  -1.5465015799977545E-002   4.3265625983009148E-003   3.7098596126443395E-002
  -1.3167542761123065E-002   3.7716260827767023E-003   3.7144464687747736E-002
  -2.5154429710115868E-002   7.0996186779722636E-003   3.1880636961636205E-002
  -2.2795073989403149E-002   6.4234925842810014E-003   3.1488201278657882E-002
  -2.0435718268690430E-002   5.7309334752533303E-003   3.1119178711978210E-002
  -1.8076362547977738E-002   5.0219413508893612E-003   3.0773569261596814E-002
  -1.5717006827265047E-002   4.2965162111887611E-003   3.0451372927513903E-002
  -2.8056354500460012E-002   8.0354423954409615E-003   2.6185776901518354E-002
  -2.5712055229008796E-002   7.3243381313976008E-003   2.5610923565237531E-002
  -2.3367755957557579E-002   6.5516307007432162E-003   2.4982544214135372E-002
  -2.1023456686106362E-002   5.7173201034777660E-003   2.4300638848211681E-002
  -1.8679157414655145E-002   4.8214063396011531E-003   2.3565207467466820E-002
  -9.3066741925836027E-003   2.7218458259521405E-003   4.9951427108773871E-002
  -7.8819760665922722E-003   2.8705053201676933E-003   5.0353360928051760E-002
  -6.4572779406009279E-003   3.6253248986697351E-003   5.1083351936559218E-002
  -5.0325798146095904E-003   4.9863045614575996E-003   5.2141400134296245E-002
  -3.6078816886182530E-003   6.9534443085319531E-003   5.3527505521262952E-002
  -1.1030765216229255E-002   3.2467359543644214E-003   4.3644482748167290E-002
  -9.2600780623662560E-003   3.1741905340302301E-003   4.4229690754389539E-002
  -7.4893909085031185E-003   3.6515427685097079E-003   4.5178819627125416E-002
  -5.7187037546400574E-003   4.6787926578031186E-003   4.6491869366375269E-002
  -3.9480166007769824E-003   6.2559402019106702E-003   4.8168839972138833E-002
  -1.3167542761123065E-002   3.7716260827767023E-003   3.7144464687747736E-002
  -1.1015002902104006E-002   3.4778757478924061E-003   3.7856684451441525E-002
  -8.8624630430848873E-003   3.6777606383499029E-003   3.8968688758933334E-002
  -6.7099231840657848E-003   4.3712807541487486E-003   4.0480477610223595E-002
  -4.5573833250467100E-003   5.5584360952893874E-003   4.2392051005311682E-002
  -1.5717006827265047E-002   4.2965162111887611E-003   3.0451372927513903E-002
  -1.3146750585805613E-002   3.7815609617549845E-003   3.1234342019207134E-002
  -1.0576494344346120E-002   3.7039785081898202E-003   3.2452959331982861E-002
  -8.0062381028866841E-003   4.0637688504944341E-003   3.4107224865840759E-002
  -5.4359818614272484E-003   4.8609319886681046E-003   3.6197138620781749E-002
  -1.8679157414655145E-002   4.8214063396011531E-003   2.3565207467466820E-002
  -1.5655321113471066E-002   4.0852461756170633E-003   2.4362663457687006E-002
  -1.2631484812286931E-002   3.7301963780300706E-003   2.5631631346273998E-002
  -9.6076485111028231E-003   3.7562569468398421E-003   2.7372111133227878E-002
  -6.5838122099187157E-003   4.1634278820467108E-003   2.9584102818548508E-002
  -3.6078816886182530E-003   6.9534443085319531E-003   5.3527505521262952E-002
  -4.1586532327328174E-003   9.5423324114372043E-003   5.1856434886297431E-002
  -4.7094247768473818E-003   1.2768557141717540E-002   5.0039592844025260E-002
  -5.2601963209619185E-003   1.6632118499373350E-002   4.8076979394445718E-002
  -5.8109678650765106E-003   2.1133016484404354E-002   4.5968594537559415E-002
  -3.9480166007769824E-003   6.2559402019106702E-003   4.8168839972138833E-002
  -4.5407218431744167E-003   8.6932145181441434E-003   4.7236221492493569E-002
  -5.1334270855718928E-003   1.2300844723815818E-002   4.6365507023589769E-002
  -5.7261323279693341E-003   1.7078830818926319E-002   4.5556696565426574E-002
  -6.3188375703667476E-003   2.3027172803474549E-002   4.4809790118006010E-002
  -4.5573833250467100E-003   5.5584360952893874E-003   4.2392051005311682E-002
  -4.9843468476786085E-003   7.8440966248514155E-003   4.2730903943049403E-002
  -5.4113103703105347E-003   1.1833132305914651E-002   4.3339336309576870E-002
  -5.8382738929423986E-003   1.7525543138479066E-002   4.4217348104893681E-002
  -6.2652374155743595E-003   2.4921329122544744E-002   4.5364939329000320E-002
  -5.4359818614272484E-003   4.8609319886681046E-003   3.6197138620781749E-002
  -5.4895282462453752E-003   6.9949787315586320E-003   3.8340482237965420E-002
  -5.5430746310635576E-003   1.1365419888012873E-002   4.0961080701987201E-002
  -5.5966210158816688E-003   1.7972255458031702E-002   4.4058934012847210E-002
  -5.6501674006999222E-003   2.6815485441614828E-002   4.7634042170544677E-002
  -6.5838122099187157E-003   4.1634278820467108E-003   2.9584102818548508E-002
  -6.0562660388747414E-003   6.1458608382654045E-003   3.4064956377241051E-002
  -5.5287198678307115E-003   1.0897707470111623E-002   3.9230740200820124E-002
  -5.0011736967867093E-003   1.8418967777584859E-002   4.5081454289285089E-002
  -4.4736275257427627E-003   2.8709641760685134E-002   5.1617098642636972E-002
  -7.6024584652367722E-002   2.2616413503332544E-002   2.4947566239126806E-002
  -7.3231214950457535E-002   2.1832709839490261E-002   2.5270303855624565E-002
  -7.0437845248547321E-002   2.1079061905977220E-002   2.5725291861385113E-002
  -6.7644475546637051E-002   2.0355469702793540E-002   2.6312530256408312E-002
  -6.4851105844726864E-002   1.9661933229939033E-002   2.7032019040694300E-002
  -8.1774979907244638E-002   2.4400380818027367E-002   2.0126828381719253E-002
  -7.8818097609342413E-002   2.3610214551599090E-002   2.0065717326548882E-002
  -7.5861215311440300E-002   2.2829151597379527E-002   2.0199381074099909E-002
  -7.2904333013538034E-002   2.2057191955368732E-002   2.0527819624372182E-002
  -6.9947450715635850E-002   2.1294335625566735E-002   2.1051032977365547E-002
  -8.7960065561787731E-002   2.6184348132722135E-002   1.5310104130785568E-002
  -8.4777146254435179E-002   2.5387719263707920E-002   1.4844191985826941E-002
  -8.1594226947082404E-002   2.4579241288781820E-002   1.4635579057047876E-002
  -7.8411307639729755E-002   2.3758914207944060E-002   1.4684265344448479E-002
  -7.5228388332377091E-002   2.2926738021194493E-002   1.4990250848028977E-002
  -9.4579841615997348E-002   2.7968315447416875E-002   1.0497393486326716E-002
  -9.1108360885735679E-002   2.7165223975816666E-002   9.6057278334588519E-003
  -8.7636880155474023E-002   2.6329330980184119E-002   9.0338858102291739E-003
  -8.4165399425212353E-002   2.5460636460519291E-002   8.7818674166377387E-003
  -8.0693918694950684E-002   2.4559140416822361E-002   8.8496726526846176E-003
 -0.10163430806987317        2.9752282762111726E-002   5.6886964483416902E-003
  -9.7811741503244010E-002   2.8942728687925579E-002   4.3503248694442553E-003
  -9.3989174936614850E-002   2.8079420671586419E-002   3.3943013336436290E-003
  -9.0166608369985690E-002   2.7162358713094498E-002   2.8206258409396237E-003
  -8.6344041803356530E-002   2.6191542812449953E-002   2.6292983913324686E-003
  -6.4851105844726864E-002   1.9661933229939033E-002   2.7032019040694300E-002
  -6.2844085153082416E-002   1.8977558705669029E-002   2.7110173415834521E-002
  -6.0837064461437912E-002   1.8281452348238830E-002   2.7275754825076992E-002
  -5.8830043769793450E-002   1.7573614157648347E-002   2.7528763268421741E-002
  -5.6823023078148988E-002   1.6854044133897683E-002   2.7869198745868684E-002
  -6.9947450715635850E-002   2.1294335625566735E-002   2.1051032977365547E-002
  -6.7834288652227015E-002   2.0535303017083381E-002   2.0956715092969688E-002
  -6.5721126588818179E-002   1.9774814539028497E-002   2.0987252918000313E-002
  -6.3607964525409399E-002   1.9012870191401875E-002   2.1142646452457524E-002
  -6.1494802462000495E-002   1.8249469974203902E-002   2.1422895696341093E-002
  -7.5228388332377091E-002   2.2926738021194493E-002   1.4990250848028977E-002
  -7.2971656221879677E-002   2.2093047328497678E-002   1.4733736667685883E-002
  -7.0714924111382305E-002   2.1268176729818053E-002   1.4639506872093207E-002
  -6.8458192000884863E-002   2.0452126225155406E-002   1.4707561461251399E-002
  -6.6201459890387504E-002   1.9644895814510122E-002   1.4937900435160426E-002
  -8.0693918694950684E-002   2.4559140416822361E-002   8.8496726526846176E-003
  -7.8256187862040388E-002   2.3650791639911864E-002   8.4412381399827045E-003
  -7.5818457029130176E-002   2.2761538920607442E-002   8.2325166873556607E-003
  -7.3380726196219950E-002   2.1891382258909076E-002   8.2235082948038159E-003
  -7.0942995363309669E-002   2.1040321654816285E-002   8.4142129623266879E-003
  -8.6344041803356530E-002   2.6191542812449953E-002   2.6292983913324686E-003
  -8.3687883572709232E-002   2.5208535951326327E-002   2.0792195098603972E-003
  -8.1031725342061933E-002   2.4254901111397220E-002   1.7662823637879382E-003
  -7.8375567111414635E-002   2.3330638292662673E-002   1.6904869531144638E-003
  -7.5719408880767336E-002   2.2435747495122449E-002   1.8518332778401092E-003
  -5.6823023078148988E-002   1.6854044133897683E-002   2.7869198745868684E-002
  -5.4270670384954506E-002   1.6129910492852256E-002   2.7587325150829511E-002
  -5.1718317691760093E-002   1.5408381450377373E-002   2.7489762782177657E-002
  -4.9165964998565646E-002   1.4689457006473478E-002   2.7576511639912982E-002
  -4.6613612305371199E-002   1.3973137161140348E-002   2.7847571724035847E-002
  -6.1494802462000495E-002   1.8249469974203902E-002   2.1422895696341093E-002
  -5.8754611676318000E-002   1.7484924298397819E-002   2.1110555698330424E-002
  -5.6014420890635373E-002   1.6719543574947454E-002   2.0989580658908644E-002
  -5.3274230104952816E-002   1.5953327803852509E-002   2.1059970578075925E-002
  -5.0534039319270252E-002   1.5186276985113267E-002   2.1321725455831830E-002
  -6.6201459890387504E-002   1.9644895814510122E-002   1.4937900435160426E-002
  -6.3266377280015204E-002   1.8839938103943396E-002   1.4591654387963005E-002
  -6.0331294669642918E-002   1.8030705699517258E-002   1.4443827031556472E-002
  -5.7396212059270639E-002   1.7217198601231262E-002   1.4494418365939871E-002
  -5.4461129448898332E-002   1.6399416809085909E-002   1.4743428391114144E-002
  -7.0942995363309669E-002   2.1040321654816285E-002   8.4142129623266879E-003
  -6.7805967196046202E-002   2.0194951909488938E-002   8.0306212197276301E-003
  -6.4668939028782707E-002   1.9341867824087144E-002   7.8525019001206078E-003
  -6.1531910861519240E-002   1.8481069398610377E-002   7.8798550035054701E-003
  -5.8394882694255738E-002   1.7612556633058579E-002   8.1126805298829124E-003
  -7.5719408880767336E-002   2.2435747495122449E-002   1.8518332778401092E-003
  -7.2373381424411076E-002   2.1549965715034425E-002   1.4274561936239993E-003
  -6.9027353968054761E-002   2.0653029948657031E-002   1.2156052646014603E-003
  -6.5681326511698446E-002   1.9744940195989297E-002   1.2162804907725616E-003
  -6.2335299055342186E-002   1.8825696457031693E-002   1.4294818721375391E-003
  -4.6613612305371199E-002   1.3973137161140348E-002   2.7847571724035847E-002
  -4.4365040104962422E-002   1.3249151361094391E-002   2.7504259523589147E-002
  -4.2116467904553700E-002   1.2507229053052515E-002   2.7304443861668970E-002
  -3.9867895704144993E-002   1.1747370237014651E-002   2.7248124738275981E-002
  -3.7619323503736229E-002   1.0969574912980451E-002   2.7335302153409957E-002
  -5.0534039319270252E-002   1.5186276985113267E-002   2.1321725455831830E-002
  -4.8140497975007440E-002   1.4415720514733860E-002   2.0961166363167083E-002
  -4.5746956630744642E-002   1.3638987788719040E-002   2.0747049019683605E-002
  -4.3353415286481817E-002   1.2856078807068617E-002   2.0679373425381328E-002
  -4.0959873942219088E-002   1.2066993569782913E-002   2.0758139580260071E-002
  -5.4461129448898332E-002   1.6399416809085909E-002   1.4743428391114144E-002
  -5.1919673750127369E-002   1.5582289668373273E-002   1.4377382658592258E-002
  -4.9378218051356226E-002   1.4770746524385342E-002   1.4160723885905571E-002
  -4.6836762352585194E-002   1.3964787377122860E-002   1.4093452073054236E-002
  -4.4295306653814058E-002   1.3164412226585431E-002   1.4175567220038571E-002
  -5.8394882694255738E-002   1.7612556633058579E-002   8.1126805298829124E-003
  -5.5702567430322099E-002   1.6748858822012547E-002   7.7529084098637291E-003
  -5.3010252166388591E-002   1.5902505260052199E-002   7.5454684603351030E-003
  -5.0317936902455014E-002   1.5073495947177298E-002   7.4903606812955752E-003
  -4.7625621638521444E-002   1.4261830883387810E-002   7.5875850727459559E-003
  -6.2335299055342186E-002   1.8825696457031693E-002   1.4294818721375391E-003
  -5.9489179015591920E-002   1.7915427975652043E-002   1.0877436169827170E-003
  -5.6643058975841543E-002   1.7034263995718446E-002   9.0128274297190947E-004
  -5.3796938936091221E-002   1.6182204517231083E-002   8.7009925010460287E-004
  -5.0950818896340899E-002   1.5359249540190190E-002   9.9419313838156054E-004
  -3.7619323503736229E-002   1.0969574912980451E-002   2.7335302153409957E-002
  -3.5228581252917168E-002   1.0196118947110311E-002   2.6902151022987875E-002
  -3.2837839002098121E-002   9.4492782055637659E-003   2.6566179770865117E-002
  -3.0447096751279039E-002   8.7290526883405731E-003   2.6327388397041990E-002
  -2.8056354500460012E-002   8.0354423954409615E-003   2.6185776901518354E-002
  -4.0959873942219088E-002   1.2066993569782913E-002   2.0758139580260071E-002
  -3.8471256575240281E-002   1.1281870153051377E-002   2.0351158975119799E-002
  -3.5982639208261405E-002   1.0510846633064258E-002   2.0042748723999831E-002
  -3.3494021841282598E-002   9.7539230098210930E-003   1.9832908826899726E-002
  -3.1005404474303722E-002   9.0110992833223325E-003   1.9721639283819647E-002
  -4.4295306653814058E-002   1.3164412226585431E-002   1.4175567220038571E-002
  -4.1707423694955011E-002   1.2367621358992859E-002   1.3782241812600959E-002
  -3.9119540736095845E-002   1.1572415060565180E-002   1.3488877234904009E-002
  -3.6531657777236742E-002   1.0778793331301943E-002   1.3295473486947679E-002
  -3.3943774818377570E-002   9.9867561712034814E-003   1.3202030568731760E-002
  -4.7625621638521444E-002   1.4261830883387810E-002   7.5875850727459559E-003
  -4.4937082612061356E-002   1.3453372564933688E-002   7.1953995354313294E-003
  -4.2248543585601366E-002   1.2633983488065666E-002   6.9045653035780287E-003
  -3.9560004559141285E-002   1.1803663652782905E-002   6.7150823771859516E-003
  -3.6871465532681294E-002   1.0962413059085352E-002   6.6269507562548707E-003
  -5.0950818896340899E-002   1.5359249540190190E-002   9.9419313838156054E-004
  -4.8160233326559498E-002   1.4539123770875184E-002   5.9063214361099181E-004
  -4.5369647756777987E-002   1.3695551915566206E-002   2.8981293002197650E-004
  -4.2579062186996502E-002   1.2828533974263381E-002   9.1735497614493788E-005
  -3.9788476617215074E-002   1.1938069946966001E-002  -3.6001536111163190E-006
  -2.8056354500460012E-002   8.0354423954409615E-003   2.6185776901518354E-002
  -2.5712055229008796E-002   7.3243381313976008E-003   2.5610923565237531E-002
  -2.3367755957557579E-002   6.5516307007432162E-003   2.4982544214135372E-002
  -2.1023456686106362E-002   5.7173201034777660E-003   2.4300638848211681E-002
  -1.8679157414655145E-002   4.8214063396011531E-003   2.3565207467466820E-002
  -3.1005404474303722E-002   9.0110992833223325E-003   1.9721639283819647E-002
  -2.8698071149666729E-002   8.2720505274947453E-003   1.9139949084309493E-002
  -2.6390737825029681E-002   7.5264518162653227E-003   1.8537853005992339E-002
  -2.4083404500392598E-002   6.7743031496340089E-003   1.7915351048868280E-002
  -2.1776071175755529E-002   6.0156045276011927E-003   1.7272443212937361E-002
  -3.3943774818377570E-002   9.9867561712034814E-003   1.3202030568731760E-002
  -3.1640287304540250E-002   9.2197629235914735E-003   1.2668556717201795E-002
  -2.9336799790702986E-002   8.5012729317870683E-003   1.2147797122879389E-002
  -2.7033312276865611E-002   7.8312861957903560E-003   1.1639751785764207E-002
  -2.4729824763028346E-002   7.2098027156012878E-003   1.1144420705856611E-002
  -3.6871465532681294E-002   1.0962413059085352E-002   6.6269507562548707E-003
  -3.4538703693629366E-002   1.0167475319688521E-002   6.1967464639145417E-003
  -3.2205941854577425E-002   9.4760940473086613E-003   5.8123765647956627E-003
  -2.9873180015525476E-002   8.8882692419468175E-003   5.4738410588989310E-003
  -2.7540418176473562E-002   8.4040009036017993E-003   5.1811399462240518E-003
  -3.9788476617215074E-002   1.1938069946966001E-002  -3.6001536111163190E-006
  -3.7393320316934098E-002   1.1115187715785235E-002  -2.7548167555280223E-004
  -3.4998164016653122E-002   1.0450915162830809E-002  -4.6840866825798022E-004
  -3.2603007716372201E-002   9.9452522881030292E-003  -5.8238113172680295E-004
  -3.0207851416091169E-002   9.5981990916016446E-003  -6.1739906595958960E-004
  -1.8679157414655145E-002   4.8214063396011531E-003   2.3565207467466820E-002
  -1.5655321113471066E-002   4.0852461756170633E-003   2.4362663457687006E-002
  -1.2631484812286931E-002   3.7301963780300706E-003   2.5631631346273998E-002
  -9.6076485111028231E-003   3.7562569468398421E-003   2.7372111133227878E-002
  -6.5838122099187157E-003   4.1634278820467108E-003   2.9584102818548508E-002
  -2.1776071175755529E-002   6.0156045276011927E-003   1.7272443212937361E-002
  -1.8549605309491443E-002   5.3458694456945954E-003   1.8226970744724069E-002
  -1.5323139443227343E-002   4.8606113994429934E-003   1.9115245508303985E-002
  -1.2096673576963222E-002   4.5598303888461228E-003   1.9937267503677206E-002
  -8.8702077106991573E-003   4.4435264139033315E-003   2.0693036730843328E-002
  -2.4729824763028346E-002   7.2098027156012878E-003   1.1144420705856611E-002
  -2.1838493998257887E-002   6.6064927157724884E-003   1.2059386448467463E-002
  -1.8947163233487441E-002   5.9910264208556940E-003   1.2370334756298132E-002
  -1.6055832468717050E-002   5.3634038308518484E-003   1.2077265629348216E-002
  -1.3164501703946646E-002   4.7236249457600077E-003   1.1180179067617840E-002
  -2.7540418176473562E-002   8.4040009036017993E-003   5.1811399462240518E-003
  -2.5521987179770472E-002   7.8671159858502010E-003   5.8599105689173536E-003
  -2.3503556183067303E-002   7.1214414422683392E-003   5.3968990902562922E-003
  -2.1485125186364196E-002   6.1669772728579625E-003   3.7921055102410409E-003
  -1.9466694189661037E-002   5.0037234776164341E-003   1.0455298288722867E-003
  -3.0207851416091169E-002   9.5981990916016446E-003  -6.1739906595958960E-004
  -2.9600084854029096E-002   9.1277392559276915E-003  -3.7145689392670267E-004
  -2.8992318291966912E-002   8.2518564636813729E-003  -1.8050614898215411E-003
  -2.8384551729904756E-002   6.9705507148635354E-003  -4.9182128536438621E-003
  -2.7776785167842655E-002   5.2838220094733046E-003  -9.7109109853942277E-003
  -6.5838122099187157E-003   4.1634278820467108E-003   2.9584102818548508E-002
  -6.0562660388747414E-003   6.1458608382654045E-003   3.4064956377241051E-002
  -5.5287198678307115E-003   1.0897707470111623E-002   3.9230740200820124E-002
  -5.0011736967867093E-003   1.8418967777584859E-002   4.5081454289285089E-002
  -4.4736275257427627E-003   2.8709641760685134E-002   5.1617098642636972E-002
  -8.8702077106991573E-003   4.4435264139033315E-003   2.0693036730843328E-002
  -7.5853445136549180E-003   5.6610170739403443E-003   2.5864641513148545E-002
  -6.3004813166106094E-003   9.3616199682813317E-003   3.1865950082568095E-002
  -5.0156181195664742E-003   1.5545335096926849E-002   3.8696962439101840E-002
  -3.7307549225221726E-003   2.4212162459876341E-002   4.6357678582749973E-002
  -1.3164501703946646E-002   4.7236249457600077E-003   1.1180179067617840E-002
  -1.0977547958674221E-002   5.1761733096152840E-003   1.6756233632212847E-002
  -8.7905942134018505E-003   7.8255324664512765E-003   2.3306765506149893E-002
  -6.6036404681293348E-003   1.2671702416269508E-002   3.0831774689428944E-002
  -4.4166867228570550E-003   1.9714683159067770E-002   3.9331261182050437E-002
  -1.9466694189661037E-002   5.0037234776164341E-003   1.0455298288722867E-003
  -1.6232876373932656E-002   4.6913295452896686E-003   6.7397327344338107E-003
  -1.2999058558204216E-002   6.2894449646214365E-003   1.3553186471565348E-002
  -9.7652407424756379E-003   9.7980697356112780E-003   2.1485891040266686E-002
  -6.5314229267473961E-003   1.5217203858258754E-002   3.0537846440538197E-002
  -2.7776785167842655E-002   5.2838220094733046E-003  -9.7109109853942277E-003
  -2.3351329759430106E-002   4.2064857809656075E-003  -4.1848611801887370E-003
  -1.8925874351017613E-002   4.7533574627909303E-003   2.6052129788142198E-003
  -1.4500418942605175E-002   6.9244370549541578E-003   1.0659311491614643E-002
  -1.0074963534192571E-002   1.0719724557450405E-002   1.9977434358214197E-002
 </DataArray>
 </PointData>
 </Piece>
 </UnstructuredGrid>
 </VTKFile>
