 <VTKFile type="UnstructuredGrid"  version="0.1"   >
 <UnstructuredGrid>
 <Piece  NumberOfPoints="          1600 "  NumberOfCells="         1024 ">
 <Points>
 <DataArray  type="Float64" NumberOfComponents="3"  format="ascii" >
   0.0000000000000000        0.0000000000000000        0.0000000000000000     
   3.1250000000000000E-002   0.0000000000000000        0.0000000000000000     
   6.2500000000000000E-002   0.0000000000000000        0.0000000000000000     
   9.3750000000000000E-002   0.0000000000000000        0.0000000000000000     
  0.12500000000000000        0.0000000000000000        0.0000000000000000     
   0.0000000000000000        3.1250000000000000E-002   0.0000000000000000     
   3.1250000000000000E-002   3.1250000000000000E-002   0.0000000000000000     
   6.2500000000000000E-002   3.1250000000000000E-002   0.0000000000000000     
   9.3750000000000000E-002   3.1250000000000000E-002   0.0000000000000000     
  0.12500000000000000        3.1250000000000000E-002   0.0000000000000000     
   0.0000000000000000        6.2500000000000000E-002   0.0000000000000000     
   3.1250000000000000E-002   6.2500000000000000E-002   0.0000000000000000     
   6.2500000000000000E-002   6.2500000000000000E-002   0.0000000000000000     
   9.3750000000000000E-002   6.2500000000000000E-002   0.0000000000000000     
  0.12500000000000000        6.2500000000000000E-002   0.0000000000000000     
   0.0000000000000000        9.3750000000000000E-002   0.0000000000000000     
   3.1250000000000000E-002   9.3750000000000000E-002   0.0000000000000000     
   6.2500000000000000E-002   9.3750000000000000E-002   0.0000000000000000     
   9.3750000000000000E-002   9.3750000000000000E-002   0.0000000000000000     
  0.12500000000000000        9.3750000000000000E-002   0.0000000000000000     
   0.0000000000000000       0.12500000000000000        0.0000000000000000     
   3.1250000000000000E-002  0.12500000000000000        0.0000000000000000     
   6.2500000000000000E-002  0.12500000000000000        0.0000000000000000     
   9.3750000000000000E-002  0.12500000000000000        0.0000000000000000     
  0.12500000000000000       0.12500000000000000        0.0000000000000000     
  0.12500000000000000        0.0000000000000000        0.0000000000000000     
  0.15625000000000000        0.0000000000000000        0.0000000000000000     
  0.18750000000000000        0.0000000000000000        0.0000000000000000     
  0.21875000000000000        0.0000000000000000        0.0000000000000000     
  0.25000000000000000        0.0000000000000000        0.0000000000000000     
  0.12500000000000000        3.1250000000000000E-002   0.0000000000000000     
  0.15625000000000000        3.1250000000000000E-002   0.0000000000000000     
  0.18750000000000000        3.1250000000000000E-002   0.0000000000000000     
  0.21875000000000000        3.1250000000000000E-002   0.0000000000000000     
  0.25000000000000000        3.1250000000000000E-002   0.0000000000000000     
  0.12500000000000000        6.2500000000000000E-002   0.0000000000000000     
  0.15625000000000000        6.2500000000000000E-002   0.0000000000000000     
  0.18750000000000000        6.2500000000000000E-002   0.0000000000000000     
  0.21875000000000000        6.2500000000000000E-002   0.0000000000000000     
  0.25000000000000000        6.2500000000000000E-002   0.0000000000000000     
  0.12500000000000000        9.3750000000000000E-002   0.0000000000000000     
  0.15625000000000000        9.3750000000000000E-002   0.0000000000000000     
  0.18750000000000000        9.3750000000000000E-002   0.0000000000000000     
  0.21875000000000000        9.3750000000000000E-002   0.0000000000000000     
  0.25000000000000000        9.3750000000000000E-002   0.0000000000000000     
  0.12500000000000000       0.12500000000000000        0.0000000000000000     
  0.15625000000000000       0.12500000000000000        0.0000000000000000     
  0.18750000000000000       0.12500000000000000        0.0000000000000000     
  0.21875000000000000       0.12500000000000000        0.0000000000000000     
  0.25000000000000000       0.12500000000000000        0.0000000000000000     
  0.25000000000000000        0.0000000000000000        0.0000000000000000     
  0.28125000000000000        0.0000000000000000        0.0000000000000000     
  0.31250000000000000        0.0000000000000000        0.0000000000000000     
  0.34375000000000000        0.0000000000000000        0.0000000000000000     
  0.37500000000000000        0.0000000000000000        0.0000000000000000     
  0.25000000000000000        3.1250000000000000E-002   0.0000000000000000     
  0.28125000000000000        3.1250000000000000E-002   0.0000000000000000     
  0.31250000000000000        3.1250000000000000E-002   0.0000000000000000     
  0.34375000000000000        3.1250000000000000E-002   0.0000000000000000     
  0.37500000000000000        3.1250000000000000E-002   0.0000000000000000     
  0.25000000000000000        6.2500000000000000E-002   0.0000000000000000     
  0.28125000000000000        6.2500000000000000E-002   0.0000000000000000     
  0.31250000000000000        6.2500000000000000E-002   0.0000000000000000     
  0.34375000000000000        6.2500000000000000E-002   0.0000000000000000     
  0.37500000000000000        6.2500000000000000E-002   0.0000000000000000     
  0.25000000000000000        9.3750000000000000E-002   0.0000000000000000     
  0.28125000000000000        9.3750000000000000E-002   0.0000000000000000     
  0.31250000000000000        9.3750000000000000E-002   0.0000000000000000     
  0.34375000000000000        9.3750000000000000E-002   0.0000000000000000     
  0.37500000000000000        9.3750000000000000E-002   0.0000000000000000     
  0.25000000000000000       0.12500000000000000        0.0000000000000000     
  0.28125000000000000       0.12500000000000000        0.0000000000000000     
  0.31250000000000000       0.12500000000000000        0.0000000000000000     
  0.34375000000000000       0.12500000000000000        0.0000000000000000     
  0.37500000000000000       0.12500000000000000        0.0000000000000000     
  0.37500000000000000        0.0000000000000000        0.0000000000000000     
  0.40625000000000000        0.0000000000000000        0.0000000000000000     
  0.43750000000000000        0.0000000000000000        0.0000000000000000     
  0.46875000000000000        0.0000000000000000        0.0000000000000000     
  0.50000000000000000        0.0000000000000000        0.0000000000000000     
  0.37500000000000000        3.1250000000000000E-002   0.0000000000000000     
  0.40625000000000000        3.1250000000000000E-002   0.0000000000000000     
  0.43750000000000000        3.1250000000000000E-002   0.0000000000000000     
  0.46875000000000000        3.1250000000000000E-002   0.0000000000000000     
  0.50000000000000000        3.1250000000000000E-002   0.0000000000000000     
  0.37500000000000000        6.2500000000000000E-002   0.0000000000000000     
  0.40625000000000000        6.2500000000000000E-002   0.0000000000000000     
  0.43750000000000000        6.2500000000000000E-002   0.0000000000000000     
  0.46875000000000000        6.2500000000000000E-002   0.0000000000000000     
  0.50000000000000000        6.2500000000000000E-002   0.0000000000000000     
  0.37500000000000000        9.3750000000000000E-002   0.0000000000000000     
  0.40625000000000000        9.3750000000000000E-002   0.0000000000000000     
  0.43750000000000000        9.3750000000000000E-002   0.0000000000000000     
  0.46875000000000000        9.3750000000000000E-002   0.0000000000000000     
  0.50000000000000000        9.3750000000000000E-002   0.0000000000000000     
  0.37500000000000000       0.12500000000000000        0.0000000000000000     
  0.40625000000000000       0.12500000000000000        0.0000000000000000     
  0.43750000000000000       0.12500000000000000        0.0000000000000000     
  0.46875000000000000       0.12500000000000000        0.0000000000000000     
  0.50000000000000000       0.12500000000000000        0.0000000000000000     
  0.50000000000000000        0.0000000000000000        0.0000000000000000     
  0.53125000000000000        0.0000000000000000        0.0000000000000000     
  0.56250000000000000        0.0000000000000000        0.0000000000000000     
  0.59375000000000000        0.0000000000000000        0.0000000000000000     
  0.62500000000000000        0.0000000000000000        0.0000000000000000     
  0.50000000000000000        3.1250000000000000E-002   0.0000000000000000     
  0.53125000000000000        3.1250000000000000E-002   0.0000000000000000     
  0.56250000000000000        3.1250000000000000E-002   0.0000000000000000     
  0.59375000000000000        3.1250000000000000E-002   0.0000000000000000     
  0.62500000000000000        3.1250000000000000E-002   0.0000000000000000     
  0.50000000000000000        6.2500000000000000E-002   0.0000000000000000     
  0.53125000000000000        6.2500000000000000E-002   0.0000000000000000     
  0.56250000000000000        6.2500000000000000E-002   0.0000000000000000     
  0.59375000000000000        6.2500000000000000E-002   0.0000000000000000     
  0.62500000000000000        6.2500000000000000E-002   0.0000000000000000     
  0.50000000000000000        9.3750000000000000E-002   0.0000000000000000     
  0.53125000000000000        9.3750000000000000E-002   0.0000000000000000     
  0.56250000000000000        9.3750000000000000E-002   0.0000000000000000     
  0.59375000000000000        9.3750000000000000E-002   0.0000000000000000     
  0.62500000000000000        9.3750000000000000E-002   0.0000000000000000     
  0.50000000000000000       0.12500000000000000        0.0000000000000000     
  0.53125000000000000       0.12500000000000000        0.0000000000000000     
  0.56250000000000000       0.12500000000000000        0.0000000000000000     
  0.59375000000000000       0.12500000000000000        0.0000000000000000     
  0.62500000000000000       0.12500000000000000        0.0000000000000000     
  0.62500000000000000        0.0000000000000000        0.0000000000000000     
  0.65625000000000000        0.0000000000000000        0.0000000000000000     
  0.68750000000000000        0.0000000000000000        0.0000000000000000     
  0.71875000000000000        0.0000000000000000        0.0000000000000000     
  0.75000000000000000        0.0000000000000000        0.0000000000000000     
  0.62500000000000000        3.1250000000000000E-002   0.0000000000000000     
  0.65625000000000000        3.1250000000000000E-002   0.0000000000000000     
  0.68750000000000000        3.1250000000000000E-002   0.0000000000000000     
  0.71875000000000000        3.1250000000000000E-002   0.0000000000000000     
  0.75000000000000000        3.1250000000000000E-002   0.0000000000000000     
  0.62500000000000000        6.2500000000000000E-002   0.0000000000000000     
  0.65625000000000000        6.2500000000000000E-002   0.0000000000000000     
  0.68750000000000000        6.2500000000000000E-002   0.0000000000000000     
  0.71875000000000000        6.2500000000000000E-002   0.0000000000000000     
  0.75000000000000000        6.2500000000000000E-002   0.0000000000000000     
  0.62500000000000000        9.3750000000000000E-002   0.0000000000000000     
  0.65625000000000000        9.3750000000000000E-002   0.0000000000000000     
  0.68750000000000000        9.3750000000000000E-002   0.0000000000000000     
  0.71875000000000000        9.3750000000000000E-002   0.0000000000000000     
  0.75000000000000000        9.3750000000000000E-002   0.0000000000000000     
  0.62500000000000000       0.12500000000000000        0.0000000000000000     
  0.65625000000000000       0.12500000000000000        0.0000000000000000     
  0.68750000000000000       0.12500000000000000        0.0000000000000000     
  0.71875000000000000       0.12500000000000000        0.0000000000000000     
  0.75000000000000000       0.12500000000000000        0.0000000000000000     
  0.75000000000000000        0.0000000000000000        0.0000000000000000     
  0.78125000000000000        0.0000000000000000        0.0000000000000000     
  0.81250000000000000        0.0000000000000000        0.0000000000000000     
  0.84375000000000000        0.0000000000000000        0.0000000000000000     
  0.87500000000000000        0.0000000000000000        0.0000000000000000     
  0.75000000000000000        3.1250000000000000E-002   0.0000000000000000     
  0.78125000000000000        3.1250000000000000E-002   0.0000000000000000     
  0.81250000000000000        3.1250000000000000E-002   0.0000000000000000     
  0.84375000000000000        3.1250000000000000E-002   0.0000000000000000     
  0.87500000000000000        3.1250000000000000E-002   0.0000000000000000     
  0.75000000000000000        6.2500000000000000E-002   0.0000000000000000     
  0.78125000000000000        6.2500000000000000E-002   0.0000000000000000     
  0.81250000000000000        6.2500000000000000E-002   0.0000000000000000     
  0.84375000000000000        6.2500000000000000E-002   0.0000000000000000     
  0.87500000000000000        6.2500000000000000E-002   0.0000000000000000     
  0.75000000000000000        9.3750000000000000E-002   0.0000000000000000     
  0.78125000000000000        9.3750000000000000E-002   0.0000000000000000     
  0.81250000000000000        9.3750000000000000E-002   0.0000000000000000     
  0.84375000000000000        9.3750000000000000E-002   0.0000000000000000     
  0.87500000000000000        9.3750000000000000E-002   0.0000000000000000     
  0.75000000000000000       0.12500000000000000        0.0000000000000000     
  0.78125000000000000       0.12500000000000000        0.0000000000000000     
  0.81250000000000000       0.12500000000000000        0.0000000000000000     
  0.84375000000000000       0.12500000000000000        0.0000000000000000     
  0.87500000000000000       0.12500000000000000        0.0000000000000000     
  0.87500000000000000        0.0000000000000000        0.0000000000000000     
  0.90625000000000000        0.0000000000000000        0.0000000000000000     
  0.93750000000000000        0.0000000000000000        0.0000000000000000     
  0.96875000000000000        0.0000000000000000        0.0000000000000000     
   1.0000000000000000        0.0000000000000000        0.0000000000000000     
  0.87500000000000000        3.1250000000000000E-002   0.0000000000000000     
  0.90625000000000000        3.1250000000000000E-002   0.0000000000000000     
  0.93750000000000000        3.1250000000000000E-002   0.0000000000000000     
  0.96875000000000000        3.1250000000000000E-002   0.0000000000000000     
   1.0000000000000000        3.1250000000000000E-002   0.0000000000000000     
  0.87500000000000000        6.2500000000000000E-002   0.0000000000000000     
  0.90625000000000000        6.2500000000000000E-002   0.0000000000000000     
  0.93750000000000000        6.2500000000000000E-002   0.0000000000000000     
  0.96875000000000000        6.2500000000000000E-002   0.0000000000000000     
   1.0000000000000000        6.2500000000000000E-002   0.0000000000000000     
  0.87500000000000000        9.3750000000000000E-002   0.0000000000000000     
  0.90625000000000000        9.3750000000000000E-002   0.0000000000000000     
  0.93750000000000000        9.3750000000000000E-002   0.0000000000000000     
  0.96875000000000000        9.3750000000000000E-002   0.0000000000000000     
   1.0000000000000000        9.3750000000000000E-002   0.0000000000000000     
  0.87500000000000000       0.12500000000000000        0.0000000000000000     
  0.90625000000000000       0.12500000000000000        0.0000000000000000     
  0.93750000000000000       0.12500000000000000        0.0000000000000000     
  0.96875000000000000       0.12500000000000000        0.0000000000000000     
   1.0000000000000000       0.12500000000000000        0.0000000000000000     
   0.0000000000000000       0.12500000000000000        0.0000000000000000     
   3.1250000000000000E-002  0.12500000000000000        0.0000000000000000     
   6.2500000000000000E-002  0.12500000000000000        0.0000000000000000     
   9.3750000000000000E-002  0.12500000000000000        0.0000000000000000     
  0.12500000000000000       0.12500000000000000        0.0000000000000000     
   0.0000000000000000       0.15625000000000000        0.0000000000000000     
   3.1250000000000000E-002  0.15625000000000000        0.0000000000000000     
   6.2500000000000000E-002  0.15625000000000000        0.0000000000000000     
   9.3750000000000000E-002  0.15625000000000000        0.0000000000000000     
  0.12500000000000000       0.15625000000000000        0.0000000000000000     
   0.0000000000000000       0.18750000000000000        0.0000000000000000     
   3.1250000000000000E-002  0.18750000000000000        0.0000000000000000     
   6.2500000000000000E-002  0.18750000000000000        0.0000000000000000     
   9.3750000000000000E-002  0.18750000000000000        0.0000000000000000     
  0.12500000000000000       0.18750000000000000        0.0000000000000000     
   0.0000000000000000       0.21875000000000000        0.0000000000000000     
   3.1250000000000000E-002  0.21875000000000000        0.0000000000000000     
   6.2500000000000000E-002  0.21875000000000000        0.0000000000000000     
   9.3750000000000000E-002  0.21875000000000000        0.0000000000000000     
  0.12500000000000000       0.21875000000000000        0.0000000000000000     
   0.0000000000000000       0.25000000000000000        0.0000000000000000     
   3.1250000000000000E-002  0.25000000000000000        0.0000000000000000     
   6.2500000000000000E-002  0.25000000000000000        0.0000000000000000     
   9.3750000000000000E-002  0.25000000000000000        0.0000000000000000     
  0.12500000000000000       0.25000000000000000        0.0000000000000000     
  0.12500000000000000       0.12500000000000000        0.0000000000000000     
  0.15625000000000000       0.12500000000000000        0.0000000000000000     
  0.18750000000000000       0.12500000000000000        0.0000000000000000     
  0.21875000000000000       0.12500000000000000        0.0000000000000000     
  0.25000000000000000       0.12500000000000000        0.0000000000000000     
  0.12500000000000000       0.15625000000000000        0.0000000000000000     
  0.15625000000000000       0.15625000000000000        0.0000000000000000     
  0.18750000000000000       0.15625000000000000        0.0000000000000000     
  0.21875000000000000       0.15625000000000000        0.0000000000000000     
  0.25000000000000000       0.15625000000000000        0.0000000000000000     
  0.12500000000000000       0.18750000000000000        0.0000000000000000     
  0.15625000000000000       0.18750000000000000        0.0000000000000000     
  0.18750000000000000       0.18750000000000000        0.0000000000000000     
  0.21875000000000000       0.18750000000000000        0.0000000000000000     
  0.25000000000000000       0.18750000000000000        0.0000000000000000     
  0.12500000000000000       0.21875000000000000        0.0000000000000000     
  0.15625000000000000       0.21875000000000000        0.0000000000000000     
  0.18750000000000000       0.21875000000000000        0.0000000000000000     
  0.21875000000000000       0.21875000000000000        0.0000000000000000     
  0.25000000000000000       0.21875000000000000        0.0000000000000000     
  0.12500000000000000       0.25000000000000000        0.0000000000000000     
  0.15625000000000000       0.25000000000000000        0.0000000000000000     
  0.18750000000000000       0.25000000000000000        0.0000000000000000     
  0.21875000000000000       0.25000000000000000        0.0000000000000000     
  0.25000000000000000       0.25000000000000000        0.0000000000000000     
  0.25000000000000000       0.12500000000000000        0.0000000000000000     
  0.28125000000000000       0.12500000000000000        0.0000000000000000     
  0.31250000000000000       0.12500000000000000        0.0000000000000000     
  0.34375000000000000       0.12500000000000000        0.0000000000000000     
  0.37500000000000000       0.12500000000000000        0.0000000000000000     
  0.25000000000000000       0.15625000000000000        0.0000000000000000     
  0.28125000000000000       0.15625000000000000        0.0000000000000000     
  0.31250000000000000       0.15625000000000000        0.0000000000000000     
  0.34375000000000000       0.15625000000000000        0.0000000000000000     
  0.37500000000000000       0.15625000000000000        0.0000000000000000     
  0.25000000000000000       0.18750000000000000        0.0000000000000000     
  0.28125000000000000       0.18750000000000000        0.0000000000000000     
  0.31250000000000000       0.18750000000000000        0.0000000000000000     
  0.34375000000000000       0.18750000000000000        0.0000000000000000     
  0.37500000000000000       0.18750000000000000        0.0000000000000000     
  0.25000000000000000       0.21875000000000000        0.0000000000000000     
  0.28125000000000000       0.21875000000000000        0.0000000000000000     
  0.31250000000000000       0.21875000000000000        0.0000000000000000     
  0.34375000000000000       0.21875000000000000        0.0000000000000000     
  0.37500000000000000       0.21875000000000000        0.0000000000000000     
  0.25000000000000000       0.25000000000000000        0.0000000000000000     
  0.28125000000000000       0.25000000000000000        0.0000000000000000     
  0.31250000000000000       0.25000000000000000        0.0000000000000000     
  0.34375000000000000       0.25000000000000000        0.0000000000000000     
  0.37500000000000000       0.25000000000000000        0.0000000000000000     
  0.37500000000000000       0.12500000000000000        0.0000000000000000     
  0.40625000000000000       0.12500000000000000        0.0000000000000000     
  0.43750000000000000       0.12500000000000000        0.0000000000000000     
  0.46875000000000000       0.12500000000000000        0.0000000000000000     
  0.50000000000000000       0.12500000000000000        0.0000000000000000     
  0.37500000000000000       0.15625000000000000        0.0000000000000000     
  0.40625000000000000       0.15625000000000000        0.0000000000000000     
  0.43750000000000000       0.15625000000000000        0.0000000000000000     
  0.46875000000000000       0.15625000000000000        0.0000000000000000     
  0.50000000000000000       0.15625000000000000        0.0000000000000000     
  0.37500000000000000       0.18750000000000000        0.0000000000000000     
  0.40625000000000000       0.18750000000000000        0.0000000000000000     
  0.43750000000000000       0.18750000000000000        0.0000000000000000     
  0.46875000000000000       0.18750000000000000        0.0000000000000000     
  0.50000000000000000       0.18750000000000000        0.0000000000000000     
  0.37500000000000000       0.21875000000000000        0.0000000000000000     
  0.40625000000000000       0.21875000000000000        0.0000000000000000     
  0.43750000000000000       0.21875000000000000        0.0000000000000000     
  0.46875000000000000       0.21875000000000000        0.0000000000000000     
  0.50000000000000000       0.21875000000000000        0.0000000000000000     
  0.37500000000000000       0.25000000000000000        0.0000000000000000     
  0.40625000000000000       0.25000000000000000        0.0000000000000000     
  0.43750000000000000       0.25000000000000000        0.0000000000000000     
  0.46875000000000000       0.25000000000000000        0.0000000000000000     
  0.50000000000000000       0.25000000000000000        0.0000000000000000     
  0.50000000000000000       0.12500000000000000        0.0000000000000000     
  0.53125000000000000       0.12500000000000000        0.0000000000000000     
  0.56250000000000000       0.12500000000000000        0.0000000000000000     
  0.59375000000000000       0.12500000000000000        0.0000000000000000     
  0.62500000000000000       0.12500000000000000        0.0000000000000000     
  0.50000000000000000       0.15625000000000000        0.0000000000000000     
  0.53125000000000000       0.15625000000000000        0.0000000000000000     
  0.56250000000000000       0.15625000000000000        0.0000000000000000     
  0.59375000000000000       0.15625000000000000        0.0000000000000000     
  0.62500000000000000       0.15625000000000000        0.0000000000000000     
  0.50000000000000000       0.18750000000000000        0.0000000000000000     
  0.53125000000000000       0.18750000000000000        0.0000000000000000     
  0.56250000000000000       0.18750000000000000        0.0000000000000000     
  0.59375000000000000       0.18750000000000000        0.0000000000000000     
  0.62500000000000000       0.18750000000000000        0.0000000000000000     
  0.50000000000000000       0.21875000000000000        0.0000000000000000     
  0.53125000000000000       0.21875000000000000        0.0000000000000000     
  0.56250000000000000       0.21875000000000000        0.0000000000000000     
  0.59375000000000000       0.21875000000000000        0.0000000000000000     
  0.62500000000000000       0.21875000000000000        0.0000000000000000     
  0.50000000000000000       0.25000000000000000        0.0000000000000000     
  0.53125000000000000       0.25000000000000000        0.0000000000000000     
  0.56250000000000000       0.25000000000000000        0.0000000000000000     
  0.59375000000000000       0.25000000000000000        0.0000000000000000     
  0.62500000000000000       0.25000000000000000        0.0000000000000000     
  0.62500000000000000       0.12500000000000000        0.0000000000000000     
  0.65625000000000000       0.12500000000000000        0.0000000000000000     
  0.68750000000000000       0.12500000000000000        0.0000000000000000     
  0.71875000000000000       0.12500000000000000        0.0000000000000000     
  0.75000000000000000       0.12500000000000000        0.0000000000000000     
  0.62500000000000000       0.15625000000000000        0.0000000000000000     
  0.65625000000000000       0.15625000000000000        0.0000000000000000     
  0.68750000000000000       0.15625000000000000        0.0000000000000000     
  0.71875000000000000       0.15625000000000000        0.0000000000000000     
  0.75000000000000000       0.15625000000000000        0.0000000000000000     
  0.62500000000000000       0.18750000000000000        0.0000000000000000     
  0.65625000000000000       0.18750000000000000        0.0000000000000000     
  0.68750000000000000       0.18750000000000000        0.0000000000000000     
  0.71875000000000000       0.18750000000000000        0.0000000000000000     
  0.75000000000000000       0.18750000000000000        0.0000000000000000     
  0.62500000000000000       0.21875000000000000        0.0000000000000000     
  0.65625000000000000       0.21875000000000000        0.0000000000000000     
  0.68750000000000000       0.21875000000000000        0.0000000000000000     
  0.71875000000000000       0.21875000000000000        0.0000000000000000     
  0.75000000000000000       0.21875000000000000        0.0000000000000000     
  0.62500000000000000       0.25000000000000000        0.0000000000000000     
  0.65625000000000000       0.25000000000000000        0.0000000000000000     
  0.68750000000000000       0.25000000000000000        0.0000000000000000     
  0.71875000000000000       0.25000000000000000        0.0000000000000000     
  0.75000000000000000       0.25000000000000000        0.0000000000000000     
  0.75000000000000000       0.12500000000000000        0.0000000000000000     
  0.78125000000000000       0.12500000000000000        0.0000000000000000     
  0.81250000000000000       0.12500000000000000        0.0000000000000000     
  0.84375000000000000       0.12500000000000000        0.0000000000000000     
  0.87500000000000000       0.12500000000000000        0.0000000000000000     
  0.75000000000000000       0.15625000000000000        0.0000000000000000     
  0.78125000000000000       0.15625000000000000        0.0000000000000000     
  0.81250000000000000       0.15625000000000000        0.0000000000000000     
  0.84375000000000000       0.15625000000000000        0.0000000000000000     
  0.87500000000000000       0.15625000000000000        0.0000000000000000     
  0.75000000000000000       0.18750000000000000        0.0000000000000000     
  0.78125000000000000       0.18750000000000000        0.0000000000000000     
  0.81250000000000000       0.18750000000000000        0.0000000000000000     
  0.84375000000000000       0.18750000000000000        0.0000000000000000     
  0.87500000000000000       0.18750000000000000        0.0000000000000000     
  0.75000000000000000       0.21875000000000000        0.0000000000000000     
  0.78125000000000000       0.21875000000000000        0.0000000000000000     
  0.81250000000000000       0.21875000000000000        0.0000000000000000     
  0.84375000000000000       0.21875000000000000        0.0000000000000000     
  0.87500000000000000       0.21875000000000000        0.0000000000000000     
  0.75000000000000000       0.25000000000000000        0.0000000000000000     
  0.78125000000000000       0.25000000000000000        0.0000000000000000     
  0.81250000000000000       0.25000000000000000        0.0000000000000000     
  0.84375000000000000       0.25000000000000000        0.0000000000000000     
  0.87500000000000000       0.25000000000000000        0.0000000000000000     
  0.87500000000000000       0.12500000000000000        0.0000000000000000     
  0.90625000000000000       0.12500000000000000        0.0000000000000000     
  0.93750000000000000       0.12500000000000000        0.0000000000000000     
  0.96875000000000000       0.12500000000000000        0.0000000000000000     
   1.0000000000000000       0.12500000000000000        0.0000000000000000     
  0.87500000000000000       0.15625000000000000        0.0000000000000000     
  0.90625000000000000       0.15625000000000000        0.0000000000000000     
  0.93750000000000000       0.15625000000000000        0.0000000000000000     
  0.96875000000000000       0.15625000000000000        0.0000000000000000     
   1.0000000000000000       0.15625000000000000        0.0000000000000000     
  0.87500000000000000       0.18750000000000000        0.0000000000000000     
  0.90625000000000000       0.18750000000000000        0.0000000000000000     
  0.93750000000000000       0.18750000000000000        0.0000000000000000     
  0.96875000000000000       0.18750000000000000        0.0000000000000000     
   1.0000000000000000       0.18750000000000000        0.0000000000000000     
  0.87500000000000000       0.21875000000000000        0.0000000000000000     
  0.90625000000000000       0.21875000000000000        0.0000000000000000     
  0.93750000000000000       0.21875000000000000        0.0000000000000000     
  0.96875000000000000       0.21875000000000000        0.0000000000000000     
   1.0000000000000000       0.21875000000000000        0.0000000000000000     
  0.87500000000000000       0.25000000000000000        0.0000000000000000     
  0.90625000000000000       0.25000000000000000        0.0000000000000000     
  0.93750000000000000       0.25000000000000000        0.0000000000000000     
  0.96875000000000000       0.25000000000000000        0.0000000000000000     
   1.0000000000000000       0.25000000000000000        0.0000000000000000     
   0.0000000000000000       0.25000000000000000        0.0000000000000000     
   3.1250000000000000E-002  0.25000000000000000        0.0000000000000000     
   6.2500000000000000E-002  0.25000000000000000        0.0000000000000000     
   9.3750000000000000E-002  0.25000000000000000        0.0000000000000000     
  0.12500000000000000       0.25000000000000000        0.0000000000000000     
   0.0000000000000000       0.28125000000000000        0.0000000000000000     
   3.1250000000000000E-002  0.28125000000000000        0.0000000000000000     
   6.2500000000000000E-002  0.28125000000000000        0.0000000000000000     
   9.3750000000000000E-002  0.28125000000000000        0.0000000000000000     
  0.12500000000000000       0.28125000000000000        0.0000000000000000     
   0.0000000000000000       0.31250000000000000        0.0000000000000000     
   3.1250000000000000E-002  0.31250000000000000        0.0000000000000000     
   6.2500000000000000E-002  0.31250000000000000        0.0000000000000000     
   9.3750000000000000E-002  0.31250000000000000        0.0000000000000000     
  0.12500000000000000       0.31250000000000000        0.0000000000000000     
   0.0000000000000000       0.34375000000000000        0.0000000000000000     
   3.1250000000000000E-002  0.34375000000000000        0.0000000000000000     
   6.2500000000000000E-002  0.34375000000000000        0.0000000000000000     
   9.3750000000000000E-002  0.34375000000000000        0.0000000000000000     
  0.12500000000000000       0.34375000000000000        0.0000000000000000     
   0.0000000000000000       0.37500000000000000        0.0000000000000000     
   3.1250000000000000E-002  0.37500000000000000        0.0000000000000000     
   6.2500000000000000E-002  0.37500000000000000        0.0000000000000000     
   9.3750000000000000E-002  0.37500000000000000        0.0000000000000000     
  0.12500000000000000       0.37500000000000000        0.0000000000000000     
  0.12500000000000000       0.25000000000000000        0.0000000000000000     
  0.15625000000000000       0.25000000000000000        0.0000000000000000     
  0.18750000000000000       0.25000000000000000        0.0000000000000000     
  0.21875000000000000       0.25000000000000000        0.0000000000000000     
  0.25000000000000000       0.25000000000000000        0.0000000000000000     
  0.12500000000000000       0.28125000000000000        0.0000000000000000     
  0.15625000000000000       0.28125000000000000        0.0000000000000000     
  0.18750000000000000       0.28125000000000000        0.0000000000000000     
  0.21875000000000000       0.28125000000000000        0.0000000000000000     
  0.25000000000000000       0.28125000000000000        0.0000000000000000     
  0.12500000000000000       0.31250000000000000        0.0000000000000000     
  0.15625000000000000       0.31250000000000000        0.0000000000000000     
  0.18750000000000000       0.31250000000000000        0.0000000000000000     
  0.21875000000000000       0.31250000000000000        0.0000000000000000     
  0.25000000000000000       0.31250000000000000        0.0000000000000000     
  0.12500000000000000       0.34375000000000000        0.0000000000000000     
  0.15625000000000000       0.34375000000000000        0.0000000000000000     
  0.18750000000000000       0.34375000000000000        0.0000000000000000     
  0.21875000000000000       0.34375000000000000        0.0000000000000000     
  0.25000000000000000       0.34375000000000000        0.0000000000000000     
  0.12500000000000000       0.37500000000000000        0.0000000000000000     
  0.15625000000000000       0.37500000000000000        0.0000000000000000     
  0.18750000000000000       0.37500000000000000        0.0000000000000000     
  0.21875000000000000       0.37500000000000000        0.0000000000000000     
  0.25000000000000000       0.37500000000000000        0.0000000000000000     
  0.25000000000000000       0.25000000000000000        0.0000000000000000     
  0.28125000000000000       0.25000000000000000        0.0000000000000000     
  0.31250000000000000       0.25000000000000000        0.0000000000000000     
  0.34375000000000000       0.25000000000000000        0.0000000000000000     
  0.37500000000000000       0.25000000000000000        0.0000000000000000     
  0.25000000000000000       0.28125000000000000        0.0000000000000000     
  0.28125000000000000       0.28125000000000000        0.0000000000000000     
  0.31250000000000000       0.28125000000000000        0.0000000000000000     
  0.34375000000000000       0.28125000000000000        0.0000000000000000     
  0.37500000000000000       0.28125000000000000        0.0000000000000000     
  0.25000000000000000       0.31250000000000000        0.0000000000000000     
  0.28125000000000000       0.31250000000000000        0.0000000000000000     
  0.31250000000000000       0.31250000000000000        0.0000000000000000     
  0.34375000000000000       0.31250000000000000        0.0000000000000000     
  0.37500000000000000       0.31250000000000000        0.0000000000000000     
  0.25000000000000000       0.34375000000000000        0.0000000000000000     
  0.28125000000000000       0.34375000000000000        0.0000000000000000     
  0.31250000000000000       0.34375000000000000        0.0000000000000000     
  0.34375000000000000       0.34375000000000000        0.0000000000000000     
  0.37500000000000000       0.34375000000000000        0.0000000000000000     
  0.25000000000000000       0.37500000000000000        0.0000000000000000     
  0.28125000000000000       0.37500000000000000        0.0000000000000000     
  0.31250000000000000       0.37500000000000000        0.0000000000000000     
  0.34375000000000000       0.37500000000000000        0.0000000000000000     
  0.37500000000000000       0.37500000000000000        0.0000000000000000     
  0.37500000000000000       0.25000000000000000        0.0000000000000000     
  0.40625000000000000       0.25000000000000000        0.0000000000000000     
  0.43750000000000000       0.25000000000000000        0.0000000000000000     
  0.46875000000000000       0.25000000000000000        0.0000000000000000     
  0.50000000000000000       0.25000000000000000        0.0000000000000000     
  0.37500000000000000       0.28125000000000000        0.0000000000000000     
  0.40625000000000000       0.28125000000000000        0.0000000000000000     
  0.43750000000000000       0.28125000000000000        0.0000000000000000     
  0.46875000000000000       0.28125000000000000        0.0000000000000000     
  0.50000000000000000       0.28125000000000000        0.0000000000000000     
  0.37500000000000000       0.31250000000000000        0.0000000000000000     
  0.40625000000000000       0.31250000000000000        0.0000000000000000     
  0.43750000000000000       0.31250000000000000        0.0000000000000000     
  0.46875000000000000       0.31250000000000000        0.0000000000000000     
  0.50000000000000000       0.31250000000000000        0.0000000000000000     
  0.37500000000000000       0.34375000000000000        0.0000000000000000     
  0.40625000000000000       0.34375000000000000        0.0000000000000000     
  0.43750000000000000       0.34375000000000000        0.0000000000000000     
  0.46875000000000000       0.34375000000000000        0.0000000000000000     
  0.50000000000000000       0.34375000000000000        0.0000000000000000     
  0.37500000000000000       0.37500000000000000        0.0000000000000000     
  0.40625000000000000       0.37500000000000000        0.0000000000000000     
  0.43750000000000000       0.37500000000000000        0.0000000000000000     
  0.46875000000000000       0.37500000000000000        0.0000000000000000     
  0.50000000000000000       0.37500000000000000        0.0000000000000000     
  0.50000000000000000       0.25000000000000000        0.0000000000000000     
  0.53125000000000000       0.25000000000000000        0.0000000000000000     
  0.56250000000000000       0.25000000000000000        0.0000000000000000     
  0.59375000000000000       0.25000000000000000        0.0000000000000000     
  0.62500000000000000       0.25000000000000000        0.0000000000000000     
  0.50000000000000000       0.28125000000000000        0.0000000000000000     
  0.53125000000000000       0.28125000000000000        0.0000000000000000     
  0.56250000000000000       0.28125000000000000        0.0000000000000000     
  0.59375000000000000       0.28125000000000000        0.0000000000000000     
  0.62500000000000000       0.28125000000000000        0.0000000000000000     
  0.50000000000000000       0.31250000000000000        0.0000000000000000     
  0.53125000000000000       0.31250000000000000        0.0000000000000000     
  0.56250000000000000       0.31250000000000000        0.0000000000000000     
  0.59375000000000000       0.31250000000000000        0.0000000000000000     
  0.62500000000000000       0.31250000000000000        0.0000000000000000     
  0.50000000000000000       0.34375000000000000        0.0000000000000000     
  0.53125000000000000       0.34375000000000000        0.0000000000000000     
  0.56250000000000000       0.34375000000000000        0.0000000000000000     
  0.59375000000000000       0.34375000000000000        0.0000000000000000     
  0.62500000000000000       0.34375000000000000        0.0000000000000000     
  0.50000000000000000       0.37500000000000000        0.0000000000000000     
  0.53125000000000000       0.37500000000000000        0.0000000000000000     
  0.56250000000000000       0.37500000000000000        0.0000000000000000     
  0.59375000000000000       0.37500000000000000        0.0000000000000000     
  0.62500000000000000       0.37500000000000000        0.0000000000000000     
  0.62500000000000000       0.25000000000000000        0.0000000000000000     
  0.65625000000000000       0.25000000000000000        0.0000000000000000     
  0.68750000000000000       0.25000000000000000        0.0000000000000000     
  0.71875000000000000       0.25000000000000000        0.0000000000000000     
  0.75000000000000000       0.25000000000000000        0.0000000000000000     
  0.62500000000000000       0.28125000000000000        0.0000000000000000     
  0.65625000000000000       0.28125000000000000        0.0000000000000000     
  0.68750000000000000       0.28125000000000000        0.0000000000000000     
  0.71875000000000000       0.28125000000000000        0.0000000000000000     
  0.75000000000000000       0.28125000000000000        0.0000000000000000     
  0.62500000000000000       0.31250000000000000        0.0000000000000000     
  0.65625000000000000       0.31250000000000000        0.0000000000000000     
  0.68750000000000000       0.31250000000000000        0.0000000000000000     
  0.71875000000000000       0.31250000000000000        0.0000000000000000     
  0.75000000000000000       0.31250000000000000        0.0000000000000000     
  0.62500000000000000       0.34375000000000000        0.0000000000000000     
  0.65625000000000000       0.34375000000000000        0.0000000000000000     
  0.68750000000000000       0.34375000000000000        0.0000000000000000     
  0.71875000000000000       0.34375000000000000        0.0000000000000000     
  0.75000000000000000       0.34375000000000000        0.0000000000000000     
  0.62500000000000000       0.37500000000000000        0.0000000000000000     
  0.65625000000000000       0.37500000000000000        0.0000000000000000     
  0.68750000000000000       0.37500000000000000        0.0000000000000000     
  0.71875000000000000       0.37500000000000000        0.0000000000000000     
  0.75000000000000000       0.37500000000000000        0.0000000000000000     
  0.75000000000000000       0.25000000000000000        0.0000000000000000     
  0.78125000000000000       0.25000000000000000        0.0000000000000000     
  0.81250000000000000       0.25000000000000000        0.0000000000000000     
  0.84375000000000000       0.25000000000000000        0.0000000000000000     
  0.87500000000000000       0.25000000000000000        0.0000000000000000     
  0.75000000000000000       0.28125000000000000        0.0000000000000000     
  0.78125000000000000       0.28125000000000000        0.0000000000000000     
  0.81250000000000000       0.28125000000000000        0.0000000000000000     
  0.84375000000000000       0.28125000000000000        0.0000000000000000     
  0.87500000000000000       0.28125000000000000        0.0000000000000000     
  0.75000000000000000       0.31250000000000000        0.0000000000000000     
  0.78125000000000000       0.31250000000000000        0.0000000000000000     
  0.81250000000000000       0.31250000000000000        0.0000000000000000     
  0.84375000000000000       0.31250000000000000        0.0000000000000000     
  0.87500000000000000       0.31250000000000000        0.0000000000000000     
  0.75000000000000000       0.34375000000000000        0.0000000000000000     
  0.78125000000000000       0.34375000000000000        0.0000000000000000     
  0.81250000000000000       0.34375000000000000        0.0000000000000000     
  0.84375000000000000       0.34375000000000000        0.0000000000000000     
  0.87500000000000000       0.34375000000000000        0.0000000000000000     
  0.75000000000000000       0.37500000000000000        0.0000000000000000     
  0.78125000000000000       0.37500000000000000        0.0000000000000000     
  0.81250000000000000       0.37500000000000000        0.0000000000000000     
  0.84375000000000000       0.37500000000000000        0.0000000000000000     
  0.87500000000000000       0.37500000000000000        0.0000000000000000     
  0.87500000000000000       0.25000000000000000        0.0000000000000000     
  0.90625000000000000       0.25000000000000000        0.0000000000000000     
  0.93750000000000000       0.25000000000000000        0.0000000000000000     
  0.96875000000000000       0.25000000000000000        0.0000000000000000     
   1.0000000000000000       0.25000000000000000        0.0000000000000000     
  0.87500000000000000       0.28125000000000000        0.0000000000000000     
  0.90625000000000000       0.28125000000000000        0.0000000000000000     
  0.93750000000000000       0.28125000000000000        0.0000000000000000     
  0.96875000000000000       0.28125000000000000        0.0000000000000000     
   1.0000000000000000       0.28125000000000000        0.0000000000000000     
  0.87500000000000000       0.31250000000000000        0.0000000000000000     
  0.90625000000000000       0.31250000000000000        0.0000000000000000     
  0.93750000000000000       0.31250000000000000        0.0000000000000000     
  0.96875000000000000       0.31250000000000000        0.0000000000000000     
   1.0000000000000000       0.31250000000000000        0.0000000000000000     
  0.87500000000000000       0.34375000000000000        0.0000000000000000     
  0.90625000000000000       0.34375000000000000        0.0000000000000000     
  0.93750000000000000       0.34375000000000000        0.0000000000000000     
  0.96875000000000000       0.34375000000000000        0.0000000000000000     
   1.0000000000000000       0.34375000000000000        0.0000000000000000     
  0.87500000000000000       0.37500000000000000        0.0000000000000000     
  0.90625000000000000       0.37500000000000000        0.0000000000000000     
  0.93750000000000000       0.37500000000000000        0.0000000000000000     
  0.96875000000000000       0.37500000000000000        0.0000000000000000     
   1.0000000000000000       0.37500000000000000        0.0000000000000000     
   0.0000000000000000       0.37500000000000000        0.0000000000000000     
   3.1250000000000000E-002  0.37500000000000000        0.0000000000000000     
   6.2500000000000000E-002  0.37500000000000000        0.0000000000000000     
   9.3750000000000000E-002  0.37500000000000000        0.0000000000000000     
  0.12500000000000000       0.37500000000000000        0.0000000000000000     
   0.0000000000000000       0.40625000000000000        0.0000000000000000     
   3.1250000000000000E-002  0.40625000000000000        0.0000000000000000     
   6.2500000000000000E-002  0.40625000000000000        0.0000000000000000     
   9.3750000000000000E-002  0.40625000000000000        0.0000000000000000     
  0.12500000000000000       0.40625000000000000        0.0000000000000000     
   0.0000000000000000       0.43750000000000000        0.0000000000000000     
   3.1250000000000000E-002  0.43750000000000000        0.0000000000000000     
   6.2500000000000000E-002  0.43750000000000000        0.0000000000000000     
   9.3750000000000000E-002  0.43750000000000000        0.0000000000000000     
  0.12500000000000000       0.43750000000000000        0.0000000000000000     
   0.0000000000000000       0.46875000000000000        0.0000000000000000     
   3.1250000000000000E-002  0.46875000000000000        0.0000000000000000     
   6.2500000000000000E-002  0.46875000000000000        0.0000000000000000     
   9.3750000000000000E-002  0.46875000000000000        0.0000000000000000     
  0.12500000000000000       0.46875000000000000        0.0000000000000000     
   0.0000000000000000       0.50000000000000000        0.0000000000000000     
   3.1250000000000000E-002  0.50000000000000000        0.0000000000000000     
   6.2500000000000000E-002  0.50000000000000000        0.0000000000000000     
   9.3750000000000000E-002  0.50000000000000000        0.0000000000000000     
  0.12500000000000000       0.50000000000000000        0.0000000000000000     
  0.12500000000000000       0.37500000000000000        0.0000000000000000     
  0.15625000000000000       0.37500000000000000        0.0000000000000000     
  0.18750000000000000       0.37500000000000000        0.0000000000000000     
  0.21875000000000000       0.37500000000000000        0.0000000000000000     
  0.25000000000000000       0.37500000000000000        0.0000000000000000     
  0.12500000000000000       0.40625000000000000        0.0000000000000000     
  0.15625000000000000       0.40625000000000000        0.0000000000000000     
  0.18750000000000000       0.40625000000000000        0.0000000000000000     
  0.21875000000000000       0.40625000000000000        0.0000000000000000     
  0.25000000000000000       0.40625000000000000        0.0000000000000000     
  0.12500000000000000       0.43750000000000000        0.0000000000000000     
  0.15625000000000000       0.43750000000000000        0.0000000000000000     
  0.18750000000000000       0.43750000000000000        0.0000000000000000     
  0.21875000000000000       0.43750000000000000        0.0000000000000000     
  0.25000000000000000       0.43750000000000000        0.0000000000000000     
  0.12500000000000000       0.46875000000000000        0.0000000000000000     
  0.15625000000000000       0.46875000000000000        0.0000000000000000     
  0.18750000000000000       0.46875000000000000        0.0000000000000000     
  0.21875000000000000       0.46875000000000000        0.0000000000000000     
  0.25000000000000000       0.46875000000000000        0.0000000000000000     
  0.12500000000000000       0.50000000000000000        0.0000000000000000     
  0.15625000000000000       0.50000000000000000        0.0000000000000000     
  0.18750000000000000       0.50000000000000000        0.0000000000000000     
  0.21875000000000000       0.50000000000000000        0.0000000000000000     
  0.25000000000000000       0.50000000000000000        0.0000000000000000     
  0.25000000000000000       0.37500000000000000        0.0000000000000000     
  0.28125000000000000       0.37500000000000000        0.0000000000000000     
  0.31250000000000000       0.37500000000000000        0.0000000000000000     
  0.34375000000000000       0.37500000000000000        0.0000000000000000     
  0.37500000000000000       0.37500000000000000        0.0000000000000000     
  0.25000000000000000       0.40625000000000000        0.0000000000000000     
  0.28125000000000000       0.40625000000000000        0.0000000000000000     
  0.31250000000000000       0.40625000000000000        0.0000000000000000     
  0.34375000000000000       0.40625000000000000        0.0000000000000000     
  0.37500000000000000       0.40625000000000000        0.0000000000000000     
  0.25000000000000000       0.43750000000000000        0.0000000000000000     
  0.28125000000000000       0.43750000000000000        0.0000000000000000     
  0.31250000000000000       0.43750000000000000        0.0000000000000000     
  0.34375000000000000       0.43750000000000000        0.0000000000000000     
  0.37500000000000000       0.43750000000000000        0.0000000000000000     
  0.25000000000000000       0.46875000000000000        0.0000000000000000     
  0.28125000000000000       0.46875000000000000        0.0000000000000000     
  0.31250000000000000       0.46875000000000000        0.0000000000000000     
  0.34375000000000000       0.46875000000000000        0.0000000000000000     
  0.37500000000000000       0.46875000000000000        0.0000000000000000     
  0.25000000000000000       0.50000000000000000        0.0000000000000000     
  0.28125000000000000       0.50000000000000000        0.0000000000000000     
  0.31250000000000000       0.50000000000000000        0.0000000000000000     
  0.34375000000000000       0.50000000000000000        0.0000000000000000     
  0.37500000000000000       0.50000000000000000        0.0000000000000000     
  0.37500000000000000       0.37500000000000000        0.0000000000000000     
  0.40625000000000000       0.37500000000000000        0.0000000000000000     
  0.43750000000000000       0.37500000000000000        0.0000000000000000     
  0.46875000000000000       0.37500000000000000        0.0000000000000000     
  0.50000000000000000       0.37500000000000000        0.0000000000000000     
  0.37500000000000000       0.40625000000000000        0.0000000000000000     
  0.40625000000000000       0.40625000000000000        0.0000000000000000     
  0.43750000000000000       0.40625000000000000        0.0000000000000000     
  0.46875000000000000       0.40625000000000000        0.0000000000000000     
  0.50000000000000000       0.40625000000000000        0.0000000000000000     
  0.37500000000000000       0.43750000000000000        0.0000000000000000     
  0.40625000000000000       0.43750000000000000        0.0000000000000000     
  0.43750000000000000       0.43750000000000000        0.0000000000000000     
  0.46875000000000000       0.43750000000000000        0.0000000000000000     
  0.50000000000000000       0.43750000000000000        0.0000000000000000     
  0.37500000000000000       0.46875000000000000        0.0000000000000000     
  0.40625000000000000       0.46875000000000000        0.0000000000000000     
  0.43750000000000000       0.46875000000000000        0.0000000000000000     
  0.46875000000000000       0.46875000000000000        0.0000000000000000     
  0.50000000000000000       0.46875000000000000        0.0000000000000000     
  0.37500000000000000       0.50000000000000000        0.0000000000000000     
  0.40625000000000000       0.50000000000000000        0.0000000000000000     
  0.43750000000000000       0.50000000000000000        0.0000000000000000     
  0.46875000000000000       0.50000000000000000        0.0000000000000000     
  0.50000000000000000       0.50000000000000000        0.0000000000000000     
  0.50000000000000000       0.37500000000000000        0.0000000000000000     
  0.53125000000000000       0.37500000000000000        0.0000000000000000     
  0.56250000000000000       0.37500000000000000        0.0000000000000000     
  0.59375000000000000       0.37500000000000000        0.0000000000000000     
  0.62500000000000000       0.37500000000000000        0.0000000000000000     
  0.50000000000000000       0.40625000000000000        0.0000000000000000     
  0.53125000000000000       0.40625000000000000        0.0000000000000000     
  0.56250000000000000       0.40625000000000000        0.0000000000000000     
  0.59375000000000000       0.40625000000000000        0.0000000000000000     
  0.62500000000000000       0.40625000000000000        0.0000000000000000     
  0.50000000000000000       0.43750000000000000        0.0000000000000000     
  0.53125000000000000       0.43750000000000000        0.0000000000000000     
  0.56250000000000000       0.43750000000000000        0.0000000000000000     
  0.59375000000000000       0.43750000000000000        0.0000000000000000     
  0.62500000000000000       0.43750000000000000        0.0000000000000000     
  0.50000000000000000       0.46875000000000000        0.0000000000000000     
  0.53125000000000000       0.46875000000000000        0.0000000000000000     
  0.56250000000000000       0.46875000000000000        0.0000000000000000     
  0.59375000000000000       0.46875000000000000        0.0000000000000000     
  0.62500000000000000       0.46875000000000000        0.0000000000000000     
  0.50000000000000000       0.50000000000000000        0.0000000000000000     
  0.53125000000000000       0.50000000000000000        0.0000000000000000     
  0.56250000000000000       0.50000000000000000        0.0000000000000000     
  0.59375000000000000       0.50000000000000000        0.0000000000000000     
  0.62500000000000000       0.50000000000000000        0.0000000000000000     
  0.62500000000000000       0.37500000000000000        0.0000000000000000     
  0.65625000000000000       0.37500000000000000        0.0000000000000000     
  0.68750000000000000       0.37500000000000000        0.0000000000000000     
  0.71875000000000000       0.37500000000000000        0.0000000000000000     
  0.75000000000000000       0.37500000000000000        0.0000000000000000     
  0.62500000000000000       0.40625000000000000        0.0000000000000000     
  0.65625000000000000       0.40625000000000000        0.0000000000000000     
  0.68750000000000000       0.40625000000000000        0.0000000000000000     
  0.71875000000000000       0.40625000000000000        0.0000000000000000     
  0.75000000000000000       0.40625000000000000        0.0000000000000000     
  0.62500000000000000       0.43750000000000000        0.0000000000000000     
  0.65625000000000000       0.43750000000000000        0.0000000000000000     
  0.68750000000000000       0.43750000000000000        0.0000000000000000     
  0.71875000000000000       0.43750000000000000        0.0000000000000000     
  0.75000000000000000       0.43750000000000000        0.0000000000000000     
  0.62500000000000000       0.46875000000000000        0.0000000000000000     
  0.65625000000000000       0.46875000000000000        0.0000000000000000     
  0.68750000000000000       0.46875000000000000        0.0000000000000000     
  0.71875000000000000       0.46875000000000000        0.0000000000000000     
  0.75000000000000000       0.46875000000000000        0.0000000000000000     
  0.62500000000000000       0.50000000000000000        0.0000000000000000     
  0.65625000000000000       0.50000000000000000        0.0000000000000000     
  0.68750000000000000       0.50000000000000000        0.0000000000000000     
  0.71875000000000000       0.50000000000000000        0.0000000000000000     
  0.75000000000000000       0.50000000000000000        0.0000000000000000     
  0.75000000000000000       0.37500000000000000        0.0000000000000000     
  0.78125000000000000       0.37500000000000000        0.0000000000000000     
  0.81250000000000000       0.37500000000000000        0.0000000000000000     
  0.84375000000000000       0.37500000000000000        0.0000000000000000     
  0.87500000000000000       0.37500000000000000        0.0000000000000000     
  0.75000000000000000       0.40625000000000000        0.0000000000000000     
  0.78125000000000000       0.40625000000000000        0.0000000000000000     
  0.81250000000000000       0.40625000000000000        0.0000000000000000     
  0.84375000000000000       0.40625000000000000        0.0000000000000000     
  0.87500000000000000       0.40625000000000000        0.0000000000000000     
  0.75000000000000000       0.43750000000000000        0.0000000000000000     
  0.78125000000000000       0.43750000000000000        0.0000000000000000     
  0.81250000000000000       0.43750000000000000        0.0000000000000000     
  0.84375000000000000       0.43750000000000000        0.0000000000000000     
  0.87500000000000000       0.43750000000000000        0.0000000000000000     
  0.75000000000000000       0.46875000000000000        0.0000000000000000     
  0.78125000000000000       0.46875000000000000        0.0000000000000000     
  0.81250000000000000       0.46875000000000000        0.0000000000000000     
  0.84375000000000000       0.46875000000000000        0.0000000000000000     
  0.87500000000000000       0.46875000000000000        0.0000000000000000     
  0.75000000000000000       0.50000000000000000        0.0000000000000000     
  0.78125000000000000       0.50000000000000000        0.0000000000000000     
  0.81250000000000000       0.50000000000000000        0.0000000000000000     
  0.84375000000000000       0.50000000000000000        0.0000000000000000     
  0.87500000000000000       0.50000000000000000        0.0000000000000000     
  0.87500000000000000       0.37500000000000000        0.0000000000000000     
  0.90625000000000000       0.37500000000000000        0.0000000000000000     
  0.93750000000000000       0.37500000000000000        0.0000000000000000     
  0.96875000000000000       0.37500000000000000        0.0000000000000000     
   1.0000000000000000       0.37500000000000000        0.0000000000000000     
  0.87500000000000000       0.40625000000000000        0.0000000000000000     
  0.90625000000000000       0.40625000000000000        0.0000000000000000     
  0.93750000000000000       0.40625000000000000        0.0000000000000000     
  0.96875000000000000       0.40625000000000000        0.0000000000000000     
   1.0000000000000000       0.40625000000000000        0.0000000000000000     
  0.87500000000000000       0.43750000000000000        0.0000000000000000     
  0.90625000000000000       0.43750000000000000        0.0000000000000000     
  0.93750000000000000       0.43750000000000000        0.0000000000000000     
  0.96875000000000000       0.43750000000000000        0.0000000000000000     
   1.0000000000000000       0.43750000000000000        0.0000000000000000     
  0.87500000000000000       0.46875000000000000        0.0000000000000000     
  0.90625000000000000       0.46875000000000000        0.0000000000000000     
  0.93750000000000000       0.46875000000000000        0.0000000000000000     
  0.96875000000000000       0.46875000000000000        0.0000000000000000     
   1.0000000000000000       0.46875000000000000        0.0000000000000000     
  0.87500000000000000       0.50000000000000000        0.0000000000000000     
  0.90625000000000000       0.50000000000000000        0.0000000000000000     
  0.93750000000000000       0.50000000000000000        0.0000000000000000     
  0.96875000000000000       0.50000000000000000        0.0000000000000000     
   1.0000000000000000       0.50000000000000000        0.0000000000000000     
   0.0000000000000000       0.50000000000000000        0.0000000000000000     
   3.1250000000000000E-002  0.50000000000000000        0.0000000000000000     
   6.2500000000000000E-002  0.50000000000000000        0.0000000000000000     
   9.3750000000000000E-002  0.50000000000000000        0.0000000000000000     
  0.12500000000000000       0.50000000000000000        0.0000000000000000     
   0.0000000000000000       0.53125000000000000        0.0000000000000000     
   3.1250000000000000E-002  0.53125000000000000        0.0000000000000000     
   6.2500000000000000E-002  0.53125000000000000        0.0000000000000000     
   9.3750000000000000E-002  0.53125000000000000        0.0000000000000000     
  0.12500000000000000       0.53125000000000000        0.0000000000000000     
   0.0000000000000000       0.56250000000000000        0.0000000000000000     
   3.1250000000000000E-002  0.56250000000000000        0.0000000000000000     
   6.2500000000000000E-002  0.56250000000000000        0.0000000000000000     
   9.3750000000000000E-002  0.56250000000000000        0.0000000000000000     
  0.12500000000000000       0.56250000000000000        0.0000000000000000     
   0.0000000000000000       0.59375000000000000        0.0000000000000000     
   3.1250000000000000E-002  0.59375000000000000        0.0000000000000000     
   6.2500000000000000E-002  0.59375000000000000        0.0000000000000000     
   9.3750000000000000E-002  0.59375000000000000        0.0000000000000000     
  0.12500000000000000       0.59375000000000000        0.0000000000000000     
   0.0000000000000000       0.62500000000000000        0.0000000000000000     
   3.1250000000000000E-002  0.62500000000000000        0.0000000000000000     
   6.2500000000000000E-002  0.62500000000000000        0.0000000000000000     
   9.3750000000000000E-002  0.62500000000000000        0.0000000000000000     
  0.12500000000000000       0.62500000000000000        0.0000000000000000     
  0.12500000000000000       0.50000000000000000        0.0000000000000000     
  0.15625000000000000       0.50000000000000000        0.0000000000000000     
  0.18750000000000000       0.50000000000000000        0.0000000000000000     
  0.21875000000000000       0.50000000000000000        0.0000000000000000     
  0.25000000000000000       0.50000000000000000        0.0000000000000000     
  0.12500000000000000       0.53125000000000000        0.0000000000000000     
  0.15625000000000000       0.53125000000000000        0.0000000000000000     
  0.18750000000000000       0.53125000000000000        0.0000000000000000     
  0.21875000000000000       0.53125000000000000        0.0000000000000000     
  0.25000000000000000       0.53125000000000000        0.0000000000000000     
  0.12500000000000000       0.56250000000000000        0.0000000000000000     
  0.15625000000000000       0.56250000000000000        0.0000000000000000     
  0.18750000000000000       0.56250000000000000        0.0000000000000000     
  0.21875000000000000       0.56250000000000000        0.0000000000000000     
  0.25000000000000000       0.56250000000000000        0.0000000000000000     
  0.12500000000000000       0.59375000000000000        0.0000000000000000     
  0.15625000000000000       0.59375000000000000        0.0000000000000000     
  0.18750000000000000       0.59375000000000000        0.0000000000000000     
  0.21875000000000000       0.59375000000000000        0.0000000000000000     
  0.25000000000000000       0.59375000000000000        0.0000000000000000     
  0.12500000000000000       0.62500000000000000        0.0000000000000000     
  0.15625000000000000       0.62500000000000000        0.0000000000000000     
  0.18750000000000000       0.62500000000000000        0.0000000000000000     
  0.21875000000000000       0.62500000000000000        0.0000000000000000     
  0.25000000000000000       0.62500000000000000        0.0000000000000000     
  0.25000000000000000       0.50000000000000000        0.0000000000000000     
  0.28125000000000000       0.50000000000000000        0.0000000000000000     
  0.31250000000000000       0.50000000000000000        0.0000000000000000     
  0.34375000000000000       0.50000000000000000        0.0000000000000000     
  0.37500000000000000       0.50000000000000000        0.0000000000000000     
  0.25000000000000000       0.53125000000000000        0.0000000000000000     
  0.28125000000000000       0.53125000000000000        0.0000000000000000     
  0.31250000000000000       0.53125000000000000        0.0000000000000000     
  0.34375000000000000       0.53125000000000000        0.0000000000000000     
  0.37500000000000000       0.53125000000000000        0.0000000000000000     
  0.25000000000000000       0.56250000000000000        0.0000000000000000     
  0.28125000000000000       0.56250000000000000        0.0000000000000000     
  0.31250000000000000       0.56250000000000000        0.0000000000000000     
  0.34375000000000000       0.56250000000000000        0.0000000000000000     
  0.37500000000000000       0.56250000000000000        0.0000000000000000     
  0.25000000000000000       0.59375000000000000        0.0000000000000000     
  0.28125000000000000       0.59375000000000000        0.0000000000000000     
  0.31250000000000000       0.59375000000000000        0.0000000000000000     
  0.34375000000000000       0.59375000000000000        0.0000000000000000     
  0.37500000000000000       0.59375000000000000        0.0000000000000000     
  0.25000000000000000       0.62500000000000000        0.0000000000000000     
  0.28125000000000000       0.62500000000000000        0.0000000000000000     
  0.31250000000000000       0.62500000000000000        0.0000000000000000     
  0.34375000000000000       0.62500000000000000        0.0000000000000000     
  0.37500000000000000       0.62500000000000000        0.0000000000000000     
  0.37500000000000000       0.50000000000000000        0.0000000000000000     
  0.40625000000000000       0.50000000000000000        0.0000000000000000     
  0.43750000000000000       0.50000000000000000        0.0000000000000000     
  0.46875000000000000       0.50000000000000000        0.0000000000000000     
  0.50000000000000000       0.50000000000000000        0.0000000000000000     
  0.37500000000000000       0.53125000000000000        0.0000000000000000     
  0.40625000000000000       0.53125000000000000        0.0000000000000000     
  0.43750000000000000       0.53125000000000000        0.0000000000000000     
  0.46875000000000000       0.53125000000000000        0.0000000000000000     
  0.50000000000000000       0.53125000000000000        0.0000000000000000     
  0.37500000000000000       0.56250000000000000        0.0000000000000000     
  0.40625000000000000       0.56250000000000000        0.0000000000000000     
  0.43750000000000000       0.56250000000000000        0.0000000000000000     
  0.46875000000000000       0.56250000000000000        0.0000000000000000     
  0.50000000000000000       0.56250000000000000        0.0000000000000000     
  0.37500000000000000       0.59375000000000000        0.0000000000000000     
  0.40625000000000000       0.59375000000000000        0.0000000000000000     
  0.43750000000000000       0.59375000000000000        0.0000000000000000     
  0.46875000000000000       0.59375000000000000        0.0000000000000000     
  0.50000000000000000       0.59375000000000000        0.0000000000000000     
  0.37500000000000000       0.62500000000000000        0.0000000000000000     
  0.40625000000000000       0.62500000000000000        0.0000000000000000     
  0.43750000000000000       0.62500000000000000        0.0000000000000000     
  0.46875000000000000       0.62500000000000000        0.0000000000000000     
  0.50000000000000000       0.62500000000000000        0.0000000000000000     
  0.50000000000000000       0.50000000000000000        0.0000000000000000     
  0.53125000000000000       0.50000000000000000        0.0000000000000000     
  0.56250000000000000       0.50000000000000000        0.0000000000000000     
  0.59375000000000000       0.50000000000000000        0.0000000000000000     
  0.62500000000000000       0.50000000000000000        0.0000000000000000     
  0.50000000000000000       0.53125000000000000        0.0000000000000000     
  0.53125000000000000       0.53125000000000000        0.0000000000000000     
  0.56250000000000000       0.53125000000000000        0.0000000000000000     
  0.59375000000000000       0.53125000000000000        0.0000000000000000     
  0.62500000000000000       0.53125000000000000        0.0000000000000000     
  0.50000000000000000       0.56250000000000000        0.0000000000000000     
  0.53125000000000000       0.56250000000000000        0.0000000000000000     
  0.56250000000000000       0.56250000000000000        0.0000000000000000     
  0.59375000000000000       0.56250000000000000        0.0000000000000000     
  0.62500000000000000       0.56250000000000000        0.0000000000000000     
  0.50000000000000000       0.59375000000000000        0.0000000000000000     
  0.53125000000000000       0.59375000000000000        0.0000000000000000     
  0.56250000000000000       0.59375000000000000        0.0000000000000000     
  0.59375000000000000       0.59375000000000000        0.0000000000000000     
  0.62500000000000000       0.59375000000000000        0.0000000000000000     
  0.50000000000000000       0.62500000000000000        0.0000000000000000     
  0.53125000000000000       0.62500000000000000        0.0000000000000000     
  0.56250000000000000       0.62500000000000000        0.0000000000000000     
  0.59375000000000000       0.62500000000000000        0.0000000000000000     
  0.62500000000000000       0.62500000000000000        0.0000000000000000     
  0.62500000000000000       0.50000000000000000        0.0000000000000000     
  0.65625000000000000       0.50000000000000000        0.0000000000000000     
  0.68750000000000000       0.50000000000000000        0.0000000000000000     
  0.71875000000000000       0.50000000000000000        0.0000000000000000     
  0.75000000000000000       0.50000000000000000        0.0000000000000000     
  0.62500000000000000       0.53125000000000000        0.0000000000000000     
  0.65625000000000000       0.53125000000000000        0.0000000000000000     
  0.68750000000000000       0.53125000000000000        0.0000000000000000     
  0.71875000000000000       0.53125000000000000        0.0000000000000000     
  0.75000000000000000       0.53125000000000000        0.0000000000000000     
  0.62500000000000000       0.56250000000000000        0.0000000000000000     
  0.65625000000000000       0.56250000000000000        0.0000000000000000     
  0.68750000000000000       0.56250000000000000        0.0000000000000000     
  0.71875000000000000       0.56250000000000000        0.0000000000000000     
  0.75000000000000000       0.56250000000000000        0.0000000000000000     
  0.62500000000000000       0.59375000000000000        0.0000000000000000     
  0.65625000000000000       0.59375000000000000        0.0000000000000000     
  0.68750000000000000       0.59375000000000000        0.0000000000000000     
  0.71875000000000000       0.59375000000000000        0.0000000000000000     
  0.75000000000000000       0.59375000000000000        0.0000000000000000     
  0.62500000000000000       0.62500000000000000        0.0000000000000000     
  0.65625000000000000       0.62500000000000000        0.0000000000000000     
  0.68750000000000000       0.62500000000000000        0.0000000000000000     
  0.71875000000000000       0.62500000000000000        0.0000000000000000     
  0.75000000000000000       0.62500000000000000        0.0000000000000000     
  0.75000000000000000       0.50000000000000000        0.0000000000000000     
  0.78125000000000000       0.50000000000000000        0.0000000000000000     
  0.81250000000000000       0.50000000000000000        0.0000000000000000     
  0.84375000000000000       0.50000000000000000        0.0000000000000000     
  0.87500000000000000       0.50000000000000000        0.0000000000000000     
  0.75000000000000000       0.53125000000000000        0.0000000000000000     
  0.78125000000000000       0.53125000000000000        0.0000000000000000     
  0.81250000000000000       0.53125000000000000        0.0000000000000000     
  0.84375000000000000       0.53125000000000000        0.0000000000000000     
  0.87500000000000000       0.53125000000000000        0.0000000000000000     
  0.75000000000000000       0.56250000000000000        0.0000000000000000     
  0.78125000000000000       0.56250000000000000        0.0000000000000000     
  0.81250000000000000       0.56250000000000000        0.0000000000000000     
  0.84375000000000000       0.56250000000000000        0.0000000000000000     
  0.87500000000000000       0.56250000000000000        0.0000000000000000     
  0.75000000000000000       0.59375000000000000        0.0000000000000000     
  0.78125000000000000       0.59375000000000000        0.0000000000000000     
  0.81250000000000000       0.59375000000000000        0.0000000000000000     
  0.84375000000000000       0.59375000000000000        0.0000000000000000     
  0.87500000000000000       0.59375000000000000        0.0000000000000000     
  0.75000000000000000       0.62500000000000000        0.0000000000000000     
  0.78125000000000000       0.62500000000000000        0.0000000000000000     
  0.81250000000000000       0.62500000000000000        0.0000000000000000     
  0.84375000000000000       0.62500000000000000        0.0000000000000000     
  0.87500000000000000       0.62500000000000000        0.0000000000000000     
  0.87500000000000000       0.50000000000000000        0.0000000000000000     
  0.90625000000000000       0.50000000000000000        0.0000000000000000     
  0.93750000000000000       0.50000000000000000        0.0000000000000000     
  0.96875000000000000       0.50000000000000000        0.0000000000000000     
   1.0000000000000000       0.50000000000000000        0.0000000000000000     
  0.87500000000000000       0.53125000000000000        0.0000000000000000     
  0.90625000000000000       0.53125000000000000        0.0000000000000000     
  0.93750000000000000       0.53125000000000000        0.0000000000000000     
  0.96875000000000000       0.53125000000000000        0.0000000000000000     
   1.0000000000000000       0.53125000000000000        0.0000000000000000     
  0.87500000000000000       0.56250000000000000        0.0000000000000000     
  0.90625000000000000       0.56250000000000000        0.0000000000000000     
  0.93750000000000000       0.56250000000000000        0.0000000000000000     
  0.96875000000000000       0.56250000000000000        0.0000000000000000     
   1.0000000000000000       0.56250000000000000        0.0000000000000000     
  0.87500000000000000       0.59375000000000000        0.0000000000000000     
  0.90625000000000000       0.59375000000000000        0.0000000000000000     
  0.93750000000000000       0.59375000000000000        0.0000000000000000     
  0.96875000000000000       0.59375000000000000        0.0000000000000000     
   1.0000000000000000       0.59375000000000000        0.0000000000000000     
  0.87500000000000000       0.62500000000000000        0.0000000000000000     
  0.90625000000000000       0.62500000000000000        0.0000000000000000     
  0.93750000000000000       0.62500000000000000        0.0000000000000000     
  0.96875000000000000       0.62500000000000000        0.0000000000000000     
   1.0000000000000000       0.62500000000000000        0.0000000000000000     
   0.0000000000000000       0.62500000000000000        0.0000000000000000     
   3.1250000000000000E-002  0.62500000000000000        0.0000000000000000     
   6.2500000000000000E-002  0.62500000000000000        0.0000000000000000     
   9.3750000000000000E-002  0.62500000000000000        0.0000000000000000     
  0.12500000000000000       0.62500000000000000        0.0000000000000000     
   0.0000000000000000       0.65625000000000000        0.0000000000000000     
   3.1250000000000000E-002  0.65625000000000000        0.0000000000000000     
   6.2500000000000000E-002  0.65625000000000000        0.0000000000000000     
   9.3750000000000000E-002  0.65625000000000000        0.0000000000000000     
  0.12500000000000000       0.65625000000000000        0.0000000000000000     
   0.0000000000000000       0.68750000000000000        0.0000000000000000     
   3.1250000000000000E-002  0.68750000000000000        0.0000000000000000     
   6.2500000000000000E-002  0.68750000000000000        0.0000000000000000     
   9.3750000000000000E-002  0.68750000000000000        0.0000000000000000     
  0.12500000000000000       0.68750000000000000        0.0000000000000000     
   0.0000000000000000       0.71875000000000000        0.0000000000000000     
   3.1250000000000000E-002  0.71875000000000000        0.0000000000000000     
   6.2500000000000000E-002  0.71875000000000000        0.0000000000000000     
   9.3750000000000000E-002  0.71875000000000000        0.0000000000000000     
  0.12500000000000000       0.71875000000000000        0.0000000000000000     
   0.0000000000000000       0.75000000000000000        0.0000000000000000     
   3.1250000000000000E-002  0.75000000000000000        0.0000000000000000     
   6.2500000000000000E-002  0.75000000000000000        0.0000000000000000     
   9.3750000000000000E-002  0.75000000000000000        0.0000000000000000     
  0.12500000000000000       0.75000000000000000        0.0000000000000000     
  0.12500000000000000       0.62500000000000000        0.0000000000000000     
  0.15625000000000000       0.62500000000000000        0.0000000000000000     
  0.18750000000000000       0.62500000000000000        0.0000000000000000     
  0.21875000000000000       0.62500000000000000        0.0000000000000000     
  0.25000000000000000       0.62500000000000000        0.0000000000000000     
  0.12500000000000000       0.65625000000000000        0.0000000000000000     
  0.15625000000000000       0.65625000000000000        0.0000000000000000     
  0.18750000000000000       0.65625000000000000        0.0000000000000000     
  0.21875000000000000       0.65625000000000000        0.0000000000000000     
  0.25000000000000000       0.65625000000000000        0.0000000000000000     
  0.12500000000000000       0.68750000000000000        0.0000000000000000     
  0.15625000000000000       0.68750000000000000        0.0000000000000000     
  0.18750000000000000       0.68750000000000000        0.0000000000000000     
  0.21875000000000000       0.68750000000000000        0.0000000000000000     
  0.25000000000000000       0.68750000000000000        0.0000000000000000     
  0.12500000000000000       0.71875000000000000        0.0000000000000000     
  0.15625000000000000       0.71875000000000000        0.0000000000000000     
  0.18750000000000000       0.71875000000000000        0.0000000000000000     
  0.21875000000000000       0.71875000000000000        0.0000000000000000     
  0.25000000000000000       0.71875000000000000        0.0000000000000000     
  0.12500000000000000       0.75000000000000000        0.0000000000000000     
  0.15625000000000000       0.75000000000000000        0.0000000000000000     
  0.18750000000000000       0.75000000000000000        0.0000000000000000     
  0.21875000000000000       0.75000000000000000        0.0000000000000000     
  0.25000000000000000       0.75000000000000000        0.0000000000000000     
  0.25000000000000000       0.62500000000000000        0.0000000000000000     
  0.28125000000000000       0.62500000000000000        0.0000000000000000     
  0.31250000000000000       0.62500000000000000        0.0000000000000000     
  0.34375000000000000       0.62500000000000000        0.0000000000000000     
  0.37500000000000000       0.62500000000000000        0.0000000000000000     
  0.25000000000000000       0.65625000000000000        0.0000000000000000     
  0.28125000000000000       0.65625000000000000        0.0000000000000000     
  0.31250000000000000       0.65625000000000000        0.0000000000000000     
  0.34375000000000000       0.65625000000000000        0.0000000000000000     
  0.37500000000000000       0.65625000000000000        0.0000000000000000     
  0.25000000000000000       0.68750000000000000        0.0000000000000000     
  0.28125000000000000       0.68750000000000000        0.0000000000000000     
  0.31250000000000000       0.68750000000000000        0.0000000000000000     
  0.34375000000000000       0.68750000000000000        0.0000000000000000     
  0.37500000000000000       0.68750000000000000        0.0000000000000000     
  0.25000000000000000       0.71875000000000000        0.0000000000000000     
  0.28125000000000000       0.71875000000000000        0.0000000000000000     
  0.31250000000000000       0.71875000000000000        0.0000000000000000     
  0.34375000000000000       0.71875000000000000        0.0000000000000000     
  0.37500000000000000       0.71875000000000000        0.0000000000000000     
  0.25000000000000000       0.75000000000000000        0.0000000000000000     
  0.28125000000000000       0.75000000000000000        0.0000000000000000     
  0.31250000000000000       0.75000000000000000        0.0000000000000000     
  0.34375000000000000       0.75000000000000000        0.0000000000000000     
  0.37500000000000000       0.75000000000000000        0.0000000000000000     
  0.37500000000000000       0.62500000000000000        0.0000000000000000     
  0.40625000000000000       0.62500000000000000        0.0000000000000000     
  0.43750000000000000       0.62500000000000000        0.0000000000000000     
  0.46875000000000000       0.62500000000000000        0.0000000000000000     
  0.50000000000000000       0.62500000000000000        0.0000000000000000     
  0.37500000000000000       0.65625000000000000        0.0000000000000000     
  0.40625000000000000       0.65625000000000000        0.0000000000000000     
  0.43750000000000000       0.65625000000000000        0.0000000000000000     
  0.46875000000000000       0.65625000000000000        0.0000000000000000     
  0.50000000000000000       0.65625000000000000        0.0000000000000000     
  0.37500000000000000       0.68750000000000000        0.0000000000000000     
  0.40625000000000000       0.68750000000000000        0.0000000000000000     
  0.43750000000000000       0.68750000000000000        0.0000000000000000     
  0.46875000000000000       0.68750000000000000        0.0000000000000000     
  0.50000000000000000       0.68750000000000000        0.0000000000000000     
  0.37500000000000000       0.71875000000000000        0.0000000000000000     
  0.40625000000000000       0.71875000000000000        0.0000000000000000     
  0.43750000000000000       0.71875000000000000        0.0000000000000000     
  0.46875000000000000       0.71875000000000000        0.0000000000000000     
  0.50000000000000000       0.71875000000000000        0.0000000000000000     
  0.37500000000000000       0.75000000000000000        0.0000000000000000     
  0.40625000000000000       0.75000000000000000        0.0000000000000000     
  0.43750000000000000       0.75000000000000000        0.0000000000000000     
  0.46875000000000000       0.75000000000000000        0.0000000000000000     
  0.50000000000000000       0.75000000000000000        0.0000000000000000     
  0.50000000000000000       0.62500000000000000        0.0000000000000000     
  0.53125000000000000       0.62500000000000000        0.0000000000000000     
  0.56250000000000000       0.62500000000000000        0.0000000000000000     
  0.59375000000000000       0.62500000000000000        0.0000000000000000     
  0.62500000000000000       0.62500000000000000        0.0000000000000000     
  0.50000000000000000       0.65625000000000000        0.0000000000000000     
  0.53125000000000000       0.65625000000000000        0.0000000000000000     
  0.56250000000000000       0.65625000000000000        0.0000000000000000     
  0.59375000000000000       0.65625000000000000        0.0000000000000000     
  0.62500000000000000       0.65625000000000000        0.0000000000000000     
  0.50000000000000000       0.68750000000000000        0.0000000000000000     
  0.53125000000000000       0.68750000000000000        0.0000000000000000     
  0.56250000000000000       0.68750000000000000        0.0000000000000000     
  0.59375000000000000       0.68750000000000000        0.0000000000000000     
  0.62500000000000000       0.68750000000000000        0.0000000000000000     
  0.50000000000000000       0.71875000000000000        0.0000000000000000     
  0.53125000000000000       0.71875000000000000        0.0000000000000000     
  0.56250000000000000       0.71875000000000000        0.0000000000000000     
  0.59375000000000000       0.71875000000000000        0.0000000000000000     
  0.62500000000000000       0.71875000000000000        0.0000000000000000     
  0.50000000000000000       0.75000000000000000        0.0000000000000000     
  0.53125000000000000       0.75000000000000000        0.0000000000000000     
  0.56250000000000000       0.75000000000000000        0.0000000000000000     
  0.59375000000000000       0.75000000000000000        0.0000000000000000     
  0.62500000000000000       0.75000000000000000        0.0000000000000000     
  0.62500000000000000       0.62500000000000000        0.0000000000000000     
  0.65625000000000000       0.62500000000000000        0.0000000000000000     
  0.68750000000000000       0.62500000000000000        0.0000000000000000     
  0.71875000000000000       0.62500000000000000        0.0000000000000000     
  0.75000000000000000       0.62500000000000000        0.0000000000000000     
  0.62500000000000000       0.65625000000000000        0.0000000000000000     
  0.65625000000000000       0.65625000000000000        0.0000000000000000     
  0.68750000000000000       0.65625000000000000        0.0000000000000000     
  0.71875000000000000       0.65625000000000000        0.0000000000000000     
  0.75000000000000000       0.65625000000000000        0.0000000000000000     
  0.62500000000000000       0.68750000000000000        0.0000000000000000     
  0.65625000000000000       0.68750000000000000        0.0000000000000000     
  0.68750000000000000       0.68750000000000000        0.0000000000000000     
  0.71875000000000000       0.68750000000000000        0.0000000000000000     
  0.75000000000000000       0.68750000000000000        0.0000000000000000     
  0.62500000000000000       0.71875000000000000        0.0000000000000000     
  0.65625000000000000       0.71875000000000000        0.0000000000000000     
  0.68750000000000000       0.71875000000000000        0.0000000000000000     
  0.71875000000000000       0.71875000000000000        0.0000000000000000     
  0.75000000000000000       0.71875000000000000        0.0000000000000000     
  0.62500000000000000       0.75000000000000000        0.0000000000000000     
  0.65625000000000000       0.75000000000000000        0.0000000000000000     
  0.68750000000000000       0.75000000000000000        0.0000000000000000     
  0.71875000000000000       0.75000000000000000        0.0000000000000000     
  0.75000000000000000       0.75000000000000000        0.0000000000000000     
  0.75000000000000000       0.62500000000000000        0.0000000000000000     
  0.78125000000000000       0.62500000000000000        0.0000000000000000     
  0.81250000000000000       0.62500000000000000        0.0000000000000000     
  0.84375000000000000       0.62500000000000000        0.0000000000000000     
  0.87500000000000000       0.62500000000000000        0.0000000000000000     
  0.75000000000000000       0.65625000000000000        0.0000000000000000     
  0.78125000000000000       0.65625000000000000        0.0000000000000000     
  0.81250000000000000       0.65625000000000000        0.0000000000000000     
  0.84375000000000000       0.65625000000000000        0.0000000000000000     
  0.87500000000000000       0.65625000000000000        0.0000000000000000     
  0.75000000000000000       0.68750000000000000        0.0000000000000000     
  0.78125000000000000       0.68750000000000000        0.0000000000000000     
  0.81250000000000000       0.68750000000000000        0.0000000000000000     
  0.84375000000000000       0.68750000000000000        0.0000000000000000     
  0.87500000000000000       0.68750000000000000        0.0000000000000000     
  0.75000000000000000       0.71875000000000000        0.0000000000000000     
  0.78125000000000000       0.71875000000000000        0.0000000000000000     
  0.81250000000000000       0.71875000000000000        0.0000000000000000     
  0.84375000000000000       0.71875000000000000        0.0000000000000000     
  0.87500000000000000       0.71875000000000000        0.0000000000000000     
  0.75000000000000000       0.75000000000000000        0.0000000000000000     
  0.78125000000000000       0.75000000000000000        0.0000000000000000     
  0.81250000000000000       0.75000000000000000        0.0000000000000000     
  0.84375000000000000       0.75000000000000000        0.0000000000000000     
  0.87500000000000000       0.75000000000000000        0.0000000000000000     
  0.87500000000000000       0.62500000000000000        0.0000000000000000     
  0.90625000000000000       0.62500000000000000        0.0000000000000000     
  0.93750000000000000       0.62500000000000000        0.0000000000000000     
  0.96875000000000000       0.62500000000000000        0.0000000000000000     
   1.0000000000000000       0.62500000000000000        0.0000000000000000     
  0.87500000000000000       0.65625000000000000        0.0000000000000000     
  0.90625000000000000       0.65625000000000000        0.0000000000000000     
  0.93750000000000000       0.65625000000000000        0.0000000000000000     
  0.96875000000000000       0.65625000000000000        0.0000000000000000     
   1.0000000000000000       0.65625000000000000        0.0000000000000000     
  0.87500000000000000       0.68750000000000000        0.0000000000000000     
  0.90625000000000000       0.68750000000000000        0.0000000000000000     
  0.93750000000000000       0.68750000000000000        0.0000000000000000     
  0.96875000000000000       0.68750000000000000        0.0000000000000000     
   1.0000000000000000       0.68750000000000000        0.0000000000000000     
  0.87500000000000000       0.71875000000000000        0.0000000000000000     
  0.90625000000000000       0.71875000000000000        0.0000000000000000     
  0.93750000000000000       0.71875000000000000        0.0000000000000000     
  0.96875000000000000       0.71875000000000000        0.0000000000000000     
   1.0000000000000000       0.71875000000000000        0.0000000000000000     
  0.87500000000000000       0.75000000000000000        0.0000000000000000     
  0.90625000000000000       0.75000000000000000        0.0000000000000000     
  0.93750000000000000       0.75000000000000000        0.0000000000000000     
  0.96875000000000000       0.75000000000000000        0.0000000000000000     
   1.0000000000000000       0.75000000000000000        0.0000000000000000     
   0.0000000000000000       0.75000000000000000        0.0000000000000000     
   3.1250000000000000E-002  0.75000000000000000        0.0000000000000000     
   6.2500000000000000E-002  0.75000000000000000        0.0000000000000000     
   9.3750000000000000E-002  0.75000000000000000        0.0000000000000000     
  0.12500000000000000       0.75000000000000000        0.0000000000000000     
   0.0000000000000000       0.78125000000000000        0.0000000000000000     
   3.1250000000000000E-002  0.78125000000000000        0.0000000000000000     
   6.2500000000000000E-002  0.78125000000000000        0.0000000000000000     
   9.3750000000000000E-002  0.78125000000000000        0.0000000000000000     
  0.12500000000000000       0.78125000000000000        0.0000000000000000     
   0.0000000000000000       0.81250000000000000        0.0000000000000000     
   3.1250000000000000E-002  0.81250000000000000        0.0000000000000000     
   6.2500000000000000E-002  0.81250000000000000        0.0000000000000000     
   9.3750000000000000E-002  0.81250000000000000        0.0000000000000000     
  0.12500000000000000       0.81250000000000000        0.0000000000000000     
   0.0000000000000000       0.84375000000000000        0.0000000000000000     
   3.1250000000000000E-002  0.84375000000000000        0.0000000000000000     
   6.2500000000000000E-002  0.84375000000000000        0.0000000000000000     
   9.3750000000000000E-002  0.84375000000000000        0.0000000000000000     
  0.12500000000000000       0.84375000000000000        0.0000000000000000     
   0.0000000000000000       0.87500000000000000        0.0000000000000000     
   3.1250000000000000E-002  0.87500000000000000        0.0000000000000000     
   6.2500000000000000E-002  0.87500000000000000        0.0000000000000000     
   9.3750000000000000E-002  0.87500000000000000        0.0000000000000000     
  0.12500000000000000       0.87500000000000000        0.0000000000000000     
  0.12500000000000000       0.75000000000000000        0.0000000000000000     
  0.15625000000000000       0.75000000000000000        0.0000000000000000     
  0.18750000000000000       0.75000000000000000        0.0000000000000000     
  0.21875000000000000       0.75000000000000000        0.0000000000000000     
  0.25000000000000000       0.75000000000000000        0.0000000000000000     
  0.12500000000000000       0.78125000000000000        0.0000000000000000     
  0.15625000000000000       0.78125000000000000        0.0000000000000000     
  0.18750000000000000       0.78125000000000000        0.0000000000000000     
  0.21875000000000000       0.78125000000000000        0.0000000000000000     
  0.25000000000000000       0.78125000000000000        0.0000000000000000     
  0.12500000000000000       0.81250000000000000        0.0000000000000000     
  0.15625000000000000       0.81250000000000000        0.0000000000000000     
  0.18750000000000000       0.81250000000000000        0.0000000000000000     
  0.21875000000000000       0.81250000000000000        0.0000000000000000     
  0.25000000000000000       0.81250000000000000        0.0000000000000000     
  0.12500000000000000       0.84375000000000000        0.0000000000000000     
  0.15625000000000000       0.84375000000000000        0.0000000000000000     
  0.18750000000000000       0.84375000000000000        0.0000000000000000     
  0.21875000000000000       0.84375000000000000        0.0000000000000000     
  0.25000000000000000       0.84375000000000000        0.0000000000000000     
  0.12500000000000000       0.87500000000000000        0.0000000000000000     
  0.15625000000000000       0.87500000000000000        0.0000000000000000     
  0.18750000000000000       0.87500000000000000        0.0000000000000000     
  0.21875000000000000       0.87500000000000000        0.0000000000000000     
  0.25000000000000000       0.87500000000000000        0.0000000000000000     
  0.25000000000000000       0.75000000000000000        0.0000000000000000     
  0.28125000000000000       0.75000000000000000        0.0000000000000000     
  0.31250000000000000       0.75000000000000000        0.0000000000000000     
  0.34375000000000000       0.75000000000000000        0.0000000000000000     
  0.37500000000000000       0.75000000000000000        0.0000000000000000     
  0.25000000000000000       0.78125000000000000        0.0000000000000000     
  0.28125000000000000       0.78125000000000000        0.0000000000000000     
  0.31250000000000000       0.78125000000000000        0.0000000000000000     
  0.34375000000000000       0.78125000000000000        0.0000000000000000     
  0.37500000000000000       0.78125000000000000        0.0000000000000000     
  0.25000000000000000       0.81250000000000000        0.0000000000000000     
  0.28125000000000000       0.81250000000000000        0.0000000000000000     
  0.31250000000000000       0.81250000000000000        0.0000000000000000     
  0.34375000000000000       0.81250000000000000        0.0000000000000000     
  0.37500000000000000       0.81250000000000000        0.0000000000000000     
  0.25000000000000000       0.84375000000000000        0.0000000000000000     
  0.28125000000000000       0.84375000000000000        0.0000000000000000     
  0.31250000000000000       0.84375000000000000        0.0000000000000000     
  0.34375000000000000       0.84375000000000000        0.0000000000000000     
  0.37500000000000000       0.84375000000000000        0.0000000000000000     
  0.25000000000000000       0.87500000000000000        0.0000000000000000     
  0.28125000000000000       0.87500000000000000        0.0000000000000000     
  0.31250000000000000       0.87500000000000000        0.0000000000000000     
  0.34375000000000000       0.87500000000000000        0.0000000000000000     
  0.37500000000000000       0.87500000000000000        0.0000000000000000     
  0.37500000000000000       0.75000000000000000        0.0000000000000000     
  0.40625000000000000       0.75000000000000000        0.0000000000000000     
  0.43750000000000000       0.75000000000000000        0.0000000000000000     
  0.46875000000000000       0.75000000000000000        0.0000000000000000     
  0.50000000000000000       0.75000000000000000        0.0000000000000000     
  0.37500000000000000       0.78125000000000000        0.0000000000000000     
  0.40625000000000000       0.78125000000000000        0.0000000000000000     
  0.43750000000000000       0.78125000000000000        0.0000000000000000     
  0.46875000000000000       0.78125000000000000        0.0000000000000000     
  0.50000000000000000       0.78125000000000000        0.0000000000000000     
  0.37500000000000000       0.81250000000000000        0.0000000000000000     
  0.40625000000000000       0.81250000000000000        0.0000000000000000     
  0.43750000000000000       0.81250000000000000        0.0000000000000000     
  0.46875000000000000       0.81250000000000000        0.0000000000000000     
  0.50000000000000000       0.81250000000000000        0.0000000000000000     
  0.37500000000000000       0.84375000000000000        0.0000000000000000     
  0.40625000000000000       0.84375000000000000        0.0000000000000000     
  0.43750000000000000       0.84375000000000000        0.0000000000000000     
  0.46875000000000000       0.84375000000000000        0.0000000000000000     
  0.50000000000000000       0.84375000000000000        0.0000000000000000     
  0.37500000000000000       0.87500000000000000        0.0000000000000000     
  0.40625000000000000       0.87500000000000000        0.0000000000000000     
  0.43750000000000000       0.87500000000000000        0.0000000000000000     
  0.46875000000000000       0.87500000000000000        0.0000000000000000     
  0.50000000000000000       0.87500000000000000        0.0000000000000000     
  0.50000000000000000       0.75000000000000000        0.0000000000000000     
  0.53125000000000000       0.75000000000000000        0.0000000000000000     
  0.56250000000000000       0.75000000000000000        0.0000000000000000     
  0.59375000000000000       0.75000000000000000        0.0000000000000000     
  0.62500000000000000       0.75000000000000000        0.0000000000000000     
  0.50000000000000000       0.78125000000000000        0.0000000000000000     
  0.53125000000000000       0.78125000000000000        0.0000000000000000     
  0.56250000000000000       0.78125000000000000        0.0000000000000000     
  0.59375000000000000       0.78125000000000000        0.0000000000000000     
  0.62500000000000000       0.78125000000000000        0.0000000000000000     
  0.50000000000000000       0.81250000000000000        0.0000000000000000     
  0.53125000000000000       0.81250000000000000        0.0000000000000000     
  0.56250000000000000       0.81250000000000000        0.0000000000000000     
  0.59375000000000000       0.81250000000000000        0.0000000000000000     
  0.62500000000000000       0.81250000000000000        0.0000000000000000     
  0.50000000000000000       0.84375000000000000        0.0000000000000000     
  0.53125000000000000       0.84375000000000000        0.0000000000000000     
  0.56250000000000000       0.84375000000000000        0.0000000000000000     
  0.59375000000000000       0.84375000000000000        0.0000000000000000     
  0.62500000000000000       0.84375000000000000        0.0000000000000000     
  0.50000000000000000       0.87500000000000000        0.0000000000000000     
  0.53125000000000000       0.87500000000000000        0.0000000000000000     
  0.56250000000000000       0.87500000000000000        0.0000000000000000     
  0.59375000000000000       0.87500000000000000        0.0000000000000000     
  0.62500000000000000       0.87500000000000000        0.0000000000000000     
  0.62500000000000000       0.75000000000000000        0.0000000000000000     
  0.65625000000000000       0.75000000000000000        0.0000000000000000     
  0.68750000000000000       0.75000000000000000        0.0000000000000000     
  0.71875000000000000       0.75000000000000000        0.0000000000000000     
  0.75000000000000000       0.75000000000000000        0.0000000000000000     
  0.62500000000000000       0.78125000000000000        0.0000000000000000     
  0.65625000000000000       0.78125000000000000        0.0000000000000000     
  0.68750000000000000       0.78125000000000000        0.0000000000000000     
  0.71875000000000000       0.78125000000000000        0.0000000000000000     
  0.75000000000000000       0.78125000000000000        0.0000000000000000     
  0.62500000000000000       0.81250000000000000        0.0000000000000000     
  0.65625000000000000       0.81250000000000000        0.0000000000000000     
  0.68750000000000000       0.81250000000000000        0.0000000000000000     
  0.71875000000000000       0.81250000000000000        0.0000000000000000     
  0.75000000000000000       0.81250000000000000        0.0000000000000000     
  0.62500000000000000       0.84375000000000000        0.0000000000000000     
  0.65625000000000000       0.84375000000000000        0.0000000000000000     
  0.68750000000000000       0.84375000000000000        0.0000000000000000     
  0.71875000000000000       0.84375000000000000        0.0000000000000000     
  0.75000000000000000       0.84375000000000000        0.0000000000000000     
  0.62500000000000000       0.87500000000000000        0.0000000000000000     
  0.65625000000000000       0.87500000000000000        0.0000000000000000     
  0.68750000000000000       0.87500000000000000        0.0000000000000000     
  0.71875000000000000       0.87500000000000000        0.0000000000000000     
  0.75000000000000000       0.87500000000000000        0.0000000000000000     
  0.75000000000000000       0.75000000000000000        0.0000000000000000     
  0.78125000000000000       0.75000000000000000        0.0000000000000000     
  0.81250000000000000       0.75000000000000000        0.0000000000000000     
  0.84375000000000000       0.75000000000000000        0.0000000000000000     
  0.87500000000000000       0.75000000000000000        0.0000000000000000     
  0.75000000000000000       0.78125000000000000        0.0000000000000000     
  0.78125000000000000       0.78125000000000000        0.0000000000000000     
  0.81250000000000000       0.78125000000000000        0.0000000000000000     
  0.84375000000000000       0.78125000000000000        0.0000000000000000     
  0.87500000000000000       0.78125000000000000        0.0000000000000000     
  0.75000000000000000       0.81250000000000000        0.0000000000000000     
  0.78125000000000000       0.81250000000000000        0.0000000000000000     
  0.81250000000000000       0.81250000000000000        0.0000000000000000     
  0.84375000000000000       0.81250000000000000        0.0000000000000000     
  0.87500000000000000       0.81250000000000000        0.0000000000000000     
  0.75000000000000000       0.84375000000000000        0.0000000000000000     
  0.78125000000000000       0.84375000000000000        0.0000000000000000     
  0.81250000000000000       0.84375000000000000        0.0000000000000000     
  0.84375000000000000       0.84375000000000000        0.0000000000000000     
  0.87500000000000000       0.84375000000000000        0.0000000000000000     
  0.75000000000000000       0.87500000000000000        0.0000000000000000     
  0.78125000000000000       0.87500000000000000        0.0000000000000000     
  0.81250000000000000       0.87500000000000000        0.0000000000000000     
  0.84375000000000000       0.87500000000000000        0.0000000000000000     
  0.87500000000000000       0.87500000000000000        0.0000000000000000     
  0.87500000000000000       0.75000000000000000        0.0000000000000000     
  0.90625000000000000       0.75000000000000000        0.0000000000000000     
  0.93750000000000000       0.75000000000000000        0.0000000000000000     
  0.96875000000000000       0.75000000000000000        0.0000000000000000     
   1.0000000000000000       0.75000000000000000        0.0000000000000000     
  0.87500000000000000       0.78125000000000000        0.0000000000000000     
  0.90625000000000000       0.78125000000000000        0.0000000000000000     
  0.93750000000000000       0.78125000000000000        0.0000000000000000     
  0.96875000000000000       0.78125000000000000        0.0000000000000000     
   1.0000000000000000       0.78125000000000000        0.0000000000000000     
  0.87500000000000000       0.81250000000000000        0.0000000000000000     
  0.90625000000000000       0.81250000000000000        0.0000000000000000     
  0.93750000000000000       0.81250000000000000        0.0000000000000000     
  0.96875000000000000       0.81250000000000000        0.0000000000000000     
   1.0000000000000000       0.81250000000000000        0.0000000000000000     
  0.87500000000000000       0.84375000000000000        0.0000000000000000     
  0.90625000000000000       0.84375000000000000        0.0000000000000000     
  0.93750000000000000       0.84375000000000000        0.0000000000000000     
  0.96875000000000000       0.84375000000000000        0.0000000000000000     
   1.0000000000000000       0.84375000000000000        0.0000000000000000     
  0.87500000000000000       0.87500000000000000        0.0000000000000000     
  0.90625000000000000       0.87500000000000000        0.0000000000000000     
  0.93750000000000000       0.87500000000000000        0.0000000000000000     
  0.96875000000000000       0.87500000000000000        0.0000000000000000     
   1.0000000000000000       0.87500000000000000        0.0000000000000000     
   0.0000000000000000       0.87500000000000000        0.0000000000000000     
   3.1250000000000000E-002  0.87500000000000000        0.0000000000000000     
   6.2500000000000000E-002  0.87500000000000000        0.0000000000000000     
   9.3750000000000000E-002  0.87500000000000000        0.0000000000000000     
  0.12500000000000000       0.87500000000000000        0.0000000000000000     
   0.0000000000000000       0.90625000000000000        0.0000000000000000     
   3.1250000000000000E-002  0.90625000000000000        0.0000000000000000     
   6.2500000000000000E-002  0.90625000000000000        0.0000000000000000     
   9.3750000000000000E-002  0.90625000000000000        0.0000000000000000     
  0.12500000000000000       0.90625000000000000        0.0000000000000000     
   0.0000000000000000       0.93750000000000000        0.0000000000000000     
   3.1250000000000000E-002  0.93750000000000000        0.0000000000000000     
   6.2500000000000000E-002  0.93750000000000000        0.0000000000000000     
   9.3750000000000000E-002  0.93750000000000000        0.0000000000000000     
  0.12500000000000000       0.93750000000000000        0.0000000000000000     
   0.0000000000000000       0.96875000000000000        0.0000000000000000     
   3.1250000000000000E-002  0.96875000000000000        0.0000000000000000     
   6.2500000000000000E-002  0.96875000000000000        0.0000000000000000     
   9.3750000000000000E-002  0.96875000000000000        0.0000000000000000     
  0.12500000000000000       0.96875000000000000        0.0000000000000000     
   0.0000000000000000        1.0000000000000000        0.0000000000000000     
   3.1250000000000000E-002   1.0000000000000000        0.0000000000000000     
   6.2500000000000000E-002   1.0000000000000000        0.0000000000000000     
   9.3750000000000000E-002   1.0000000000000000        0.0000000000000000     
  0.12500000000000000        1.0000000000000000        0.0000000000000000     
  0.12500000000000000       0.87500000000000000        0.0000000000000000     
  0.15625000000000000       0.87500000000000000        0.0000000000000000     
  0.18750000000000000       0.87500000000000000        0.0000000000000000     
  0.21875000000000000       0.87500000000000000        0.0000000000000000     
  0.25000000000000000       0.87500000000000000        0.0000000000000000     
  0.12500000000000000       0.90625000000000000        0.0000000000000000     
  0.15625000000000000       0.90625000000000000        0.0000000000000000     
  0.18750000000000000       0.90625000000000000        0.0000000000000000     
  0.21875000000000000       0.90625000000000000        0.0000000000000000     
  0.25000000000000000       0.90625000000000000        0.0000000000000000     
  0.12500000000000000       0.93750000000000000        0.0000000000000000     
  0.15625000000000000       0.93750000000000000        0.0000000000000000     
  0.18750000000000000       0.93750000000000000        0.0000000000000000     
  0.21875000000000000       0.93750000000000000        0.0000000000000000     
  0.25000000000000000       0.93750000000000000        0.0000000000000000     
  0.12500000000000000       0.96875000000000000        0.0000000000000000     
  0.15625000000000000       0.96875000000000000        0.0000000000000000     
  0.18750000000000000       0.96875000000000000        0.0000000000000000     
  0.21875000000000000       0.96875000000000000        0.0000000000000000     
  0.25000000000000000       0.96875000000000000        0.0000000000000000     
  0.12500000000000000        1.0000000000000000        0.0000000000000000     
  0.15625000000000000        1.0000000000000000        0.0000000000000000     
  0.18750000000000000        1.0000000000000000        0.0000000000000000     
  0.21875000000000000        1.0000000000000000        0.0000000000000000     
  0.25000000000000000        1.0000000000000000        0.0000000000000000     
  0.25000000000000000       0.87500000000000000        0.0000000000000000     
  0.28125000000000000       0.87500000000000000        0.0000000000000000     
  0.31250000000000000       0.87500000000000000        0.0000000000000000     
  0.34375000000000000       0.87500000000000000        0.0000000000000000     
  0.37500000000000000       0.87500000000000000        0.0000000000000000     
  0.25000000000000000       0.90625000000000000        0.0000000000000000     
  0.28125000000000000       0.90625000000000000        0.0000000000000000     
  0.31250000000000000       0.90625000000000000        0.0000000000000000     
  0.34375000000000000       0.90625000000000000        0.0000000000000000     
  0.37500000000000000       0.90625000000000000        0.0000000000000000     
  0.25000000000000000       0.93750000000000000        0.0000000000000000     
  0.28125000000000000       0.93750000000000000        0.0000000000000000     
  0.31250000000000000       0.93750000000000000        0.0000000000000000     
  0.34375000000000000       0.93750000000000000        0.0000000000000000     
  0.37500000000000000       0.93750000000000000        0.0000000000000000     
  0.25000000000000000       0.96875000000000000        0.0000000000000000     
  0.28125000000000000       0.96875000000000000        0.0000000000000000     
  0.31250000000000000       0.96875000000000000        0.0000000000000000     
  0.34375000000000000       0.96875000000000000        0.0000000000000000     
  0.37500000000000000       0.96875000000000000        0.0000000000000000     
  0.25000000000000000        1.0000000000000000        0.0000000000000000     
  0.28125000000000000        1.0000000000000000        0.0000000000000000     
  0.31250000000000000        1.0000000000000000        0.0000000000000000     
  0.34375000000000000        1.0000000000000000        0.0000000000000000     
  0.37500000000000000        1.0000000000000000        0.0000000000000000     
  0.37500000000000000       0.87500000000000000        0.0000000000000000     
  0.40625000000000000       0.87500000000000000        0.0000000000000000     
  0.43750000000000000       0.87500000000000000        0.0000000000000000     
  0.46875000000000000       0.87500000000000000        0.0000000000000000     
  0.50000000000000000       0.87500000000000000        0.0000000000000000     
  0.37500000000000000       0.90625000000000000        0.0000000000000000     
  0.40625000000000000       0.90625000000000000        0.0000000000000000     
  0.43750000000000000       0.90625000000000000        0.0000000000000000     
  0.46875000000000000       0.90625000000000000        0.0000000000000000     
  0.50000000000000000       0.90625000000000000        0.0000000000000000     
  0.37500000000000000       0.93750000000000000        0.0000000000000000     
  0.40625000000000000       0.93750000000000000        0.0000000000000000     
  0.43750000000000000       0.93750000000000000        0.0000000000000000     
  0.46875000000000000       0.93750000000000000        0.0000000000000000     
  0.50000000000000000       0.93750000000000000        0.0000000000000000     
  0.37500000000000000       0.96875000000000000        0.0000000000000000     
  0.40625000000000000       0.96875000000000000        0.0000000000000000     
  0.43750000000000000       0.96875000000000000        0.0000000000000000     
  0.46875000000000000       0.96875000000000000        0.0000000000000000     
  0.50000000000000000       0.96875000000000000        0.0000000000000000     
  0.37500000000000000        1.0000000000000000        0.0000000000000000     
  0.40625000000000000        1.0000000000000000        0.0000000000000000     
  0.43750000000000000        1.0000000000000000        0.0000000000000000     
  0.46875000000000000        1.0000000000000000        0.0000000000000000     
  0.50000000000000000        1.0000000000000000        0.0000000000000000     
  0.50000000000000000       0.87500000000000000        0.0000000000000000     
  0.53125000000000000       0.87500000000000000        0.0000000000000000     
  0.56250000000000000       0.87500000000000000        0.0000000000000000     
  0.59375000000000000       0.87500000000000000        0.0000000000000000     
  0.62500000000000000       0.87500000000000000        0.0000000000000000     
  0.50000000000000000       0.90625000000000000        0.0000000000000000     
  0.53125000000000000       0.90625000000000000        0.0000000000000000     
  0.56250000000000000       0.90625000000000000        0.0000000000000000     
  0.59375000000000000       0.90625000000000000        0.0000000000000000     
  0.62500000000000000       0.90625000000000000        0.0000000000000000     
  0.50000000000000000       0.93750000000000000        0.0000000000000000     
  0.53125000000000000       0.93750000000000000        0.0000000000000000     
  0.56250000000000000       0.93750000000000000        0.0000000000000000     
  0.59375000000000000       0.93750000000000000        0.0000000000000000     
  0.62500000000000000       0.93750000000000000        0.0000000000000000     
  0.50000000000000000       0.96875000000000000        0.0000000000000000     
  0.53125000000000000       0.96875000000000000        0.0000000000000000     
  0.56250000000000000       0.96875000000000000        0.0000000000000000     
  0.59375000000000000       0.96875000000000000        0.0000000000000000     
  0.62500000000000000       0.96875000000000000        0.0000000000000000     
  0.50000000000000000        1.0000000000000000        0.0000000000000000     
  0.53125000000000000        1.0000000000000000        0.0000000000000000     
  0.56250000000000000        1.0000000000000000        0.0000000000000000     
  0.59375000000000000        1.0000000000000000        0.0000000000000000     
  0.62500000000000000        1.0000000000000000        0.0000000000000000     
  0.62500000000000000       0.87500000000000000        0.0000000000000000     
  0.65625000000000000       0.87500000000000000        0.0000000000000000     
  0.68750000000000000       0.87500000000000000        0.0000000000000000     
  0.71875000000000000       0.87500000000000000        0.0000000000000000     
  0.75000000000000000       0.87500000000000000        0.0000000000000000     
  0.62500000000000000       0.90625000000000000        0.0000000000000000     
  0.65625000000000000       0.90625000000000000        0.0000000000000000     
  0.68750000000000000       0.90625000000000000        0.0000000000000000     
  0.71875000000000000       0.90625000000000000        0.0000000000000000     
  0.75000000000000000       0.90625000000000000        0.0000000000000000     
  0.62500000000000000       0.93750000000000000        0.0000000000000000     
  0.65625000000000000       0.93750000000000000        0.0000000000000000     
  0.68750000000000000       0.93750000000000000        0.0000000000000000     
  0.71875000000000000       0.93750000000000000        0.0000000000000000     
  0.75000000000000000       0.93750000000000000        0.0000000000000000     
  0.62500000000000000       0.96875000000000000        0.0000000000000000     
  0.65625000000000000       0.96875000000000000        0.0000000000000000     
  0.68750000000000000       0.96875000000000000        0.0000000000000000     
  0.71875000000000000       0.96875000000000000        0.0000000000000000     
  0.75000000000000000       0.96875000000000000        0.0000000000000000     
  0.62500000000000000        1.0000000000000000        0.0000000000000000     
  0.65625000000000000        1.0000000000000000        0.0000000000000000     
  0.68750000000000000        1.0000000000000000        0.0000000000000000     
  0.71875000000000000        1.0000000000000000        0.0000000000000000     
  0.75000000000000000        1.0000000000000000        0.0000000000000000     
  0.75000000000000000       0.87500000000000000        0.0000000000000000     
  0.78125000000000000       0.87500000000000000        0.0000000000000000     
  0.81250000000000000       0.87500000000000000        0.0000000000000000     
  0.84375000000000000       0.87500000000000000        0.0000000000000000     
  0.87500000000000000       0.87500000000000000        0.0000000000000000     
  0.75000000000000000       0.90625000000000000        0.0000000000000000     
  0.78125000000000000       0.90625000000000000        0.0000000000000000     
  0.81250000000000000       0.90625000000000000        0.0000000000000000     
  0.84375000000000000       0.90625000000000000        0.0000000000000000     
  0.87500000000000000       0.90625000000000000        0.0000000000000000     
  0.75000000000000000       0.93750000000000000        0.0000000000000000     
  0.78125000000000000       0.93750000000000000        0.0000000000000000     
  0.81250000000000000       0.93750000000000000        0.0000000000000000     
  0.84375000000000000       0.93750000000000000        0.0000000000000000     
  0.87500000000000000       0.93750000000000000        0.0000000000000000     
  0.75000000000000000       0.96875000000000000        0.0000000000000000     
  0.78125000000000000       0.96875000000000000        0.0000000000000000     
  0.81250000000000000       0.96875000000000000        0.0000000000000000     
  0.84375000000000000       0.96875000000000000        0.0000000000000000     
  0.87500000000000000       0.96875000000000000        0.0000000000000000     
  0.75000000000000000        1.0000000000000000        0.0000000000000000     
  0.78125000000000000        1.0000000000000000        0.0000000000000000     
  0.81250000000000000        1.0000000000000000        0.0000000000000000     
  0.84375000000000000        1.0000000000000000        0.0000000000000000     
  0.87500000000000000        1.0000000000000000        0.0000000000000000     
  0.87500000000000000       0.87500000000000000        0.0000000000000000     
  0.90625000000000000       0.87500000000000000        0.0000000000000000     
  0.93750000000000000       0.87500000000000000        0.0000000000000000     
  0.96875000000000000       0.87500000000000000        0.0000000000000000     
   1.0000000000000000       0.87500000000000000        0.0000000000000000     
  0.87500000000000000       0.90625000000000000        0.0000000000000000     
  0.90625000000000000       0.90625000000000000        0.0000000000000000     
  0.93750000000000000       0.90625000000000000        0.0000000000000000     
  0.96875000000000000       0.90625000000000000        0.0000000000000000     
   1.0000000000000000       0.90625000000000000        0.0000000000000000     
  0.87500000000000000       0.93750000000000000        0.0000000000000000     
  0.90625000000000000       0.93750000000000000        0.0000000000000000     
  0.93750000000000000       0.93750000000000000        0.0000000000000000     
  0.96875000000000000       0.93750000000000000        0.0000000000000000     
   1.0000000000000000       0.93750000000000000        0.0000000000000000     
  0.87500000000000000       0.96875000000000000        0.0000000000000000     
  0.90625000000000000       0.96875000000000000        0.0000000000000000     
  0.93750000000000000       0.96875000000000000        0.0000000000000000     
  0.96875000000000000       0.96875000000000000        0.0000000000000000     
   1.0000000000000000       0.96875000000000000        0.0000000000000000     
  0.87500000000000000        1.0000000000000000        0.0000000000000000     
  0.90625000000000000        1.0000000000000000        0.0000000000000000     
  0.93750000000000000        1.0000000000000000        0.0000000000000000     
  0.96875000000000000        1.0000000000000000        0.0000000000000000     
   1.0000000000000000        1.0000000000000000        0.0000000000000000     
 </DataArray>
 </Points>
 <Cells>
 <DataArray  type="Int32"  Name="connectivity"  format="ascii">
           0           1           6           5
           1           2           7           6
           2           3           8           7
           3           4           9           8
           5           6          11          10
           6           7          12          11
           7           8          13          12
           8           9          14          13
          10          11          16          15
          11          12          17          16
          12          13          18          17
          13          14          19          18
          15          16          21          20
          16          17          22          21
          17          18          23          22
          18          19          24          23
          25          26          31          30
          26          27          32          31
          27          28          33          32
          28          29          34          33
          30          31          36          35
          31          32          37          36
          32          33          38          37
          33          34          39          38
          35          36          41          40
          36          37          42          41
          37          38          43          42
          38          39          44          43
          40          41          46          45
          41          42          47          46
          42          43          48          47
          43          44          49          48
          50          51          56          55
          51          52          57          56
          52          53          58          57
          53          54          59          58
          55          56          61          60
          56          57          62          61
          57          58          63          62
          58          59          64          63
          60          61          66          65
          61          62          67          66
          62          63          68          67
          63          64          69          68
          65          66          71          70
          66          67          72          71
          67          68          73          72
          68          69          74          73
          75          76          81          80
          76          77          82          81
          77          78          83          82
          78          79          84          83
          80          81          86          85
          81          82          87          86
          82          83          88          87
          83          84          89          88
          85          86          91          90
          86          87          92          91
          87          88          93          92
          88          89          94          93
          90          91          96          95
          91          92          97          96
          92          93          98          97
          93          94          99          98
         100         101         106         105
         101         102         107         106
         102         103         108         107
         103         104         109         108
         105         106         111         110
         106         107         112         111
         107         108         113         112
         108         109         114         113
         110         111         116         115
         111         112         117         116
         112         113         118         117
         113         114         119         118
         115         116         121         120
         116         117         122         121
         117         118         123         122
         118         119         124         123
         125         126         131         130
         126         127         132         131
         127         128         133         132
         128         129         134         133
         130         131         136         135
         131         132         137         136
         132         133         138         137
         133         134         139         138
         135         136         141         140
         136         137         142         141
         137         138         143         142
         138         139         144         143
         140         141         146         145
         141         142         147         146
         142         143         148         147
         143         144         149         148
         150         151         156         155
         151         152         157         156
         152         153         158         157
         153         154         159         158
         155         156         161         160
         156         157         162         161
         157         158         163         162
         158         159         164         163
         160         161         166         165
         161         162         167         166
         162         163         168         167
         163         164         169         168
         165         166         171         170
         166         167         172         171
         167         168         173         172
         168         169         174         173
         175         176         181         180
         176         177         182         181
         177         178         183         182
         178         179         184         183
         180         181         186         185
         181         182         187         186
         182         183         188         187
         183         184         189         188
         185         186         191         190
         186         187         192         191
         187         188         193         192
         188         189         194         193
         190         191         196         195
         191         192         197         196
         192         193         198         197
         193         194         199         198
         200         201         206         205
         201         202         207         206
         202         203         208         207
         203         204         209         208
         205         206         211         210
         206         207         212         211
         207         208         213         212
         208         209         214         213
         210         211         216         215
         211         212         217         216
         212         213         218         217
         213         214         219         218
         215         216         221         220
         216         217         222         221
         217         218         223         222
         218         219         224         223
         225         226         231         230
         226         227         232         231
         227         228         233         232
         228         229         234         233
         230         231         236         235
         231         232         237         236
         232         233         238         237
         233         234         239         238
         235         236         241         240
         236         237         242         241
         237         238         243         242
         238         239         244         243
         240         241         246         245
         241         242         247         246
         242         243         248         247
         243         244         249         248
         250         251         256         255
         251         252         257         256
         252         253         258         257
         253         254         259         258
         255         256         261         260
         256         257         262         261
         257         258         263         262
         258         259         264         263
         260         261         266         265
         261         262         267         266
         262         263         268         267
         263         264         269         268
         265         266         271         270
         266         267         272         271
         267         268         273         272
         268         269         274         273
         275         276         281         280
         276         277         282         281
         277         278         283         282
         278         279         284         283
         280         281         286         285
         281         282         287         286
         282         283         288         287
         283         284         289         288
         285         286         291         290
         286         287         292         291
         287         288         293         292
         288         289         294         293
         290         291         296         295
         291         292         297         296
         292         293         298         297
         293         294         299         298
         300         301         306         305
         301         302         307         306
         302         303         308         307
         303         304         309         308
         305         306         311         310
         306         307         312         311
         307         308         313         312
         308         309         314         313
         310         311         316         315
         311         312         317         316
         312         313         318         317
         313         314         319         318
         315         316         321         320
         316         317         322         321
         317         318         323         322
         318         319         324         323
         325         326         331         330
         326         327         332         331
         327         328         333         332
         328         329         334         333
         330         331         336         335
         331         332         337         336
         332         333         338         337
         333         334         339         338
         335         336         341         340
         336         337         342         341
         337         338         343         342
         338         339         344         343
         340         341         346         345
         341         342         347         346
         342         343         348         347
         343         344         349         348
         350         351         356         355
         351         352         357         356
         352         353         358         357
         353         354         359         358
         355         356         361         360
         356         357         362         361
         357         358         363         362
         358         359         364         363
         360         361         366         365
         361         362         367         366
         362         363         368         367
         363         364         369         368
         365         366         371         370
         366         367         372         371
         367         368         373         372
         368         369         374         373
         375         376         381         380
         376         377         382         381
         377         378         383         382
         378         379         384         383
         380         381         386         385
         381         382         387         386
         382         383         388         387
         383         384         389         388
         385         386         391         390
         386         387         392         391
         387         388         393         392
         388         389         394         393
         390         391         396         395
         391         392         397         396
         392         393         398         397
         393         394         399         398
         400         401         406         405
         401         402         407         406
         402         403         408         407
         403         404         409         408
         405         406         411         410
         406         407         412         411
         407         408         413         412
         408         409         414         413
         410         411         416         415
         411         412         417         416
         412         413         418         417
         413         414         419         418
         415         416         421         420
         416         417         422         421
         417         418         423         422
         418         419         424         423
         425         426         431         430
         426         427         432         431
         427         428         433         432
         428         429         434         433
         430         431         436         435
         431         432         437         436
         432         433         438         437
         433         434         439         438
         435         436         441         440
         436         437         442         441
         437         438         443         442
         438         439         444         443
         440         441         446         445
         441         442         447         446
         442         443         448         447
         443         444         449         448
         450         451         456         455
         451         452         457         456
         452         453         458         457
         453         454         459         458
         455         456         461         460
         456         457         462         461
         457         458         463         462
         458         459         464         463
         460         461         466         465
         461         462         467         466
         462         463         468         467
         463         464         469         468
         465         466         471         470
         466         467         472         471
         467         468         473         472
         468         469         474         473
         475         476         481         480
         476         477         482         481
         477         478         483         482
         478         479         484         483
         480         481         486         485
         481         482         487         486
         482         483         488         487
         483         484         489         488
         485         486         491         490
         486         487         492         491
         487         488         493         492
         488         489         494         493
         490         491         496         495
         491         492         497         496
         492         493         498         497
         493         494         499         498
         500         501         506         505
         501         502         507         506
         502         503         508         507
         503         504         509         508
         505         506         511         510
         506         507         512         511
         507         508         513         512
         508         509         514         513
         510         511         516         515
         511         512         517         516
         512         513         518         517
         513         514         519         518
         515         516         521         520
         516         517         522         521
         517         518         523         522
         518         519         524         523
         525         526         531         530
         526         527         532         531
         527         528         533         532
         528         529         534         533
         530         531         536         535
         531         532         537         536
         532         533         538         537
         533         534         539         538
         535         536         541         540
         536         537         542         541
         537         538         543         542
         538         539         544         543
         540         541         546         545
         541         542         547         546
         542         543         548         547
         543         544         549         548
         550         551         556         555
         551         552         557         556
         552         553         558         557
         553         554         559         558
         555         556         561         560
         556         557         562         561
         557         558         563         562
         558         559         564         563
         560         561         566         565
         561         562         567         566
         562         563         568         567
         563         564         569         568
         565         566         571         570
         566         567         572         571
         567         568         573         572
         568         569         574         573
         575         576         581         580
         576         577         582         581
         577         578         583         582
         578         579         584         583
         580         581         586         585
         581         582         587         586
         582         583         588         587
         583         584         589         588
         585         586         591         590
         586         587         592         591
         587         588         593         592
         588         589         594         593
         590         591         596         595
         591         592         597         596
         592         593         598         597
         593         594         599         598
         600         601         606         605
         601         602         607         606
         602         603         608         607
         603         604         609         608
         605         606         611         610
         606         607         612         611
         607         608         613         612
         608         609         614         613
         610         611         616         615
         611         612         617         616
         612         613         618         617
         613         614         619         618
         615         616         621         620
         616         617         622         621
         617         618         623         622
         618         619         624         623
         625         626         631         630
         626         627         632         631
         627         628         633         632
         628         629         634         633
         630         631         636         635
         631         632         637         636
         632         633         638         637
         633         634         639         638
         635         636         641         640
         636         637         642         641
         637         638         643         642
         638         639         644         643
         640         641         646         645
         641         642         647         646
         642         643         648         647
         643         644         649         648
         650         651         656         655
         651         652         657         656
         652         653         658         657
         653         654         659         658
         655         656         661         660
         656         657         662         661
         657         658         663         662
         658         659         664         663
         660         661         666         665
         661         662         667         666
         662         663         668         667
         663         664         669         668
         665         666         671         670
         666         667         672         671
         667         668         673         672
         668         669         674         673
         675         676         681         680
         676         677         682         681
         677         678         683         682
         678         679         684         683
         680         681         686         685
         681         682         687         686
         682         683         688         687
         683         684         689         688
         685         686         691         690
         686         687         692         691
         687         688         693         692
         688         689         694         693
         690         691         696         695
         691         692         697         696
         692         693         698         697
         693         694         699         698
         700         701         706         705
         701         702         707         706
         702         703         708         707
         703         704         709         708
         705         706         711         710
         706         707         712         711
         707         708         713         712
         708         709         714         713
         710         711         716         715
         711         712         717         716
         712         713         718         717
         713         714         719         718
         715         716         721         720
         716         717         722         721
         717         718         723         722
         718         719         724         723
         725         726         731         730
         726         727         732         731
         727         728         733         732
         728         729         734         733
         730         731         736         735
         731         732         737         736
         732         733         738         737
         733         734         739         738
         735         736         741         740
         736         737         742         741
         737         738         743         742
         738         739         744         743
         740         741         746         745
         741         742         747         746
         742         743         748         747
         743         744         749         748
         750         751         756         755
         751         752         757         756
         752         753         758         757
         753         754         759         758
         755         756         761         760
         756         757         762         761
         757         758         763         762
         758         759         764         763
         760         761         766         765
         761         762         767         766
         762         763         768         767
         763         764         769         768
         765         766         771         770
         766         767         772         771
         767         768         773         772
         768         769         774         773
         775         776         781         780
         776         777         782         781
         777         778         783         782
         778         779         784         783
         780         781         786         785
         781         782         787         786
         782         783         788         787
         783         784         789         788
         785         786         791         790
         786         787         792         791
         787         788         793         792
         788         789         794         793
         790         791         796         795
         791         792         797         796
         792         793         798         797
         793         794         799         798
         800         801         806         805
         801         802         807         806
         802         803         808         807
         803         804         809         808
         805         806         811         810
         806         807         812         811
         807         808         813         812
         808         809         814         813
         810         811         816         815
         811         812         817         816
         812         813         818         817
         813         814         819         818
         815         816         821         820
         816         817         822         821
         817         818         823         822
         818         819         824         823
         825         826         831         830
         826         827         832         831
         827         828         833         832
         828         829         834         833
         830         831         836         835
         831         832         837         836
         832         833         838         837
         833         834         839         838
         835         836         841         840
         836         837         842         841
         837         838         843         842
         838         839         844         843
         840         841         846         845
         841         842         847         846
         842         843         848         847
         843         844         849         848
         850         851         856         855
         851         852         857         856
         852         853         858         857
         853         854         859         858
         855         856         861         860
         856         857         862         861
         857         858         863         862
         858         859         864         863
         860         861         866         865
         861         862         867         866
         862         863         868         867
         863         864         869         868
         865         866         871         870
         866         867         872         871
         867         868         873         872
         868         869         874         873
         875         876         881         880
         876         877         882         881
         877         878         883         882
         878         879         884         883
         880         881         886         885
         881         882         887         886
         882         883         888         887
         883         884         889         888
         885         886         891         890
         886         887         892         891
         887         888         893         892
         888         889         894         893
         890         891         896         895
         891         892         897         896
         892         893         898         897
         893         894         899         898
         900         901         906         905
         901         902         907         906
         902         903         908         907
         903         904         909         908
         905         906         911         910
         906         907         912         911
         907         908         913         912
         908         909         914         913
         910         911         916         915
         911         912         917         916
         912         913         918         917
         913         914         919         918
         915         916         921         920
         916         917         922         921
         917         918         923         922
         918         919         924         923
         925         926         931         930
         926         927         932         931
         927         928         933         932
         928         929         934         933
         930         931         936         935
         931         932         937         936
         932         933         938         937
         933         934         939         938
         935         936         941         940
         936         937         942         941
         937         938         943         942
         938         939         944         943
         940         941         946         945
         941         942         947         946
         942         943         948         947
         943         944         949         948
         950         951         956         955
         951         952         957         956
         952         953         958         957
         953         954         959         958
         955         956         961         960
         956         957         962         961
         957         958         963         962
         958         959         964         963
         960         961         966         965
         961         962         967         966
         962         963         968         967
         963         964         969         968
         965         966         971         970
         966         967         972         971
         967         968         973         972
         968         969         974         973
         975         976         981         980
         976         977         982         981
         977         978         983         982
         978         979         984         983
         980         981         986         985
         981         982         987         986
         982         983         988         987
         983         984         989         988
         985         986         991         990
         986         987         992         991
         987         988         993         992
         988         989         994         993
         990         991         996         995
         991         992         997         996
         992         993         998         997
         993         994         999         998
        1000        1001        1006        1005
        1001        1002        1007        1006
        1002        1003        1008        1007
        1003        1004        1009        1008
        1005        1006        1011        1010
        1006        1007        1012        1011
        1007        1008        1013        1012
        1008        1009        1014        1013
        1010        1011        1016        1015
        1011        1012        1017        1016
        1012        1013        1018        1017
        1013        1014        1019        1018
        1015        1016        1021        1020
        1016        1017        1022        1021
        1017        1018        1023        1022
        1018        1019        1024        1023
        1025        1026        1031        1030
        1026        1027        1032        1031
        1027        1028        1033        1032
        1028        1029        1034        1033
        1030        1031        1036        1035
        1031        1032        1037        1036
        1032        1033        1038        1037
        1033        1034        1039        1038
        1035        1036        1041        1040
        1036        1037        1042        1041
        1037        1038        1043        1042
        1038        1039        1044        1043
        1040        1041        1046        1045
        1041        1042        1047        1046
        1042        1043        1048        1047
        1043        1044        1049        1048
        1050        1051        1056        1055
        1051        1052        1057        1056
        1052        1053        1058        1057
        1053        1054        1059        1058
        1055        1056        1061        1060
        1056        1057        1062        1061
        1057        1058        1063        1062
        1058        1059        1064        1063
        1060        1061        1066        1065
        1061        1062        1067        1066
        1062        1063        1068        1067
        1063        1064        1069        1068
        1065        1066        1071        1070
        1066        1067        1072        1071
        1067        1068        1073        1072
        1068        1069        1074        1073
        1075        1076        1081        1080
        1076        1077        1082        1081
        1077        1078        1083        1082
        1078        1079        1084        1083
        1080        1081        1086        1085
        1081        1082        1087        1086
        1082        1083        1088        1087
        1083        1084        1089        1088
        1085        1086        1091        1090
        1086        1087        1092        1091
        1087        1088        1093        1092
        1088        1089        1094        1093
        1090        1091        1096        1095
        1091        1092        1097        1096
        1092        1093        1098        1097
        1093        1094        1099        1098
        1100        1101        1106        1105
        1101        1102        1107        1106
        1102        1103        1108        1107
        1103        1104        1109        1108
        1105        1106        1111        1110
        1106        1107        1112        1111
        1107        1108        1113        1112
        1108        1109        1114        1113
        1110        1111        1116        1115
        1111        1112        1117        1116
        1112        1113        1118        1117
        1113        1114        1119        1118
        1115        1116        1121        1120
        1116        1117        1122        1121
        1117        1118        1123        1122
        1118        1119        1124        1123
        1125        1126        1131        1130
        1126        1127        1132        1131
        1127        1128        1133        1132
        1128        1129        1134        1133
        1130        1131        1136        1135
        1131        1132        1137        1136
        1132        1133        1138        1137
        1133        1134        1139        1138
        1135        1136        1141        1140
        1136        1137        1142        1141
        1137        1138        1143        1142
        1138        1139        1144        1143
        1140        1141        1146        1145
        1141        1142        1147        1146
        1142        1143        1148        1147
        1143        1144        1149        1148
        1150        1151        1156        1155
        1151        1152        1157        1156
        1152        1153        1158        1157
        1153        1154        1159        1158
        1155        1156        1161        1160
        1156        1157        1162        1161
        1157        1158        1163        1162
        1158        1159        1164        1163
        1160        1161        1166        1165
        1161        1162        1167        1166
        1162        1163        1168        1167
        1163        1164        1169        1168
        1165        1166        1171        1170
        1166        1167        1172        1171
        1167        1168        1173        1172
        1168        1169        1174        1173
        1175        1176        1181        1180
        1176        1177        1182        1181
        1177        1178        1183        1182
        1178        1179        1184        1183
        1180        1181        1186        1185
        1181        1182        1187        1186
        1182        1183        1188        1187
        1183        1184        1189        1188
        1185        1186        1191        1190
        1186        1187        1192        1191
        1187        1188        1193        1192
        1188        1189        1194        1193
        1190        1191        1196        1195
        1191        1192        1197        1196
        1192        1193        1198        1197
        1193        1194        1199        1198
        1200        1201        1206        1205
        1201        1202        1207        1206
        1202        1203        1208        1207
        1203        1204        1209        1208
        1205        1206        1211        1210
        1206        1207        1212        1211
        1207        1208        1213        1212
        1208        1209        1214        1213
        1210        1211        1216        1215
        1211        1212        1217        1216
        1212        1213        1218        1217
        1213        1214        1219        1218
        1215        1216        1221        1220
        1216        1217        1222        1221
        1217        1218        1223        1222
        1218        1219        1224        1223
        1225        1226        1231        1230
        1226        1227        1232        1231
        1227        1228        1233        1232
        1228        1229        1234        1233
        1230        1231        1236        1235
        1231        1232        1237        1236
        1232        1233        1238        1237
        1233        1234        1239        1238
        1235        1236        1241        1240
        1236        1237        1242        1241
        1237        1238        1243        1242
        1238        1239        1244        1243
        1240        1241        1246        1245
        1241        1242        1247        1246
        1242        1243        1248        1247
        1243        1244        1249        1248
        1250        1251        1256        1255
        1251        1252        1257        1256
        1252        1253        1258        1257
        1253        1254        1259        1258
        1255        1256        1261        1260
        1256        1257        1262        1261
        1257        1258        1263        1262
        1258        1259        1264        1263
        1260        1261        1266        1265
        1261        1262        1267        1266
        1262        1263        1268        1267
        1263        1264        1269        1268
        1265        1266        1271        1270
        1266        1267        1272        1271
        1267        1268        1273        1272
        1268        1269        1274        1273
        1275        1276        1281        1280
        1276        1277        1282        1281
        1277        1278        1283        1282
        1278        1279        1284        1283
        1280        1281        1286        1285
        1281        1282        1287        1286
        1282        1283        1288        1287
        1283        1284        1289        1288
        1285        1286        1291        1290
        1286        1287        1292        1291
        1287        1288        1293        1292
        1288        1289        1294        1293
        1290        1291        1296        1295
        1291        1292        1297        1296
        1292        1293        1298        1297
        1293        1294        1299        1298
        1300        1301        1306        1305
        1301        1302        1307        1306
        1302        1303        1308        1307
        1303        1304        1309        1308
        1305        1306        1311        1310
        1306        1307        1312        1311
        1307        1308        1313        1312
        1308        1309        1314        1313
        1310        1311        1316        1315
        1311        1312        1317        1316
        1312        1313        1318        1317
        1313        1314        1319        1318
        1315        1316        1321        1320
        1316        1317        1322        1321
        1317        1318        1323        1322
        1318        1319        1324        1323
        1325        1326        1331        1330
        1326        1327        1332        1331
        1327        1328        1333        1332
        1328        1329        1334        1333
        1330        1331        1336        1335
        1331        1332        1337        1336
        1332        1333        1338        1337
        1333        1334        1339        1338
        1335        1336        1341        1340
        1336        1337        1342        1341
        1337        1338        1343        1342
        1338        1339        1344        1343
        1340        1341        1346        1345
        1341        1342        1347        1346
        1342        1343        1348        1347
        1343        1344        1349        1348
        1350        1351        1356        1355
        1351        1352        1357        1356
        1352        1353        1358        1357
        1353        1354        1359        1358
        1355        1356        1361        1360
        1356        1357        1362        1361
        1357        1358        1363        1362
        1358        1359        1364        1363
        1360        1361        1366        1365
        1361        1362        1367        1366
        1362        1363        1368        1367
        1363        1364        1369        1368
        1365        1366        1371        1370
        1366        1367        1372        1371
        1367        1368        1373        1372
        1368        1369        1374        1373
        1375        1376        1381        1380
        1376        1377        1382        1381
        1377        1378        1383        1382
        1378        1379        1384        1383
        1380        1381        1386        1385
        1381        1382        1387        1386
        1382        1383        1388        1387
        1383        1384        1389        1388
        1385        1386        1391        1390
        1386        1387        1392        1391
        1387        1388        1393        1392
        1388        1389        1394        1393
        1390        1391        1396        1395
        1391        1392        1397        1396
        1392        1393        1398        1397
        1393        1394        1399        1398
        1400        1401        1406        1405
        1401        1402        1407        1406
        1402        1403        1408        1407
        1403        1404        1409        1408
        1405        1406        1411        1410
        1406        1407        1412        1411
        1407        1408        1413        1412
        1408        1409        1414        1413
        1410        1411        1416        1415
        1411        1412        1417        1416
        1412        1413        1418        1417
        1413        1414        1419        1418
        1415        1416        1421        1420
        1416        1417        1422        1421
        1417        1418        1423        1422
        1418        1419        1424        1423
        1425        1426        1431        1430
        1426        1427        1432        1431
        1427        1428        1433        1432
        1428        1429        1434        1433
        1430        1431        1436        1435
        1431        1432        1437        1436
        1432        1433        1438        1437
        1433        1434        1439        1438
        1435        1436        1441        1440
        1436        1437        1442        1441
        1437        1438        1443        1442
        1438        1439        1444        1443
        1440        1441        1446        1445
        1441        1442        1447        1446
        1442        1443        1448        1447
        1443        1444        1449        1448
        1450        1451        1456        1455
        1451        1452        1457        1456
        1452        1453        1458        1457
        1453        1454        1459        1458
        1455        1456        1461        1460
        1456        1457        1462        1461
        1457        1458        1463        1462
        1458        1459        1464        1463
        1460        1461        1466        1465
        1461        1462        1467        1466
        1462        1463        1468        1467
        1463        1464        1469        1468
        1465        1466        1471        1470
        1466        1467        1472        1471
        1467        1468        1473        1472
        1468        1469        1474        1473
        1475        1476        1481        1480
        1476        1477        1482        1481
        1477        1478        1483        1482
        1478        1479        1484        1483
        1480        1481        1486        1485
        1481        1482        1487        1486
        1482        1483        1488        1487
        1483        1484        1489        1488
        1485        1486        1491        1490
        1486        1487        1492        1491
        1487        1488        1493        1492
        1488        1489        1494        1493
        1490        1491        1496        1495
        1491        1492        1497        1496
        1492        1493        1498        1497
        1493        1494        1499        1498
        1500        1501        1506        1505
        1501        1502        1507        1506
        1502        1503        1508        1507
        1503        1504        1509        1508
        1505        1506        1511        1510
        1506        1507        1512        1511
        1507        1508        1513        1512
        1508        1509        1514        1513
        1510        1511        1516        1515
        1511        1512        1517        1516
        1512        1513        1518        1517
        1513        1514        1519        1518
        1515        1516        1521        1520
        1516        1517        1522        1521
        1517        1518        1523        1522
        1518        1519        1524        1523
        1525        1526        1531        1530
        1526        1527        1532        1531
        1527        1528        1533        1532
        1528        1529        1534        1533
        1530        1531        1536        1535
        1531        1532        1537        1536
        1532        1533        1538        1537
        1533        1534        1539        1538
        1535        1536        1541        1540
        1536        1537        1542        1541
        1537        1538        1543        1542
        1538        1539        1544        1543
        1540        1541        1546        1545
        1541        1542        1547        1546
        1542        1543        1548        1547
        1543        1544        1549        1548
        1550        1551        1556        1555
        1551        1552        1557        1556
        1552        1553        1558        1557
        1553        1554        1559        1558
        1555        1556        1561        1560
        1556        1557        1562        1561
        1557        1558        1563        1562
        1558        1559        1564        1563
        1560        1561        1566        1565
        1561        1562        1567        1566
        1562        1563        1568        1567
        1563        1564        1569        1568
        1565        1566        1571        1570
        1566        1567        1572        1571
        1567        1568        1573        1572
        1568        1569        1574        1573
        1575        1576        1581        1580
        1576        1577        1582        1581
        1577        1578        1583        1582
        1578        1579        1584        1583
        1580        1581        1586        1585
        1581        1582        1587        1586
        1582        1583        1588        1587
        1583        1584        1589        1588
        1585        1586        1591        1590
        1586        1587        1592        1591
        1587        1588        1593        1592
        1588        1589        1594        1593
        1590        1591        1596        1595
        1591        1592        1597        1596
        1592        1593        1598        1597
        1593        1594        1599        1598
 </DataArray>
 <DataArray  type="Int32"  Name="offsets"  format="ascii"> 
           4
           8
          12
          16
          20
          24
          28
          32
          36
          40
          44
          48
          52
          56
          60
          64
          68
          72
          76
          80
          84
          88
          92
          96
         100
         104
         108
         112
         116
         120
         124
         128
         132
         136
         140
         144
         148
         152
         156
         160
         164
         168
         172
         176
         180
         184
         188
         192
         196
         200
         204
         208
         212
         216
         220
         224
         228
         232
         236
         240
         244
         248
         252
         256
         260
         264
         268
         272
         276
         280
         284
         288
         292
         296
         300
         304
         308
         312
         316
         320
         324
         328
         332
         336
         340
         344
         348
         352
         356
         360
         364
         368
         372
         376
         380
         384
         388
         392
         396
         400
         404
         408
         412
         416
         420
         424
         428
         432
         436
         440
         444
         448
         452
         456
         460
         464
         468
         472
         476
         480
         484
         488
         492
         496
         500
         504
         508
         512
         516
         520
         524
         528
         532
         536
         540
         544
         548
         552
         556
         560
         564
         568
         572
         576
         580
         584
         588
         592
         596
         600
         604
         608
         612
         616
         620
         624
         628
         632
         636
         640
         644
         648
         652
         656
         660
         664
         668
         672
         676
         680
         684
         688
         692
         696
         700
         704
         708
         712
         716
         720
         724
         728
         732
         736
         740
         744
         748
         752
         756
         760
         764
         768
         772
         776
         780
         784
         788
         792
         796
         800
         804
         808
         812
         816
         820
         824
         828
         832
         836
         840
         844
         848
         852
         856
         860
         864
         868
         872
         876
         880
         884
         888
         892
         896
         900
         904
         908
         912
         916
         920
         924
         928
         932
         936
         940
         944
         948
         952
         956
         960
         964
         968
         972
         976
         980
         984
         988
         992
         996
        1000
        1004
        1008
        1012
        1016
        1020
        1024
        1028
        1032
        1036
        1040
        1044
        1048
        1052
        1056
        1060
        1064
        1068
        1072
        1076
        1080
        1084
        1088
        1092
        1096
        1100
        1104
        1108
        1112
        1116
        1120
        1124
        1128
        1132
        1136
        1140
        1144
        1148
        1152
        1156
        1160
        1164
        1168
        1172
        1176
        1180
        1184
        1188
        1192
        1196
        1200
        1204
        1208
        1212
        1216
        1220
        1224
        1228
        1232
        1236
        1240
        1244
        1248
        1252
        1256
        1260
        1264
        1268
        1272
        1276
        1280
        1284
        1288
        1292
        1296
        1300
        1304
        1308
        1312
        1316
        1320
        1324
        1328
        1332
        1336
        1340
        1344
        1348
        1352
        1356
        1360
        1364
        1368
        1372
        1376
        1380
        1384
        1388
        1392
        1396
        1400
        1404
        1408
        1412
        1416
        1420
        1424
        1428
        1432
        1436
        1440
        1444
        1448
        1452
        1456
        1460
        1464
        1468
        1472
        1476
        1480
        1484
        1488
        1492
        1496
        1500
        1504
        1508
        1512
        1516
        1520
        1524
        1528
        1532
        1536
        1540
        1544
        1548
        1552
        1556
        1560
        1564
        1568
        1572
        1576
        1580
        1584
        1588
        1592
        1596
        1600
        1604
        1608
        1612
        1616
        1620
        1624
        1628
        1632
        1636
        1640
        1644
        1648
        1652
        1656
        1660
        1664
        1668
        1672
        1676
        1680
        1684
        1688
        1692
        1696
        1700
        1704
        1708
        1712
        1716
        1720
        1724
        1728
        1732
        1736
        1740
        1744
        1748
        1752
        1756
        1760
        1764
        1768
        1772
        1776
        1780
        1784
        1788
        1792
        1796
        1800
        1804
        1808
        1812
        1816
        1820
        1824
        1828
        1832
        1836
        1840
        1844
        1848
        1852
        1856
        1860
        1864
        1868
        1872
        1876
        1880
        1884
        1888
        1892
        1896
        1900
        1904
        1908
        1912
        1916
        1920
        1924
        1928
        1932
        1936
        1940
        1944
        1948
        1952
        1956
        1960
        1964
        1968
        1972
        1976
        1980
        1984
        1988
        1992
        1996
        2000
        2004
        2008
        2012
        2016
        2020
        2024
        2028
        2032
        2036
        2040
        2044
        2048
        2052
        2056
        2060
        2064
        2068
        2072
        2076
        2080
        2084
        2088
        2092
        2096
        2100
        2104
        2108
        2112
        2116
        2120
        2124
        2128
        2132
        2136
        2140
        2144
        2148
        2152
        2156
        2160
        2164
        2168
        2172
        2176
        2180
        2184
        2188
        2192
        2196
        2200
        2204
        2208
        2212
        2216
        2220
        2224
        2228
        2232
        2236
        2240
        2244
        2248
        2252
        2256
        2260
        2264
        2268
        2272
        2276
        2280
        2284
        2288
        2292
        2296
        2300
        2304
        2308
        2312
        2316
        2320
        2324
        2328
        2332
        2336
        2340
        2344
        2348
        2352
        2356
        2360
        2364
        2368
        2372
        2376
        2380
        2384
        2388
        2392
        2396
        2400
        2404
        2408
        2412
        2416
        2420
        2424
        2428
        2432
        2436
        2440
        2444
        2448
        2452
        2456
        2460
        2464
        2468
        2472
        2476
        2480
        2484
        2488
        2492
        2496
        2500
        2504
        2508
        2512
        2516
        2520
        2524
        2528
        2532
        2536
        2540
        2544
        2548
        2552
        2556
        2560
        2564
        2568
        2572
        2576
        2580
        2584
        2588
        2592
        2596
        2600
        2604
        2608
        2612
        2616
        2620
        2624
        2628
        2632
        2636
        2640
        2644
        2648
        2652
        2656
        2660
        2664
        2668
        2672
        2676
        2680
        2684
        2688
        2692
        2696
        2700
        2704
        2708
        2712
        2716
        2720
        2724
        2728
        2732
        2736
        2740
        2744
        2748
        2752
        2756
        2760
        2764
        2768
        2772
        2776
        2780
        2784
        2788
        2792
        2796
        2800
        2804
        2808
        2812
        2816
        2820
        2824
        2828
        2832
        2836
        2840
        2844
        2848
        2852
        2856
        2860
        2864
        2868
        2872
        2876
        2880
        2884
        2888
        2892
        2896
        2900
        2904
        2908
        2912
        2916
        2920
        2924
        2928
        2932
        2936
        2940
        2944
        2948
        2952
        2956
        2960
        2964
        2968
        2972
        2976
        2980
        2984
        2988
        2992
        2996
        3000
        3004
        3008
        3012
        3016
        3020
        3024
        3028
        3032
        3036
        3040
        3044
        3048
        3052
        3056
        3060
        3064
        3068
        3072
        3076
        3080
        3084
        3088
        3092
        3096
        3100
        3104
        3108
        3112
        3116
        3120
        3124
        3128
        3132
        3136
        3140
        3144
        3148
        3152
        3156
        3160
        3164
        3168
        3172
        3176
        3180
        3184
        3188
        3192
        3196
        3200
        3204
        3208
        3212
        3216
        3220
        3224
        3228
        3232
        3236
        3240
        3244
        3248
        3252
        3256
        3260
        3264
        3268
        3272
        3276
        3280
        3284
        3288
        3292
        3296
        3300
        3304
        3308
        3312
        3316
        3320
        3324
        3328
        3332
        3336
        3340
        3344
        3348
        3352
        3356
        3360
        3364
        3368
        3372
        3376
        3380
        3384
        3388
        3392
        3396
        3400
        3404
        3408
        3412
        3416
        3420
        3424
        3428
        3432
        3436
        3440
        3444
        3448
        3452
        3456
        3460
        3464
        3468
        3472
        3476
        3480
        3484
        3488
        3492
        3496
        3500
        3504
        3508
        3512
        3516
        3520
        3524
        3528
        3532
        3536
        3540
        3544
        3548
        3552
        3556
        3560
        3564
        3568
        3572
        3576
        3580
        3584
        3588
        3592
        3596
        3600
        3604
        3608
        3612
        3616
        3620
        3624
        3628
        3632
        3636
        3640
        3644
        3648
        3652
        3656
        3660
        3664
        3668
        3672
        3676
        3680
        3684
        3688
        3692
        3696
        3700
        3704
        3708
        3712
        3716
        3720
        3724
        3728
        3732
        3736
        3740
        3744
        3748
        3752
        3756
        3760
        3764
        3768
        3772
        3776
        3780
        3784
        3788
        3792
        3796
        3800
        3804
        3808
        3812
        3816
        3820
        3824
        3828
        3832
        3836
        3840
        3844
        3848
        3852
        3856
        3860
        3864
        3868
        3872
        3876
        3880
        3884
        3888
        3892
        3896
        3900
        3904
        3908
        3912
        3916
        3920
        3924
        3928
        3932
        3936
        3940
        3944
        3948
        3952
        3956
        3960
        3964
        3968
        3972
        3976
        3980
        3984
        3988
        3992
        3996
        4000
        4004
        4008
        4012
        4016
        4020
        4024
        4028
        4032
        4036
        4040
        4044
        4048
        4052
        4056
        4060
        4064
        4068
        4072
        4076
        4080
        4084
        4088
        4092
        4096
 </DataArray>
 <DataArray  type="UInt8"  Name="types"  format="ascii">
 9
 9
 9
 9
 9
 9
 9
 9
 9
 9
 9
 9
 9
 9
 9
 9
 9
 9
 9
 9
 9
 9
 9
 9
 9
 9
 9
 9
 9
 9
 9
 9
 9
 9
 9
 9
 9
 9
 9
 9
 9
 9
 9
 9
 9
 9
 9
 9
 9
 9
 9
 9
 9
 9
 9
 9
 9
 9
 9
 9
 9
 9
 9
 9
 9
 9
 9
 9
 9
 9
 9
 9
 9
 9
 9
 9
 9
 9
 9
 9
 9
 9
 9
 9
 9
 9
 9
 9
 9
 9
 9
 9
 9
 9
 9
 9
 9
 9
 9
 9
 9
 9
 9
 9
 9
 9
 9
 9
 9
 9
 9
 9
 9
 9
 9
 9
 9
 9
 9
 9
 9
 9
 9
 9
 9
 9
 9
 9
 9
 9
 9
 9
 9
 9
 9
 9
 9
 9
 9
 9
 9
 9
 9
 9
 9
 9
 9
 9
 9
 9
 9
 9
 9
 9
 9
 9
 9
 9
 9
 9
 9
 9
 9
 9
 9
 9
 9
 9
 9
 9
 9
 9
 9
 9
 9
 9
 9
 9
 9
 9
 9
 9
 9
 9
 9
 9
 9
 9
 9
 9
 9
 9
 9
 9
 9
 9
 9
 9
 9
 9
 9
 9
 9
 9
 9
 9
 9
 9
 9
 9
 9
 9
 9
 9
 9
 9
 9
 9
 9
 9
 9
 9
 9
 9
 9
 9
 9
 9
 9
 9
 9
 9
 9
 9
 9
 9
 9
 9
 9
 9
 9
 9
 9
 9
 9
 9
 9
 9
 9
 9
 9
 9
 9
 9
 9
 9
 9
 9
 9
 9
 9
 9
 9
 9
 9
 9
 9
 9
 9
 9
 9
 9
 9
 9
 9
 9
 9
 9
 9
 9
 9
 9
 9
 9
 9
 9
 9
 9
 9
 9
 9
 9
 9
 9
 9
 9
 9
 9
 9
 9
 9
 9
 9
 9
 9
 9
 9
 9
 9
 9
 9
 9
 9
 9
 9
 9
 9
 9
 9
 9
 9
 9
 9
 9
 9
 9
 9
 9
 9
 9
 9
 9
 9
 9
 9
 9
 9
 9
 9
 9
 9
 9
 9
 9
 9
 9
 9
 9
 9
 9
 9
 9
 9
 9
 9
 9
 9
 9
 9
 9
 9
 9
 9
 9
 9
 9
 9
 9
 9
 9
 9
 9
 9
 9
 9
 9
 9
 9
 9
 9
 9
 9
 9
 9
 9
 9
 9
 9
 9
 9
 9
 9
 9
 9
 9
 9
 9
 9
 9
 9
 9
 9
 9
 9
 9
 9
 9
 9
 9
 9
 9
 9
 9
 9
 9
 9
 9
 9
 9
 9
 9
 9
 9
 9
 9
 9
 9
 9
 9
 9
 9
 9
 9
 9
 9
 9
 9
 9
 9
 9
 9
 9
 9
 9
 9
 9
 9
 9
 9
 9
 9
 9
 9
 9
 9
 9
 9
 9
 9
 9
 9
 9
 9
 9
 9
 9
 9
 9
 9
 9
 9
 9
 9
 9
 9
 9
 9
 9
 9
 9
 9
 9
 9
 9
 9
 9
 9
 9
 9
 9
 9
 9
 9
 9
 9
 9
 9
 9
 9
 9
 9
 9
 9
 9
 9
 9
 9
 9
 9
 9
 9
 9
 9
 9
 9
 9
 9
 9
 9
 9
 9
 9
 9
 9
 9
 9
 9
 9
 9
 9
 9
 9
 9
 9
 9
 9
 9
 9
 9
 9
 9
 9
 9
 9
 9
 9
 9
 9
 9
 9
 9
 9
 9
 9
 9
 9
 9
 9
 9
 9
 9
 9
 9
 9
 9
 9
 9
 9
 9
 9
 9
 9
 9
 9
 9
 9
 9
 9
 9
 9
 9
 9
 9
 9
 9
 9
 9
 9
 9
 9
 9
 9
 9
 9
 9
 9
 9
 9
 9
 9
 9
 9
 9
 9
 9
 9
 9
 9
 9
 9
 9
 9
 9
 9
 9
 9
 9
 9
 9
 9
 9
 9
 9
 9
 9
 9
 9
 9
 9
 9
 9
 9
 9
 9
 9
 9
 9
 9
 9
 9
 9
 9
 9
 9
 9
 9
 9
 9
 9
 9
 9
 9
 9
 9
 9
 9
 9
 9
 9
 9
 9
 9
 9
 9
 9
 9
 9
 9
 9
 9
 9
 9
 9
 9
 9
 9
 9
 9
 9
 9
 9
 9
 9
 9
 9
 9
 9
 9
 9
 9
 9
 9
 9
 9
 9
 9
 9
 9
 9
 9
 9
 9
 9
 9
 9
 9
 9
 9
 9
 9
 9
 9
 9
 9
 9
 9
 9
 9
 9
 9
 9
 9
 9
 9
 9
 9
 9
 9
 9
 9
 9
 9
 9
 9
 9
 9
 9
 9
 9
 9
 9
 9
 9
 9
 9
 9
 9
 9
 9
 9
 9
 9
 9
 9
 9
 9
 9
 9
 9
 9
 9
 9
 9
 9
 9
 9
 9
 9
 9
 9
 9
 9
 9
 9
 9
 9
 9
 9
 9
 9
 9
 9
 9
 9
 9
 9
 9
 9
 9
 9
 9
 9
 9
 9
 9
 9
 9
 9
 9
 9
 9
 9
 9
 9
 9
 9
 9
 9
 9
 9
 9
 9
 9
 9
 9
 9
 9
 9
 9
 9
 9
 9
 9
 9
 9
 9
 9
 9
 9
 9
 9
 9
 9
 9
 9
 9
 9
 9
 9
 9
 9
 9
 9
 9
 9
 9
 9
 9
 9
 9
 9
 9
 9
 9
 9
 9
 9
 9
 9
 9
 9
 9
 9
 9
 9
 9
 9
 9
 9
 9
 9
 9
 9
 9
 9
 9
 9
 9
 9
 9
 9
 9
 9
 9
 9
 9
 9
 9
 9
 9
 9
 9
 9
 9
 9
 9
 9
 9
 9
 9
 9
 9
 9
 9
 9
 9
 9
 9
 9
 9
 9
 9
 9
 9
 9
 9
 9
 9
 9
 9
 9
 9
 9
 9
 9
 9
 9
 9
 9
 9
 9
 9
 9
 9
 9
 9
 9
 9
 9
 9
 9
 9
 9
 9
 9
 9
 9
 9
 9
 9
 9
 9
 9
 9
 9
 9
 9
 9
 9
 9
 9
 9
 9
 9
 9
 9
 9
 9
 9
 9
 9
 9
 9
 9
 9
 9
 9
 9
 9
 9
 9
 9
 9
 9
 9
 9
 9
 9
 9
 9
 9
 9
 9
 9
 9
 9
 9
 9
 9
 9
 9
 9
 9
 9
 9
 9
 9
 9
 9
 9
 9
 9
 9
 9
 9
 9
 9
 9
 9
 9
 9
 9
 9
 9
 </DataArray>
 </Cells> 
 <PointData>
 <DataArray  type="Float64" Name="disp" NumberOfComponents="3" format="ascii">
   0.0000000000000000        0.0000000000000000        0.0000000000000000     
   6.0957974064650517E-003   3.7905773830031984E-003   0.0000000000000000     
   1.1665751374714676E-002   7.3239541214796932E-003   0.0000000000000000     
   1.6709861904748873E-002   1.0600130215429484E-002   0.0000000000000000     
   2.1228128996567643E-002   1.3619105664852572E-002   0.0000000000000000     
   0.0000000000000000        0.0000000000000000        0.0000000000000000     
   4.8911563471945065E-003   3.0221967838835813E-003   0.0000000000000000     
   9.5735869534226171E-003   6.0605562262349014E-003   0.0000000000000000     
   1.4047291818684339E-002   9.1150783270539590E-003   0.0000000000000000     
   1.8312270942979658E-002   1.2185763086340760E-002   0.0000000000000000     
   0.0000000000000000        0.0000000000000000        0.0000000000000000     
   3.9536658572564155E-003   2.4251039960685233E-003   0.0000000000000000     
   7.9106912307303733E-003   5.0628618979542319E-003   0.0000000000000000     
   1.1871076120421872E-002   7.9132737056571267E-003   0.0000000000000000     
   1.5834820526330909E-002   1.0976339419177208E-002   0.0000000000000000     
   0.0000000000000000        0.0000000000000000        0.0000000000000000     
   3.2833259366507796E-003   1.9992990195580249E-003   0.0000000000000000     
   6.6770642066379376E-003   4.3308711366376873E-003   0.0000000000000000     
   1.0181214809961472E-002   6.9947163512389865E-003   0.0000000000000000     
   1.3795777746621387E-002   9.9908346633619249E-003   0.0000000000000000     
   0.0000000000000000        0.0000000000000000        0.0000000000000000     
   2.8801365853775981E-003   1.7447818543520855E-003   0.0000000000000000     
   5.8727058811453136E-003   3.8645839422852650E-003   0.0000000000000000     
   8.9777078873031456E-003   6.3594062637995375E-003   0.0000000000000000     
   1.2195142603851095E-002   9.2292488188949039E-003   0.0000000000000000     
   2.1228128996567643E-002   1.3619105664852572E-002   0.0000000000000000     
   2.5433317578004259E-002   1.6611800650484489E-002   0.0000000000000000     
   2.9538192576891987E-002   1.9809135353060760E-002   0.0000000000000000     
   3.3542753993230839E-002   2.3211109772581392E-002   0.0000000000000000     
   3.7447001827020800E-002   2.6817723909046375E-002   0.0000000000000000     
   1.8312270942979658E-002   1.2185763086340760E-002   0.0000000000000000     
   2.2406818396204481E-002   1.5341105518530566E-002   0.0000000000000000     
   2.6369228248254679E-002   1.8649600638058660E-002   0.0000000000000000     
   3.0199500499130259E-002   2.2111248444925027E-002   0.0000000000000000     
   3.3897635148831227E-002   2.5726048939129678E-002   0.0000000000000000     
   1.5834820526330909E-002   1.0976339419177208E-002   0.0000000000000000     
   1.9730327703301149E-002   1.4210890319659575E-002   0.0000000000000000     
   2.3486000906176255E-002   1.7575757688249326E-002   0.0000000000000000     
   2.7101840134956225E-002   2.1070941524946457E-002   0.0000000000000000     
   3.0577845389641055E-002   2.4696441829750972E-002   0.0000000000000000     
   1.3795777746621387E-002   9.9908346633619249E-003   0.0000000000000000     
   1.7403845499294267E-002   1.3221155053871513E-002   0.0000000000000000     
   2.0888510550656714E-002   1.6587606503632765E-002   0.0000000000000000     
   2.4249772900708722E-002   2.0090189012645681E-002   0.0000000000000000     
   2.7487632549450296E-002   2.3728902580910261E-002   0.0000000000000000     
   1.2195142603851095E-002   9.2292488188949039E-003   0.0000000000000000     
   1.5427371784183843E-002   1.2371899721166379E-002   0.0000000000000000     
   1.8576757181696064E-002   1.5685147084208980E-002   0.0000000000000000     
   2.1643298796387767E-002   1.9168990908022699E-002   0.0000000000000000     
   2.4626996628258947E-002   2.2823431192607546E-002   0.0000000000000000     
   3.7447001827020800E-002   2.6817723909046375E-002   0.0000000000000000     
   4.1255413994172797E-002   3.0623378335250452E-002   0.0000000000000000     
   4.4972468410597752E-002   3.4622473623988348E-002   0.0000000000000000     
   4.8598165076295656E-002   3.8815009775260069E-002   0.0000000000000000     
   5.2132503991266538E-002   4.3200986789065601E-002   0.0000000000000000     
   3.3897635148831227E-002   2.5726048939129678E-002   0.0000000000000000     
   3.7486599166318135E-002   2.9522343666499751E-002   0.0000000000000000     
   4.0989359520551563E-002   3.3528474172862387E-002   0.0000000000000000     
   4.4405916211531504E-002   3.7744440458217593E-002   0.0000000000000000     
   4.7736269239257959E-002   4.2170242522565377E-002   0.0000000000000000     
   3.0577845389641055E-002   2.4696441829750972E-002   0.0000000000000000     
   3.3943068477975159E-002   2.8496699889514355E-002   0.0000000000000000     
   3.7226561207702936E-002   3.2516156991088091E-002   0.0000000000000000     
   4.0428323578824400E-002   3.6754813134472160E-002   0.0000000000000000     
   4.3548355591339530E-002   4.1212668319666600E-002   0.0000000000000000     
   2.7487632549450296E-002   2.3728902580910261E-002   0.0000000000000000     
   3.0624821929143869E-002   2.7546447004294268E-002   0.0000000000000000     
   3.3684073472051893E-002   3.1585522078665426E-002   0.0000000000000000     
   3.6665387178174358E-002   3.5846127804023763E-002   0.0000000000000000     
   3.9568763047511273E-002   4.0328264180369264E-002   0.0000000000000000     
   2.4626996628258947E-002   2.2823431192607546E-002   0.0000000000000000     
   2.7531859519824269E-002   2.6671585010839469E-002   0.0000000000000000     
   3.0361896313598417E-002   3.0736569435594416E-002   0.0000000000000000     
   3.3117107009581384E-002   3.5018384466872381E-002   0.0000000000000000     
   3.5797491607773166E-002   3.9517030104673376E-002   0.0000000000000000     
   5.2132503991266538E-002   4.3200986789065601E-002   0.0000000000000000     
   5.5573065404884867E-002   4.7787647720853560E-002   0.0000000000000000     
   5.8917429566525154E-002   5.2582235626072539E-002   0.0000000000000000     
   6.2165596476187419E-002   5.7584750504722559E-002   0.0000000000000000     
   6.5317566133871630E-002   6.2795192356803586E-002   0.0000000000000000     
   4.7736269239257959E-002   4.2170242522565377E-002   0.0000000000000000     
   5.0976890160276470E-002   4.6800934862144469E-002   0.0000000000000000     
   5.4124250531132623E-002   5.1631571973193638E-002   0.0000000000000000     
   5.7178350351826390E-002   5.6662153855712875E-002   0.0000000000000000     
   6.0139189622357772E-002   6.1892680509702196E-002   0.0000000000000000     
   4.3548355591339530E-002   4.1212668319666600E-002   0.0000000000000000     
   4.6583124685611807E-002   4.5877746488538831E-002   0.0000000000000000     
   4.9529098302004693E-002   5.0738071582956332E-002   0.0000000000000000     
   5.2386276440518194E-002   5.5793643602919100E-002   0.0000000000000000     
   5.5154659101152290E-002   6.1044462548427131E-002   0.0000000000000000     
   3.9568763047511273E-002   4.0328264180369264E-002   0.0000000000000000     
   4.2391768980890872E-002   4.5018082600036653E-002   0.0000000000000000     
   4.5131972879141384E-002   4.9901734455360634E-002   0.0000000000000000     
   4.7789374742262809E-002   5.4979219746341207E-002   0.0000000000000000     
   5.0363974570255168E-002   6.0250538472978385E-002   0.0000000000000000     
   3.5797491607773166E-002   3.9517030104673376E-002   0.0000000000000000     
   3.8402823046113650E-002   4.4221943196637921E-002   0.0000000000000000     
   4.0932874262542676E-002   4.9122560590406525E-002   0.0000000000000000     
   4.3387645257060271E-002   5.4218882285979215E-002   0.0000000000000000     
   4.5767136029666408E-002   5.9510908283355979E-002   0.0000000000000000     
   6.5317566133871630E-002   6.2795192356803586E-002   0.0000000000000000     
   6.8375264858756710E-002   6.8196505271338859E-002   0.0000000000000000     
   7.1340618970021544E-002   7.3771633337351553E-002   0.0000000000000000     
   7.4213628467666132E-002   7.9520576554841682E-002   0.0000000000000000     
   7.6994293351690474E-002   8.5443334923809247E-002   0.0000000000000000     
   6.0139189622357772E-002   6.1892680509702196E-002   0.0000000000000000     
   6.3010977976606652E-002   6.7312582209703126E-002   0.0000000000000000     
   6.5797925048452874E-002   7.2911289230257179E-002   0.0000000000000000     
   6.8500030837896464E-002   7.8688801571364375E-002   0.0000000000000000     
   7.1117295344937367E-002   8.4645119233024729E-002   0.0000000000000000     
   5.5154659101152290E-002   6.1044462548427131E-002   0.0000000000000000     
   5.7839449950716146E-002   6.6484064599307280E-002   0.0000000000000000     
   6.0445852656018935E-002   7.2105985935386419E-002   0.0000000000000000     
   6.2973867217060622E-002   7.7910226556664519E-002   0.0000000000000000     
   6.5423493633841229E-002   8.3896786463141595E-002   0.0000000000000000     
   5.0363974570255168E-002   6.0250538472978385E-002   0.0000000000000000     
   5.2860680781085204E-002   6.5710952440151335E-002   0.0000000000000000     
   5.5284401792719713E-002   7.1355723452739231E-002   0.0000000000000000     
   5.7635137605158662E-002   7.7184851510742072E-002   0.0000000000000000     
   5.9912888218402086E-002   8.3198336614159873E-002   0.0000000000000000     
   4.5767136029666408E-002   5.9510908283355979E-002   0.0000000000000000     
   4.8074670467713819E-002   6.4993245732235291E-002   0.0000000000000000     
   5.0313572458555209E-002   7.0660501782315671E-002   0.0000000000000000     
   5.2483842002190570E-002   7.6512676433597077E-002   0.0000000000000000     
   5.4585479098619896E-002   8.2549769686079549E-002   0.0000000000000000     
   7.6994293351690474E-002   8.5443334923809247E-002   0.0000000000000000     
   7.9668882314170783E-002   9.1527082042180838E-002   0.0000000000000000     
   8.2223664047183259E-002   9.7758991507883045E-002   0.0000000000000000     
   8.4658638550727902E-002  0.10413906332091585        0.0000000000000000     
   8.6973805824804712E-002  0.11066729748127929        0.0000000000000000     
   7.1117295344937367E-002   8.4645119233024729E-002   0.0000000000000000     
   7.3632740305179453E-002   9.0763872980088020E-002   0.0000000000000000     
   7.6029387454226563E-002   9.7028693577404013E-002   0.0000000000000000     
   7.8307236792078669E-002  0.10343958102497276        0.0000000000000000     
   8.0466288318735785E-002  0.10999653532279421        0.0000000000000000     
   6.5423493633841229E-002   8.3896786463141595E-002   0.0000000000000000     
   6.7776488549355127E-002   9.0046693631084182E-002   0.0000000000000000     
   7.0014608606596598E-002   9.6340976036758799E-002   0.0000000000000000     
   7.2137853805565713E-002  0.10277963368016538        0.0000000000000000     
   7.4146224146262402E-002  0.10936266656130399        0.0000000000000000     
   5.9912888218402086E-002   8.3198336614159873E-002   0.0000000000000000     
   6.2100127046697727E-002   8.9375543995169379E-002   0.0000000000000000     
   6.4179327504293365E-002   9.5695838885947335E-002   0.0000000000000000     
   6.6150489591188980E-002  0.10215922128649374        0.0000000000000000     
   6.8013613307384591E-002  0.10876569119680859        0.0000000000000000     
   5.4585479098619896E-002   8.2549769686079549E-002   0.0000000000000000     
   5.6603655797207289E-002   8.8750424072343570E-002   0.0000000000000000     
   5.8523544147316836E-002   9.5093282124969675E-002   0.0000000000000000     
   6.0345144148948517E-002  0.10157834384395784        0.0000000000000000     
   6.2068455802102351E-002  0.10820560922930805        0.0000000000000000     
   8.6973805824804712E-002  0.11066729748127929        0.0000000000000000     
   8.9224166196982438E-002  0.11736771221142017        0.0000000000000000     
   9.1464719994829816E-002  0.12426432573378531        0.0000000000000000     
   9.3695467218346873E-002  0.13135713804837471        0.0000000000000000     
   9.5916407867533610E-002  0.13864614915518839        0.0000000000000000     
   8.0466288318735785E-002  0.10999653532279421        0.0000000000000000     
   8.2562891665463545E-002  0.11671822563404083        0.0000000000000000     
   8.4653396463527583E-002  0.12362332112188502        0.0000000000000000     
   8.6737802712927914E-002  0.13071182178632679        0.0000000000000000     
   8.8816110413664523E-002  0.13798372762736608        0.0000000000000000     
   7.4146224146262402E-002  0.10936266656130399        0.0000000000000000     
   7.6094489518637509E-002  0.11610497665001757        0.0000000000000000     
   7.8037419812641756E-002  0.12302146591614910        0.0000000000000000     
   7.9975015028275157E-002  0.13011213435969854        0.0000000000000000     
   8.1907275165537696E-002  0.13737698198066592        0.0000000000000000     
   6.8013613307384591E-002  0.10876569119680859        0.0000000000000000     
   6.9818959756504345E-002  0.11552796525935036        0.0000000000000000     
   7.1616790042172335E-002  0.12245876011657750        0.0000000000000000     
   7.3407104164388615E-002  0.12955807576849002        0.0000000000000000     
   7.5189902123153116E-002  0.13682591221508786        0.0000000000000000     
   6.2068455802102351E-002  0.10820560922930805        0.0000000000000000     
   6.3736302379064053E-002  0.11498719146203924        0.0000000000000000     
   6.5391507152119346E-002  0.12193520372317029        0.0000000000000000     
   6.7034070121268233E-002  0.12904964601270119        0.0000000000000000     
   6.8663991286510739E-002  0.13633051833063198        0.0000000000000000     
   9.5916407867533610E-002  0.13864614915518839        0.0000000000000000     
   9.8002373186517944E-002  0.14600216245821382        0.0000000000000000     
   9.9828194419427876E-002  0.15329598136143854        0.0000000000000000     
  0.10139387156626338       0.16052760586486256        0.0000000000000000     
  0.10269940462702448       0.16769703596848587        0.0000000000000000     
   8.8816110413664523E-002  0.13798372762736608        0.0000000000000000     
   9.0781121751132288E-002  0.14535470667324715        0.0000000000000000     
   9.2525638910726044E-002  0.15274042695221429        0.0000000000000000     
   9.4049661892445721E-002  0.16014088846426733        0.0000000000000000     
   9.5353190696291390E-002  0.16755609120940640        0.0000000000000000     
   8.1907275165537696E-002  0.13737698198066592        0.0000000000000000     
   8.3742707206536815E-002  0.14476135640945723        0.0000000000000000     
   8.5389818133379869E-002  0.15221060527647842        0.0000000000000000     
   8.6848607946066900E-002  0.15972472858172956        0.0000000000000000     
   8.8119076644597866E-002  0.16730372632521059        0.0000000000000000     
   7.5189902123153116E-002  0.13682591221508786        0.0000000000000000     
   7.6887129552731498E-002  0.14422211166684396        0.0000000000000000     
   7.8420732087389436E-002  0.15170651633423110        0.0000000000000000     
   7.9790709727126916E-002  0.15927912621724924        0.0000000000000000     
   8.0997062471943895E-002  0.16693994131589851        0.0000000000000000     
   6.8663991286510739E-002  0.13633051833063198        0.0000000000000000     
   7.0214388789716364E-002  0.14373697244540740        0.0000000000000000     
   7.1618380772754717E-002  0.15122816012547222        0.0000000000000000     
   7.2875967235625755E-002  0.15880408137082644        0.0000000000000000     
   7.3987148178329479E-002  0.16646473618147012        0.0000000000000000     
   0.0000000000000000        0.0000000000000000        0.0000000000000000     
   2.8801365853775981E-003   1.7447818543520855E-003   0.0000000000000000     
   5.8727058811453136E-003   3.8645839422852650E-003   0.0000000000000000     
   8.9777078873031456E-003   6.3594062637995375E-003   0.0000000000000000     
   1.2195142603851095E-002   9.2292488188949039E-003   0.0000000000000000     
   0.0000000000000000        0.0000000000000000        0.0000000000000000     
   2.6103109042013095E-003   1.5888802422505343E-003   0.0000000000000000     
   5.2897018895098737E-003   3.5566692567629622E-003   0.0000000000000000     
   8.0381729559256924E-003   5.9033670435372837E-003   0.0000000000000000     
   1.0855724103448766E-002   8.6289736025734979E-003   0.0000000000000000     
   0.0000000000000000        0.0000000000000000        0.0000000000000000     
   2.3400619938863535E-003   1.4589219250532007E-003   0.0000000000000000     
   4.7201378669889929E-003   3.2997960219367769E-003   0.0000000000000000     
   7.1402276193079190E-003   5.5226222906507279E-003   0.0000000000000000     
   9.6003312508431311E-003   8.1274007311950558E-003   0.0000000000000000     
   0.0000000000000000        0.0000000000000000        0.0000000000000000     
   2.0693898544327299E-003   1.3549069027600840E-003   0.0000000000000000     
   4.1640138135826711E-003   3.0939642378067073E-003   0.0000000000000000     
   6.2838718774498262E-003   5.2171720051398711E-003   0.0000000000000000     
   8.4289640460341927E-003   7.7245302047595733E-003   0.0000000000000000     
   0.0000000000000000        0.0000000000000000        0.0000000000000000     
   1.7982944858404380E-003   1.2768351753711842E-003   0.0000000000000000     
   3.6213297292909084E-003   2.9391739043727553E-003   0.0000000000000000     
   5.4691057303514114E-003   4.9870161870047116E-003   0.0000000000000000     
   7.3416224890219478E-003   7.4203620232670547E-003   0.0000000000000000     
   1.2195142603851095E-002   9.2292488188949039E-003   0.0000000000000000     
   1.5427371784183843E-002   1.2371899721166379E-002   0.0000000000000000     
   1.8576757181696064E-002   1.5685147084208980E-002   0.0000000000000000     
   2.1643298796387767E-002   1.9168990908022699E-002   0.0000000000000000     
   2.4626996628258947E-002   2.2823431192607546E-002   0.0000000000000000     
   1.0855724103448766E-002   8.6289736025734979E-003   0.0000000000000000     
   1.3689004791095201E-002   1.1651065558516806E-002   0.0000000000000000     
   1.6484664477881113E-002   1.4887219536012412E-002   0.0000000000000000     
   1.9242703163806493E-002   1.8337435535060311E-002   0.0000000000000000     
   2.1963120848871340E-002   2.2001713555660506E-002   0.0000000000000000     
   9.6003312508431311E-003   8.1274007311950558E-003   0.0000000000000000     
   1.2076842753153691E-002   1.1046593802895426E-002   0.0000000000000000     
   1.4546156117798664E-002   1.4212663965077511E-002   0.0000000000000000     
   1.7008271344778048E-002   1.7625611217741310E-002   0.0000000000000000     
   1.9463188434091845E-002   2.1285435560886825E-002   0.0000000000000000     
   8.4289640460341927E-003   7.7245302047595733E-003   0.0000000000000000     
   1.0590885670359313E-002   1.0558484454302235E-002   0.0000000000000000     
   1.2761232101448727E-002   1.3661480371404276E-002   0.0000000000000000     
   1.4940003339302439E-002   1.7033517956065693E-002   0.0000000000000000     
   1.7127199383920447E-002   2.0674597208286495E-002   0.0000000000000000     
   7.3416224890219478E-003   7.4203620232670547E-003   0.0000000000000000     
   9.2311335427120601E-003   1.0186737512737236E-002   0.0000000000000000     
   1.1129892428831299E-002   1.3233668754992706E-002   0.0000000000000000     
   1.3037899147379661E-002   1.6561155750033470E-002   0.0000000000000000     
   1.4955153698357149E-002   2.0169198497859517E-002   0.0000000000000000     
   2.4626996628258947E-002   2.2823431192607546E-002   0.0000000000000000     
   2.7531859519824269E-002   2.6671585010839469E-002   0.0000000000000000     
   3.0361896313598417E-002   3.0736569435594416E-002   0.0000000000000000     
   3.3117107009581384E-002   3.5018384466872381E-002   0.0000000000000000     
   3.5797491607773166E-002   3.9517030104673376E-002   0.0000000000000000     
   2.1963120848871340E-002   2.2001713555660506E-002   0.0000000000000000     
   2.4629408747950467E-002   2.5878578231305332E-002   0.0000000000000000     
   2.7225058075918671E-002   2.9966554195487129E-002   0.0000000000000000     
   2.9750068832775936E-002   3.4265641448205882E-002   0.0000000000000000     
   3.2204441018522288E-002   3.8775839989461602E-002   0.0000000000000000     
   1.9463188434091845E-002   2.1285435560886825E-002   0.0000000000000000     
   2.1882697111456583E-002   2.5173890987847218E-002   0.0000000000000000     
   2.4238587102588804E-002   2.9272731491955643E-002   0.0000000000000000     
   2.6530858407488502E-002   3.3581957073212106E-002   0.0000000000000000     
   2.8759511026155673E-002   3.8101567731616610E-002   0.0000000000000000     
   1.7127199383920447E-002   2.0674597208286495E-002   0.0000000000000000     
   1.9291724610342620E-002   2.4557523280465107E-002   0.0000000000000000     
   2.1402483393608823E-002   2.8655101324999960E-002   0.0000000000000000     
   2.3459475733719062E-002   3.2967331341891060E-002   0.0000000000000000     
   2.5462701630673330E-002   3.7494213331138400E-002   0.0000000000000000     
   1.4955153698357149E-002   2.0169198497859517E-002   0.0000000000000000     
   1.6856491244608567E-002   2.4029475109159003E-002   0.0000000000000000     
   1.8716746948978721E-002   2.8113663694620077E-002   0.0000000000000000     
   2.0535920811467625E-002   3.2421764254242723E-002   0.0000000000000000     
   2.2314012832075267E-002   3.6953776788026971E-002   0.0000000000000000     
   3.5797491607773166E-002   3.9517030104673376E-002   0.0000000000000000     
   3.8402823046113650E-002   4.4221943196637921E-002   0.0000000000000000     
   4.0932874262542676E-002   4.9122560590406525E-002   0.0000000000000000     
   4.3387645257060271E-002   5.4218882285979215E-002   0.0000000000000000     
   4.5767136029666408E-002   5.9510908283355979E-002   0.0000000000000000     
   3.2204441018522288E-002   3.8775839989461602E-002   0.0000000000000000     
   3.4589834949161576E-002   4.3491047660073820E-002   0.0000000000000000     
   3.6907910940697695E-002   4.8405162300862087E-002   0.0000000000000000     
   3.9158668993130648E-002   5.3518183911826382E-002   0.0000000000000000     
   4.1342109106460412E-002   5.8830112492966727E-002   0.0000000000000000     
   2.8759511026155673E-002   3.8101567731616610E-002   0.0000000000000000     
   3.0926352757916099E-002   4.2827115372075557E-002   0.0000000000000000     
   3.3033191402095562E-002   4.7754151899495348E-002   0.0000000000000000     
   3.5080026958694048E-002   5.2882677313875991E-002   0.0000000000000000     
   3.7066859427711575E-002   5.8212691615217464E-002   0.0000000000000000     
   2.5462701630673330E-002   3.7494213331138400E-002   0.0000000000000000     
   2.7412376472377202E-002   4.2230146332643125E-002   0.0000000000000000     
   2.9308715646736254E-002   4.7169529386306315E-002   0.0000000000000000     
   3.1151719153750479E-002   5.2312362492128020E-002   0.0000000000000000     
   3.2941386993419884E-002   5.7658645650108212E-002   0.0000000000000000     
   2.2314012832075267E-002   3.6953776788026971E-002   0.0000000000000000     
   2.4047906092544900E-002   4.1700140541776481E-002   0.0000000000000000     
   2.5734483674619796E-002   4.6651294761294995E-002   0.0000000000000000     
   2.7373745578299944E-002   5.1807239446582484E-002   0.0000000000000000     
   2.8965691803585346E-002   5.7167974597638949E-002   0.0000000000000000     
   4.5767136029666408E-002   5.9510908283355979E-002   0.0000000000000000     
   4.8074670467713819E-002   6.4993245732235291E-002   0.0000000000000000     
   5.0313572458555209E-002   7.0660501782315671E-002   0.0000000000000000     
   5.2483842002190570E-002   7.6512676433597077E-002   0.0000000000000000     
   5.4585479098619896E-002   8.2549769686079549E-002   0.0000000000000000     
   4.1342109106460412E-002   5.8830112492966727E-002   0.0000000000000000     
   4.3459677660038581E-002   6.4333894539830877E-002   0.0000000000000000     
   4.5512821033216709E-002   7.0022476547966617E-002   0.0000000000000000     
   4.7501539225994795E-002   7.5895858517373987E-002   0.0000000000000000     
   4.9425832238372852E-002   8.1954040448052934E-002   0.0000000000000000     
   3.7066859427711575E-002   5.8212691615217464E-002   0.0000000000000000     
   3.8993961007496067E-002   6.3735848927209821E-002   0.0000000000000000     
   4.0861603896395489E-002   6.9443803373543098E-002   0.0000000000000000     
   4.2669788094409820E-002   7.5336554954217261E-002   0.0000000000000000     
   4.4418513601539096E-002   8.1414103669232352E-002   0.0000000000000000     
   3.2941386993419884E-002   5.7658645650108212E-002   0.0000000000000000     
   3.4677520510086296E-002   6.3199108894372150E-002   0.0000000000000000     
   3.6359921048091548E-002   6.8924482259045072E-002   0.0000000000000000     
   3.7988588607435668E-002   7.4834765744126966E-002   0.0000000000000000     
   3.9563523188118614E-002   8.0929959349617817E-002   0.0000000000000000     
   2.8965691803585346E-002   5.7167974597638949E-002   0.0000000000000000     
   3.0510356167809255E-002   6.2723674441317823E-002   0.0000000000000000     
   3.2007772488304900E-002   6.8464513204472499E-002   0.0000000000000000     
   3.3457940765072296E-002   7.4390490887103006E-002   0.0000000000000000     
   3.4860860998111434E-002   8.0501607489209315E-002   0.0000000000000000     
   5.4585479098619896E-002   8.2549769686079549E-002   0.0000000000000000     
   5.6603655797207289E-002   8.8750424072343570E-002   0.0000000000000000     
   5.8523544147316836E-002   9.5093282124969675E-002   0.0000000000000000     
   6.0345144148948517E-002  0.10157834384395784        0.0000000000000000     
   6.2068455802102351E-002  0.10820560922930805        0.0000000000000000     
   4.9425832238372852E-002   8.1954040448052934E-002   0.0000000000000000     
   5.1274041236343791E-002   8.8175464198654616E-002   0.0000000000000000     
   5.3034507385900528E-002   9.4538571627830054E-002   0.0000000000000000     
   5.4707230687043078E-002  0.10104336273557935        0.0000000000000000     
   5.6292211139771411E-002  0.10768983752190242        0.0000000000000000     
   4.4418513601539096E-002   8.1414103669232352E-002   0.0000000000000000     
   4.6098249799567163E-002   8.7654794710150225E-002   0.0000000000000000     
   4.7699466070277932E-002   9.4036973268532748E-002   0.0000000000000000     
   4.9222162413671403E-002  0.10056063934437993        0.0000000000000000     
   5.0666338829747568E-002  0.10722579293769176        0.0000000000000000     
   3.9563523188118614E-002   8.0929959349617817E-002   0.0000000000000000     
   4.1076281486877413E-002   8.7188415606830480E-002   0.0000000000000000     
   4.2518420200449047E-002   9.3588487047077770E-002   0.0000000000000000     
   4.3889939328833505E-002  0.10013017367035965        0.0000000000000000     
   4.5190838872030806E-002  0.10681347547667611        0.0000000000000000     
   3.4860860998111434E-002   8.0501607489209315E-002   0.0000000000000000     
   3.6208136298274546E-002   8.6776326888695354E-002   0.0000000000000000     
   3.7491369776413860E-002   9.3193112963465066E-002   0.0000000000000000     
   3.8710561432529392E-002   9.9751965713518423E-002   0.0000000000000000     
   3.9865711266621119E-002  0.10645288513885542        0.0000000000000000     
   6.2068455802102351E-002  0.10820560922930805        0.0000000000000000     
   6.3736302379064053E-002  0.11498719146203924        0.0000000000000000     
   6.5391507152119346E-002  0.12193520372317029        0.0000000000000000     
   6.7034070121268233E-002  0.12904964601270119        0.0000000000000000     
   6.8663991286510739E-002  0.13633051833063198        0.0000000000000000     
   5.6292211139771411E-002  0.10768983752190242        0.0000000000000000     
   5.7824515377123353E-002  0.11449053426154923        0.0000000000000000     
   5.9339210032136665E-002  0.12145799122926969        0.0000000000000000     
   6.0836295104811366E-002  0.12859220842506380        0.0000000000000000     
   6.2315770595147438E-002  0.13589318584893159        0.0000000000000000     
   5.0666338829747568E-002  0.10722579293769176        0.0000000000000000     
   5.2061596741488983E-002  0.11404587266134540        0.0000000000000000     
   5.3437537571878198E-002  0.12103431712821801        0.0000000000000000     
   5.4794161320915212E-002  0.12819112633830956        0.0000000000000000     
   5.6131467988600019E-002  0.13551630029162007        0.0000000000000000     
   4.5190838872030806E-002  0.10681347547667611        0.0000000000000000     
   4.6447546472160949E-002  0.11365320666142778        0.0000000000000000     
   4.7686489771343946E-002  0.12066418142001521        0.0000000000000000     
   4.8907668769579797E-002  0.12784639975243844        0.0000000000000000     
   5.0111083466868503E-002  0.13519986165869749        0.0000000000000000     
   3.9865711266621119E-002  0.10645288513885542        0.0000000000000000     
   4.0982364569139229E-002  0.11331253626179631        0.0000000000000000     
   4.2086066630533894E-002  0.12034758410466134        0.0000000000000000     
   4.3176817450805108E-002  0.12755802866745050        0.0000000000000000     
   4.4254617029952883E-002  0.13494386995016375        0.0000000000000000     
   6.8663991286510739E-002  0.13633051833063198        0.0000000000000000     
   7.0214388789716364E-002  0.14373697244540740        0.0000000000000000     
   7.1618380772754717E-002  0.15122816012547222        0.0000000000000000     
   7.2875967235625755E-002  0.15880408137082644        0.0000000000000000     
   7.3987148178329479E-002  0.16646473618147012        0.0000000000000000     
   6.2315770595147438E-002  0.13589318584893159        0.0000000000000000     
   6.3719440930122648E-002  0.14331263214392634        0.0000000000000000     
   6.4989110536714800E-002  0.15080225595310143        0.0000000000000000     
   6.6124779414923840E-002  0.15836205727645683        0.0000000000000000     
   6.7126447564749808E-002  0.16599203611399255        0.0000000000000000     
   5.6131467988600019E-002  0.13551630029162007        0.0000000000000000     
   5.7397241986581561E-002  0.14295578416117966        0.0000000000000000     
   5.8539267726508755E-002  0.15045552312001831        0.0000000000000000     
   5.9557545208381600E-002  0.15801551716813608        0.0000000000000000     
   6.0452074432200097E-002  0.16563576630553298        0.0000000000000000     
   5.0111083466868503E-002  0.13519986165869749        0.0000000000000000     
   5.1247791959093091E-002  0.14266642849716726        0.0000000000000000     
   5.2268852342136601E-002  0.15018796162622289        0.0000000000000000     
   5.3174264615999015E-002  0.15776446104586425        0.0000000000000000     
   5.3964028780680337E-002  0.16539592675609138        0.0000000000000000     
   4.4254617029952883E-002  0.13494386995016375        0.0000000000000000     
   4.5271090847657264E-002  0.14244456515188925        0.0000000000000000     
   4.6177864383598347E-002  0.14999957147171511        0.0000000000000000     
   4.6974937637776090E-002  0.15760888890964131        0.0000000000000000     
   4.7662310610190523E-002  0.16527251746566782        0.0000000000000000     
   0.0000000000000000        0.0000000000000000        0.0000000000000000     
   1.7982944858404380E-003   1.2768351753711842E-003   0.0000000000000000     
   3.6213297292909084E-003   2.9391739043727553E-003   0.0000000000000000     
   5.4691057303514114E-003   4.9870161870047116E-003   0.0000000000000000     
   7.3416224890219478E-003   7.4203620232670547E-003   0.0000000000000000     
   0.0000000000000000        0.0000000000000000        0.0000000000000000     
   1.5350279935850853E-003   1.2175814580503755E-003   0.0000000000000000     
   3.0994109399529804E-003   2.8209057347785595E-003   0.0000000000000000     
   4.6931488391036853E-003   4.8099728301845522E-003   0.0000000000000000     
   6.3162416910372008E-003   7.1847827442683525E-003   0.0000000000000000     
   0.0000000000000000        0.0000000000000000        0.0000000000000000     
   1.2878424831422775E-003   1.1700204659615312E-003   0.0000000000000000     
   2.6055827714081626E-003   2.7246404421677607E-003   0.0000000000000000     
   3.9532208647976548E-003   4.6638599286186891E-003   0.0000000000000000     
   5.3307567633107547E-003   6.9876789253143145E-003   0.0000000000000000     
   0.0000000000000000        0.0000000000000000        0.0000000000000000     
   1.0567379545120155E-003   1.1341521991046510E-003   0.0000000000000000     
   2.1398452236564554E-003   2.6503780265403594E-003   0.0000000000000000     
   3.2493218074333198E-003   4.5486774823071240E-003   0.0000000000000000     
   4.3851677058426080E-003   6.8290505664049461E-003   0.0000000000000000     
   0.0000000000000000        0.0000000000000000        0.0000000000000000     
   8.4171440769429892E-004   1.1099766574797355E-003   0.0000000000000000     
   1.7021982966978588E-003   2.5981184878963543E-003   0.0000000000000000     
   2.5814516670106800E-003   4.4644254912498569E-003   0.0000000000000000     
   3.4794745186327619E-003   6.7088976675402428E-003   0.0000000000000000     
   7.3416224890219478E-003   7.4203620232670547E-003   0.0000000000000000     
   9.2311335427120601E-003   1.0186737512737236E-002   0.0000000000000000     
   1.1129892428831299E-002   1.3233668754992706E-002   0.0000000000000000     
   1.3037899147379661E-002   1.6561155750033470E-002   0.0000000000000000     
   1.4955153698357149E-002   2.0169198497859517E-002   0.0000000000000000     
   6.3162416910372008E-003   7.1847827442683525E-003   0.0000000000000000     
   7.9559524166147519E-003   9.8957792776462467E-003   0.0000000000000000     
   9.5995439366975653E-003   1.2893406230934521E-002   0.0000000000000000     
   1.1247016251285644E-002   1.6177663604133183E-002   0.0000000000000000     
   1.2898369360378983E-002   1.9748551397242221E-002   0.0000000000000000     
   5.3307567633107547E-003   6.9876789253143145E-003   0.0000000000000000     
   6.7237083384701973E-003   9.6500360484750840E-003   0.0000000000000000     
   8.1175934617987149E-003   1.2604869914321450E-002   0.0000000000000000     
   9.5124121332963094E-003   1.5852180522853400E-002   0.0000000000000000     
   1.0908164352962983E-002   1.9391967874070944E-002   0.0000000000000000     
   4.3851677058426080E-003   6.8290505664049461E-003   0.0000000000000000     
   5.5344013082783920E-003   9.4495078252237533E-003   0.0000000000000000     
   6.6840410041347446E-003   1.2368059805153478E-002   0.0000000000000000     
   7.8340867934116633E-003   1.5584706506194118E-002   0.0000000000000000     
   8.9845386761091481E-003   1.9099447928345670E-002   0.0000000000000000     
   3.4794745186327619E-003   6.7088976675402428E-003   0.0000000000000000     
   4.3880313260393419E-003   9.2941946078922491E-003   0.0000000000000000     
   5.2988865637056543E-003   1.2182975903430614E-002   0.0000000000000000     
   6.2120402316316985E-003   1.5375241554155336E-002   0.0000000000000000     
   7.1274923298174780E-003   1.8870991560066414E-002   0.0000000000000000     
   1.4955153698357149E-002   2.0169198497859517E-002   0.0000000000000000     
   1.6856491244608567E-002   2.4029475109159003E-002   0.0000000000000000     
   1.8716746948978721E-002   2.8113663694620077E-002   0.0000000000000000     
   2.0535920811467625E-002   3.2421764254242723E-002   0.0000000000000000     
   2.2314012832075267E-002   3.6953776788026971E-002   0.0000000000000000     
   1.2898369360378983E-002   1.9748551397242221E-002   0.0000000000000000     
   1.4537355091334473E-002   2.3579988747987762E-002   0.0000000000000000     
   1.6147725271508994E-002   2.7645894794095904E-002   0.0000000000000000     
   1.7729479900902553E-002   3.1946269535566660E-002   0.0000000000000000     
   1.9282618979515147E-002   3.6481112972400018E-002   0.0000000000000000     
   1.0908164352962983E-002   1.9391967874070944E-002   0.0000000000000000     
   1.2294674227600371E-002   2.3199306471010220E-002   0.0000000000000000     
   1.3661765864010113E-002   2.7249270816707361E-002   0.0000000000000000     
   1.5009439262192207E-002   3.1541860911162373E-002   0.0000000000000000     
   1.6337694422146651E-002   3.6077076754375256E-002   0.0000000000000000     
   8.9845386761091481E-003   1.9099447928345670E-002   0.0000000000000000     
   1.0128448653406267E-002   2.2887428278226370E-002   0.0000000000000000     
   1.1258868726482078E-002   2.6923791762454432E-002   0.0000000000000000     
   1.2375798895336585E-002   3.1208538381029872E-002   0.0000000000000000     
   1.3479239159969786E-002   3.5741668133952666E-002   0.0000000000000000     
   7.1274923298174780E-003   1.8870991560066414E-002   0.0000000000000000     
   8.0386783687521543E-003   2.2644354169636224E-002   0.0000000000000000     
   8.9390338589248903E-003   2.6669457631337136E-002   0.0000000000000000     
   9.8285588003356860E-003   3.0946301945169157E-002   0.0000000000000000     
   1.0707253192984541E-002   3.5474887111132267E-002   0.0000000000000000     
   2.2314012832075267E-002   3.6953776788026971E-002   0.0000000000000000     
   2.4047906092544900E-002   4.1700140541776481E-002   0.0000000000000000     
   2.5734483674619796E-002   4.6651294761294995E-002   0.0000000000000000     
   2.7373745578299944E-002   5.1807239446582484E-002   0.0000000000000000     
   2.8965691803585346E-002   5.7167974597638949E-002   0.0000000000000000     
   1.9282618979515147E-002   3.6481112972400018E-002   0.0000000000000000     
   2.0800711999087926E-002   4.1236175659475890E-002   0.0000000000000000     
   2.2277328451362061E-002   4.6197208151674191E-002   0.0000000000000000     
   2.3712468336337542E-002   5.1364210448994904E-002   0.0000000000000000     
   2.5106131654014360E-002   5.6737182551438031E-002   0.0000000000000000     
   1.6337694422146651E-002   3.6077076754375256E-002   0.0000000000000000     
   1.7638564572675038E-002   4.0837329345741531E-002   0.0000000000000000     
   1.8904082942578948E-002   4.5805029684656717E-002   0.0000000000000000     
   2.0134249531858380E-002   5.0980177771120815E-002   0.0000000000000000     
   2.1329064340513335E-002   5.6362773605133830E-002   0.0000000000000000     
   1.3479239159969786E-002   3.5741668133952666E-002   0.0000000000000000     
   1.4561463813306225E-002   4.0503601600573397E-002   0.0000000000000000     
   1.5614747148270451E-002   4.5474759360242561E-002   0.0000000000000000     
   1.6639089164862460E-002   5.0655141412960215E-002   0.0000000000000000     
   1.7634489863082251E-002   5.6044747758726310E-002   0.0000000000000000     
   1.0707253192984541E-002   3.5474887111132267E-002   0.0000000000000000     
   1.1569409720981494E-002   4.0234992423971473E-002   0.0000000000000000     
   1.2409321068436575E-002   4.5206397178431751E-002   0.0000000000000000     
   1.3226987235349786E-002   5.0389101374513093E-002   0.0000000000000000     
   1.4022408221721128E-002   5.5783105012215506E-002   0.0000000000000000     
   2.8965691803585346E-002   5.7167974597638949E-002   0.0000000000000000     
   3.0510356167809255E-002   6.2723674441317823E-002   0.0000000000000000     
   3.2007772488304900E-002   6.8464513204472499E-002   0.0000000000000000     
   3.3457940765072296E-002   7.4390490887103006E-002   0.0000000000000000     
   3.4860860998111434E-002   8.0501607489209315E-002   0.0000000000000000     
   2.5106131654014360E-002   5.6737182551438031E-002   0.0000000000000000     
   2.6458753033850792E-002   6.2305893408703197E-002   0.0000000000000000     
   2.7770767105305079E-002   6.8060111970489973E-002   0.0000000000000000     
   2.9042173868377218E-002   7.3999838236798371E-002   0.0000000000000000     
   3.0272973323067217E-002   8.0125072207628378E-002   0.0000000000000000     
   2.1329064340513335E-002   5.6362773605133830E-002   0.0000000000000000     
   2.2488996161396768E-002   6.1942113637184618E-002   0.0000000000000000     
   2.3614513787361631E-002   6.7707494317761990E-002   0.0000000000000000     
   2.4705617218407926E-002   7.3658915646865969E-002   0.0000000000000000     
   2.5762306454535661E-002   7.9796377624496567E-002   0.0000000000000000     
   1.7634489863082251E-002   5.6044747758726310E-002   0.0000000000000000     
   1.8601085550447174E-002   6.1632335126762042E-002   0.0000000000000000     
   1.9539012534474563E-002   6.7406660246288552E-002   0.0000000000000000     
   2.0448270815164423E-002   7.3367723117305828E-002   0.0000000000000000     
   2.1328860392516750E-002   7.9515523739813868E-002   0.0000000000000000     
   1.4022408221721128E-002   5.5783105012215506E-002   0.0000000000000000     
   1.4795021201002016E-002   6.1376557877435525E-002   0.0000000000000000     
   1.5544263346643876E-002   6.7157609756069644E-002   0.0000000000000000     
   1.6270134658646702E-002   7.3126260648117905E-002   0.0000000000000000     
   1.6972635137010500E-002   7.9282510553580279E-002   0.0000000000000000     
   3.4860860998111434E-002   8.0501607489209315E-002   0.0000000000000000     
   3.6208136298274546E-002   8.6776326888695354E-002   0.0000000000000000     
   3.7491369776413860E-002   9.3193112963465066E-002   0.0000000000000000     
   3.8710561432529392E-002   9.9751965713518423E-002   0.0000000000000000     
   3.9865711266621119E-002  0.10645288513885542        0.0000000000000000     
   3.0272973323067217E-002   8.0125072207628378E-002   0.0000000000000000     
   3.1454673248611634E-002   8.6414311941479707E-002   0.0000000000000000     
   3.2578781424247034E-002   9.2846055496852015E-002   0.0000000000000000     
   3.3645297849973409E-002   9.9420302873745328E-002   0.0000000000000000     
   3.4654222525790764E-002  0.10613705407215961        0.0000000000000000     
   2.5762306454535661E-002   7.9796377624496567E-002   0.0000000000000000     
   2.6776751352741761E-002   8.6098154150918357E-002   0.0000000000000000     
   2.7741121770023188E-002   9.2542519126395953E-002   0.0000000000000000     
   2.8655417706379919E-002   9.9129472550929340E-002   0.0000000000000000     
   2.9519639161811981E-002  0.10585901442451850        0.0000000000000000     
   2.1328860392516750E-002   7.9515523739813868E-002   0.0000000000000000     
   2.2174370610664924E-002   8.5827853517011346E-002   0.0000000000000000     
   2.2978390813742318E-002   9.2282503852096881E-002   0.0000000000000000     
   2.3740921001748932E-002   9.8879474745070473E-002   0.0000000000000000     
   2.4461961174684767E-002  0.10561876619593213        0.0000000000000000     
   1.6972635137010500E-002   7.9282510553580279E-002   0.0000000000000000     
   1.7647531022381126E-002   8.5603410039758618E-002   0.0000000000000000     
   1.8290588555404438E-002   9.2066009673954771E-002   0.0000000000000000     
   1.8901807736080439E-002   9.8670309456168726E-002   0.0000000000000000     
   1.9481188564409127E-002  0.10541630938640048        0.0000000000000000     
   3.9865711266621119E-002  0.10645288513885542        0.0000000000000000     
   4.0982364569139229E-002  0.11331253626179631        0.0000000000000000     
   4.2086066630533894E-002  0.12034758410466134        0.0000000000000000     
   4.3176817450805108E-002  0.12755802866745050        0.0000000000000000     
   4.4254617029952883E-002  0.13494386995016375        0.0000000000000000     
   3.4654222525790764E-002  0.10613705407215961        0.0000000000000000     
   3.5630457564274173E-002  0.11301490923567617        0.0000000000000000     
   3.6598905077998692E-002  0.12007246850787623        0.0000000000000000     
   3.7559565066964340E-002  0.12730973188875988        0.0000000000000000     
   3.8512437531171104E-002  0.13472669937832707        0.0000000000000000     
   2.9519639161811981E-002  0.10585901442451850        0.0000000000000000     
   3.0356231989416085E-002  0.11275137335629236        0.0000000000000000     
   3.1187642042288986E-002  0.11982677795537981        0.0000000000000000     
   3.2013869320430668E-002  0.12708522822178087        0.0000000000000000     
   3.2834913823841134E-002  0.13452672415549552        0.0000000000000000     
   2.4461961174684767E-002  0.10561876619593213        0.0000000000000000     
   2.5159687844564987E-002  0.11252192862364496        0.0000000000000000     
   2.5852277523404764E-002  0.11961051244717207        0.0000000000000000     
   2.6539730211204090E-002  0.12688451766651349        0.0000000000000000     
   2.7222045907962965E-002  0.13434394428166915        0.0000000000000000     
   1.9481188564409127E-002  0.10541630938640048        0.0000000000000000     
   2.0040825129720871E-002  0.11232657503773397        0.0000000000000000     
   2.0592811521346031E-002  0.11942367198325302        0.0000000000000000     
   2.1137147739284608E-002  0.12670760022295766        0.0000000000000000     
   2.1673833783536604E-002  0.13417835975684791        0.0000000000000000     
   4.4254617029952883E-002  0.13494386995016375        0.0000000000000000     
   4.5271090847657264E-002  0.14244456515188925        0.0000000000000000     
   4.6177864383598347E-002  0.14999957147171511        0.0000000000000000     
   4.6974937637776090E-002  0.15760888890964131        0.0000000000000000     
   4.7662310610190523E-002  0.16527251746566782        0.0000000000000000     
   3.8512437531171104E-002  0.13472669937832707        0.0000000000000000     
   3.9410182482770180E-002  0.14226075636162325        0.0000000000000000     
   4.0205459933912724E-002  0.14984928822369389        0.0000000000000000     
   4.0898269884598763E-002  0.15749229496453904        0.0000000000000000     
   4.1488612334828270E-002  0.16518977658415865        0.0000000000000000     
   3.2834913823841134E-002  0.13452672415549552        0.0000000000000000     
   3.3608110694927910E-002  0.14208556436264691        0.0000000000000000     
   3.4290795076098515E-002  0.14969604744935813        0.0000000000000000     
   3.4882966967352935E-002  0.15735817341562927        0.0000000000000000     
   3.5384626368691191E-002  0.16507194226146030        0.0000000000000000     
   2.7222045907962965E-002  0.13434394428166915        0.0000000000000000     
   2.7864875484130480E-002  0.14191898915496021        0.0000000000000000     
   2.8433869810155703E-002  0.14953984914870788        0.0000000000000000     
   2.8929028886038634E-002  0.15720652426291204        0.0000000000000000     
   2.9350352711779278E-002  0.16491901449757276        0.0000000000000000     
   2.1673833783536604E-002  0.13417835975684791        0.0000000000000000     
   2.2180476850377880E-002  0.14176103073856322        0.0000000000000000     
   2.2634684136084295E-002  0.14938069332174300        0.0000000000000000     
   2.3036455640655845E-002  0.15703734750638731        0.0000000000000000     
   2.3385791364092537E-002  0.16473099329249608        0.0000000000000000     
   0.0000000000000000        0.0000000000000000        0.0000000000000000     
   8.4171440769429892E-004   1.1099766574797355E-003   0.0000000000000000     
   1.7021982966978588E-003   2.5981184878963543E-003   0.0000000000000000     
   2.5814516670106800E-003   4.4644254912498569E-003   0.0000000000000000     
   3.4794745186327619E-003   6.7088976675402428E-003   0.0000000000000000     
   0.0000000000000000        0.0000000000000000        0.0000000000000000     
   6.3387165743373792E-004   1.0939410812752998E-003   0.0000000000000000     
   1.2781118714708076E-003   2.5620213117976526E-003   0.0000000000000000     
   1.9327206421112090E-003   4.4042406915670599E-003   0.0000000000000000     
   2.5976979693549426E-003   6.6205992205835198E-003   0.0000000000000000     
   0.0000000000000000        0.0000000000000000        0.0000000000000000     
   4.2430951847494331E-004   1.0824927106798581E-003   0.0000000000000000     
   8.5305582891373704E-004   2.5362459838061593E-003   0.0000000000000000     
   1.2862389313163811E-003   4.3612598193789034E-003   0.0000000000000000     
   1.7238588256828756E-003   6.5575342173980920E-003   0.0000000000000000     
   0.0000000000000000        0.0000000000000000        0.0000000000000000     
   2.1302799081791496E-004   1.0756315456934109E-003   0.0000000000000000     
   4.2703016902664702E-004   2.5207925039218743E-003   0.0000000000000000     
   6.4200653462619605E-004   4.3354828746853891E-003   0.0000000000000000     
   8.5795708761656213E-004   6.5197026579839560E-003   0.0000000000000000     
   0.0000000000000000        0.0000000000000000        0.0000000000000000     
   2.7074462652913354E-008   1.0733575863159581E-003   0.0000000000000000     
   3.4891809537452266E-008   2.5156608721447968E-003   0.0000000000000000     
   2.3452040653806471E-008   4.3269098574865161E-003   0.0000000000000000     
  -7.2448439983763963E-009   6.5071045423411161E-003   0.0000000000000000     
   3.4794745186327619E-003   6.7088976675402428E-003   0.0000000000000000     
   4.3880313260393419E-003   9.2941946078922491E-003   0.0000000000000000     
   5.2988865637056543E-003   1.2182975903430614E-002   0.0000000000000000     
   6.2120402316316985E-003   1.5375241554155336E-002   0.0000000000000000     
   7.1274923298174780E-003   1.8870991560066414E-002   0.0000000000000000     
   2.5976979693549426E-003   6.6205992205835198E-003   0.0000000000000000     
   3.2701011079312196E-003   9.1780785073121846E-003   0.0000000000000000     
   3.9469873125692542E-003   1.2043660160218196E-002   0.0000000000000000     
   4.6283565832690452E-003   1.5217344179301564E-002   0.0000000000000000     
   5.3142089200305951E-003   1.8699130564562277E-002   0.0000000000000000     
   1.7238588256828756E-003   6.5575342173980920E-003   0.0000000000000000     
   2.1661133701322060E-003   9.0951416343151657E-003   0.0000000000000000     
   2.6132004227833565E-003   1.1944154526581572E-002   0.0000000000000000     
   3.0651199836363276E-003   1.5104572894197308E-002   0.0000000000000000     
   3.5218720526911194E-003   1.8576396737162375E-002   0.0000000000000000     
   8.5795708761656213E-004   6.5197026579839560E-003   0.0000000000000000     
   1.0760681126422988E-003   9.0453839889011976E-003   0.0000000000000000     
   1.2975258943479595E-003   1.1884459002520737E-002   0.0000000000000000     
   1.5223304327335442E-003   1.5036927698842574E-002   0.0000000000000000     
   1.7504817277990529E-003   1.8502790077866711E-002   0.0000000000000000     
  -7.2448439983763963E-009   6.5071045423411161E-003   0.0000000000000000     
  -3.4664538500962143E-008   9.0288055710702822E-003   0.0000000000000000     
  -3.6272736936141838E-008   1.1864573588035696E-002   0.0000000000000000     
  -1.2069439304349160E-008   1.5014408593237358E-002   0.0000000000000000     
   3.7945354395174831E-008   1.8478310586675276E-002   0.0000000000000000     
   7.1274923298174780E-003   1.8870991560066414E-002   0.0000000000000000     
   8.0386783687521543E-003   2.2644354169636224E-002   0.0000000000000000     
   8.9390338589248903E-003   2.6669457631337136E-002   0.0000000000000000     
   9.8285588003356860E-003   3.0946301945169157E-002   0.0000000000000000     
   1.0707253192984541E-002   3.5474887111132267E-002   0.0000000000000000     
   5.3142089200305951E-003   1.8699130564562277E-002   0.0000000000000000     
   5.9976052796528265E-003   2.2461784542242028E-002   0.0000000000000000     
   6.6716066189346692E-003   2.6478071338582498E-002   0.0000000000000000     
   7.3362129378761213E-003   3.0747990953583670E-002   0.0000000000000000     
   7.9914242364771855E-003   3.5271543387245564E-002   0.0000000000000000     
   3.5218720526911194E-003   1.8576396737162375E-002   0.0000000000000000     
   3.9774712921230746E-003   2.2331419793046033E-002   0.0000000000000000     
   4.4259323641075354E-003   2.6341435799417532E-002   0.0000000000000000     
   4.8672552686445008E-003   3.0606444756276871E-002   0.0000000000000000     
   5.3014400057339733E-003   3.5126446663624057E-002   0.0000000000000000     
   1.7504817277990529E-003   1.8502790077866711E-002   0.0000000000000000     
   1.9782764061628973E-003   2.2253259922048234E-002   0.0000000000000000     
   2.2020110944434871E-003   2.6259551013842249E-002   0.0000000000000000     
   2.4216857926408239E-003   3.0521663353248754E-002   0.0000000000000000     
   2.6373005007549076E-003   3.5039596940267745E-002   0.0000000000000000     
   3.7945354395174831E-008   1.8478310586675276E-002   0.0000000000000000     
   2.0621772294393981E-008   2.2227304929248640E-002   0.0000000000000000     
  -1.5719005747394182E-007   2.6232416981856653E-002   0.0000000000000000     
  -4.9549013490977157E-007   3.0493646744499323E-002   0.0000000000000000     
  -9.9427846001289878E-007   3.5010994217176641E-002   0.0000000000000000     
   1.0707253192984541E-002   3.5474887111132267E-002   0.0000000000000000     
   1.1569409720981494E-002   4.0234992423971473E-002   0.0000000000000000     
   1.2409321068436575E-002   4.5206397178431751E-002   0.0000000000000000     
   1.3226987235349786E-002   5.0389101374513093E-002   0.0000000000000000     
   1.4022408221721128E-002   5.5783105012215506E-002   0.0000000000000000     
   7.9914242364771855E-003   3.5271543387245564E-002   0.0000000000000000     
   8.6340751785942641E-003   4.0028530382015780E-002   0.0000000000000000     
   9.2610004280837665E-003   4.4998753680341910E-002   0.0000000000000000     
   9.8721999849456891E-003   5.0182213282223963E-002   0.0000000000000000     
   1.0467673849180039E-002   5.5578909187661951E-002   0.0000000000000000     
   5.3014400057339733E-003   3.5126446663624057E-002   0.0000000000000000     
   5.7271330690379617E-003   3.9881244040786273E-002   0.0000000000000000     
   6.1429809522184744E-003   4.4850639407090685E-002   0.0000000000000000     
   6.5489836552755122E-003   5.0034632762537314E-002   0.0000000000000000     
   6.9451411782090744E-003   5.5433224107126165E-002   0.0000000000000000     
   2.6373005007549076E-003   3.5039596940267745E-002   0.0000000000000000     
   2.8485833923125830E-003   3.9793133400282954E-002   0.0000000000000000     
   3.0552626408406960E-003   4.4762054358678090E-002   0.0000000000000000     
   3.2573382463392470E-003   4.9946359815453159E-002   0.0000000000000000     
   3.4548102088082359E-003   5.5346049770608176E-002   0.0000000000000000     
  -9.9427846001289878E-007   3.5010994217176641E-002   0.0000000000000000     
  -1.5738515818698468E-006   3.9764198460505829E-002   0.0000000000000000     
  -2.1545060495658380E-006   4.4732998535104110E-002   0.0000000000000000     
  -2.7362418631015229E-006   4.9917394440971492E-002   0.0000000000000000     
  -3.3190590224771183E-006   5.5317386178107969E-002   0.0000000000000000     
   1.4022408221721128E-002   5.5783105012215506E-002   0.0000000000000000     
   1.4795021201002016E-002   6.1376557877435525E-002   0.0000000000000000     
   1.5544263346643876E-002   6.7157609756069644E-002   0.0000000000000000     
   1.6270134658646702E-002   7.3126260648117905E-002   0.0000000000000000     
   1.6972635137010500E-002   7.9282510553580279E-002   0.0000000000000000     
   1.0467673849180039E-002   5.5578909187661951E-002   0.0000000000000000     
   1.1046211631727029E-002   6.1176431883421901E-002   0.0000000000000000     
   1.1606602943526889E-002   6.6962371856269867E-002   0.0000000000000000     
   1.2148847784579616E-002   7.2936729106205869E-002   0.0000000000000000     
   1.2672946154885213E-002   7.9099503633229901E-002   0.0000000000000000     
   6.9451411782090744E-003   5.5433224107126165E-002   0.0000000000000000     
   7.3300653612879520E-003   6.1033607138938031E-002   0.0000000000000000     
   7.7023680447809309E-003   6.6822975556053765E-002   0.0000000000000000     
   8.0620492286880147E-003   7.2801329358473332E-002   0.0000000000000000     
   8.4091089130091980E-003   7.8968668546196774E-002   0.0000000000000000     
   3.4548102088082359E-003   5.5346049770608176E-002   0.0000000000000000     
   3.6465823896847807E-003   6.0948083643983950E-002   0.0000000000000000     
   3.8315586504060004E-003   6.6739420855421339E-002   0.0000000000000000     
   4.0097389909718919E-003   7.2720061404920336E-002   0.0000000000000000     
   4.1811234113824586E-003   7.8890005292480955E-002   0.0000000000000000     
  -3.3190590224771183E-006   5.5317386178107969E-002   0.0000000000000000     
  -4.2372830824821857E-006   6.0919861398559629E-002   0.0000000000000000     
  -5.8252395979044975E-006   6.6711707754372601E-002   0.0000000000000000     
  -8.0829285687471301E-006   7.2692925245546852E-002   0.0000000000000000     
  -1.1010349995008335E-005   7.8863513872082416E-002   0.0000000000000000     
   1.6972635137010500E-002   7.9282510553580279E-002   0.0000000000000000     
   1.7647531022381126E-002   8.5603410039758618E-002   0.0000000000000000     
   1.8290588555404438E-002   9.2066009673954771E-002   0.0000000000000000     
   1.8901807736080439E-002   9.8670309456168726E-002   0.0000000000000000     
   1.9481188564409127E-002  0.10541630938640048        0.0000000000000000     
   1.2672946154885213E-002   7.9099503633229901E-002   0.0000000000000000     
   1.3176932392584263E-002   8.5427018557187248E-002   0.0000000000000000     
   1.3658840835817358E-002   9.1895596997923268E-002   0.0000000000000000     
   1.4118671484584502E-002   9.8505238955437932E-002   0.0000000000000000     
   1.4556424338885689E-002  0.10525594442973125        0.0000000000000000     
   8.4091089130091980E-003   7.8968668546196774E-002   0.0000000000000000     
   8.7432745259682434E-003   8.5300873907324271E-002   0.0000000000000000     
   9.0642734957889042E-003   9.1773826229955974E-002   0.0000000000000000     
   9.3721058224711835E-003   9.8387525514091898E-002   0.0000000000000000     
   9.6667715060150816E-003  0.10514197175973207        0.0000000000000000     
   4.1811234113824586E-003   7.8890005292480955E-002   0.0000000000000000     
   4.3465574225330633E-003   8.5224976090169643E-002   0.0000000000000000     
   4.5068865353190737E-003   9.1700697370052903E-002   0.0000000000000000     
   4.6621107497404873E-003   9.8317169132130636E-002   0.0000000000000000     
   4.8122300657973049E-003  0.10507439137640294        0.0000000000000000     
  -1.1010349995008335E-005   7.8863513872082416E-002   0.0000000000000000     
  -1.3218917721274795E-005   8.5199325105723409E-002   0.0000000000000000     
  -1.3320045592137421E-005   9.1676210418213985E-002   0.0000000000000000     
  -1.1313733607591522E-005   9.8294169809554147E-002   0.0000000000000000     
  -7.1999817676405425E-006  0.10505320327974388        0.0000000000000000     
   1.9481188564409127E-002  0.10541630938640048        0.0000000000000000     
   2.0040825129720871E-002  0.11232657503773397        0.0000000000000000     
   2.0592811521346031E-002  0.11942367198325302        0.0000000000000000     
   2.1137147739284608E-002  0.12670760022295766        0.0000000000000000     
   2.1673833783536604E-002  0.13417835975684791        0.0000000000000000     
   1.4556424338885689E-002  0.10525594442973125        0.0000000000000000     
   1.4978012009608181E-002  0.11217084673862468        0.0000000000000000     
   1.5389347107639242E-002  0.11927307919993967        0.0000000000000000     
   1.5790429632978865E-002  0.12656264181367630        0.0000000000000000     
   1.6181259585627057E-002  0.13403953457983447        0.0000000000000000     
   9.6667715060150816E-003  0.10514197175973207        0.0000000000000000     
   9.9496166489513767E-003  0.11206027786638245        0.0000000000000000     
   1.0221987353810850E-002  0.11916555673354917        0.0000000000000000     
   1.0483883620593508E-002  0.12645780836123216        0.0000000000000000     
   1.0735305449299345E-002  0.13393703274943147        0.0000000000000000     
   4.8122300657973049E-003  0.10507439137640294        0.0000000000000000     
   4.9556390477504550E-003  0.11199486842100734        0.0000000000000000     
   5.0907322598608643E-003  0.11910110458408148        0.0000000000000000     
   5.2175097021285345E-003  0.12639309986562533        0.0000000000000000     
   5.3359713745534639E-003  0.13387085426563888        0.0000000000000000     
  -7.1999817676405425E-006  0.10505320327974388        0.0000000000000000     
  -3.9207939945846287E-006  0.11197461840249934        0.0000000000000000     
  -4.4181742107223020E-006  0.11907972275153661        0.0000000000000000     
  -8.6921224160565168E-006  0.12636851632685572        0.0000000000000000     
  -1.6742638610584264E-005  0.13384099912845668        0.0000000000000000     
   2.1673833783536604E-002  0.13417835975684791        0.0000000000000000     
   2.2180476850377880E-002  0.14176103073856322        0.0000000000000000     
   2.2634684136084295E-002  0.14938069332174300        0.0000000000000000     
   2.3036455640655845E-002  0.15703734750638731        0.0000000000000000     
   2.3385791364092537E-002  0.16473099329249608        0.0000000000000000     
   1.6181259585627057E-002  0.13403953457983447        0.0000000000000000     
   1.6551479484366055E-002  0.14162497066768243        0.0000000000000000     
   1.6890731847978090E-002  0.14924016324648817        0.0000000000000000     
   1.7199016676463164E-002  0.15688511231625177        0.0000000000000000     
   1.7476333969821282E-002  0.16455981787697324        0.0000000000000000     
   1.0735305449299345E-002  0.13393703274943147        0.0000000000000000     
   1.0974448076790946E-002  0.14152409049654427        0.0000000000000000     
   1.1199506739930894E-002  0.14913984220096785        0.0000000000000000     
   1.1410481438719186E-002  0.15678428786270218        0.0000000000000000     
   1.1607372173155824E-002  0.16445742748174724        0.0000000000000000     
   5.3359713745534639E-003  0.13387085426563888        0.0000000000000000     
   5.4493826276525532E-003  0.14145839022514886        0.0000000000000000     
   5.5610088119427015E-003  0.14907973018518206        0.0000000000000000     
   5.6708499274239080E-003  0.15673487414573850        0.0000000000000000     
   5.7789059740961752E-003  0.16442382210681811        0.0000000000000000     
  -1.6742638610584264E-005  0.13384099912845668        0.0000000000000000     
  -2.3716863049122634E-005  0.14142786985349615        0.0000000000000000     
  -2.4761935986483403E-005  0.14905982719913080        0.0000000000000000     
  -1.9877857422667520E-005  0.15673687116536072        0.0000000000000000     
  -9.0646273576740904E-006  0.16445900175218581        0.0000000000000000     
   0.0000000000000000        0.0000000000000000        0.0000000000000000     
   2.7074462652913354E-008   1.0733575863159581E-003   0.0000000000000000     
   3.4891809537452266E-008   2.5156608721447968E-003   0.0000000000000000     
   2.3452040653806471E-008   4.3269098574865161E-003   0.0000000000000000     
  -7.2448439983763963E-009   6.5071045423411161E-003   0.0000000000000000     
   0.0000000000000000        0.0000000000000000        0.0000000000000000     
  -2.1297537419027248E-004   1.0756612755335464E-003   0.0000000000000000     
  -4.2696045646792996E-004   2.5208381870098365E-003   0.0000000000000000     
  -6.4195524683297251E-004   4.3355307344288690E-003   0.0000000000000000     
  -8.5795974528540017E-004   6.5197389177906453E-003   0.0000000000000000     
   0.0000000000000000        0.0000000000000000        0.0000000000000000     
  -4.2426149874029065E-004   1.0825330563322226E-003   0.0000000000000000     
  -8.5298632953609364E-004   2.5363115470519010E-003   0.0000000000000000     
  -1.2861744923874092E-003   4.3613354721590341E-003   0.0000000000000000     
  -1.7238259872942373E-003   6.5576048316536243E-003   0.0000000000000000     
   0.0000000000000000        0.0000000000000000        0.0000000000000000     
  -6.3383129918740181E-004   1.0939729287119864E-003   0.0000000000000000     
  -1.2780427273949540E-003   2.5620809522709899E-003   0.0000000000000000     
  -1.9326342846226565E-003   4.4043240706770105E-003   0.0000000000000000     
  -2.5976059708705096E-003   6.6207022839300479E-003   0.0000000000000000     
   0.0000000000000000        0.0000000000000000        0.0000000000000000     
  -8.4168477553160572E-004   1.1099808926728376E-003   0.0000000000000000     
  -1.7021296500445105E-003   2.5981464026671036E-003   0.0000000000000000     
  -2.5813346235387148E-003   4.4644965299827982E-003   0.0000000000000000     
  -3.4792996960142175E-003   6.7090312746199213E-003   0.0000000000000000     
  -7.2448439983763963E-009   6.5071045423411161E-003   0.0000000000000000     
  -3.4664538500962143E-008   9.0288055710702822E-003   0.0000000000000000     
  -3.6272736936141838E-008   1.1864573588035696E-002   0.0000000000000000     
  -1.2069439304349160E-008   1.5014408593237358E-002   0.0000000000000000     
   3.7945354395174831E-008   1.8478310586675276E-002   0.0000000000000000     
  -8.5795974528540017E-004   6.5197389177906453E-003   0.0000000000000000     
  -1.0761186719235722E-003   9.0454121364327601E-003   0.0000000000000000     
  -1.2975767468458479E-003   1.1884499789692807E-002   0.0000000000000000     
  -1.5223339700522281E-003   1.5037001877570788E-002   0.0000000000000000     
  -1.7503903415427107E-003   1.8502918400066706E-002   0.0000000000000000     
  -1.7238259872942373E-003   6.5576048316536243E-003   0.0000000000000000     
  -2.1661076200262933E-003   9.0952094405989860E-003   0.0000000000000000     
  -2.6131861963532925E-003   1.1944239114058440E-002   0.0000000000000000     
  -3.0650617162752362E-003   1.5104693852031989E-002   0.0000000000000000     
  -3.5217341797921225E-003   1.8576573654519628E-002   0.0000000000000000     
  -2.5976059708705096E-003   6.6207022839300479E-003   0.0000000000000000     
  -3.2700015088466643E-003   9.1781974835689582E-003   0.0000000000000000     
  -3.9468646212592693E-003   1.2043791561132597E-002   0.0000000000000000     
  -4.6281953081083287E-003   1.5217484516620958E-002   0.0000000000000000     
  -5.3139935693938389E-003   1.8699276350034048E-002   0.0000000000000000     
  -3.4792996960142175E-003   6.7090312746199213E-003   0.0000000000000000     
  -4.3878003383846847E-003   9.2943762653426784E-003   0.0000000000000000     
  -5.2986120215637806E-003   1.2183157130915272E-002   0.0000000000000000     
  -6.2117347455515060E-003   1.5375373871337698E-002   0.0000000000000000     
  -7.1271685103478609E-003   1.8871026486609963E-002   0.0000000000000000     
   3.7945354395174831E-008   1.8478310586675276E-002   0.0000000000000000     
   2.0621772294393981E-008   2.2227304929248640E-002   0.0000000000000000     
  -1.5719005747394182E-007   2.6232416981856653E-002   0.0000000000000000     
  -4.9549013490977157E-007   3.0493646744499323E-002   0.0000000000000000     
  -9.9427846001289878E-007   3.5010994217176641E-002   0.0000000000000000     
  -1.7503903415427107E-003   1.8502918400066706E-002   0.0000000000000000     
  -1.9782134822360969E-003   2.2253484447153041E-002   0.0000000000000000     
  -2.2022710130511834E-003   2.6259935108802309E-002   0.0000000000000000     
  -2.4225629339879704E-003   3.0522270385014504E-002   0.0000000000000000     
  -2.6390892450464578E-003   3.5040490275789621E-002   0.0000000000000000     
  -3.5217341797921225E-003   1.8576573654519628E-002   0.0000000000000000     
  -3.9773433270496403E-003   2.2331728108267265E-002   0.0000000000000000     
  -4.4260288981934747E-003   2.6342006800020808E-002   0.0000000000000000     
  -4.8677908932236273E-003   3.0607409729780245E-002   0.0000000000000000     
  -5.3026293121400956E-003   3.5127936897545592E-002   0.0000000000000000     
  -5.3139935693938389E-003   1.8699276350034048E-002   0.0000000000000000     
  -5.9973689126683345E-003   2.2462035912591292E-002   0.0000000000000000     
  -6.6714308454843482E-003   2.6478632055512125E-002   0.0000000000000000     
  -7.3361793678418793E-003   3.0749064778796544E-002   0.0000000000000000     
  -7.9916144797409286E-003   3.5273334082444555E-002   0.0000000000000000     
  -7.1271685103478609E-003   1.8871026486609963E-002   0.0000000000000000     
  -8.0382902390921801E-003   2.2644407860125133E-002   0.0000000000000000     
  -8.9384768549238026E-003   2.6669810875276281E-002   0.0000000000000000     
  -9.8277283578427268E-003   3.0947235532063400E-002   0.0000000000000000     
  -1.0706044747848956E-002   3.5476681830486495E-002   0.0000000000000000     
  -9.9427846001289878E-007   3.5010994217176641E-002   0.0000000000000000     
  -1.5738515818698468E-006   3.9764198460505829E-002   0.0000000000000000     
  -2.1545060495658380E-006   4.4732998535104110E-002   0.0000000000000000     
  -2.7362418631015229E-006   4.9917394440971492E-002   0.0000000000000000     
  -3.3190590224771183E-006   5.5317386178107969E-002   0.0000000000000000     
  -2.6390892450464578E-003   3.5040490275789621E-002   0.0000000000000000     
  -2.8514249277281850E-003   3.9794251864073357E-002   0.0000000000000000     
  -3.0591449635346910E-003   4.4763212232811392E-002   0.0000000000000000     
  -3.2622493524659762E-003   4.9947371382003732E-002   0.0000000000000000     
  -3.4607380945220400E-003   5.5346729311650376E-002   0.0000000000000000     
  -5.3026293121400956E-003   3.5127936897545592E-002   0.0000000000000000     
  -5.7290561012091502E-003   3.9883106253603987E-002   0.0000000000000000     
  -6.1455832066970575E-003   4.4852435748242554E-002   0.0000000000000000     
  -6.5522106286038159E-003   5.0035925381461302E-002   0.0000000000000000     
  -6.9489383669294278E-003   5.5433575153260223E-002   0.0000000000000000     
  -7.9916144797409286E-003   3.5273334082444555E-002   0.0000000000000000     
  -8.6344673720247650E-003   4.0030761629097716E-002   0.0000000000000000     
  -9.2614692355366662E-003   4.5000669081397597E-002   0.0000000000000000     
  -9.8726200702766234E-003   5.0183056439344197E-002   0.0000000000000000     
  -1.0467919876244642E-002   5.5577923702937508E-002   0.0000000000000000     
  -1.0706044747848956E-002   3.5476681830486495E-002   0.0000000000000000     
  -1.1567658740175034E-002   4.0237217990554547E-002   0.0000000000000000     
  -1.2406803050053513E-002   4.5207912232276520E-002   0.0000000000000000     
  -1.3223477677484396E-002   5.0388764555652416E-002   0.0000000000000000     
  -1.4017682622467678E-002   5.5779774960682246E-002   0.0000000000000000     
  -3.3190590224771183E-006   5.5317386178107969E-002   0.0000000000000000     
  -4.2372830824821857E-006   6.0919861398559629E-002   0.0000000000000000     
  -5.8252395979044975E-006   6.6711707754372601E-002   0.0000000000000000     
  -8.0829285687471301E-006   7.2692925245546852E-002   0.0000000000000000     
  -1.1010349995008335E-005   7.8863513872082416E-002   0.0000000000000000     
  -3.4607380945220400E-003   5.5346729311650376E-002   0.0000000000000000     
  -3.6541383597993300E-003   6.0948330529925841E-002   0.0000000000000000     
  -3.8419773183942961E-003   6.6739219545004627E-002   0.0000000000000000     
  -4.0242549703069352E-003   7.2719396356886762E-002   0.0000000000000000     
  -4.2009713155372504E-003   7.8888860965572224E-002   0.0000000000000000     
  -6.9489383669294278E-003   5.5433575153260223E-002   0.0000000000000000     
  -7.3348655432512637E-003   6.1032881165343320E-002   0.0000000000000000     
  -7.7090912791466870E-003   6.6821339519414547E-002   0.0000000000000000     
  -8.0716155746157064E-003   7.2798950215473932E-002   0.0000000000000000     
  -8.4224384296583184E-003   7.8965713253521447E-002   0.0000000000000000     
  -1.0467919876244642E-002   5.5577923702937508E-002   0.0000000000000000     
  -1.1046418833438276E-002   6.1173513304812063E-002   0.0000000000000000     
  -1.1607167121855081E-002   6.6958067677602345E-002   0.0000000000000000     
  -1.2150164741495061E-002   7.2931586821308347E-002   0.0000000000000000     
  -1.2675411692358212E-002   7.9094070735930111E-002   0.0000000000000000     
  -1.4017682622467678E-002   5.5779774960682246E-002   0.0000000000000000     
  -1.4788798230360372E-002   6.1370226948332079E-002   0.0000000000000000     
  -1.5536204846519477E-002   6.7149404019568024E-002   0.0000000000000000     
  -1.6259902470944994E-002   7.3117306174390065E-002   0.0000000000000000     
  -1.6959891103636930E-002   7.9273933412798203E-002   0.0000000000000000     
  -1.1010349995008335E-005   7.8863513872082416E-002   0.0000000000000000     
  -1.3218917721274795E-005   8.5199325105723409E-002   0.0000000000000000     
  -1.3320045592137421E-005   9.1676210418213985E-002   0.0000000000000000     
  -1.1313733607591522E-005   9.8294169809554147E-002   0.0000000000000000     
  -7.1999817676405425E-006  0.10505320327974388        0.0000000000000000     
  -4.2009713155372504E-003   7.8888860965572224E-002   0.0000000000000000     
  -4.3704117245483920E-003   8.5223711467027202E-002   0.0000000000000000     
  -4.5308615678035132E-003   9.1700045957217868E-002   0.0000000000000000     
  -4.6823208453026155E-003   9.8317864436144237E-002   0.0000000000000000     
  -4.8247895570456964E-003  0.10507716690380632        0.0000000000000000     
  -8.4224384296583184E-003   7.8965713253521447E-002   0.0000000000000000     
  -8.7593782277019042E-003   8.5297925687122675E-002   0.0000000000000000     
  -9.0802533521738473E-003   9.1771884569843087E-002   0.0000000000000000     
  -9.3850638030741479E-003   9.8387589901682754E-002   0.0000000000000000     
  -9.6738095804028042E-003  0.10514504168264163        0.0000000000000000     
  -1.2675411692358212E-002   7.9094070735930111E-002   0.0000000000000000     
  -1.3180118427181810E-002   8.5421967766009799E-002   0.0000000000000000     
  -1.3661495398703137E-002   9.1891726256089684E-002   0.0000000000000000     
  -1.4119542606922185E-002   9.8503346206169684E-002   0.0000000000000000     
  -1.4554260051838961E-002  0.10525682761624985        0.0000000000000000     
  -1.6959891103636930E-002   7.9273933412798203E-002   0.0000000000000000     
  -1.7632632322988111E-002   8.5595837703688643E-002   0.0000000000000000     
  -1.8274587707391380E-002   9.2059571015957589E-002   0.0000000000000000     
  -1.8885757256846731E-002   9.8665133349605041E-002   0.0000000000000000     
  -1.9466140971354171E-002  0.10541252470463097        0.0000000000000000     
  -7.1999817676405425E-006  0.10505320327974388        0.0000000000000000     
  -3.9207939945846287E-006  0.11197461840249934        0.0000000000000000     
  -4.4181742107223020E-006  0.11907972275153661        0.0000000000000000     
  -8.6921224160565168E-006  0.12636851632685572        0.0000000000000000     
  -1.6742638610584264E-005  0.13384099912845668        0.0000000000000000     
  -4.8247895570456964E-003  0.10507716690380632        0.0000000000000000     
  -4.9620739458690220E-003  0.11199796287104619        0.0000000000000000     
  -5.0979802546088577E-003  0.11910026184870602        0.0000000000000000     
  -5.2325084832652059E-003  0.12638406383678577        0.0000000000000000     
  -5.3656586318380625E-003  0.13384936883528542        0.0000000000000000     
  -9.6738095804028042E-003  0.10514504168264163        0.0000000000000000     
  -9.9518314774581420E-003  0.11206333688683574        0.0000000000000000     
  -1.0224470287538496E-002  0.11916157248838112        0.0000000000000000     
  -1.0491726010643854E-002  0.12643974848727776        0.0000000000000000     
  -1.0753598646774228E-002  0.13389786488352562        0.0000000000000000     
  -1.4554260051838961E-002  0.10525682761624985        0.0000000000000000     
  -1.4973193388761947E-002  0.11217074044986799        0.0000000000000000     
  -1.5383888272999633E-002  0.11926365467056196        0.0000000000000000     
  -1.5786344704552011E-002  0.12653557027833170        0.0000000000000000     
  -1.6180562683419077E-002  0.13398648727317727        0.0000000000000000     
  -1.9466140971354171E-002  0.10541252470463097        0.0000000000000000     
  -2.0026159679780435E-002  0.11232017356014296        0.0000000000000000     
  -2.0576234210992271E-002  0.11940650839524850        0.0000000000000000     
  -2.1116364564989658E-002  0.12667152920994765        0.0000000000000000     
  -2.1646550741772626E-002  0.13411523600424036        0.0000000000000000     
  -1.6742638610584264E-005  0.13384099912845668        0.0000000000000000     
  -2.3716863049122634E-005  0.14142786985349615        0.0000000000000000     
  -2.4761935986483403E-005  0.14905982719913080        0.0000000000000000     
  -1.9877857422667520E-005  0.15673687116536072        0.0000000000000000     
  -9.0646273576740904E-006  0.16445900175218581        0.0000000000000000     
  -5.3656586318380625E-003  0.13384936883528542        0.0000000000000000     
  -5.4917779969067635E-003  0.14143371918801423        0.0000000000000000     
  -5.6052138750506460E-003  0.14907465723878133        0.0000000000000000     
  -5.7059662662697110E-003  0.15677218298758683        0.0000000000000000     
  -5.7940351705639574E-003  0.16452629643443065        0.0000000000000000     
  -1.0753598646774228E-002  0.13389786488352562        0.0000000000000000     
  -1.1001728375513055E-002  0.14147712803513118        0.0000000000000000     
  -1.1227755376443776E-002  0.14911874430010094        0.0000000000000000     
  -1.1431679649566394E-002  0.15682271367843481        0.0000000000000000     
  -1.1613501194880908E-002  0.16458903617013287        0.0000000000000000     
  -1.6180562683419077E-002  0.13398648727317727        0.0000000000000000     
  -1.6553567998867990E-002  0.14155809639484704        0.0000000000000000     
  -1.6892386440165864E-002  0.14919208838308948        0.0000000000000000     
  -1.7197018007312711E-002  0.15688846323790470        0.0000000000000000     
  -1.7467462700308529E-002  0.16464722095929252        0.0000000000000000     
  -2.1646550741772626E-002  0.13411523600424036        0.0000000000000000     
  -2.2147296866971571E-002  0.14167662426716179        0.0000000000000000     
  -2.2599107066216921E-002  0.14929468948774716        0.0000000000000000     
  -2.3001981339508665E-002  0.15696943166599642        0.0000000000000000     
  -2.3355919686846818E-002  0.16470085080190958        0.0000000000000000     
   0.0000000000000000        0.0000000000000000        0.0000000000000000     
  -8.4168477553160572E-004   1.1099808926728376E-003   0.0000000000000000     
  -1.7021296500445105E-003   2.5981464026671036E-003   0.0000000000000000     
  -2.5813346235387148E-003   4.4644965299827982E-003   0.0000000000000000     
  -3.4792996960142175E-003   6.7090312746199213E-003   0.0000000000000000     
   0.0000000000000000        0.0000000000000000        0.0000000000000000     
  -1.0567206497770283E-003   1.1341280683193865E-003   0.0000000000000000     
  -2.1397810465371768E-003   2.6503698927501126E-003   0.0000000000000000     
  -3.2491811902804453E-003   4.5487254732921780E-003   0.0000000000000000     
  -4.3849210810068340E-003   6.8291948099455822E-003   0.0000000000000000     
   0.0000000000000000        0.0000000000000000        0.0000000000000000     
  -1.2878376439277954E-003   1.1699855757562425E-003   0.0000000000000000     
  -2.6055308659253657E-003   2.7246134170298853E-003   0.0000000000000000     
  -3.9530796659927115E-003   4.6638835238209282E-003   0.0000000000000000     
  -5.3304840441298334E-003   6.9877958961293727E-003   0.0000000000000000     
   0.0000000000000000        0.0000000000000000        0.0000000000000000     
  -1.5350357579839069E-003   1.2175534149834061E-003   0.0000000000000000     
  -3.0993791082090773E-003   2.8208769755064234E-003   0.0000000000000000     
  -4.6930300506755123E-003   4.8099706815690514E-003   0.0000000000000000     
  -6.3159885853832122E-003   7.1848345331712886E-003   0.0000000000000000     
   0.0000000000000000        0.0000000000000000        0.0000000000000000     
  -1.7983149919453625E-003   1.2768315860008771E-003   0.0000000000000000     
  -3.6213257733883125E-003   2.9391605681797252E-003   0.0000000000000000     
  -5.4690323443288497E-003   4.9869869465365441E-003   0.0000000000000000     
  -7.3414347047669748E-003   7.4203107210713349E-003   0.0000000000000000     
  -3.4792996960142175E-003   6.7090312746199213E-003   0.0000000000000000     
  -4.3878003383846847E-003   9.2943762653426784E-003   0.0000000000000000     
  -5.2986120215637806E-003   1.2183157130915272E-002   0.0000000000000000     
  -6.2117347455515060E-003   1.5375373871337698E-002   0.0000000000000000     
  -7.1271685103478609E-003   1.8871026486609963E-002   0.0000000000000000     
  -4.3849210810068340E-003   6.8291948099455822E-003   0.0000000000000000     
  -5.5340543620480652E-003   9.4497269510857469E-003   0.0000000000000000     
  -6.6836346767358609E-003   1.2368270945088095E-002   0.0000000000000000     
  -7.8336620250702253E-003   1.5584826791952621E-002   0.0000000000000000     
  -8.9841364070511517E-003   1.9099394491679331E-002   0.0000000000000000     
  -5.3304840441298334E-003   6.9877958961293727E-003   0.0000000000000000     
  -6.7233138332445158E-003   9.6502307059637762E-003   0.0000000000000000     
  -8.1171388662445530E-003   1.2605068125332701E-002   0.0000000000000000     
  -9.5119591431299423E-003   1.5852308154236144E-002   0.0000000000000000     
  -1.0907774663900680E-002   1.9391950792674108E-002   0.0000000000000000     
  -6.3159885853832122E-003   7.1848345331712886E-003   0.0000000000000000     
  -7.9555787519740382E-003   9.8958875299767594E-003   0.0000000000000000     
  -9.5991245900898525E-003   1.2893548671649083E-002   0.0000000000000000     
  -1.1246626099730653E-002   1.6177817958188265E-002   0.0000000000000000     
  -1.2898083280896448E-002   1.9748695389594298E-002   0.0000000000000000     
  -7.3414347047669748E-003   7.4203107210713349E-003   0.0000000000000000     
  -9.2308491182366316E-003   1.0186697423124702E-002   0.0000000000000000     
  -1.1129591848271761E-002   1.3233712584037251E-002   0.0000000000000000     
  -1.3037662894872367E-002   1.6561356203808983E-002   0.0000000000000000     
  -1.4955062258038448E-002   2.0169628282439900E-002   0.0000000000000000     
  -7.1271685103478609E-003   1.8871026486609963E-002   0.0000000000000000     
  -8.0382902390921801E-003   2.2644407860125133E-002   0.0000000000000000     
  -8.9384768549238026E-003   2.6669810875276281E-002   0.0000000000000000     
  -9.8277283578427268E-003   3.0947235532063400E-002   0.0000000000000000     
  -1.0706044747848956E-002   3.5476681830486495E-002   0.0000000000000000     
  -8.9841364070511517E-003   1.9099394491679331E-002   0.0000000000000000     
  -1.0127953308913732E-002   2.2887311847219313E-002   0.0000000000000000     
  -1.1258008216893050E-002   2.6923916661523679E-002   0.0000000000000000     
  -1.2374301130989107E-002   3.1209208934592409E-002   0.0000000000000000     
  -1.3476832051201898E-002   3.5743188666425521E-002   0.0000000000000000     
  -1.0907774663900680E-002   1.9391950792674108E-002   0.0000000000000000     
  -1.2294204124725542E-002   2.3199215770224376E-002   0.0000000000000000     
  -1.3660866221773298E-002   2.7249322816464732E-002   0.0000000000000000     
  -1.5007760955043950E-002   3.1542271931395173E-002   0.0000000000000000     
  -1.6334888324537493E-002   3.6078063115015692E-002   0.0000000000000000     
  -1.2898083280896448E-002   1.9748695389594298E-002   0.0000000000000000     
  -1.4537042686527616E-002   2.3580119629140313E-002   0.0000000000000000     
  -1.6147050869564555E-002   2.7646029340099441E-002   0.0000000000000000     
  -1.7728107830007261E-002   3.1946424522471678E-002   0.0000000000000000     
  -1.9280213567855736E-002   3.6481305176257028E-002   0.0000000000000000     
  -1.4955062258038448E-002   2.0169628282439900E-002   0.0000000000000000     
  -1.6856468994319949E-002   2.4030023423967130E-002   0.0000000000000000     
  -1.8716562160266806E-002   2.8114036232427812E-002   0.0000000000000000     
  -2.0535341755879035E-002   3.2421666707821942E-002   0.0000000000000000     
  -2.2312807781156622E-002   3.6952914850149537E-002   0.0000000000000000     
  -1.0706044747848956E-002   3.5476681830486495E-002   0.0000000000000000     
  -1.1567658740175034E-002   4.0237217990554547E-002   0.0000000000000000     
  -1.2406803050053513E-002   4.5207912232276520E-002   0.0000000000000000     
  -1.3223477677484396E-002   5.0388764555652416E-002   0.0000000000000000     
  -1.4017682622467678E-002   5.5779774960682246E-002   0.0000000000000000     
  -1.3476832051201898E-002   3.5743188666425521E-002   0.0000000000000000     
  -1.4557875620848874E-002   4.0505461354963072E-002   0.0000000000000000     
  -1.5609706483247471E-002   4.5475632498145138E-002   0.0000000000000000     
  -1.6632324638397686E-002   5.0653702095971739E-002   0.0000000000000000     
  -1.7625730086299519E-002   5.6039670148442848E-002   0.0000000000000000     
  -1.6334888324537493E-002   3.6078063115015692E-002   0.0000000000000000     
  -1.7634363429235213E-002   4.0838477739311881E-002   0.0000000000000000     
  -1.8898301368118396E-002   4.5805297176269272E-002   0.0000000000000000     
  -2.0126702141187044E-002   5.0978521425887907E-002   0.0000000000000000     
  -2.1319565748441148E-002   5.6358150488167752E-002   0.0000000000000000     
  -1.9280213567855736E-002   3.6481305176257028E-002   0.0000000000000000     
  -2.0797122165334053E-002   4.1236267143600958E-002   0.0000000000000000     
  -2.2272587704666301E-002   4.6196906266648921E-002   0.0000000000000000     
  -2.3706610185852468E-002   5.1363222545400933E-002   0.0000000000000000     
  -2.5099189608892569E-002   5.6735215979856979E-002   0.0000000000000000     
  -2.2312807781156622E-002   3.6952914850149537E-002   0.0000000000000000     
  -2.4046151829145393E-002   4.1698829567830331E-002   0.0000000000000000     
  -2.5732565492891175E-002   4.6650459769284086E-002   0.0000000000000000     
  -2.7372048772393964E-002   5.1807805454510809E-002   0.0000000000000000     
  -2.8964601667653758E-002   5.7170866623510508E-002   0.0000000000000000     
  -1.4017682622467678E-002   5.5779774960682246E-002   0.0000000000000000     
  -1.4788798230360372E-002   6.1370226948332079E-002   0.0000000000000000     
  -1.5536204846519477E-002   6.7149404019568024E-002   0.0000000000000000     
  -1.6259902470944994E-002   7.3117306174390065E-002   0.0000000000000000     
  -1.6959891103636930E-002   7.9273933412798203E-002   0.0000000000000000     
  -1.7625730086299519E-002   5.6039670148442848E-002   0.0000000000000000     
  -1.8589702325467063E-002   6.1623701648421465E-002   0.0000000000000000     
  -1.9524020854414379E-002   6.7395961588770592E-002   0.0000000000000000     
  -2.0428685673141489E-002   7.3356449969490228E-002   0.0000000000000000     
  -2.1303696781648378E-002   7.9505166790580367E-002   0.0000000000000000     
  -2.1319565748441148E-002   5.6358150488167752E-002   0.0000000000000000     
  -2.2476829710207862E-002   6.1934616957598318E-002   0.0000000000000000     
  -2.3598431546814316E-002   6.7698353428669089E-002   0.0000000000000000     
  -2.4684371258260514E-002   7.3649359901380093E-002   0.0000000000000000     
  -2.5734648844546466E-002   7.9787636375731288E-002   0.0000000000000000     
  -2.5099189608892569E-002   5.6735215979856979E-002   0.0000000000000000     
  -2.6450180384582769E-002   6.2302972875862644E-002   0.0000000000000000     
  -2.7759436923719273E-002   6.8056579539263529E-002   0.0000000000000000     
  -2.9026959226302079E-002   7.3996035970059618E-002   0.0000000000000000     
  -3.0252747292331190E-002   8.0121342168250911E-002   0.0000000000000000     
  -2.8964601667653758E-002   5.7170866623510508E-002   0.0000000000000000     
  -3.0509754348591787E-002   6.2728769403214438E-002   0.0000000000000000     
  -3.2007036985129259E-002   6.8470639920553869E-002   0.0000000000000000     
  -3.3456449577266179E-002   7.4396478175528816E-002   0.0000000000000000     
  -3.4857992125002547E-002   8.0506284168139292E-002   0.0000000000000000     
  -1.6959891103636930E-002   7.9273933412798203E-002   0.0000000000000000     
  -1.7632632322988111E-002   8.5595837703688643E-002   0.0000000000000000     
  -1.8274587707391380E-002   9.2059571015957589E-002   0.0000000000000000     
  -1.8885757256846731E-002   9.8665133349605041E-002   0.0000000000000000     
  -1.9466140971354171E-002  0.10541252470463097        0.0000000000000000     
  -2.1303696781648378E-002   7.9505166790580367E-002   0.0000000000000000     
  -2.2144664888452049E-002   8.5818930181494779E-002   0.0000000000000000     
  -2.2947200702069504E-002   9.2274558271687193E-002   0.0000000000000000     
  -2.3711304222500743E-002   9.8872051061157609E-002   0.0000000000000000     
  -2.4436975449745758E-002  0.10561140854990601        0.0000000000000000     
  -2.5734648844546466E-002   7.9787636375731288E-002   0.0000000000000000     
  -2.6743961096904866E-002   8.6090639880763806E-002   0.0000000000000000     
  -2.7707004806568430E-002   9.2535827445518762E-002   0.0000000000000000     
  -2.8623779973537152E-002   9.9123199069996185E-002   0.0000000000000000     
  -2.9494286597811045E-002  0.10585275475419600        0.0000000000000000     
  -3.0252747292331190E-002   8.0121342168250911E-002   0.0000000000000000     
  -3.1430520948346551E-002   8.6410966801495737E-002   0.0000000000000000     
  -3.2554000020888159E-002   9.2843378537452351E-002   0.0000000000000000     
  -3.3623184509955974E-002   9.9418577376120754E-002   0.0000000000000000     
  -3.4638074415550030E-002  0.10613656331750095        0.0000000000000000     
  -3.4857992125002547E-002   8.0506284168139292E-002   0.0000000000000000     
  -3.6204344442777127E-002   8.6779910943690544E-002   0.0000000000000000     
  -3.7488186345028686E-002   9.3197211547487890E-002   0.0000000000000000     
  -3.8709517831757211E-002   9.9758185979531330E-002   0.0000000000000000     
  -3.9868338902962715E-002  0.10646283423982086        0.0000000000000000     
  -1.9466140971354171E-002  0.10541252470463097        0.0000000000000000     
  -2.0026159679780435E-002  0.11232017356014296        0.0000000000000000     
  -2.0576234210992271E-002  0.11940650839524850        0.0000000000000000     
  -2.1116364564989658E-002  0.12667152920994765        0.0000000000000000     
  -2.1646550741772626E-002  0.13411523600424036        0.0000000000000000     
  -2.4436975449745758E-002  0.10561140854990601        0.0000000000000000     
  -2.5137874555379882E-002  0.11251097436008556        0.0000000000000000     
  -2.5827661710978448E-002  0.11958909211384938        0.0000000000000000     
  -2.6506336916541442E-002  0.12684576181119744        0.0000000000000000     
  -2.7173900172068874E-002  0.13428098345212980        0.0000000000000000     
  -2.9494286597811045E-002  0.10585275475419600        0.0000000000000000     
  -3.0335482220426573E-002  0.11274248099212085        0.0000000000000000     
  -3.1164324382420214E-002  0.11981036427777321        0.0000000000000000     
  -3.1980813083791977E-002  0.12705640461115311        0.0000000000000000     
  -3.2784948324541860E-002  0.13448060199226053        0.0000000000000000     
  -3.4638074415550030E-002  0.10613656331750095        0.0000000000000000     
  -3.5618982674920495E-002  0.11301469345624877        0.0000000000000000     
  -3.6586222225317565E-002  0.12007032488701996        0.0000000000000000     
  -3.7539793066741267E-002  0.12730345760981451        0.0000000000000000     
  -3.8479695199191553E-002  0.13471409162463252        0.0000000000000000     
  -3.9868338902962715E-002  0.10646283423982086        0.0000000000000000     
  -4.0988375918861668E-002  0.11332761175246936        0.0000000000000000     
  -4.2093355239670525E-002  0.12036897394158964        0.0000000000000000     
  -4.3183276865389301E-002  0.12758692080718181        0.0000000000000000     
  -4.4258140796017982E-002  0.13498145234924575        0.0000000000000000     
  -2.1646550741772626E-002  0.13411523600424036        0.0000000000000000     
  -2.2147296866971571E-002  0.14167662426716179        0.0000000000000000     
  -2.2599107066216921E-002  0.14929468948774716        0.0000000000000000     
  -2.3001981339508665E-002  0.15696943166599642        0.0000000000000000     
  -2.3355919686846818E-002  0.16470085080190958        0.0000000000000000     
  -2.7173900172068874E-002  0.13428098345212980        0.0000000000000000     
  -2.7803641434960974E-002  0.14183032857166170        0.0000000000000000     
  -2.8368850662617955E-002  0.14942936870480841        0.0000000000000000     
  -2.8869527855039837E-002  0.15707810385156992        0.0000000000000000     
  -2.9305673012226596E-002  0.16477653401194631        0.0000000000000000     
  -3.2784948324541860E-002  0.13448060199226053        0.0000000000000000     
  -3.3543328157973354E-002  0.14201682622793296        0.0000000000000000     
  -3.4222550637389999E-002  0.14959894712500785        0.0000000000000000     
  -3.4822615762791768E-002  0.15722696468348515        0.0000000000000000     
  -3.5343523534178668E-002  0.16490087890336494        0.0000000000000000     
  -3.8479695199191553E-002  0.13471409162463252        0.0000000000000000     
  -3.9366357036008721E-002  0.14223611723597560        0.0000000000000000     
  -4.0160206990533021E-002  0.14980342474834543        0.0000000000000000     
  -4.0861245062764465E-002  0.15741601416174211        0.0000000000000000     
  -4.1469471252703040E-002  0.16507388547616558        0.0000000000000000     
  -4.4258140796017982E-002  0.13498145234924575        0.0000000000000000     
  -4.5272728069067070E-002  0.14248820159578957        0.0000000000000000     
  -4.6181819722047060E-002  0.15004280157482125        0.0000000000000000     
  -4.6985415754957932E-002  0.15764525228634074        0.0000000000000000     
  -4.7683516167799714E-002  0.16529555373034810        0.0000000000000000     
   0.0000000000000000        0.0000000000000000        0.0000000000000000     
  -1.7983149919453625E-003   1.2768315860008771E-003   0.0000000000000000     
  -3.6213257733883125E-003   2.9391605681797252E-003   0.0000000000000000     
  -5.4690323443288497E-003   4.9869869465365441E-003   0.0000000000000000     
  -7.3414347047669748E-003   7.4203107210713349E-003   0.0000000000000000     
   0.0000000000000000        0.0000000000000000        0.0000000000000000     
  -2.0694173124820689E-003   1.3549291505827780E-003   0.0000000000000000     
  -4.1640347563097349E-003   3.0939704118910860E-003   0.0000000000000000     
  -6.2838523314829985E-003   5.2171237839249238E-003   0.0000000000000000     
  -8.4288700380018584E-003   7.7243892666842926E-003   0.0000000000000000     
   0.0000000000000000        0.0000000000000000        0.0000000000000000     
  -2.3400846862639321E-003   1.4589551705032314E-003   0.0000000000000000     
  -4.7201699518200088E-003   3.2998127234817993E-003   0.0000000000000000     
  -7.1402557966682313E-003   5.5225726589357036E-003   0.0000000000000000     
  -9.6003422208085984E-003   8.1272349768649436E-003   0.0000000000000000     
   0.0000000000000000        0.0000000000000000        0.0000000000000000     
  -2.6103171132909522E-003   1.5889096457622372E-003   0.0000000000000000     
  -5.2897313599191368E-003   3.5566875029518648E-003   0.0000000000000000     
  -8.0382427398845522E-003   5.9033335715688827E-003   0.0000000000000000     
  -1.0855851253187200E-002   8.6288478516132923E-003   0.0000000000000000     
   0.0000000000000000        0.0000000000000000        0.0000000000000000     
  -2.8801145935631292E-003   1.7447925763597952E-003   0.0000000000000000     
  -5.8727189806071153E-003   3.8645947503012828E-003   0.0000000000000000     
  -8.9778131611319596E-003   6.3594065218244619E-003   0.0000000000000000     
  -1.2195397135137662E-002   9.2292278909293333E-003   0.0000000000000000     
  -7.3414347047669748E-003   7.4203107210713349E-003   0.0000000000000000     
  -9.2308491182366316E-003   1.0186697423124702E-002   0.0000000000000000     
  -1.1129591848271761E-002   1.3233712584037251E-002   0.0000000000000000     
  -1.3037662894872367E-002   1.6561356203808983E-002   0.0000000000000000     
  -1.4955062258038448E-002   2.0169628282439900E-002   0.0000000000000000     
  -8.4288700380018584E-003   7.7243892666842926E-003   0.0000000000000000     
  -1.0590735361307516E-002   1.0558312033773189E-002   0.0000000000000000     
  -1.2761095786841169E-002   1.3661437258795612E-002   0.0000000000000000     
  -1.4939951314602825E-002   1.7033764941751565E-002   0.0000000000000000     
  -1.7127301944592471E-002   2.0675295082641047E-002   0.0000000000000000     
  -9.6003422208085984E-003   8.1272349768649436E-003   0.0000000000000000     
  -1.2076847910461911E-002   1.1046383010287809E-002   0.0000000000000000     
  -1.4546191551848968E-002   1.4212600092222586E-002   0.0000000000000000     
  -1.7008373144969766E-002   1.7625886222669279E-002   0.0000000000000000     
  -1.9463392689824312E-002   2.1286241401627878E-002   0.0000000000000000     
  -1.0855851253187200E-002   8.6288478516132923E-003   0.0000000000000000     
  -1.3689186765699822E-002   1.1650910352668563E-002   0.0000000000000000     
  -1.6484879143295154E-002   1.4887201084318170E-002   0.0000000000000000     
  -1.9242928385973197E-002   1.8337720046562114E-002   0.0000000000000000     
  -2.1963334493733951E-002   2.2002467239400397E-002   0.0000000000000000     
  -1.2195397135137662E-002   9.2292278909293333E-003   0.0000000000000000     
  -1.5427751927021241E-002   1.2371894060915449E-002   0.0000000000000000     
  -1.8577158561179728E-002   1.5685240235082366E-002   0.0000000000000000     
  -2.1643617037613114E-002   1.9169266413430079E-002   0.0000000000000000     
  -2.4627127356321405E-002   2.2823972595958596E-002   0.0000000000000000     
  -1.4955062258038448E-002   2.0169628282439900E-002   0.0000000000000000     
  -1.6856468994319949E-002   2.4030023423967130E-002   0.0000000000000000     
  -1.8716562160266806E-002   2.8114036232427812E-002   0.0000000000000000     
  -2.0535341755879035E-002   3.2421666707821942E-002   0.0000000000000000     
  -2.2312807781156622E-002   3.6952914850149537E-002   0.0000000000000000     
  -1.7127301944592471E-002   2.0675295082641047E-002   0.0000000000000000     
  -1.9291973984723709E-002   2.4558472698293615E-002   0.0000000000000000     
  -2.1402793742910115E-002   2.8655742805538818E-002   0.0000000000000000     
  -2.3459761219151696E-002   3.2967105404376661E-002   0.0000000000000000     
  -2.5462876413448444E-002   3.7492560494807162E-002   0.0000000000000000     
  -1.9463392689824312E-002   2.1286241401627878E-002   0.0000000000000000     
  -2.1883048594360067E-002   2.5175012995708547E-002   0.0000000000000000     
  -2.4239139266524521E-002   2.9273548371521435E-002   0.0000000000000000     
  -2.6531664706317661E-002   3.3581847529066552E-002   0.0000000000000000     
  -2.8760624913739499E-002   3.8099910468343892E-002   0.0000000000000000     
  -2.1963334493733951E-002   2.2002467239400397E-002   0.0000000000000000     
  -2.4629692823229032E-002   2.5879644316211939E-002   0.0000000000000000     
  -2.7225598731110020E-002   2.9967452930375678E-002   0.0000000000000000     
  -2.9751052217376939E-002   3.4265893081891603E-002   0.0000000000000000     
  -3.2206053282029773E-002   3.8774964770759722E-002   0.0000000000000000     
  -2.4627127356321405E-002   2.2823972595958596E-002   0.0000000000000000     
  -2.7531906671330580E-002   2.6672366659803787E-002   0.0000000000000000     
  -3.0362172136666619E-002   3.0737456482101529E-002   0.0000000000000000     
  -3.3117923752329519E-002   3.5019242062851813E-002   0.0000000000000000     
  -3.5799161518319272E-002   3.9517723402054658E-002   0.0000000000000000     
  -2.2312807781156622E-002   3.6952914850149537E-002   0.0000000000000000     
  -2.4046151829145393E-002   4.1698829567830331E-002   0.0000000000000000     
  -2.5732565492891175E-002   4.6650459769284086E-002   0.0000000000000000     
  -2.7372048772393964E-002   5.1807805454510809E-002   0.0000000000000000     
  -2.8964601667653758E-002   5.7170866623510508E-002   0.0000000000000000     
  -2.5462876413448444E-002   3.7492560494807162E-002   0.0000000000000000     
  -2.7412734908198830E-002   4.2227780865348827E-002   0.0000000000000000     
  -2.9309932285801300E-002   4.7168439304520186E-002   0.0000000000000000     
  -3.1154468546255861E-002   5.2314535812321233E-002   0.0000000000000000     
  -3.2946343689562521E-002   5.7666070388751989E-002   0.0000000000000000     
  -2.8760624913739499E-002   3.8099910468343892E-002   0.0000000000000000     
  -3.0928153890023947E-002   4.2824736889505305E-002   0.0000000000000000     
  -3.3036385636404958E-002   4.7753326492702620E-002   0.0000000000000000     
  -3.5085320152882515E-002   5.2885679277935874E-002   0.0000000000000000     
  -3.7074957439456629E-002   5.8221795245205037E-002   0.0000000000000000     
  -3.2206053282029773E-002   3.8774964770759722E-002   0.0000000000000000     
  -3.4592408774620768E-002   4.3489697640299765E-002   0.0000000000000000     
  -3.6911925544702150E-002   4.8405121333831437E-002   0.0000000000000000     
  -3.9164603592273917E-002   5.3521235851354751E-002   0.0000000000000000     
  -4.1350442917336069E-002   5.8838041192869686E-002   0.0000000000000000     
  -3.5799161518319272E-002   3.9517723402054658E-002   0.0000000000000000     
  -3.8405499561989270E-002   4.4222663117732194E-002   0.0000000000000000     
  -4.0936552010692871E-002   4.9123823827906588E-002   0.0000000000000000     
  -4.3392318864430054E-002   5.4221205532577824E-002   0.0000000000000000     
  -4.5772800123200848E-002   5.9514808231745923E-002   0.0000000000000000     
  -2.8964601667653758E-002   5.7170866623510508E-002   0.0000000000000000     
  -3.0509754348591787E-002   6.2728769403214438E-002   0.0000000000000000     
  -3.2007036985129259E-002   6.8470639920553869E-002   0.0000000000000000     
  -3.3456449577266179E-002   7.4396478175528816E-002   0.0000000000000000     
  -3.4857992125002547E-002   8.0506284168139292E-002   0.0000000000000000     
  -3.2946343689562521E-002   5.7666070388751989E-002   0.0000000000000000     
  -3.4684981108573189E-002   6.3211518539110251E-002   0.0000000000000000     
  -3.6369804196139777E-002   6.8939355768693825E-002   0.0000000000000000     
  -3.8000812952262313E-002   7.4849582077502738E-002   0.0000000000000000     
  -3.9578007376940769E-002   8.0942197465536977E-002   0.0000000000000000     
  -3.7074957439456629E-002   5.8221795245205037E-002   0.0000000000000000     
  -3.9005290170865251E-002   6.3750732283006623E-002   0.0000000000000000     
  -4.0876311021846370E-002   6.9461548279837040E-002   0.0000000000000000     
  -4.2688019992399961E-002   7.5354243235696380E-002   0.0000000000000000     
  -4.4440417082526058E-002   8.1428817150584573E-002   0.0000000000000000     
  -4.1350442917336069E-002   5.8838041192869686E-002   0.0000000000000000     
  -4.3470681535467973E-002   6.4346410634903539E-002   0.0000000000000000     
  -4.5526557462248998E-002   7.0037217453983558E-002   0.0000000000000000     
  -4.7518070697679146E-002   7.5910461650109742E-002   0.0000000000000000     
  -4.9445221241758423E-002   8.1966143223282079E-002   0.0000000000000000     
  -4.5772800123200848E-002   5.9514808231745923E-002   0.0000000000000000     
  -4.8081155202381362E-002   6.4998553594801028E-002   0.0000000000000000     
  -5.0320543517347695E-002   7.0666363291133336E-002   0.0000000000000000     
  -5.2490965068099867E-002   7.6518237320742810E-002   0.0000000000000000     
  -5.4592419854637857E-002   8.2554175683629508E-002   0.0000000000000000     
  -3.4857992125002547E-002   8.0506284168139292E-002   0.0000000000000000     
  -3.6204344442777127E-002   8.6779910943690544E-002   0.0000000000000000     
  -3.7488186345028686E-002   9.3197211547487890E-002   0.0000000000000000     
  -3.8709517831757211E-002   9.9758185979531330E-002   0.0000000000000000     
  -3.9868338902962715E-002  0.10646283423982086        0.0000000000000000     
  -3.9578007376940769E-002   8.0942197465536977E-002   0.0000000000000000     
  -4.1092816800185811E-002   8.7198231999359291E-002   0.0000000000000000     
  -4.2536670552008105E-002   9.3598715745532413E-002   0.0000000000000000     
  -4.3909568632407657E-002  0.10014364870405638        0.0000000000000000     
  -4.5211511041384468E-002  0.10683303087493118        0.0000000000000000     
  -4.4440417082526058E-002   8.1428817150584573E-002   0.0000000000000000     
  -4.6123323240561835E-002   8.7666689660512970E-002   0.0000000000000000     
  -4.7726559414844535E-002   9.4049280401492921E-002   0.0000000000000000     
  -4.9250125605374132E-002  0.10057658937352437        0.0000000000000000     
  -5.0694021812150637E-002  0.10724861657660738        0.0000000000000000     
  -4.9445221241758423E-002   8.1966143223282079E-002   0.0000000000000000     
  -5.1295863763905221E-002   8.8185283927151623E-002   0.0000000000000000     
  -5.3057852933537951E-002   9.4548905515369361E-002   0.0000000000000000     
  -5.4731188750656620E-002  0.10105700798793531        0.0000000000000000     
  -5.6315871215261236E-002  0.10770959134484946        0.0000000000000000     
  -5.4592419854637857E-002   8.2554175683629508E-002   0.0000000000000000     
  -5.6610438370215947E-002   8.8754014799275222E-002   0.0000000000000000     
  -5.8530551108088372E-002   9.5097591087161759E-002   0.0000000000000000     
  -6.0352758068255144E-002  0.10158490454728916        0.0000000000000000     
  -6.2077059250716250E-002  0.10821595517965743        0.0000000000000000     
  -3.9868338902962715E-002  0.10646283423982086        0.0000000000000000     
  -4.0988375918861668E-002  0.11332761175246936        0.0000000000000000     
  -4.2093355239670525E-002  0.12036897394158964        0.0000000000000000     
  -4.3183276865389301E-002  0.12758692080718181        0.0000000000000000     
  -4.4258140796017982E-002  0.13498145234924575        0.0000000000000000     
  -4.5211511041384468E-002  0.10683303087493118        0.0000000000000000     
  -4.6470044671809360E-002  0.11368226374216472        0.0000000000000000     
  -4.7712716416553197E-002  0.12070674878976498        0.0000000000000000     
  -4.8939526275615958E-002  0.12790648601773197        0.0000000000000000     
  -5.0150474248997663E-002  0.13528147542606567        0.0000000000000000     
  -5.0694021812150637E-002  0.10724861657660738        0.0000000000000000     
  -5.2090371653322885E-002  0.11407967728671708        0.0000000000000000     
  -5.3471298747039722E-002  0.12108408677982868        0.0000000000000000     
  -5.4836803093301127E-002  0.12826184505594221        0.0000000000000000     
  -5.6186884692107128E-002  0.13561295211505764        0.0000000000000000     
  -5.6315871215261236E-002  0.10770959134484946        0.0000000000000000     
  -5.7849356863402229E-002  0.11451985238612641        0.0000000000000000     
  -5.9369102231130087E-002  0.12150098791178077        0.0000000000000000     
  -6.0875107318444803E-002  0.12865299792181251        0.0000000000000000     
  -6.2367372125346376E-002  0.13597588241622166        0.0000000000000000     
  -6.2077059250716250E-002  0.10821595517965743        0.0000000000000000     
  -6.3747000302047413E-002  0.11500278904039271        0.0000000000000000     
  -6.5406126868824313E-002  0.12195745218562118        0.0000000000000000     
  -6.7054438951046985E-002  0.12907994461534283        0.0000000000000000     
  -6.8691936548715402E-002  0.13637026632955768        0.0000000000000000     
  -4.4258140796017982E-002  0.13498145234924575        0.0000000000000000     
  -4.5272728069067070E-002  0.14248820159578957        0.0000000000000000     
  -4.6181819722047060E-002  0.15004280157482125        0.0000000000000000     
  -4.6985415754957932E-002  0.15764525228634074        0.0000000000000000     
  -4.7683516167799714E-002  0.16529555373034810        0.0000000000000000     
  -5.0150474248997663E-002  0.13528147542606567        0.0000000000000000     
  -5.1294583689072304E-002  0.14277035432761656        0.0000000000000000     
  -5.2320877948213849E-002  0.15031176003523500        0.0000000000000000     
  -5.3229357026422355E-002  0.15790569254892112        0.0000000000000000     
  -5.4020020923697759E-002  0.16555215186867484        0.0000000000000000     
  -5.6186884692107128E-002  0.13561295211505764        0.0000000000000000     
  -5.7464066327948288E-002  0.14307985045169808        0.0000000000000000     
  -5.8610870785315197E-002  0.15060498256038657        0.0000000000000000     
  -5.9627298064207863E-002  0.15818834844112320        0.0000000000000000     
  -6.0513348164626279E-002  0.16582994809390794        0.0000000000000000     
  -6.2367372125346376E-002  0.13597588241622166        0.0000000000000000     
  -6.3781175985695049E-002  0.14341668996803414        0.0000000000000000     
  -6.5051798233351096E-002  0.15092246915027593        0.0000000000000000     
  -6.6179238868314491E-002  0.15849321996294702        0.0000000000000000     
  -6.7163497890585261E-002  0.16612894240604748        0.0000000000000000     
  -6.8691936548715402E-002  0.13637026632955768        0.0000000000000000     
  -7.0245912662312573E-002  0.14378087287662475        0.0000000000000000     
  -7.1643660292321512E-002  0.15126421980490304        0.0000000000000000     
  -7.2885179438742231E-002  0.15882030711439260        0.0000000000000000     
  -7.3970470101574717E-002  0.16644913480509338        0.0000000000000000     
   0.0000000000000000        0.0000000000000000        0.0000000000000000     
  -2.8801145935631292E-003   1.7447925763597952E-003   0.0000000000000000     
  -5.8727189806071153E-003   3.8645947503012828E-003   0.0000000000000000     
  -8.9778131611319596E-003   6.3594065218244619E-003   0.0000000000000000     
  -1.2195397135137662E-002   9.2292278909293333E-003   0.0000000000000000     
   0.0000000000000000        0.0000000000000000        0.0000000000000000     
  -3.2832934017422025E-003   1.9992957205554303E-003   0.0000000000000000     
  -6.6770796346629401E-003   4.3308829958294010E-003   0.0000000000000000     
  -1.0181358698762209E-002   6.9947618258219121E-003   0.0000000000000000     
  -1.3796130594040015E-002   9.9909322105329636E-003   0.0000000000000000     
   0.0000000000000000        0.0000000000000000        0.0000000000000000     
  -3.9536698124899121E-003   2.4251108366086654E-003   0.0000000000000000     
  -7.9107601428655989E-003   5.0629007698355663E-003   0.0000000000000000     
  -1.1871270991127062E-002   7.9133697996807036E-003   0.0000000000000000     
  -1.5835202357274297E-002   1.0976517926144074E-002   0.0000000000000000     
   0.0000000000000000        0.0000000000000000        0.0000000000000000     
  -4.8912438258062576E-003   3.0222379245195006E-003   0.0000000000000000     
  -9.5737605052150961E-003   6.0606480723197796E-003   0.0000000000000000     
  -1.4047550038226513E-002   9.1152304434008354E-003   0.0000000000000000     
  -1.8312612424840509E-002   1.2185985037762670E-002   0.0000000000000000     
   0.0000000000000000        0.0000000000000000        0.0000000000000000     
  -6.0960154416912389E-003   3.7906769842879374E-003   0.0000000000000000     
  -1.1666080721711426E-002   7.3241249032820399E-003   0.0000000000000000     
  -1.6710195840060563E-002   1.0600343756982308E-002   0.0000000000000000     
  -2.1228360796738649E-002   1.3619333545388742E-002   0.0000000000000000     
  -1.2195397135137662E-002   9.2292278909293333E-003   0.0000000000000000     
  -1.5427751927021241E-002   1.2371894060915449E-002   0.0000000000000000     
  -1.8577158561179728E-002   1.5685240235082366E-002   0.0000000000000000     
  -2.1643617037613114E-002   1.9169266413430079E-002   0.0000000000000000     
  -2.4627127356321405E-002   2.2823972595958596E-002   0.0000000000000000     
  -1.3796130594040015E-002   9.9909322105329636E-003   0.0000000000000000     
  -1.7404369198419718E-002   1.3221311031028506E-002   0.0000000000000000     
  -2.0889048389824676E-002   1.6587815168374476E-002   0.0000000000000000     
  -2.4250168168254895E-002   2.0090444622570883E-002   0.0000000000000000     
  -2.7487728533710371E-002   2.3729199393617725E-002   0.0000000000000000     
  -1.5835202357274297E-002   1.0976517926144074E-002   0.0000000000000000     
  -1.9730864383888783E-002   1.4211138159007751E-002   0.0000000000000000     
  -2.3486567213551985E-002   1.7576023508053797E-002   0.0000000000000000     
  -2.7102310846263907E-002   2.1071173973282221E-002   0.0000000000000000     
  -3.0578095282024549E-002   2.4696589554693008E-002   0.0000000000000000     
  -1.8312612424840509E-002   1.2185985037762670E-002   0.0000000000000000     
  -2.2407237483428436E-002   1.5341375444853193E-002   0.0000000000000000     
  -2.6369715032361650E-002   1.8649865254120334E-002   0.0000000000000000     
  -3.0200045071640150E-002   2.2111454465564090E-002   0.0000000000000000     
  -3.3898227601263937E-002   2.5726143079184454E-002   0.0000000000000000     
  -2.1228360796738649E-002   1.3619333545388742E-002   0.0000000000000000     
  -2.5433488497038685E-002   1.6612022888564837E-002   0.0000000000000000     
  -2.9538491846253682E-002   1.9809340406574089E-002   0.0000000000000000     
  -3.3543370844383635E-002   2.3211286099416497E-002   0.0000000000000000     
  -3.7448125491428542E-002   2.6817859967092055E-002   0.0000000000000000     
  -2.4627127356321405E-002   2.2823972595958596E-002   0.0000000000000000     
  -2.7531906671330580E-002   2.6672366659803787E-002   0.0000000000000000     
  -3.0362172136666619E-002   3.0737456482101529E-002   0.0000000000000000     
  -3.3117923752329519E-002   3.5019242062851813E-002   0.0000000000000000     
  -3.5799161518319272E-002   3.9517723402054658E-002   0.0000000000000000     
  -2.7487728533710371E-002   2.3729199393617725E-002   0.0000000000000000     
  -3.0624721166828291E-002   2.7546900688118450E-002   0.0000000000000000     
  -3.3684137748245843E-002   3.1586369712676511E-002   0.0000000000000000     
  -3.6665978277963029E-002   3.5847606467291911E-002   0.0000000000000000     
  -3.9570242755979840E-002   4.0330610951964642E-002   0.0000000000000000     
  -3.0578095282024549E-002   2.4696589554693008E-002   0.0000000000000000     
  -3.3943167337885723E-002   2.8496967062790274E-002   0.0000000000000000     
  -3.7226773830899243E-002   3.2517003308078142E-002   0.0000000000000000     
  -4.0428914761065096E-002   3.6756698290556604E-002   0.0000000000000000     
  -4.3549590128383303E-002   4.1216052010225629E-002   0.0000000000000000     
  -3.3898227601263937E-002   2.5726143079184454E-002   0.0000000000000000     
  -3.7487245184502867E-002   2.9522565783819277E-002   0.0000000000000000     
  -4.0990080384626794E-002   3.3529357268306414E-002   0.0000000000000000     
  -4.4406733201635726E-002   3.7746517532645879E-002   0.0000000000000000     
  -4.7737203635529649E-002   4.2174046576837640E-002   0.0000000000000000     
  -3.7448125491428542E-002   2.6817859967092055E-002   0.0000000000000000     
  -4.1256954706679727E-002   3.0623696851205449E-002   0.0000000000000000     
  -4.4974057409428524E-002   3.4623431593361349E-002   0.0000000000000000     
  -4.8599433599674904E-002   3.8817064193559750E-002   0.0000000000000000     
  -5.2133083277418897E-002   4.3204594651800654E-002   0.0000000000000000     
  -3.5799161518319272E-002   3.9517723402054658E-002   0.0000000000000000     
  -3.8405499561989270E-002   4.4222663117732194E-002   0.0000000000000000     
  -4.0936552010692871E-002   4.9123823827906588E-002   0.0000000000000000     
  -4.3392318864430054E-002   5.4221205532577824E-002   0.0000000000000000     
  -4.5772800123200848E-002   5.9514808231745923E-002   0.0000000000000000     
  -3.9570242755979840E-002   4.0330610951964642E-002   0.0000000000000000     
  -4.2394077081705561E-002   4.5020984106173084E-002   0.0000000000000000     
  -4.5134627154549453E-002   4.9904326869395610E-002   0.0000000000000000     
  -4.7791892974511550E-002   5.4980639241632226E-002   0.0000000000000000     
  -5.0365874541591790E-002   6.0249921222882918E-002   0.0000000000000000     
  -4.3549590128383303E-002   4.1216052010225629E-002   0.0000000000000000     
  -4.6584792163345733E-002   4.5882011389992913E-002   0.0000000000000000     
  -4.9530513096444274E-002   5.0741523352766035E-002   0.0000000000000000     
  -5.2386752927678935E-002   5.5794587898545016E-002   0.0000000000000000     
  -5.5153511657049702E-002   6.1041205027329841E-002   0.0000000000000000     
  -4.7737203635529649E-002   4.2174046576837640E-002   0.0000000000000000     
  -5.0977644806909791E-002   4.6805744969191654E-002   0.0000000000000000     
  -5.4124209836377307E-002   5.1635413278017829E-002   0.0000000000000000     
  -5.7176898723932251E-002   5.6663051503316186E-002   0.0000000000000000     
  -6.0135711469574575E-002   6.1888659645086705E-002   0.0000000000000000     
  -5.2133083277418897E-002   4.3204594651800654E-002   0.0000000000000000     
  -5.5572635012397717E-002   4.7792184843769334E-002   0.0000000000000000     
  -5.8915717374348572E-002   5.2585996645151033E-002   0.0000000000000000     
  -6.2162330363271477E-002   5.7586030055945758E-002   0.0000000000000000     
  -6.5312473979166424E-002   6.2792285076153503E-002   0.0000000000000000     
  -4.5772800123200848E-002   5.9514808231745923E-002   0.0000000000000000     
  -4.8081155202381362E-002   6.4998553594801028E-002   0.0000000000000000     
  -5.0320543517347695E-002   7.0666363291133336E-002   0.0000000000000000     
  -5.2490965068099867E-002   7.6518237320742810E-002   0.0000000000000000     
  -5.4592419854637857E-002   8.2554175683629508E-002   0.0000000000000000     
  -5.0365874541591790E-002   6.0249921222882918E-002   0.0000000000000000     
  -5.2861430989211290E-002   6.5708264448718856E-002   0.0000000000000000     
  -5.5283421450791133E-002   7.1351760554711180E-002   0.0000000000000000     
  -5.7631845926331297E-002   7.7180409540859904E-002   0.0000000000000000     
  -5.9906704415831784E-002   8.3194211407165042E-002   0.0000000000000000     
  -5.5153511657049702E-002   6.1041205027329841E-002   0.0000000000000000     
  -5.7836228713563691E-002   6.6476646482676732E-002   0.0000000000000000     
  -6.0440343526227999E-002   7.2096184008141842E-002   0.0000000000000000     
  -6.2965856095042641E-002   7.7899817603725219E-002   0.0000000000000000     
  -6.5412766420007609E-002   8.3887547269426849E-002   0.0000000000000000     
  -6.0135711469574575E-002   6.1888659645086705E-002   0.0000000000000000     
  -6.3005548375438536E-002   6.7303699696674671E-002   0.0000000000000000     
  -6.5791309743658308E-002   7.2899633651425377E-002   0.0000000000000000     
  -6.8492995574233911E-002   7.8676461509338796E-002   0.0000000000000000     
  -7.1110605867165361E-002   8.4634183270414942E-002   0.0000000000000000     
  -6.5312473979166424E-002   6.2792285076153503E-002   0.0000000000000000     
  -6.8369389974835812E-002   6.8189424090712686E-002   0.0000000000000000     
  -7.1336320103082038E-002   7.3762109484561716E-002   0.0000000000000000     
  -7.4213264363905102E-002   7.9510341257700595E-002   0.0000000000000000     
  -7.7000222757305004E-002   8.5434119410129322E-002   0.0000000000000000     
  -5.4592419854637857E-002   8.2554175683629508E-002   0.0000000000000000     
  -5.6610438370215947E-002   8.8754014799275222E-002   0.0000000000000000     
  -5.8530551108088372E-002   9.5097591087161759E-002   0.0000000000000000     
  -6.0352758068255144E-002  0.10158490454728916        0.0000000000000000     
  -6.2077059250716250E-002  0.10821595517965743        0.0000000000000000     
  -5.9906704415831784E-002   8.3194211407165042E-002   0.0000000000000000     
  -6.2091548330314154E-002   8.9372261062068581E-002   0.0000000000000000     
  -6.4169929080799909E-002   9.5693653414012564E-002   0.0000000000000000     
  -6.6141846667289117E-002  0.10215838846299695        0.0000000000000000     
  -6.8007301089781716E-002  0.10876646620902178        0.0000000000000000     
  -6.5412766420007609E-002   8.3887547269426849E-002   0.0000000000000000     
  -6.7763694915019962E-002   9.0039401500716529E-002   0.0000000000000000     
  -7.0001261993976743E-002   9.6335408793064126E-002   0.0000000000000000     
  -7.2125467656877953E-002  0.10277556914646965        0.0000000000000000     
  -7.4136311903723606E-002  0.10935988256093306        0.0000000000000000     
  -7.1110605867165361E-002   8.4634183270414942E-002   0.0000000000000000     
  -7.3626878124333425E-002   9.0755436115219093E-002   0.0000000000000000     
  -7.6024549847618847E-002   9.7022857224316514E-002   0.0000000000000000     
  -7.8303621037021723E-002  0.10343644659770722        0.0000000000000000     
  -8.0464091692541956E-002  0.10999620423539122        0.0000000000000000     
  -7.7000222757305004E-002   8.5434119410129322E-002   0.0000000000000000     
  -7.9681097958254468E-002   9.1520364905576246E-002   0.0000000000000000     
  -8.2239792641726261E-002   9.7755998707769715E-002   0.0000000000000000     
  -8.4676306807720342E-002  0.10414102081670971        0.0000000000000000     
  -8.6990640456236751E-002  0.11067543123239626        0.0000000000000000     
  -6.2077059250716250E-002  0.10821595517965743        0.0000000000000000     
  -6.3747000302047413E-002  0.11500278904039271        0.0000000000000000     
  -6.5406126868824313E-002  0.12195745218562118        0.0000000000000000     
  -6.7054438951046985E-002  0.12907994461534283        0.0000000000000000     
  -6.8691936548715402E-002  0.13637026632955768        0.0000000000000000     
  -6.8007301089781716E-002  0.10876646620902178        0.0000000000000000     
  -6.9815260213766120E-002  0.11552929994037484        0.0000000000000000     
  -7.1614691904730729E-002  0.12245830294534384        0.0000000000000000     
  -7.3405596162675557E-002  0.12955347522392879        0.0000000000000000     
  -7.5187972987600590E-002  0.13681481677612972        0.0000000000000000     
  -7.4136311903723606E-002  0.10935988256093306        0.0000000000000000     
  -7.6086094843066041E-002  0.11610019777693162        0.0000000000000000     
  -7.8027116583457623E-002  0.12300836353494260        0.0000000000000000     
  -7.9959377124898409E-002  0.13008437983496593        0.0000000000000000     
  -8.1882876467388330E-002  0.13732824667700166        0.0000000000000000     
  -8.0464091692541956E-002  0.10999620423539122        0.0000000000000000     
  -8.2559504189947189E-002  0.11671548255006306        0.0000000000000000     
  -8.4643400905005078E-002  0.12360763395441741        0.0000000000000000     
  -8.6715781837715528E-002  0.13067265844845424        0.0000000000000000     
  -8.8776646988078606E-002  0.13791055603217359        0.0000000000000000     
  -8.6990640456236751E-002  0.11067543123239626        0.0000000000000000     
  -8.9235488254409578E-002  0.11737515425976917        0.0000000000000000     
  -9.1463544869372970E-002  0.12425611420376835        0.0000000000000000     
  -9.3674810301126940E-002  0.13131831106439376        0.0000000000000000     
  -9.5869284549671446E-002  0.13856174484164541        0.0000000000000000     
  -6.8691936548715402E-002  0.13637026632955768        0.0000000000000000     
  -7.0245912662312573E-002  0.14378087287662475        0.0000000000000000     
  -7.1643660292321512E-002  0.15126421980490304        0.0000000000000000     
  -7.2885179438742231E-002  0.15882030711439260        0.0000000000000000     
  -7.3970470101574717E-002  0.16644913480509338        0.0000000000000000     
  -7.5187972987600590E-002  0.13681481677612972        0.0000000000000000     
  -7.6880847062691479E-002  0.14419663116486078        0.0000000000000000     
  -7.8403243071133860E-002  0.15165322195303615        0.0000000000000000     
  -7.9755161012927719E-002  0.15918458914065581        0.0000000000000000     
  -8.0936600888073071E-002  0.16679073272771977        0.0000000000000000     
  -8.1882876467388330E-002  0.13732824667700166        0.0000000000000000     
  -8.3708549891722370E-002  0.14468819682013309        0.0000000000000000     
  -8.5347332678695445E-002  0.15211246302344342        0.0000000000000000     
  -8.6799224828307583E-002  0.15960104528693261        0.0000000000000000     
  -8.8064226340558771E-002  0.16715394361060079        0.0000000000000000     
  -8.8776646988078606E-002  0.13791055603217359        0.0000000000000000     
  -9.0729021149405245E-002  0.14525556984244167        0.0000000000000000     
  -9.2475929115006308E-002  0.15264194301612485        0.0000000000000000     
  -9.4017370884881865E-002  0.16006967555322310        0.0000000000000000     
  -9.5353346459031832E-002  0.16753876745373641        0.0000000000000000     
  -9.5869284549671446E-002  0.13856174484164541        0.0000000000000000     
  -9.7942260835740105E-002  0.14589875023178656        0.0000000000000000     
  -9.9789032380066450E-002  0.15324166193108046        0.0000000000000000     
 -0.10140959918265049       0.16059047993952716        0.0000000000000000     
 -0.10280396124349225       0.16794520425712661        0.0000000000000000     
 </DataArray>
 <DataArray  type="Float64" Name="stress" NumberOfComponents="3" format="ascii">
   13416198594.615065        4024859578.3845196        2894161997.7352986     
   11766157368.107117        1890120161.2700925        1716007913.9468856     
   10313474838.907473        413243068.51668262        810814261.38179445     
   9058151007.0161362       -405771699.87571001        178581040.04002580     
   8000185872.4331045       -566924143.90708590       -180691750.07842067     
   10539996591.144165        3161998977.3432498        2225808335.7413254     
   9667458395.4379406        1589383067.1740937        1446802957.6712363     
   8943621420.0603333        512437891.43365669        863195593.54562771     
   8368485665.0113430       -68836549.878060341        474986243.36449993     
   7942051130.2909679       -154440256.76105881        282174907.12785238     
   8338256385.0148115        2501476915.5044436        1712327662.6411793     
   8021614313.5993385        1424502440.3272672        1275703933.8131092     
   7805015985.5327892        681007109.64651155        956915801.65067923     
   7688461400.8151684        270990923.46217632        755963266.15388763     
   7671950559.4464712        194453881.77426052        672846327.32273507     
   6810977976.2270041        2043293392.8681011        1353719978.4348595     
   6828625122.5913038        1395478280.7296107        1202710842.3725054     
   6897658535.3248386        918950723.15524220        1091974885.6969488     
   7018078214.4276104        613710720.14499712        1021512108.4081892     
   7189884159.8996201        479758271.69887352        991322510.50622761     
   5958161364.7807426        1787448409.4342227        1149985283.1223669     
   6088490822.4138384        1502310588.3811252        1227823683.3494239     
   6221549069.4364815        1226268731.9598517        1268372845.6844361     
   6357336105.8486710        959322840.17040300        1271632770.1274047     
   6495851931.6504087        701472913.01277781        1237603456.6783285     
   8000185872.4331045       -566924143.90708590       -180691750.07842067     
   7917892769.6461887       -199227558.21728230       -78637722.198580950     
   7793942565.2755871        29612022.193578243       -8993177.2565920521     
   7628335259.3213034        119594597.32549477        28241884.747543152     
   7421070851.7833385        70720167.178466797        33067463.813824184     
   7942051130.2909679       -154440256.76105881        282174907.12785238     
   7739798722.8422451        17065699.260757446        280928373.05161405     
   7514024232.2451181        110164711.45455885        265089694.40445238     
   7264727658.4995842        124856779.82034063        234658871.18636587     
   6991909001.6056519        61141904.358110428        189635903.39735711     
   7671950559.4464712        194453881.77426052        672846327.32273507     
   7400645528.3843126        185041212.44260120        589456752.79824328     
   7123953432.6090260        157671660.73385429        509292372.06975424     
   6841874272.1206141        112345226.64801311        432353185.13727158     
   6554408046.9190712        49061910.185083866        358639192.00079381     
   7189884159.8996201        479758271.69887352        991322510.50622761     
   6900433186.2723923        304698981.32825017        846947417.04130483     
   6623730166.3673153        172132870.03146315        723614855.73931611     
   6359775100.1843891        82059937.808511496        621324826.60026085     
   6108567987.7236156        34480184.659399033        540077329.62413979     
   6495851931.6504087        701472913.01277781        1237603456.6783285     
   6239161696.5064812        376039005.91770077        1053400365.7807989     
   6013354433.5199823        153548339.34738612        908057145.41313457     
   5818430142.6909122        34000913.301831722        801573795.57533014     
   5654388824.0192709        17396727.781044006        733950316.26739109     
   7421070851.7833385        70720167.178466797        33067463.813824184     
   7218175136.4890852       -20909279.149306297        15447108.820047582     
   7027882265.2924500       -70529245.151676655        1884215.1580271523     
   6850192238.1934385       -78139730.828636646       -7621217.1722356603     
   6685105055.1920471       -43740736.180203915       -13069188.170740696     
   6991909001.6056519        61141904.358110428        189635903.39735711     
   6808320884.0434370        884957.30638027191        180952511.08987281     
   6632884805.6368732       -32198525.893188953        175823848.18081090     
   6465600766.3859587       -38108545.240597486        174249914.67017168     
   6306468766.2906942       -16845100.735833168        176230710.55795166     
   6554408046.9190712        49061910.185083866        358639192.00079381     
   6388691150.1365147        19746549.323683500        353700156.61397457     
   6226675487.5676289        2768635.8412032127        351813118.69223821     
   6068361059.2124205       -1871830.2623608112        352978078.23558104     
   5913747865.0708914        5825151.0130009651        357195035.24401069     
   6108567987.7236156        34480184.659399033        540077329.62413979     
   5959285934.7683144        35675496.902605534        533690045.39234668     
   5809254311.0847149        34372240.051490068        529852026.69229758     
   5658473116.6728230        30570414.106057167        528563273.52399677     
   5506942351.5326309        24270019.066298246        529823785.88743633     
   5654388824.0192709        17396727.781044006        733950316.26739109     
   5520105237.9388380        48671800.043142796        720922177.42498899     
   5380621276.1881332        62612286.737681627        709940572.18099439     
   5235936938.7671585        59218187.864651203        701005500.53541100     
   5086052225.6759176        38489503.424063683        694116962.48823261     
   6685105055.1920471       -43740736.180203915       -13069188.170740696     
   6513062520.7934580       -1553438.1827313900       -4988832.7951603979     
   6334928071.1554041        20327475.683188915        4695842.5179020986     
   6150701706.2778749        21902005.417531967        15984837.768432060     
   5960383426.1608829        3170151.0203220844        28878152.956436533     
   6306468766.2906942       -16845100.735833168        176230710.55795166     
   6134517016.8055353        6849922.0195271969        174051223.88500109     
   5958552241.1763115        17168190.961327791        174604699.95616663     
   5778574439.4030256        14109706.089592218        177891138.77144605     
   5594583611.4856777       -2325532.5956940651        183910540.33084410     
   5913747865.0708914        5825151.0130009651        357195035.24401069     
   5745111594.2324238        11995306.646220207        347181077.13383037     
   5574541186.3452940        11718338.783902645        341028724.57441235     
   5402036641.4095020        4994247.4260501862        338737977.56574088     
   5227597959.4250526       -8176967.4273355007        340308836.10783327     
   5506942351.5326309        24270019.066298246        529823785.88743633     
   5344846253.0741119        13882715.697356224        514400726.95133728     
   5182894906.6623373        3977919.1508924961        503967916.37263054     
   5021088312.2973042       -5444370.5730931759        498525354.15132791     
   4859426469.9790173       -14384153.474604130        498073040.28741270     
   5086052225.6759176        38489503.424063683        694116962.48823261     
   4933720993.3306074        12512149.172935724        675710173.33751261     
   4783613402.1274443       -6053067.9377028942        663422275.35083210     
   4635729452.0664301       -17206147.907841921        657253268.52818668     
   4490069143.1475620       -20947090.737494707        657203152.86957848     
   5960383426.1608829        3170151.0203220844        28878152.956436533     
   5776960735.4336786       -17233290.900795221        20347702.149520196     
   5597163851.5893354       -25550709.879038572        17745936.454436854     
   5420992774.6278629       -21782105.914379597        21072855.871188741     
   5248447504.5492554       -5927479.0068395138        30328460.399762738     
   5594583611.4856777       -2325532.5956940651        183910540.33084410     
   5427695709.3474770       -15634332.346060514        178262330.77455345     
   5263499225.3541136       -19971738.280303001        177767279.13550320     
   5101994159.5055923       -15337750.398402691        182425385.41367516     
   4943180511.8019142       -1732368.7003715038        192236649.60907668     
   5227597959.4250526       -8176967.4273355007        340308836.10783327     
   5075029053.8912764       -15055862.602325916        336452747.60781741     
   4924217177.7643175       -16077993.087927103        336974289.83042485     
   4775162331.0441675       -11243358.884158373        341873462.77565902     
   4627864513.7308378       -551959.99100375175        351150266.44351840     
   4859426469.9790173       -14384153.474604130        498073040.28741270     
   4718960769.0650845       -15497881.669582129        494918952.64929950     
   4579317708.8199377       -13869474.301939011        495366968.53921020     
   4440497289.2435799       -9498931.3716671467        499417087.95713955     
   4302499510.3360109       -2386252.8787677288        507069310.90308768     
   4490069143.1475620       -20947090.737494707        657203152.86957848     
   4359490854.8688908       -16960389.547838688        653660945.89900625     
   4228800818.5209794       -13346181.922318220        652945315.26184940     
   4097999034.1038313       -10104467.860922813        655056260.95811403     
   3967085501.6174393       -7235247.3636620045        659993782.98779404     
   5248447504.5492554       -5927479.0068395138        30328460.399762738     
   5019044934.6571026       -3836443.3865499496        23439623.233543292     
   4788188161.3920631       -6592752.3425498009        16220435.998122770     
   4555877184.7541447       -14196405.874815226        8670898.6934934929     
   4322112004.7433310       -26647403.983392239        791011.31965289346     
   4943180511.8019142       -1732368.7003715038        192236649.60907668     
   4713468750.0239487       -7132249.6455967426        181358983.22348729     
   4482558430.4829121       -16527323.134410381        172302500.04852185     
   4250449553.1788006       -29917589.166812181        165067200.08419123     
   4017142118.1116018       -47303047.742812634        159653083.33047691     
   4627864513.7308378       -551959.99100375175        351150266.44351840     
   4403990798.0094328       -11598586.119056940        336582024.05000323     
   4179174170.1347675       -25788252.757987976        325986498.14694285     
   3953414630.1068397       -43120959.907793283        319363688.73434597     
   3726712177.9256368       -63596707.568503857        316713595.81220412     
   4302499510.3360109       -2386252.8787677288        507069310.90308768     
   4090611078.6135516       -17235452.806914568        489108745.71309382     
   3878035380.3476338       -34375541.213253021        477272430.29339153     
   3664772415.5382624       -53806518.097766399        471560364.64397138     
   3450822184.1854377       -75528383.460471630        471972548.76484215     
   3967085501.6174393       -7235247.3636620045        659993782.98779404     
   3773329591.8362966       -24042849.709195614        638939148.21276307     
   3579142061.1215100       -42289188.500215292        626160296.48785233     
   3384522909.4730806       -61974263.736706018        621657227.81306624     
   3189472136.8910003       -83098075.418701172        625429942.18839526     
   4322112004.7433310       -26647403.983392239        791011.31965289346     
   4315095503.0407324        12726332.722075701        30131743.301662009     
   4298851972.6153612        21343307.018300056        63297930.067806296     
   4273381413.4671965       -796481.09479713440        100289571.61807230     
   4238683825.5962338       -53693031.617197990        141106667.95245683     
   4017142118.1116018       -47303047.742812634        159653083.33047691     
   4017534041.0067830       -6965926.6444666386        183547983.04462919     
   4010957118.7764559        10141710.702179193        209093896.65152305     
   3997411351.4206018        4019864.2970581055        236290824.15113997     
   3976896738.9392238       -25331465.859788656        265138765.54348567     
   3726712177.9256368       -63596707.568503857        316713595.81220412     
   3728299837.1574874       -24160008.555596590        337797210.78864032     
   3725176834.8610787       -425514.63687610626        358357398.76642293     
   3717343171.0364094        7606774.1876409054        378394159.74553937     
   3704798845.6834874       -63142.082026481628        397907493.72600633     
   3450822184.1854377       -75528383.460471630        471972548.76484215     
   3447392891.4928246       -38855913.011351347        492879426.53370744     
   3441511120.8692179       -10358368.998880625        511088436.41251934     
   3433176872.3146162        9964248.5769400597        526599578.40127987     
   3422390145.8290219        22111939.716125250        539412852.49998450     
   3189472136.8910003       -83098075.418701172        625429942.18839526     
   3174813204.0128059       -51053640.011710048        648794630.27982402     
   3159959976.8008776       -19656852.383828282        667287009.58980727     
   3144912455.2552242        11092287.464962840        680907080.11834764     
   3129670639.3758473        41193779.534673810        689654841.86544383     
   4238683825.5962338       -53693031.617197990        141106667.95245683     
   3699778206.1305757       -185122945.62642288        9043364.1927443705     
   3218052832.5249929       -125952040.10209608       -90979326.317783058     
   2793507704.7794852        123819684.95581734       -158961403.57914147     
   2426142822.8940272        564192229.54725409       -194902867.59132636     
   3976896738.9392238       -25331465.859788656        265138765.54348567     
   3520654082.5682697       -134977582.03585505        183520004.25859374     
   3104626618.8927250       -110573055.89389718        128420494.14356071     
   2728814347.9125795        47882112.566080809        99840235.198388517     
   2393217269.6278572        340387923.34409332        97779227.423073933     
   3704798845.6834874       -63142.082026481628        397907493.72600633     
   3315443832.1806130       -92658056.492902279        346940712.89047897     
   2949338958.2084942       -107752505.80128813        316971821.14551479     
   2606484223.7671061       -45346490.007212996        308000818.49108547     
   2286879628.8564806        94559990.889384151        320027704.92719662     
   3422390145.8290219        22111939.716125250        539412852.49998450     
   3084147454.9676199       -58164368.997545600        499305490.08840823     
   2752189850.4722981       -117490389.82428122        474674654.68805480     
   2426517332.3430610       -155866122.76405823        465520346.29893422     
   2107129900.5799046       -173291567.81690526        471842564.92104101     
   3129670639.3758473        41193779.534673810        689654841.86544383     
   2826764950.9292836       -31496519.549781799        640614335.85235965     
   2513179295.6841369       -139786707.96285486        601528994.77119756     
   2188913673.6404209       -283676785.70449972        572398818.62193811     
   1853968084.7981181       -463166752.77474427        553223807.40459371     
   5958161364.7807426        1787448409.4342227        1149985283.1223669     
   6088490822.4138384        1502310588.3811252        1227823683.3494239     
   6221549069.4364815        1226268731.9598517        1268372845.6844361     
   6357336105.8486710        959322840.17040300        1271632770.1274047     
   6495851931.6504087        701472913.01277781        1237603456.6783285     
   5434593470.5533524        1630378041.1660056        1033422170.6729267     
   5489874894.8257141        1372536936.3207848        1113819568.7157114     
   5547350163.2912560        1122008645.4528282        1167477706.0173893     
   5607019275.9499769        878793168.56213534        1194396582.5779605     
   5668882232.8018770        642890505.64870691        1194576198.3974245     
   4895061213.4221582        1468518364.0266476        936329235.05576348     
   4905437396.1936073        1247016812.9472499        1018661528.1851803     
   4917472477.9618692        1031044925.1905563        1084804537.7244277     
   4931166458.7269421        820602700.75656664        1134758263.6735053     
   4946519338.4888258        615690139.64528000        1168522706.0324137     
   4339564593.3871622        1301869378.0161486        858706476.27087831     
   4335178326.5175200        1125750218.2605202        942349561.75783086     
   4331916013.4483232        953377571.17303634        1020353340.8055515     
   4329777654.1795673        784751436.75369525        1092717813.4140401     
   4328763248.7112570        619871815.00249827        1159442979.5832961     
   3768103610.4483624        1130431083.1345086        800553894.31827044     
   3779097685.7974510        1008737152.2605965        884883669.43366301     
   3790680769.7506156        889006583.40026760        974124115.26076102     
   3802852862.3078537        771239376.55352211        1068275231.7995640     
   3815613963.4691682        655435531.72035980        1167337019.0500722     
   6495851931.6504087        701472913.01277781        1237603456.6783285     
   6239161696.5064812        376039005.91770077        1053400365.7807989     
   6013354433.5199823        153548339.34738612        908057145.41313457     
   5818430142.6909122        34000913.301831722        801573795.57533014     
   5654388824.0192709        17396727.781044006        733950316.26739109     
   5668882232.8018770        642890505.64870691        1194576198.3974245     
   5518785335.1571589        383341919.00703120        1073618548.5816975     
   5392829999.4428282        204265205.46663857        980591598.51548517     
   5291016225.6588821        105660365.02752805        915495348.19878697     
   5213344013.8053198        87527397.689699888        878329797.63160229     
   4946519338.4888258        615690139.64528000        1168522706.0324137     
   4871789576.1137543        412659012.78813744        1102945518.7002707     
   4814459965.4420195        267628391.60879540        1054369860.3372937     
   4774530506.4736300        180598276.10725641        1022795730.9434811     
   4752001199.2085772        151568666.28351736        1008223130.5188352     
   4328763248.7112570        619871815.00249827        1159442979.5832961     
   4298174419.3762598        463990287.26101661        1141381276.1365190     
   4278244331.5175591        343637897.77385700        1129391930.8785584     
   4268972985.1351542        258814646.54101753        1123474943.8094146     
   4270360380.2290463        209520533.56249928        1123630314.9290876     
   3815613963.4691682        655435531.72035980        1167337019.0500722     
   3797939864.9446788        537335742.42567027        1188925820.8904424     
   3784183097.6694427        432293723.96182108        1205657810.1392803     
   3774343661.6434574        340309476.32881260        1217532986.7965868     
   3768421556.8667250        261382999.52664292        1224551350.8623610     
   5654388824.0192709        17396727.781044006        733950316.26739109     
   5520105237.9388380        48671800.043142796        720922177.42498899     
   5380621276.1881332        62612286.737681627        709940572.18099439     
   5235936938.7671585        59218187.864651203        701005500.53541100     
   5086052225.6759176        38489503.424063683        694116962.48823261     
   5213344013.8053198        87527397.689699888        878329797.63160229     
   5077059186.0919342        85331493.755014896        855019654.69252992     
   4938734454.5763578        76335910.479686499        835847632.94434488     
   4798369819.2585850        60540647.863711596        820813732.38704967     
   4655965280.1386185        37945705.907091856        809917953.02064180     
   4752001199.2085772        151568666.28351736        1008223130.5188352     
   4619691094.4121885        117694575.51703286        978318200.66251016     
   4488501557.6816845        87555711.636821508        954642979.58955562     
   4358432589.0170584        61152074.642883062        937197467.29997182     
   4229484188.4183192        38483664.535219908        925981663.79375577     
   4270360380.2290463        209520533.56249928        1123630314.9290876     
   4148000962.8996000        145761045.32919908        1090817815.3349345     
   4029922585.5041103        96271690.209088802        1066326612.1166313     
   3916125248.0425777        61052468.202169180        1050156705.2741792     
   3806608950.5150046        40103379.308444023        1042308094.8075784     
   3768421556.8667250        261382999.52664292        1224551350.8623610     
   3661988791.5541668        169530903.19151092        1192518498.7097993     
   3562997538.0436401        102483846.19648361        1170898530.5255690     
   3471447796.3351493        60241828.541572571        1159691446.3096707     
   3387339566.4286876        42804850.226767421        1158897246.0621052     
   5086052225.6759176        38489503.424063683        694116962.48823261     
   4933720993.3306074        12512149.172935724        675710173.33751261     
   4783613402.1274443       -6053067.9377028942        663422275.35083210     
   4635729452.0664301       -17206147.907841921        657253268.52818668     
   4490069143.1475620       -20947090.737494707        657203152.86957848     
   4655965280.1386185        37945705.907091856        809917953.02064180     
   4520462320.6752052        17103984.622694492        794899208.56723690     
   4386790087.0636063        2364682.8443462849        785521252.17431915     
   4254948579.3038201       -6272199.4279565811        781784083.84187675     
   4124937797.3958483       -8806662.1942126751        783687703.56992149     
   4229484188.4183192        38483664.535219908        925981663.79375577     
   4109443492.9695024        22367773.557362318        913892562.86561036     
   3990840608.0821662        11044584.451111794        906966146.89439535     
   3873675533.7563100        4514097.2164595127        905202415.88010752     
   3757948269.9919357        2776311.8534095287        908601369.82275164     
   3806608950.5150046        40103379.308444023        1042308094.8075784     
   3700664510.2134895        28303515.976940870        1032690236.2326349     
   3595764965.1831245        19986636.882598400        1027756959.5110662     
   3491910315.4239035        15152742.025404453        1027508264.6428751     
   3389100560.9358306        13801831.405375957        1031944151.6280580     
   3387339566.4286876        42804850.226767421        1158897246.0621052     
   3294125372.4071770        34911211.881424189        1151292228.6683090     
   3201563158.3664808        29190840.138804317        1147893690.0243342     
   3109652924.3065953        25643734.998883128        1148701630.1301820     
   3018394670.2275257        24269896.461678982        1153716048.9858472     
   4490069143.1475620       -20947090.737494707        657203152.86957848     
   4359490854.8688908       -16960389.547838688        653660945.89900625     
   4228800818.5209794       -13346181.922318220        652945315.26184940     
   4097999034.1038313       -10104467.860922813        655056260.95811403     
   3967085501.6174393       -7235247.3636620045        659993782.98779404     
   4124937797.3958483       -8806662.1942126751        783687703.56992149     
   4001926560.2623162       -6522964.7457537651        779687850.38110602     
   3878876880.8697486       -4367408.1607391834        779075230.29540777     
   3755788759.2181473       -2339992.4391725063        781849843.31282604     
   3632662195.3075156       -440717.58104848862        788011689.43336403     
   3757948269.9919357        2776311.8534095287        908601369.82275164     
   3644105960.4884019        3837568.5061323643        904229393.86092746     
   3530298514.5360374        5015036.9960954189        903805307.77192521     
   3416525932.1348462        6308717.3232965469        907329111.55574262     
   3302788213.2848239        7718609.4877345562        914800805.21237659     
   3389100560.9358306        13801831.405375957        1031944151.6280580     
   3286029055.5471506        14121210.207815528        1027285576.3384703     
   3183065719.5198498        14801153.548187017        1027135547.6914022     
   3080210552.8539219        15841661.426473498        1031494065.6868535     
   2977463555.5493765        17242733.842690945        1040361130.3248256     
   3018394670.2275257        24269896.461678982        1153716048.9858472     
   2927695845.4385610        24327960.359300613        1148856397.8137355     
   2837178495.8211813        24990941.495535374        1149065950.0538430     
   2746842621.3753819        26258839.870370746        1154344705.7061713     
   2656688222.1011639        28131655.483814120        1164692664.7707160     
   3967085501.6174393       -7235247.3636620045        659993782.98779404     
   3773329591.8362966       -24042849.709195614        638939148.21276307     
   3579142061.1215100       -42289188.500215292        626160296.48785233     
   3384522909.4730806       -61974263.736706018        621657227.81306624     
   3189472136.8910003       -83098075.418701172        625429942.18839526     
   3632662195.3075156       -440717.58104848862        788011689.43336403     
   3460205368.4778972       -13742577.162242651        767676990.32750547     
   3287521892.3269024       -27799934.481364489        754641400.57323050     
   3114611766.8545260       -42612789.538424373        748904920.17054832     
   2941474992.0607724       -58181142.333404899        750467549.11945713     
   3302788213.2848239        7718609.4877345562        914800805.21237659     
   3148839973.1252112       -2914656.2135826349        895425175.32333171     
   2994870055.2564888       -13620180.945265293        882371981.08734262     
   2840878459.6786556       -24397964.707320571        875641222.50441182     
   2686865186.3917055       -35248007.499751687        875232899.57453847     
   2977463555.5493765        17242733.842690945        1040361130.3248256     
   2839233405.7782488        8440913.1367998123        1022183703.2002420     
   2701186549.9102740        250072.10808813572        1009352038.0301794     
   2563322987.9454618       -7329789.2434213161        1001866134.8146470     
   2425642719.8838043       -14298670.917748094        999725993.55363810     
   2656688222.1011639        28131655.483814120        1164692664.7707160     
   2531385666.4370027        20324130.888890147        1147952573.9582369     
   2406471376.2882667        13810824.678724051        1135581571.4017510     
   2281945351.6549492        8591736.8532838821        1127579657.1012566     
   2157807592.5370584        4666867.4125952721        1123946831.0567584     
   3189472136.8910003       -83098075.418701172        625429942.18839526     
   3174813204.0128059       -51053640.011710048        648794630.27982402     
   3159959976.8008776       -19656852.383828282        667287009.58980727     
   3144912455.2552242        11092287.464962840        680907080.11834764     
   3129670639.3758473        41193779.534673810        689654841.86544383     
   2941474992.0607724       -58181142.333404899        750467549.11945713     
   2916504529.7481508       -28714689.741635561        772965441.15404856     
   2892146372.7848663        2792780.6812626123        792998615.36250162     
   2868400521.1709237        36341268.935301661        810567071.74480903     
   2845266974.9063234        71930775.020473242        825670810.30097604     
   2686865186.3917055       -35248007.499751687        875232899.57453847     
   2658462025.9455237       -6295888.3329412937        897805028.51587689     
   2631477770.5317445        27385914.275226951        920320030.58637440     
   2605912420.1503844        65797400.324772596        942777905.78603423     
   2581765974.8014264        108938569.81568229        965178654.11485088     
   2425642719.8838043       -14298670.917748094        999725993.55363810     
   2400685692.6049180        16202764.214352250        1023313392.3653032     
   2377954170.0415120        54122548.398044825        1049251255.2614328     
   2357448152.1935906        99460681.633363724        1077539582.2420232     
   2339167639.0611482        152217163.92026615        1108178373.3070810     
   2157807592.5370584        4666867.4125952721        1123946831.0567584     
   2143175529.7263403        38781267.900258780        1149490532.7023332     
   2131575571.3141661        83002683.049734473        1179792289.3876741     
   2123007717.3005524        137331112.86107445        1214852101.1127799     
   2117471967.6854863        201766557.33424163        1254669967.8776486     
   3129670639.3758473        41193779.534673810        689654841.86544383     
   2826764950.9292836       -31496519.549781799        640614335.85235965     
   2513179295.6841369       -139786707.96285486        601528994.77119756     
   2188913673.6404209       -283676785.70449972        572398818.62193811     
   1853968084.7981181       -463166752.77474427        553223807.40459371     
   2845266974.9063234        71930775.020473242        825670810.30097604     
   2572993536.3154621        21957308.036002636        772402449.61293006     
   2292973063.5586996       -53839606.168138146        727499847.24351299     
   2005205556.6360364       -155459967.59194350        690963003.19273102     
   1709691015.5474813       -282903776.23539782        662791917.46057868     
   2581765974.8014264        108938569.81568229        965178654.11485088     
   2335583624.3140321        80319586.405509472        911104193.48996782     
   2084587172.2934189        35653597.884612441        863806084.57043159     
   1828776618.7395928       -25059395.746999741        823284327.35625124     
   1568151963.6525450       -101819394.48933434        789538921.84742260     
   2339167639.0611482        152217163.92026615        1108178373.3070810     
   2114535214.9249930        143590315.55873787        1056719567.4834826     
   1888021621.8883004        128692904.19540817        1010447706.7519603     
   1659626859.9510727        107524929.83031172        969362791.11251044     
   1429350929.1133187        80086392.463438570        933464820.56512153     
   2117471967.6854863        201766557.33424163        1254669967.8776486     
   1909848308.1483459        211769495.49567705        1209248571.5934725     
   1703276412.3433473        225278312.76427186        1167424713.7880888     
   1497756280.2704990        242293009.14002162        1129198394.4614928     
   1293287911.9297981        262813584.62292325        1094569613.6136854     
   3768103610.4483624        1130431083.1345086        800553894.31827044     
   3779097685.7974510        1008737152.2605965        884883669.43366301     
   3790680769.7506156        889006583.40026760        974124115.26076102     
   3802852862.3078537        771239376.55352211        1068275231.7995640     
   3815613963.4691682        655435531.72035980        1167337019.0500722     
   3207772519.7932596        962331755.93797791        756708959.04847109     
   3235903149.4998693        868228823.81669354        853090608.76814711     
   3263747664.3767228        773172175.59622228        951376399.10822046     
   3291306064.4238210        677161811.27656412        1051566330.0686898     
   3318578349.6411624        580197730.85771859        1153660401.6495566     
   2685665576.6093516        805699672.98280537        722009140.31201124     
   2722342674.6983156        736610713.82159948        829421687.29650152     
   2757858534.5236931        663650960.44843566        935731844.81007993     
   2792213156.0854821        586820412.86331427        1040939612.8527471     
   2825406539.3836851        506119071.06623536        1145044991.4245017     
   2201782780.8966403        660534834.26899219        696454438.10889065     
   2238416261.3927913        613882822.27531374        813876905.01872516     
   2273013380.1915240        560442937.95690727        927190452.36633921     
   2305574137.2928391        500215181.31377316        1036395080.1517334     
   2336098532.6967344        433199552.34591043        1141490788.3749075     
   1756124132.6551244        526837239.79653728        680044852.43910944     
   1784123909.5832956        500045149.17783678        806456261.93481839     
   1809212201.3802168        463548108.12163758        925752221.77699888     
   1831389008.0458891        417346116.62793994        1037932731.9656507     
   1850654329.5803111        361439174.69674349        1142997792.5007739     
   3815613963.4691682        655435531.72035980        1167337019.0500722     
   3797939864.9446788        537335742.42567027        1188925820.8904424     
   3784183097.6694427        432293723.96182108        1205657810.1392803     
   3774343661.6434574        340309476.32881260        1217532986.7965868     
   3768421556.8667250        261382999.52664292        1224551350.8623610     
   3318578349.6411624        580197730.85771859        1153660401.6495566     
   3293846301.2378588        472920484.67969334        1181980904.2797449     
   3272887049.6381679        378219227.84704137        1207231517.3369911     
   3255700594.8420887        296093960.35976243        1229412240.8212979     
   3242286936.8496203        226544682.21785390        1248523074.7326641     
   2825406539.3836851        506119071.06623536        1145044991.4245017     
   2798722035.4403996        411196016.30652601        1179928571.3245928     
   2775665793.8550863        328367169.40672100        1213529184.6703351     
   2756237814.6277432        257632530.36681950        1245846831.4617283     
   2740438097.7583723        198992099.18682194        1276881511.6987715     
   2336098532.6967344        433199552.34591043        1141490788.3749075     
   2312567067.5523000        352162337.30616564        1182768822.0249879     
   2292519330.3201971        282737548.64085692        1224550812.1393116     
   2275955321.0004234        224925186.34998357        1266836758.7178779     
   2262875039.5929818        178725250.43354762        1309626661.7606845     
   1850654329.5803111        361439174.69674349        1142997792.5007739     
   1835381397.5735602        295819447.67861354        1190501656.3809304     
   1823447659.0334990        241330365.54945165        1240296399.7439210     
   1814853113.9601288        197971928.30925655        1292382022.5897458     
   1809597762.3534482        165744135.95802921        1346758524.9184034     
   3768421556.8667250        261382999.52664292        1224551350.8623610     
   3661988791.5541668        169530903.19151092        1192518498.7097993     
   3562997538.0436401        102483846.19648361        1170898530.5255690     
   3471447796.3351493        60241828.541572571        1159691446.3096707     
   3387339566.4286876        42804850.226767421        1158897246.0621052     
   3242286936.8496203        226544682.21785390        1248523074.7326641     
   3165157260.3274279        152585285.47538948        1231578971.0198715     
   3093950184.9961491        98367892.702637196        1222633736.3484130     
   3028665710.8557830        63892503.899590492        1221687370.7182868     
   2969303837.9063268        49159119.066252112        1228739874.1294961     
   2740438097.7583723        198992099.18682194        1276881511.6987715     
   2685714324.5208387        140856246.38531768        1273254094.0461075     
   2635394241.8630972        97399362.183119416        1275211530.5077808     
   2589477849.7851477        68621446.580228806        1282753821.0837874     
   2547965148.2869897        54522499.576643109        1295880965.7741318     
   2262875039.5929818        178725250.43354762        1309626661.7606845     
   2223659984.1343975        134343785.92128718        1317543867.7885084     
   2187329708.6444855        99578254.637934446        1328631913.0036705     
   2153884213.1232462        74428656.583484411        1342890797.4061708     
   2123323497.5706758        58894991.757942438        1360320520.9960105     
   1809597762.3534482        165744135.95802921        1346758524.9184034     
   1778994239.1681058        133047904.08330339        1364448292.2470746     
   1749756585.3403158        104904570.06708235        1382894883.8360870     
   1721884800.8700767        81314133.909365475        1402098299.6854382     
   1695378885.7573872        62276595.610148966        1422058539.7951314     
   3387339566.4286876        42804850.226767421        1158897246.0621052     
   3294125372.4071770        34911211.881424189        1151292228.6683090     
   3201563158.3664808        29190840.138804317        1147893690.0243342     
   3109652924.3065953        25643734.998883128        1148701630.1301820     
   3018394670.2275257        24269896.461678982        1153716048.9858472     
   2969303837.9063268        49159119.066252112        1228739874.1294961     
   2886188426.9395261        37557779.888291001        1220955197.3185132     
   2803914001.8547263        28759726.983668089        1217587959.6842446     
   2722480562.6519246        22764960.352375388        1218638161.2266891     
   2641888109.3311243        19573479.994420052        1224105801.9458506     
   2547965148.2869897        54522499.576643109        1295880965.7741318     
   2475551264.4517360        39394282.789114237        1288137136.4306805     
   2404167372.3996701        27699371.945545316        1285021706.6908352     
   2333813472.1307917        19437767.045932531        1286534676.5545995     
   2264489563.6450982        14609468.090276957        1292676046.0219691     
   2123323497.5706758        58894991.757942438        1360320520.9960105     
   2062213884.9438076        40420720.583896160        1352838046.0048077     
   2002323270.0013139        26009775.024430394        1350194931.0441060     
   1943651652.7431951        15662155.079547882        1352391176.1139059     
   1886199033.1694512        9377860.7492460012        1359426781.2142055     
   1695378885.7573872        62276595.610148966        1422058539.7951314     
   1646176288.4157419        40637093.272636771        1415057926.0408967     
   1598381694.6596584        23690936.220326781        1413107632.7440567     
   1551995104.4891367        11438124.453226745        1416207659.9046099     
   1507016517.9041765        3878657.9713283777        1424358007.5225580     
   3018394670.2275257        24269896.461678982        1153716048.9858472     
   2927695845.4385610        24327960.359300613        1148856397.8137355     
   2837178495.8211813        24990941.495535374        1149065950.0538430     
   2746842621.3753819        26258839.870370746        1154344705.7061713     
   2656688222.1011639        28131655.483814120        1164692664.7707160     
   2641888109.3311243        19573479.994420052        1224105801.9458506     
   2563692880.9326577        18809492.311913848        1219041013.8976409     
   2485783034.9151020        18996779.232437968        1218714877.7176256     
   2408158571.2784538        20135340.755996466        1223127393.4058003     
   2330819490.0227132        22225176.882573009        1232278560.9621694     
   2264489563.6450982        14609468.090276957        1292676046.0219691     
   2197853498.6541915        12740098.932752967        1287527346.1752138     
   2131606723.2535217        12168361.742686749        1286786746.6526241     
   2065749237.4430909        12894256.520081639        1290454247.4541969     
   2000281041.2228947        14917783.264933109        1298529848.5799379     
   1886199033.1694512        9377860.7492460012        1359426781.2142055     
   1830177698.6031647        6119780.2218240499        1354315394.6464555     
   1774649560.8364470        4505689.0262923241        1353281556.8588376     
   1719614619.8692918        4535587.1626391411        1356325267.8513582     
   1665072875.7017035        6209474.6308755875        1363446527.6240184     
   1507016517.9041765        3878657.9713283777        1424358007.5225580     
   1460665480.7795775       -1051463.8208696246        1419405159.3113570     
   1414911547.6638722       -3991238.9167559743        1418199308.3362670     
   1369754718.5570631       -4940667.3163229227        1420740454.5972841     
   1325194993.4591436       -3899749.0195894241        1427028598.0944114     
   2656688222.1011639        28131655.483814120        1164692664.7707160     
   2531385666.4370027        20324130.888890147        1147952573.9582369     
   2406471376.2882667        13810824.678724051        1135581571.4017510     
   2281945351.6549492        8591736.8532838821        1127579657.1012566     
   2157807592.5370584        4666867.4125952721        1123946831.0567584     
   2330819490.0227132        22225176.882573009        1232278560.9621694     
   2217870361.1569743        14315280.081176043        1214620926.9012358     
   2105086365.0894477        6955825.9404854774        1202120464.9384356     
   1992467501.8201363        146814.46051549911        1194777175.0737674     
   1880013771.3490415       -6111754.3587332964        1192591057.3072352     
   2000281041.2228947        14917783.264933109        1298529848.5799379     
   1901937007.2759709        7581014.6931561232        1279694349.7671385     
   1803534973.4100578        50913.058079004288        1266804106.8946157     
   1705074939.6251528       -7672521.6403071880        1259859119.9623659     
   1606556905.9212546       -15589289.401994765        1258859388.9703908     
   1665072875.7017035        6209474.6308755875        1363446527.6240184     
   1583585604.7940023        121334.72485822439        1343172842.5559506     
   1501817201.2500961       -6903913.9685039520        1329632497.2702987     
   1419767665.0699973       -14866271.449173212        1322825491.7670555     
   1337436996.2536974       -23765737.717186451        1322751826.0462303     
   1325194993.4591436       -3899749.0195894241        1427028598.0944114     
   1262816153.7110572       -8063759.8237457871        1405056405.2676671     
   1199933048.6095672       -13908655.139247954        1390605636.0654745     
   1136545678.1546700       -21434434.966105282        1383676290.4878347     
   1072654042.3463678       -30641099.304313302        1384268368.5347524     
   2157807592.5370584        4666867.4125952721        1123946831.0567584     
   2143175529.7263403        38781267.900258780        1149490532.7023332     
   2131575571.3141661        83002683.049734473        1179792289.3876741     
   2123007717.3005524        137331112.86107445        1214852101.1127799     
   2117471967.6854863        201766557.33424163        1254669967.8776486     
   1880013771.3490415       -6111754.3587332964        1192591057.3072352     
   1873934432.2356892        23463940.386917949        1221888685.2899113     
   1870275858.8895488        61108854.356611490        1254054670.0943339     
   1869038051.3106258        106822987.55036491        1289089011.7205040     
   1870221009.4989204        160606339.96817416        1326991710.1684203     
   1606556905.9212546       -15589289.401994765        1258859388.9703908     
   1603631152.7394979        7827958.2719143629        1291197714.8869452     
   1602514826.6936202        37276629.732082188        1324514699.4072275     
   1603207927.7836270        72756724.978537083        1358810342.5312409     
   1605710456.0095160        114268244.01125854        1394084644.2589819     
   1337436996.2536974       -23765737.717186451        1322751826.0462303     
   1332265691.2377687       -8126678.4447536469        1357417621.4934387     
   1328292474.7263885        11506009.176171660        1391172377.3263562     
   1325517346.7195520        35132325.145581424        1424016093.5449846     
   1323940307.2172666        62752269.463487685        1455948770.1493230     
   1072654042.3463678       -30641099.304313302        1384268368.5347524     
   1059838047.7305014       -24399969.763077974        1420548405.1093881     
   1047608802.9878471       -16203007.311140001        1454027703.8517201     
   1035966308.1184053       -6050211.9484945536        1484706264.7617421     
   1024910563.1221781        6058416.3248684406        1512584087.8394580     
   2117471967.6854863        201766557.33424163        1254669967.8776486     
   1909848308.1483459        211769495.49567705        1209248571.5934725     
   1703276412.3433473        225278312.76427186        1167424713.7880888     
   1497756280.2704990        242293009.14002162        1129198394.4614928     
   1293287911.9297981        262813584.62292325        1094569613.6136854     
   1870221009.4989204        160606339.96817416        1326991710.1684203     
   1672427779.4836867        157087576.17244309        1277393978.8199918     
   1473790095.9523530        150753967.32304138        1234880970.6151257     
   1274307958.9049122        141605513.41995534        1199452685.5538096     
   1073981368.3413677        129642214.46318409        1171109123.6360714     
   1605710456.0095160        114268244.01125854        1394084644.2589819     
   1427711040.2726777        100216793.68531436        1338098324.3900056     
   1246970953.7714834        77029774.144852638        1292683912.3293653     
   1063490196.5059311        44707185.389869273        1257841408.0770538     
   877268768.47602892        3249027.4203790426        1233570811.6330729     
   1323940307.2172666        62752269.463487685        1455948770.1493230     
   1175698090.5153046        41157148.034264505        1391361608.3035157     
   1022818985.8007402        4105733.2297029495        1340833538.9308047     
   865302993.07356405       -48401974.950228453        1304364562.0311973     
   703150112.33378983       -116365976.50549614        1281954677.6046872     
   1024910563.1221781        6058416.3248684406        1512584087.8394580     
   916388930.21157908       -20091360.780677557        1437183830.5605161     
   801334192.04012418       -68018155.422411084        1379329850.4194496     
   679746348.60781062       -137721967.60034114        1339022147.4162509     
   551625399.91464245       -229202797.31445053        1316260721.5509205     
   1756124132.6551244        526837239.79653728        680044852.43910944     
   1784123909.5832956        500045149.17783678        806456261.93481839     
   1809212201.3802168        463548108.12163758        925752221.77699888     
   1831389008.0458891        417346116.62793994        1037932731.9656507     
   1850654329.5803111        361439174.69674349        1142997792.5007739     
   1326461283.4434927        397938385.03304780        669689727.98900151     
   1339639582.3446269        375507285.77550554        791858371.41352510     
   1350632685.8377979        345792201.82475173        908734944.92589712     
   1359440593.9230049        308793133.18078625        1020319448.5261174     
   1366063306.6002491        264510079.84360927        1126611882.2141867     
   890565884.82043374        267169765.44613013        662298409.44490075     
   894132362.09846544        250662554.47092646        781071624.80873930     
   896239933.69181967        229292324.54679820        896376150.00180364     
   896888599.60049677        203059075.67374521        1008211985.0240932     
   896078359.82449639        171962807.85176802        1116579129.8756077     
   448437936.78594768        134531381.03578430        657870896.80680728     
   447602248.84481102        125510955.26409954        774096022.12046146     
   446033944.94228292        114048476.28777704        888675837.00471830     
   443733025.07836366        100143944.10681695        1001610341.4595774     
   440699489.25305313        83797358.721219271        1112899535.4850388     
   77439.340034264897        23231.802010279473        656407190.07472098     
   49242.583663299476        52488.155024484353        770931563.34869146     
   14719.589187215075        60657.047688119150        885634005.93464100     
  -26129.643394205628        47738.480000806434        1000514517.8325701     
  -73305.114080528001        13732.451963821495        1115573099.0424781     
   1850654329.5803111        361439174.69674349        1142997792.5007739     
   1835381397.5735602        295819447.67861354        1190501656.3809304     
   1823447659.0334990        241330365.54945165        1240296399.7439210     
   1814853113.9601288        197971928.30925655        1292382022.5897458     
   1809597762.3534482        165744135.95802921        1346758524.9184034     
   1366063306.6002491        264510079.84360927        1126611882.2141867     
   1360429135.2698238        217037885.94694737        1181960486.2994006     
   1357301867.9030652        177922038.59584105        1238244749.9324610     
   1356681504.4999721        147162537.79028553        1295464673.1133697     
   1358568045.0605459        124759383.53028738        1353620255.8421271     
   896078359.82449639        171962807.85176802        1116579129.8756077     
   896210892.21329451        141476529.98944333        1178801469.7456837     
   898018039.06273508        116572300.32926017        1240604249.2286203     
   901499800.37281764        97250118.871216506        1301987468.3244197     
   906656176.14354253        83509985.615314662        1362951127.0330801     
   440699489.25305313        83797358.721219271        1112899535.4850388     
   442726668.40397179        69135379.806101307        1181024606.7197812     
   445596172.51250887        57281150.749710992        1247374897.6324000     
   449308001.57866406        48234671.552048087        1311950408.2228947     
   453862155.60243791        41995942.213113144        1374751138.4912643     
  -73305.114080528001        13732.451963821495        1115573099.0424781     
  -23536.158144113317        14435.396920992096        1188629897.2216935     
   36268.252387030851        48589.857193927695        1258556695.1437984     
   106108.11751158920        116195.83277807035        1325353492.8087938     
   185983.43723076262        217253.32367794367        1389020290.2166784     
   1809597762.3534482        165744135.95802921        1346758524.9184034     
   1778994239.1681058        133047904.08330339        1364448292.2470746     
   1749756585.3403158        104904570.06708235        1382894883.8360870     
   1721884800.8700767        81314133.909365475        1402098299.6854382     
   1695378885.7573872        62276595.610148966        1422058539.7951314     
   1358568045.0605459        124759383.53028738        1353620255.8421271     
   1332941418.1208093        99465423.909658194        1372701672.8828807     
   1308344026.7049627        77602249.368664742        1393146430.7166598     
   1284775870.8130095        59169859.907314122        1414954529.3434656     
   1262236950.4449470        44168255.525598824        1438125968.7632978     
   906656176.14354253        83509985.615314662        1362951127.0330801     
   887739349.82851267        66138169.562511891        1383031454.3133128     
   869515125.20371521        51075025.810483754        1405081638.9192591     
   851983502.26914859        38320554.359225452        1429101680.8509154     
   835144481.02481449        27874755.208741724        1455091580.1082838     
   453862155.60243791        41995942.213113144        1374751138.4912643     
   443388034.29121643        33066141.041864604        1395437636.5383739     
   433269880.83656842        25322899.392527580        1418700508.4438810     
   423507695.23849332        18766217.265099734        1444539754.2077866     
   414101477.49698877        13396094.659574598        1472955373.8300879     
   185983.43723076262        217253.32367794367        1389020290.2166784     
  -112528.49107806178        249338.34772053364        1409920219.5580614     
  -391706.39647308644        345870.11480912293        1434003039.2905283     
  -651550.27895765391        506848.62493248249        1461268749.4140775     
  -892060.13852798124        732273.87810348277        1491717349.9287114     
   1695378885.7573872        62276595.610148966        1422058539.7951314     
   1646176288.4157419        40637093.272636771        1415057926.0408967     
   1598381694.6596584        23690936.220326781        1413107632.7440567     
   1551995104.4891367        11438124.453226745        1416207659.9046099     
   1507016517.9041765        3878657.9713283777        1424358007.5225580     
   1262236950.4449470        44168255.525598824        1438125968.7632978     
   1227377592.9505258        28614830.027359724        1434437036.7333465     
   1193562171.3748829        16541190.925045788        1435326566.3963397     
   1160790685.7180200        7947338.2186639309        1440794557.7522764     
   1129063135.9799335        2833271.9082080722        1450841010.8011668     
   835144481.02481449        27874755.208741724        1455091580.1082838     
   813280195.47919476        18002956.180248141        1454289584.1913662     
   792095778.18556988        10397384.658405334        1457594191.2029464     
   771591229.14394057        5058040.6432140172        1465005401.1430261     
   751766548.35430658        1984924.1346717477        1476523214.0116000     
   414101477.49698877        13396094.659574598        1472955373.8300879     
   403884096.00174809        8801471.7313036025        1474615568.4149582     
   393982515.09171849        5259517.4204025418        1479910507.1638789     
   384396734.76690173        2770231.7268771678        1488840190.0768476     
   375126755.02729475        1333614.6507204175        1501404617.1538687     
  -892060.13852798124        732273.87810348277        1491717349.9287114     
  -810705.48181479855        1010376.6805204243        1495414989.4041212     
  -777617.90667181206        1127589.2110363638        1502275514.2791340     
  -792797.41309890780        1083911.4696513363        1512298924.5537477     
  -856244.00110018032        879343.45635412063        1525485220.2279642     
   1507016517.9041765        3878657.9713283777        1424358007.5225580     
   1460665480.7795775       -1051463.8208696246        1419405159.3113570     
   1414911547.6638722       -3991238.9167559743        1418199308.3362670     
   1369754718.5570631       -4940667.3163229227        1420740454.5972841     
   1325194993.4591436       -3899749.0195894241        1427028598.0944114     
   1129063135.9799335        2833271.9082080722        1450841010.8011668     
   1092969360.3139591       -1341900.8633956313        1446833290.6685019     
   1057314348.4987996       -4054527.4656136632        1446794555.4169979     
   1022098100.5344594       -5304607.8984352946        1450724805.0466483     
   987320616.42093349       -5092142.1618783474        1458624039.5574596     
   751766548.35430658        1984924.1346717477        1476523214.0116000     
   726564284.56137824       -1245024.4920127988        1473275891.7730522     
   701642444.46119094       -3540227.4762286842        1474219542.0607090     
   677001028.05374277       -4900684.8179796636        1479354164.8745723     
   652640035.33903277       -5326396.5172694027        1488679760.2146404     
   375126755.02729475        1333614.6507204175        1501404617.1538687     
   361450253.52183890       -760834.70671299100        1498732962.6250098     
   347895835.55104476       -2448338.9486067295        1500474268.2674067     
   334463501.11491281       -3728898.0749589652        1506628534.0810568     
   321153250.21344423       -4602512.0857676566        1517195760.0659602     
  -856244.00110018032        879343.45635412063        1525485220.2279642     
  -2372732.8046628116        110668.49249313632        1523204503.2243748     
  -3925478.2316387733       -778861.88274596538        1525558734.0370858     
  -5514480.2820306635       -1789247.6693706245        1532547912.6661003     
  -7139738.9558366388       -2920488.8673769580        1544172039.1114147     
   1325194993.4591436       -3899749.0195894241        1427028598.0944114     
   1262816153.7110572       -8063759.8237457871        1405056405.2676671     
   1199933048.6095672       -13908655.139247954        1390605636.0654745     
   1136545678.1546700       -21434434.966105282        1383676290.4878347     
   1072654042.3463678       -30641099.304313302        1384268368.5347524     
   987320616.42093349       -5092142.1618783474        1458624039.5574596     
   944317019.28985500       -7139581.3500235677        1436985920.5958765     
   901011754.33909345       -10192579.937117577        1422241971.1883593     
   857404821.56864595       -14251137.923161924        1414392191.3349085     
   813496220.97851908       -19315255.308138907        1413436581.0355253     
   652640035.33903277       -5326396.5172694027        1488679760.2146404     
   627219526.33785415       -5794910.4355491996        1467612078.9075615     
   601699947.05071497       -6593658.6403614879        1452811313.0840662     
   576081297.47761381       -7722641.1317142248        1444277462.7441485     
   550363577.61855149       -9181857.9096052647        1442010527.8878057     
   321153250.21344423       -4602512.0857676566        1517195760.0659602     
   311523674.85505766       -4029747.0803077221        1496934880.2027318     
   301997626.74443281       -3111891.2489784211        1482313661.7525954     
   292575105.88156831       -1848944.5917789340        1473332104.7155480     
   283256112.26646745       -240907.10870236158        1469990209.0915976     
  -7139738.9558366388       -2920488.8673769580        1544172039.1114147     
  -2770535.1585367927       -1844091.2843106112        1524954324.4813800     
   1904793.4202489310        252722.23704164877        1510749017.1939468     
   6886246.7805148363        3369951.6966608348        1501556117.2491181     
   12173824.922263829        7507597.0945580192        1497375624.6468928     
   1072654042.3463678       -30641099.304313302        1384268368.5347524     
   1059838047.7305014       -24399969.763077974        1420548405.1093881     
   1047608802.9878471       -16203007.311140001        1454027703.8517201     
   1035966308.1184053       -6050211.9484945536        1484706264.7617421     
   1024910563.1221781        6058416.3248684406        1512584087.8394580     
   813496220.97851908       -19315255.308138907        1413436581.0355253     
   794409090.82877374       -17322557.248785585        1449572783.7928443     
   775366732.44082785       -15180619.983432055        1484666181.2368431     
   756369145.81468809       -12889443.512060285        1518716773.3675232     
   737416330.95035136       -10449027.834678888        1551724560.1848836     
   550363577.61855149       -9181857.9096052647        1442010527.8878057     
   530027976.27489436       -9930792.0301512480        1477370589.0311596     
   509195168.58163309       -12337080.649379194        1513445777.3801858     
   487865154.53876150       -16400723.767308593        1550236092.9348812     
   466037934.14628708       -22121721.383912474        1587741535.6952512     
   283256112.26646745       -240907.10870236158        1469990209.0915976     
   266694704.06887111       -2224674.1071537882        1503941820.8243389     
   249094111.41026258       -7672389.3089794815        1540366492.2817438     
   230454334.29063582       -16584052.714200079        1579264223.4638114     
   210775372.70999622       -28959664.322796568        1620635014.3705354     
   12173824.922263829        7507597.0945580192        1497375624.6468928     
   4409274.2107028756        5795796.5202035103        1529286479.1723835     
  -4936439.0732814996       -1186545.9622276842        1565428325.9415226     
  -15863314.929697717       -13439430.352765359        1605801164.9543157     
  -28371353.358534608       -30962856.651372649        1650404996.2107577     
   1024910563.1221781        6058416.3248684406        1512584087.8394580     
   916388930.21157908       -20091360.780677557        1437183830.5605161     
   801334192.04012418       -68018155.422411084        1379329850.4194496     
   679746348.60781062       -137721967.60034114        1339022147.4162509     
   551625399.91464245       -229202797.31445053        1316260721.5509205     
   737416330.95035136       -10449027.834678888        1551724560.1848836     
   673466573.79729414       -25422660.198988497        1474929191.2861860     
   606890749.04393315       -49149851.230974525        1412294493.1997466     
   537688856.69026625       -81630600.930651039        1363820465.9255674     
   465860896.73629588       -122864909.29800376        1329507109.4636447     
   466037934.14628708       -22121721.383912474        1587741535.6952512     
   436986891.82046914       -28821157.286054879        1514109265.7807586     
   409216819.55489367       -31250692.987386346        1451252060.3529251     
   382727717.34956521       -29410328.487896368        1399169919.4117382     
   357519585.20448196       -23300063.787590683        1357862842.9572086     
   210775372.70999622       -28959664.322796568        1620635014.3705354     
   206949884.28110197       -30286852.041887209        1554724054.0442357     
   208312403.57300544       -14320680.691652581        1496202551.8789785     
   214862930.58570740        18938849.727912165        1445070507.8747723     
   226601465.31919980        69491739.216775313        1401327922.0316029     
  -28371353.358534608       -30962856.651372649        1650404996.2107577     
  -16644448.820805566       -29819744.466474988        1596773556.0766199     
   4177501.0982650532        1640185.6562272331        1547145967.7779164     
   34094496.398682401        63416933.716754302        1501522231.3146567     
   73106537.080449238        155510499.71510744        1459902346.6868289     
   77439.340034264897        23231.802010279473        656407190.07472098     
   49242.583663299476        52488.155024484353        770931563.34869146     
   14719.589187215075        60657.047688119150        885634005.93464100     
  -26129.643394205628        47738.480000806434        1000514517.8325701     
  -73305.114080528001        13732.451963821495        1115573099.0424781     
  -448289449.10047626       -134486834.73014286        657897937.89206767     
  -447515937.19178969       -125446329.94192314        774110626.63639128     
  -446014597.10301781       -113979731.22008578        888682426.17219353     
  -443785428.83416069       -100087038.56463081        1001613336.4994752     
  -440828432.38521814       -83768251.975558430        1112903357.6182365     
  -890436570.11875403       -267130971.03562623        662333788.90227306     
  -894058373.88929582       -250638325.11548674        781091306.60483873     
  -896218195.06156230       -229272403.86776149        896388976.57838321     
  -896916033.63555276       -203033207.29245031        1008226798.8229065     
  -896151889.61126745       -171920735.38955337        1116604773.3384089     
  -1326363923.7147987       -397909177.11443961        669714743.10533726     
  -1339578067.5088556       -375523497.36566645        791873603.25403392     
  -1350596074.2864463       -345817360.89533901        908753657.15320897     
  -1359417944.0475707       -308790767.70345753        1020354904.8028629     
  -1366043676.7922287       -264443717.79002231        1126677346.2029955     
  -1756071509.8886108       -526821452.96658325        680040800.50126028     
  -1784075018.0504687       -500101846.69246209        806457516.58397639     
  -1809148234.7776701       -463614602.30281842        925776467.89667130     
  -1831291160.0702145       -417359719.79765248        1037997654.4393446     
  -1850503793.9281023       -361337199.17696464        1143121076.2119966     
  -73305.114080528001        13732.451963821495        1115573099.0424781     
  -23536.158144113317        14435.396920992096        1188629897.2216935     
   36268.252387030851        48589.857193927695        1258556695.1437984     
   106108.11751158920        116195.83277807035        1325353492.8087938     
   185983.43723076262        217253.32367794367        1389020290.2166784     
  -440828432.38521814       -83768251.975558430        1112903357.6182365     
  -442756051.72940958       -69079100.771265134        1181053999.9068444     
  -445519796.38347071       -57177033.933204517        1247423932.6233866     
  -449119666.34740168       -48062051.461376667        1312013155.7678635     
  -453555661.62120217       -41734153.355781034        1374821669.3402743     
  -896151889.61126745       -171920735.38955337        1116604773.3384089     
  -896201781.01260233       -141386601.05302987        1178862072.1778686     
  -897933958.48827052       -116460086.96428517        1240687952.1303067     
  -901348422.03827250       -97141193.123318672        1302082413.1957240     
  -906445171.66260743       -83429919.530131608        1363045455.3741210     
  -1366043676.7922287       -264443717.79002231        1126677346.2029955     
  -1360360724.0077219       -216908065.44837284        1182054114.0347648     
  -1357206218.0620124       -177800569.23604780        1238348753.6645582     
  -1356580158.9551005       -147121229.15304893        1295561265.0923753     
  -1358482546.6869855       -124870045.19937313        1353691648.3182158     
  -1850503793.9281023       -361337199.17696464        1143121076.2119966     
  -1835232880.7147689       -295643493.95729405        1190630125.4775348     
  -1823336575.1046968       -241198480.74849457        1240406337.2261415     
  -1814814877.0978856       -198002159.55056447        1292449711.4578168     
  -1809667786.6943369       -166054530.36350882        1346760248.1725605     
   185983.43723076262        217253.32367794367        1389020290.2166784     
  -112528.49107806178        249338.34772053364        1409920219.5580614     
  -391706.39647308644        345870.11480912293        1434003039.2905283     
  -651550.27895765391        506848.62493248249        1461268749.4140775     
  -892060.13852798124        732273.87810348277        1491717349.9287114     
  -453555661.62120217       -41734153.355781034        1374821669.3402743     
  -443661064.93491066       -32852067.622591764        1395564095.9681268     
  -434080885.76980567       -25018040.293357566        1418922177.1294005     
  -424815124.12588626       -18232071.368075550        1444895912.8240967     
  -415863780.00315458       -12494160.846752241        1473485303.0522125     
  -906445171.66260743       -83429919.530131608        1363045455.3741210     
  -887978140.24075007       -66184035.251507878        1383241002.4869931     
  -870159277.88417697       -51098714.523832470        1405484968.2756252     
  -852988584.59288967       -38173957.347108454        1429777352.7400177     
  -836466060.36688685       -27409763.721334636        1456118155.8801687     
  -1358482546.6869855       -124870045.19937313        1353691648.3182158     
  -1333063754.4085963       -99746564.539026380        1372950939.1146607     
  -1308626882.7395897       -77896152.576621890        1393691412.7292027     
  -1285171931.6799667       -59318809.312163115        1415913069.1618440     
  -1262698901.2297277       -44014534.745652199        1439615908.4125805     
  -1809667786.6943369       -166054530.36350882        1346760248.1725605     
  -1778917907.4384480       -133539655.48514366        1364693905.8511286     
  -1749483700.3360417       -105410354.45172167        1383541510.4901323     
  -1721365165.3871171       -81666627.263237476        1403303062.0895720     
  -1694562302.5916762       -62308473.919700265        1423978560.6494486     
  -892060.13852798124        732273.87810348277        1491717349.9287114     
  -810705.48181479855        1010376.6805204243        1495414989.4041212     
  -777617.90667181206        1127589.2110363638        1502275514.2791340     
  -792797.41309890780        1083911.4696513363        1512298924.5537477     
  -856244.00110018032        879343.45635412063        1525485220.2279642     
  -415863780.00315458       -12494160.846752241        1473485303.0522125     
  -405503346.52355707       -7499522.5828424990        1475165430.4225795     
  -395597286.11473745       -4019461.2215258330        1480501224.8429117     
  -386145598.77669412       -2053976.7627970874        1489492686.3132074     
  -377148284.50942892       -1603069.2066617161        1502139814.8334675     
  -836466060.36688685       -27409763.721334636        1456118155.8801687     
  -814418600.49194276       -17276205.724199921        1455306980.8247530     
  -793231619.67698181       -10010911.260341644        1458644254.4696643     
  -772905117.92200291       -5613880.3297579587        1466129976.8149028     
  -753439095.22700715       -4085112.9324507117        1477764147.8604693     
  -1262698901.2297277       -44014534.745652199        1439615908.4125805     
  -1227556467.3869724       -28319672.743550599        1435839640.6106422     
  -1193680618.5934062       -16846760.905412316        1436704603.1593935     
  -1161071354.8490269       -9595799.2312342525        1442210796.0588348     
  -1129728676.1538360       -6566787.7210141420        1452358219.3089638     
  -1694562302.5916762       -62308473.919700265        1423978560.6494486     
  -1644916947.2086449       -40629923.640892804        1416763409.7802467     
  -1596944282.8640075       -24527010.156733215        1414682270.9120982     
  -1550644309.5577660       -13999733.467224598        1417735144.0450022     
  -1506017027.2899163       -9048093.5723562241        1425922029.1789563     
  -856244.00110018032        879343.45635412063        1525485220.2279642     
  -2372732.8046628116        110668.49249313632        1523204503.2243748     
  -3925478.2316387733       -778861.88274596538        1525558734.0370858     
  -5514480.2820306635       -1789247.6693706245        1532547912.6661003     
  -7139738.9558366388       -2920488.8673769580        1544172039.1114147     
  -377148284.50942892       -1603069.2066617161        1502139814.8334675     
  -366417540.75128090       -1426286.1130509079        1499764420.8684831     
  -355756041.48925185       -1480318.0065030009        1501956844.5829427     
  -345163786.72333902       -1765164.8870092928        1508717085.9768472     
  -334640776.45354593       -2280826.7545812577        1520045145.0501928     
  -753439095.22700715       -4085112.9324507117        1477764147.8604693     
  -730652919.29817307       -3020411.8986779153        1475255591.0826020     
  -707968975.73816061       -2296485.4276454151        1477247721.8473229     
  -685387264.54697073       -1913333.5193516314        1483740540.1546266     
  -662907785.72460246       -1870956.1737997234        1494734046.0045168     
  -1129728676.1538360       -6566787.7210141420        1452358219.3089638     
  -1095078868.4453390       -4671708.8643867373        1449678013.8667278     
  -1060564280.9783682       -3227364.1461824775        1451431365.8302205     
  -1026184913.7529206       -2233753.5663877130        1457618275.1994417     
  -991940766.76899934       -1690877.1250136495        1468238741.9743850     
  -1506017027.2899163       -9048093.5723562241        1425922029.1789563     
  -1459695388.1927795       -6380177.0101821423        1423031689.2208643     
  -1413541957.2098713       -4272954.1621039510        1424507776.5316410     
  -1367556734.3411913       -2726425.0281191468        1430350291.1112883     
  -1321739719.5867424       -1740589.6082381010        1440559232.9598045     
  -7139738.9558366388       -2920488.8673769580        1544172039.1114147     
  -2770535.1585367927       -1844091.2843106112        1524954324.4813800     
   1904793.4202489310        252722.23704164877        1510749017.1939468     
   6886246.7805148363        3369951.6966608348        1501556117.2491181     
   12173824.922263829        7507597.0945580192        1497375624.6468928     
  -334640776.45354593       -2280826.7545812577        1520045145.0501928     
  -316810631.57431597       -386631.32900996506        1500932559.3840063     
  -298767692.58776826        2216877.7876183540        1486973413.8592007     
  -280511959.49390620        5529700.5952953696        1478167708.4757752     
  -262043432.29272792        9551837.0940285027        1474515443.2337272     
  -662907785.72460246       -1870956.1737997234        1494734046.0045168     
  -631213748.90979362        961922.35038033128        1475617703.5156529     
  -599400248.66183817        4193012.3183822036        1461795833.9669435     
  -567467284.98073614        7822313.7302071154        1453268437.3583889     
  -535414857.86648571        11849826.585857481        1450035513.6899900     
  -991940766.76899934       -1690877.1250136495        1468238741.9743850     
  -945979887.16496718        2201569.7538689375        1449009756.8763123     
  -899992874.80196214        6181125.8293265700        1435216277.5171709     
  -853979729.67997074        10247791.101405859        1426858303.8969600     
  -807940451.79900491        14401565.570067227        1423935836.0156789     
  -1321739719.5867424       -1740589.6082381010        1440559232.9598045     
  -1261109046.3398435        3332310.8814333081        1421108719.4659901     
  -1200545571.0081377        8181218.3204613924        1407234744.5098848     
  -1140049293.5916193        12806132.708866000        1398937308.0914872     
  -1079620214.0902905        17207054.046637058        1396216410.2107940     
   12173824.922263829        7507597.0945580192        1497375624.6468928     
   4409274.2107028756        5795796.5202035103        1529286479.1723835     
  -4936439.0732814996       -1186545.9622276842        1565428325.9415226     
  -15863314.929697717       -13439430.352765359        1605801164.9543157     
  -28371353.358534608       -30962856.651372649        1650404996.2107577     
  -262043432.29272792        9551837.0940285027        1474515443.2337272     
  -260123237.55137035        7132773.6975518167        1504683419.6071880     
  -259389485.37265357        758901.75894023478        1538233422.4289663     
  -259842175.75658801       -9569778.7218420655        1575165451.6990590     
  -261481308.70316729       -23853267.744773388        1615479507.4174635     
  -535414857.86648571        11849826.585857481        1450035513.6899900     
  -526235534.23030943        7995815.3998453915        1478921118.5895014     
  -517847933.14700156        1502729.0376082957        1510339784.1419871     
  -510252054.61655915       -7629432.5008498132        1544291510.3474536     
  -503447898.63898605       -19400669.215536624        1580776297.2058935     
  -807940451.79900491        14401565.570067227        1423935836.0156789     
  -793927615.82611990        8384921.6270716786        1451999576.1193144     
  -780311782.39631832        1044935.8737992346        1481747411.0805898     
  -767092951.50960946       -7618391.6897812784        1513179340.8995037     
  -754271123.16598594       -17605061.063647538        1546295365.5760624     
  -1079620214.0902905        17207054.046637058        1396216410.2107940     
  -1063199482.3387953        8300092.3792467713        1423918792.1966302     
  -1046781033.1206162       -614477.73252403736        1452456303.2447686     
  -1030364866.4357368       -9536656.2886341214        1481828943.3552127     
  -1013950982.2841729       -18466443.289124548        1512036712.5279579     
  -28371353.358534608       -30962856.651372649        1650404996.2107577     
  -16644448.820805566       -29819744.466474988        1596773556.0766199     
   4177501.0982650532        1640185.6562272331        1547145967.7779164     
   34094496.398682401        63416933.716754302        1501522231.3146567     
   73106537.080449238        155510499.71510744        1459902346.6868289     
  -261481308.70316729       -23853267.744773388        1615479507.4174635     
  -237128216.67383483       -23850610.632508449        1568225313.6118190     
  -207310564.29565477       -5632752.3574164361        1526942901.8271930     
  -172028351.56860864        30800307.080557726        1491632272.0635931     
  -131281578.49271250        85448567.681370527        1462293424.3210032     
  -503447898.63898605       -19400669.215536624        1580776297.2058935     
  -460845961.44495779       -18851669.873973340        1535663783.8575079     
  -416409948.93456662       -12189086.144535244        1498490982.7157192     
  -370139861.10780787        587081.97279515862        1469257893.7805359     
  -322035697.96468711        19476834.478003040        1447964517.0519512     
  -754271123.16598594       -17605061.063647538        1546295365.5760624     
  -687797683.13417363       -14822922.190871119        1499088966.8136897     
  -623120652.81848359       -18028815.705166817        1461790210.4435024     
  -560240032.21892035       -27222741.606547952        1434399096.4655004     
  -499155821.33548266       -42404699.895020723        1416915624.8796771     
  -1013950982.2841729       -18466443.289124548        1512036712.5279579     
  -917983381.74147928       -11764367.583185852        1458500862.4803650     
  -827442675.94740307       -23151941.039303273        1416840585.0105360     
  -742328864.90193594       -52629163.657453030        1387055880.1184728     
  -662641948.60509372       -100196035.43768246        1369146747.8041763     
  -1756071509.8886108       -526821452.96658325        680040800.50126028     
  -1784075018.0504687       -500101846.69246209        806457516.58397639     
  -1809148234.7776701       -463614602.30281842        925776467.89667130     
  -1831291160.0702145       -417359719.79765248        1037997654.4393446     
  -1850503793.9281023       -361337199.17696464        1143121076.2119966     
  -2201777462.0528560       -660533238.61585689        696421802.04089844     
  -2238360940.6018338       -613903786.42048144        813864747.45375621     
  -2272900679.9415374       -560461870.19419086        927210900.58779168     
  -2305396680.0719657       -500207489.93698484        1036460261.4430056     
  -2335848940.9931207       -433140645.64886379        1141612830.0193973     
  -2685699913.6202011       -805709974.08606029        721967588.67510819     
  -2722289155.4385858       -736598413.83411682        829402452.48849499     
  -2757721210.2730799       -663629563.63586557        935741496.51425922     
  -2791996078.1236792       -586803423.49130571        1040984720.7524008     
  -2825113758.9903874       -506119993.40043801        1145132125.2029200     
  -3207838864.5906453       -962351659.37719369        756678160.40388989     
  -3235859662.5607243       -868185728.93336821        853070631.68819296     
  -3263609825.7722940       -773117682.62784183        951368255.67607296     
  -3291089354.2253532       -677147520.46061456        1051571032.3675301     
  -3318298247.9199023       -580275242.43168616        1153678961.7625642     
  -3768194314.9641891       -1130458294.4892566        800553517.22724307     
  -3779072461.9682508       -1008665731.7182359        884869285.05285025     
  -3790566526.4391842       -888926227.17012119        974091178.07323396     
  -3802676508.3769898       -771239780.84491253        1068219196.2883940     
  -3815402407.7816658       -655606392.74260962        1167253339.6983304     
  -1850503793.9281023       -361337199.17696464        1143121076.2119966     
  -1835232880.7147689       -295643493.95729405        1190630125.4775348     
  -1823336575.1046968       -241198480.74849457        1240406337.2261415     
  -1814814877.0978856       -198002159.55056447        1292449711.4578168     
  -1809667786.6943369       -166054530.36350882        1346760248.1725605     
  -2335848940.9931207       -433140645.64886379        1141612830.0193973     
  -2312394475.8252645       -352098079.75132483        1182853897.9505279     
  -2292431857.2626958       -282695002.53807592        1224580798.5917912     
  -2275961085.3054128       -224931414.00911510        1266793531.9431882     
  -2262982159.9534178       -178807314.16444480        1309492098.0047174     
  -2825113758.9903874       -506119993.40043801        1145132125.2029200     
  -2798565255.5049677       -411255420.91611868        1179968432.9639463     
  -2775625837.6268592       -328421133.78950620        1213509243.6621702     
  -2756295505.3560629       -257617132.02060211        1245754557.2975924     
  -2740574258.6925802       -198843415.60940576        1276704373.8702116     
  -3318298247.9199023       -580275242.43168616        1153678961.7625642     
  -3293745219.7538762       -473115517.45167339        1181973730.5177901     
  -3272918516.1971884       -378376874.50278711        1207191672.4372785     
  -3255818137.2498374       -296059313.58502555        1229332787.5210285     
  -3242444082.9118247       -226162834.69838977        1248397075.7690415     
  -3815402407.7816658       -655606392.74260962        1167253339.6983304     
  -3797934368.5719924       -537678369.35799086        1188869790.6120601     
  -3784309892.9736829       -432562224.67791641        1205628084.9171152     
  -3774528980.9867353       -340257958.70238793        1217528222.6134982     
  -3768591632.6111512       -260765571.43140125        1224570203.7012076     
  -1809667786.6943369       -166054530.36350882        1346760248.1725605     
  -1778917907.4384480       -133539655.48514366        1364693905.8511286     
  -1749483700.3360417       -105410354.45172167        1383541510.4901323     
  -1721365165.3871171       -81666627.263237476        1403303062.0895720     
  -1694562302.5916762       -62308473.919700265        1423978560.6494486     
  -2262982159.9534178       -178807314.16444480        1309492098.0047174     
  -2223222263.0105929       -134351085.20790398        1317639981.8625164     
  -2186367549.5935001       -99578801.337135792        1329049004.5010200     
  -2152418019.7021389       -74490462.552143216        1343719165.9202278     
  -2121373673.3365104       -59086068.852920890        1361650466.1201413     
  -2740574258.6925802       -198843415.60940576        1276704373.8702116     
  -2685098081.7191944       -140433953.87160039        1273212053.9729490     
  -2634116599.6437902       -97006808.460401058        1275328064.6766603     
  -2587629812.4663682       -68561979.375807762        1283052405.9813452     
  -2545637720.1869283       -55099466.617820501        1296385077.8870034     
  -3242444082.9118247       -226162834.69838977        1248397075.7690415     
  -3164545363.5642529       -151788261.47623169        1231410122.1824274     
  -3092730850.4869132       -97694375.821517706        1222378691.0170557     
  -3027000543.6798038       -63881177.734236002        1221302782.2729249     
  -2967354443.1429272       -50348667.214394331        1228182395.9500382     
  -3768591632.6111512       -260765571.43140125        1224570203.7012076     
  -3661564108.5457687       -168414008.02180564        1192234186.4909499     
  -3562210302.1228671       -101641503.42048013        1170200883.5222037     
  -3470530213.3424473       -60448057.627424479        1158470294.7949679     
  -3386523842.2045078       -44833670.642639995        1157042420.3092437     
  -1694562302.5916762       -62308473.919700265        1423978560.6494486     
  -1644916947.2086449       -40629923.640892804        1416763409.7802467     
  -1596944282.8640075       -24527010.156733215        1414682270.9120982     
  -1550644309.5577660       -13999733.467224598        1417735144.0450022     
  -1506017027.2899163       -9048093.5723562241        1425922029.1789563     
  -2121373673.3365104       -59086068.852920890        1361650466.1201413     
  -2059776535.2985008       -40723601.782513499        1353503683.4434869     
  -1999367245.0296087       -26320627.275835276        1350181817.7023182     
  -1940145802.5298350       -15877145.332880735        1351684868.8966351     
  -1882112207.7991812       -9393155.9536622763        1358012837.0264380     
  -2545637720.1869283       -55099466.617820501        1296385077.8870034     
  -2472971928.2526975       -40318021.383431315        1287872313.8837178     
  -2401009140.8183126       -27879924.481860042        1283875371.7503500     
  -2329749357.8837719       -17785175.913100600        1284394251.4869015     
  -2259192579.4490752       -10033775.677157044        1289428953.0933714     
  -2967354443.1429272       -50348667.214394331        1228182395.9500382     
  -2884503126.0712404       -39413182.443657994        1219869301.1009405     
  -2801869970.2301235       -29204901.774817467        1215762933.0561941     
  -2719454975.6195769       -19723825.207881927        1215863291.8158016     
  -2637258142.2395968       -10969952.742837548        1220170377.3797586     
  -3386523842.2045078       -44833670.642639995        1157042420.3092437     
  -3294370128.7541256       -38009084.963182092        1149494645.0951552     
  -3201949733.2650399       -30295559.154713154        1145844501.6198499     
  -3109262655.7372475       -21693093.217217684        1146091989.8833327     
  -3016308896.1707530       -12201687.150715113        1150237109.8855996     
  -1506017027.2899163       -9048093.5723562241        1425922029.1789563     
  -1459695388.1927795       -6380177.0101821423        1423031689.2208643     
  -1413541957.2098713       -4272954.1621039510        1424507776.5316410     
  -1367556734.3411913       -2726425.0281191468        1430350291.1112883     
  -1321739719.5867424       -1740589.6082381010        1440559232.9598045     
  -1882112207.7991812       -9393155.9536622763        1358012837.0264380     
  -1823972323.8698785       -5377288.2653695345        1354434446.9465594     
  -1766292949.3915834       -2896452.0804423094        1355269521.5165269     
  -1709074084.3642950       -1950647.3988654613        1360518060.7363429     
  -1652315728.7880142       -2539874.2206491232        1370180064.6060042     
  -2259192579.4490752       -10033775.677157044        1289428953.0933714     
  -2189100058.1705284       -4629639.1076304913        1284821494.6654663     
  -2119760347.6797683       -1734871.8307225704        1284674538.2683854     
  -2051173447.9767923       -1349473.8464350700        1288988083.9021280     
  -1983339359.0616031       -3473445.1547634602        1297762131.5666966     
  -2637258142.2395968       -10969952.742837548        1220170377.3797586     
  -2555078591.0947294       -4137229.5369507074        1214192832.3775840     
  -2473944152.0744233       -788213.41294217110        1212722826.7872109     
  -2393854825.1786804       -922904.37081289291        1215760360.6086421     
  -2314810610.4075041       -4541302.4105672836        1223305433.8418701     
  -3016308896.1707530       -12201687.150715113        1150237109.8855996     
  -2921907922.6424789       -3900059.5533399582        1142548460.0829148     
  -2828844362.5755486       -56476.827105879784        1139414387.0730090     
  -2737118215.9699655       -670938.97202098370        1140834890.8558836     
  -2646729482.8257189       -5743445.9880686998        1146809971.4315369     
  -1321739719.5867424       -1740589.6082381010        1440559232.9598045     
  -1261109046.3398435        3332310.8814333081        1421108719.4659901     
  -1200545571.0081377        8181218.3204613924        1407234744.5098848     
  -1140049293.5916193        12806132.708866000        1398937308.0914872     
  -1079620214.0902905        17207054.046637058        1396216410.2107940     
  -1652315728.7880142       -2539874.2206491232        1370180064.6060042     
  -1577209600.6666355        1847209.7921512723        1350669307.2701738     
  -1501991108.7616742        6608839.7502234578        1336875242.0255160     
  -1426660253.0731385        11745015.653547525        1328797868.8720281     
  -1351217033.6010237        17255737.502130628        1326437187.8097141     
  -1983339359.0616031       -3473445.1547634602        1297762131.5666966     
  -1893357337.3415534        347953.99844312668        1278400619.0374076     
  -1803083390.1391597        5142438.0927946568        1264895952.1527560     
  -1712517517.4544199        10910007.128293753        1257248130.9127405     
  -1621659719.2873409        17650661.104937434        1255457155.3173580     
  -2314810610.4075041       -4541302.4105672836        1223305433.8418701     
  -2209552256.3646026       -1165456.4997103214        1204302654.7676873     
  -2103822415.1405883        3782013.3481824398        1191296874.8916056     
  -1997621086.7354646        10301107.133117795        1184288094.2136233     
  -1890948271.1492310        18391824.855074763        1183276312.7337396     
  -2646729482.8257189       -5743445.9880686998        1146809971.4315369     
  -2525794357.7357779       -2693021.7022997141        1128375414.4610200     
  -2404208183.7659636        2527565.5163906813        1116078010.2420664     
  -2281970960.9162707        9918315.6680059433        1109917758.7746770     
  -2159082689.1867018        19479228.752541184        1109894660.0588527     
  -1079620214.0902905        17207054.046637058        1396216410.2107940     
  -1063199482.3387953        8300092.3792467713        1423918792.1966302     
  -1046781033.1206162       -614477.73252403736        1452456303.2447686     
  -1030364866.4357368       -9536656.2886341214        1481828943.3552127     
  -1013950982.2841729       -18466443.289124548        1512036712.5279579     
  -1351217033.6010237        17255737.502130628        1326437187.8097141     
  -1333444253.1579659        5381858.7513824701        1354471762.4482069     
  -1315838870.9318531       -7050014.0558514595        1383395918.6525311     
  -1298400886.9226868       -20039880.919570565        1413209656.4226832     
  -1281130301.1304669       -33587741.839778185        1443912975.7586620     
  -1621659719.2873409        17650661.104937434        1255457155.3173580     
  -1602379311.5712147        2856538.8453037143        1283631287.6442733     
  -1583431417.7556753       -13045963.082954526        1312749454.0405381     
  -1564816037.8407168       -30056844.679817677        1342811654.5061545     
  -1546533171.8263471       -48176105.945306122        1373817889.0411241     
  -1890948271.1492310        18391824.855074763        1183276312.7337396     
  -1870004657.5785432        724132.66099989414        1211397367.7848251     
  -1849558673.5920825       -18602324.813833117        1240516909.4087858     
  -1829610319.1898448       -39587547.569410920        1270634937.6056228     
  -1810159594.3718259       -62231535.605714321        1301751452.3753347     
  -2159082689.1867018        19479228.752541184        1109894660.0588527     
  -2136320291.1799555       -1015359.8015358448        1137770002.8698637     
  -2114220638.4410748       -23719099.248488784        1166698284.7572794     
  -2092783730.9700513       -48631989.588304639        1196679505.7210910     
  -2072009568.7668924       -75754030.821002245        1227713665.7613025     
  -1013950982.2841729       -18466443.289124548        1512036712.5279579     
  -917983381.74147928       -11764367.583185852        1458500862.4803650     
  -827442675.94740307       -23151941.039303273        1416840585.0105360     
  -742328864.90193594       -52629163.657453030        1387055880.1184728     
  -662641948.60509372       -100196035.43768246        1369146747.8041763     
  -1281130301.1304669       -33587741.839778185        1443912975.7586620     
  -1152938798.0494819       -19287757.074542046        1385484539.6960545     
  -1028159081.0380559       -16360392.541170180        1338214784.7637579     
  -906791150.09618771       -24805648.239653051        1302103710.9617765     
  -788835005.22387326       -44623524.169986993        1277151318.2901115     
  -1546533171.8263471       -48176105.945306122        1373817889.0411241     
  -1388166027.4855127       -26892690.504331768        1312847827.0890634     
  -1231195560.5351672       -10264866.364987493        1262319554.8198709     
  -1075621770.9753199        1707366.4726879001        1222233072.2335463     
  -921444658.80597448        9024008.0087053776        1192588379.3300691     
  -1810159594.3718259       -62231535.605714321        1301751452.3753347     
  -1623665070.0495636       -34579167.872508287        1240590724.6594019     
  -1436552114.4387341       -4865362.5107384920        1189154895.1788821     
  -1248820727.5393512        26909880.479546547        1147443963.9337735     
  -1060470909.3513935        60746561.098405659        1115457930.9240732     
  -2072009568.7668924       -75754030.821002245        1227713665.7613025     
  -1859435925.7416434       -42347189.179106951        1168713232.4070618     
  -1644228742.7487583       -161880.97842907906        1118720805.8407826     
  -1426388019.7882576        50801893.780965388        1077736386.0624597     
  -1205913756.8601346        110544135.09910941        1045759973.0720989     
  -3768194314.9641891       -1130458294.4892566        800553517.22724307     
  -3779072461.9682508       -1008665731.7182359        884869285.05285025     
  -3790566526.4391842       -888926227.17012119        974091178.07323396     
  -3802676508.3769898       -771239780.84491253        1068219196.2883940     
  -3815402407.7816658       -655606392.74260962        1167253339.6983304     
  -4339658366.8942842       -1301897510.0682855        858737054.93170202     
  -4335188762.3304043       -1125717987.5768609        942351034.18062139     
  -4331856920.3449392       -953331007.01349092        1020314014.1207812     
  -4329662840.9378901       -784736568.37817419        1092625994.7521813     
  -4328606524.1092587       -619934671.67091250        1159286976.0748212     
  -4895123122.5343857       -1468536936.7603157        936372169.30380046     
  -4905468979.2698069       -1247019418.4086614        1018675540.6792303     
  -4917474443.6951895       -1031033925.6902094        1084770788.2423644     
  -4931139515.8105345       -820580458.60495996        1134657911.9932024     
  -4946464195.6158381       -615659017.15291202        1168336911.9317443     
  -5434588581.8844900       -1630376574.5653470        1033458860.3435386     
  -5489913112.7864628       -1372570024.2136371        1113842804.5486772     
  -5547419096.4899387       -1122034983.2002773        1167461500.4379835     
  -5607106532.9949217       -878771451.52526820        1194314948.0114579     
  -5668975422.3014097       -642779429.18860865        1194403147.2690995     
  -5958054744.9445992       -1787416423.4833798        1149997128.0509164     
  -6088521162.8803663       -1502369804.9917879        1227852825.7889619     
  -6221690878.7291861       -1226334179.5436947        1268386150.7076387     
  -6357563892.4910545       -959309547.13909984        1271597102.8069477     
  -6496140204.1659698       -701295907.77800274        1237485682.0868878     
  -3815402407.7816658       -655606392.74260962        1167253339.6983304     
  -3797934368.5719924       -537678369.35799086        1188869790.6120601     
  -3784309892.9736829       -432562224.67791641        1205628084.9171152     
  -3774528980.9867353       -340257958.70238793        1217528222.6134982     
  -3768591632.6111512       -260765571.43140125        1224570203.7012076     
  -4328606524.1092587       -619934671.67091250        1159286976.0748212     
  -4298183812.9480934       -464156980.20784461        1141310473.8040764     
  -4278382101.9847455       -343782622.73750269        1129422721.6250477     
  -4269201391.2192163       -258811599.25988436        1123623719.5377357     
  -4270641680.6515059       -209243909.77499104        1123913467.5421393     
  -4946464195.6158381       -615659017.15291202        1168336911.9317443     
  -4871809936.2163572       -412648594.72534776        1102860447.1256626     
  -4814554113.6011477       -267632961.57868934        1054419639.1116863     
  -4774696727.7702065       -180612117.71293497        1023014487.8898152     
  -4752237778.7235413       -151586063.12808657        1008644993.4600506     
  -5668975422.3014097       -642779429.18860865        1194403147.2690995     
  -5518812738.3767834       -383153212.91049957        1073519710.5768175     
  -5392825927.8228836       -204113241.20147657        980618837.37703049     
  -5291014990.6397095       -105659514.06153893        915700527.66973829     
  -5213379926.8272610       -87792031.490686178        878764781.45494103     
  -6496140204.1659698       -701295907.77800274        1237485682.0868878     
  -6239192219.4293737       -375670834.76329994        1053288264.1575420     
  -6013197544.6499567       -153223461.60586476        908020316.42108047     
  -5818156179.8277206       -33953788.305695057        801681838.87750399     
  -5654068124.9626627       -17861814.862792492        734272831.52681136     
  -3768591632.6111512       -260765571.43140125        1224570203.7012076     
  -3661564108.5457687       -168414008.02180564        1192234186.4909499     
  -3562210302.1228671       -101641503.42048013        1170200883.5222037     
  -3470530213.3424473       -60448057.627424479        1158470294.7949679     
  -3386523842.2045078       -44833670.642639995        1157042420.3092437     
  -4270641680.6515059       -209243909.77499104        1123913467.5421393     
  -4148038604.0916586       -145221592.35573602        1090658999.2089791     
  -4029820053.8372555       -95814362.621293783        1065620529.1662828     
  -3915986029.8882971       -61022220.571666479        1048798057.4140493     
  -3806536532.2447801       -40845166.206847668        1040191583.9522791     
  -4752237778.7235413       -151586063.12808657        1008644993.4600506     
  -4620021195.2436543       -117681605.37150002        978309463.89719832     
  -4488899946.7321720       -87428264.176268578        954103216.67376161     
  -4358874033.1890965       -60826039.542391300        936026251.78974020     
  -4229943454.6144290       -37874931.469869614        924078569.24513352     
  -5213379926.8272610       -87792031.490686178        878764781.45494103     
  -5077511882.0017548       -85794047.069093704        855185580.55560720     
  -4939449980.8076143       -76483208.085399628        835648946.04463947     
  -4799194223.2448454       -59859514.539602995        820154877.92204094     
  -4656744609.3134451       -35922966.431700706        808703376.18780959     
  -5654068124.9626627       -17861814.862792492        734272831.52681136     
  -5520510664.3659573       -49558917.448519230        721287349.18420565     
  -5381470156.0635872       -62979194.348690748        710257717.27891958     
  -5236946600.0555468       -58122645.563298225        701183935.81095219     
  -5086939996.3418369       -34989271.092343569        694066004.78030562     
  -3386523842.2045078       -44833670.642639995        1157042420.3092437     
  -3294370128.7541256       -38009084.963182092        1149494645.0951552     
  -3201949733.2650399       -30295559.154713154        1145844501.6198499     
  -3109262655.7372475       -21693093.217217684        1146091989.8833327     
  -3016308896.1707530       -12201687.150715113        1150237109.8855996     
  -3806536532.2447801       -40845166.206847668        1040191583.9522791     
  -3702101460.2377453       -29759409.263347864        1031585261.1081084     
  -3598284259.5496883       -20733223.383108377        1027545158.2001067     
  -3495084930.1806068       -13766608.566119909        1028071275.2282757     
  -3392503472.1305032       -8859564.8123917580        1033163612.1926115     
  -4229943454.6144290       -37874931.469869614        924078569.24513352     
  -4111316772.0582151       -21954927.664568186        913381719.85358679     
  -3994192514.1786613       -11043006.114797831        907919678.59559214     
  -3878570680.9757667       -5139166.8205614090        907692445.47115028     
  -3764451272.4495311       -4243409.7818589211        912700020.48026168     
  -4656744609.3134451       -35922966.431700706        808703376.18780959     
  -4522016064.2155323       -14595640.166843414        794884021.33158839     
  -4389674497.1519585       -1224907.3497905731        786968062.80630541     
  -4259719908.1227269        4189232.0194549561        784955500.61195648     
  -4132152297.1278391        1646777.9408910275        788846334.74854302     
  -5086939996.3418369       -34989271.092343569        694066004.78030562     
  -4934199336.7096968       -7681546.7701716423        676092165.54211462     
  -4784730208.4695759        8721072.9119300842        664690310.83224452     
  -4638532611.6214828        14218587.953936100        659860440.65069485     
  -4495606546.1654158        8810998.3558633327        661602554.99746215     
  -3016308896.1707530       -12201687.150715113        1150237109.8855996     
  -2921907922.6424789       -3900059.5533399582        1142548460.0829148     
  -2828844362.5755486       -56476.827105879784        1139414387.0730090     
  -2737118215.9699655       -670938.97202098370        1140834890.8558836     
  -2646729482.8257189       -5743445.9880686998        1146809971.4315369     
  -3392503472.1305032       -8859564.8123917580        1033163612.1926115     
  -3288128326.3011255       -5354133.2898502350        1025630605.9083241     
  -3184414244.4703321       -4052248.4292529821        1022322277.5416833     
  -3081361226.6381178       -4953910.2305867672        1023238627.0926888     
  -2978969272.8044882       -8059118.6938693523        1028379654.5613422     
  -3764451272.4495311       -4243409.7818589211        912700020.48026168     
  -3651044522.5337143       -5816944.7985460758        906111732.08759093     
  -3537622487.1537180       -7339528.2679746151        903418222.73743451     
  -3424185166.3095436       -8811160.1901416779        904619492.42979014     
  -3310732560.0011930       -10231840.565052748        909715541.16466224     
  -4132152297.1278391        1646777.9408910275        788846334.74854302     
  -4010656511.3402452       -5288494.0794234276        783991838.62071037     
  -3888469090.6257138       -9918316.3432807922        782702222.66025865     
  -3765590034.9842443       -12242688.850677013        784977486.86718798     
  -3642019344.4158387       -12261611.601620436        790817631.24149895     
  -4495606546.1654158        8810998.3558633327        661602554.99746215     
  -4366964292.7207088       -3768781.1324753761        659270925.50768745     
  -4236954054.8863158       -11788612.655174732        660174277.31016135     
  -4105575832.6622148       -15248496.212192535        664312610.40488029     
  -3972829626.0484180       -14148431.803561687        671685924.79185081     
  -2646729482.8257189       -5743445.9880686998        1146809971.4315369     
  -2525794357.7357779       -2693021.7022997141        1128375414.4610200     
  -2404208183.7659636        2527565.5163906813        1116078010.2420664     
  -2281970960.9162707        9918315.6680059433        1109917758.7746770     
  -2159082689.1867018        19479228.752541184        1109894660.0588527     
  -2978969272.8044882       -8059118.6938693523        1028379654.5613422     
  -2840576239.1426277       -865303.59325730801        1010783808.8162732     
  -2701852669.2082767        7430299.0823383331        999523803.64846253     
  -2562798563.0014362        16827689.332885504        994599639.05790544     
  -2423413920.5221009        27326867.158423305        996011315.04460716     
  -3310732560.0011930       -10231840.565052748        909715541.16466224     
  -3154313938.2654357        1275669.2010086775        892584475.26976073     
  -2997885292.8645754        12816591.184079766        881987937.77780604     
  -2841446623.7986054        24390925.384180665        877925928.68879592     
  -2684997931.0675325        35998671.801297188        880398448.00273716     
  -3642019344.4158387       -12261611.601620436        790817631.24149895     
  -3467007455.1042080        3729896.6804764271        773777413.82147968     
  -3292306054.7348633        18686441.821628094        763470412.63009882     
  -3117915143.3077869        32608023.821868658        759896627.66735816     
  -2943834720.8230033        45494642.681156754        763056058.93325436     
  -3972829626.0484180       -14148431.803561687        671685924.79185081     
  -3778656789.6589384        6497378.8451633453        654362624.47142947     
  -3585114954.8191338        25039850.994984150        643971228.20534158     
  -3392204121.5289845        41478984.645943642        640511735.99358082     
  -3199924289.7885036        55814779.798007607        643984147.83615232     
  -2159082689.1867018        19479228.752541184        1109894660.0588527     
  -2136320291.1799555       -1015359.8015358448        1137770002.8698637     
  -2114220638.4410748       -23719099.248488784        1166698284.7572794     
  -2092783730.9700513       -48631989.588304639        1196679505.7210910     
  -2072009568.7668924       -75754030.821002245        1227713665.7613025     
  -2423413920.5221009        27326867.158423305        996011315.04460716     
  -2400617897.0314636        1797543.7683957815        1023405112.7529604     
  -2378845980.4851546       -27145469.436061978        1050933699.0269759     
  -2358098170.8831749       -59502172.454953432        1078597073.8666508     
  -2338374468.2255201       -95272565.288264751        1106395237.2719877     
  -2684997931.0675325        35998671.801297188        880398448.00273716     
  -2664791569.2665429        4647627.4232525826        906889111.98588955     
  -2645970676.0863457       -31321645.690767407        932596414.02396202     
  -2628535251.5269451       -71909147.540778995        957520354.11695504     
  -2612485295.5883470       -117114878.12678540        981660932.26487350     
  -2943834720.8230033        45494642.681156754        763056058.93325436     
  -2928841307.8851962        7534891.1630403996        788222000.56865799     
  -2915594725.2446489       -36247628.012603879        811686429.74824131     
  -2904094972.9013743       -85852914.845817566        833449346.47200894     
  -2894342050.8553538       -141280969.33656085        853510750.73995864     
  -3199924289.7885036        55814779.798007607        643984147.83615232     
  -3192767112.8874216        10459334.987756968        667403778.50126016     
  -3187718127.9600682       -41923416.401582599        688203746.19980836     
  -3184777335.0064449       -101333474.37003040        706384050.93180430     
  -3183944734.0265594       -167770838.91759574        721944692.69724488     
  -2072009568.7668924       -75754030.821002245        1227713665.7613025     
  -1859435925.7416434       -42347189.179106951        1168713232.4070618     
  -1644228742.7487583       -161880.97842907906        1118720805.8407826     
  -1426388019.7882576        50801893.780965388        1077736386.0624597     
  -1205913756.8601346        110544135.09910941        1045759973.0720989     
  -2338374468.2255201       -95272565.288264751        1106395237.2719877     
  -2102409539.2812126       -62739960.112223268        1048226344.7217699     
  -1863158549.4650857       -19253818.696800947        999244489.12114060     
  -1620621498.7771463        35185858.958016634        959449670.47011006     
  -1374798387.2173808        100579072.85222125        928841888.76866543     
  -2612485295.5883470       -117114878.12678540        981660932.26487350     
  -2352617565.9774599       -85303054.992356539        925084854.90690422     
  -2088811254.5905662       -40362625.937902331        877874844.66015565     
  -1821066361.4276593        17706409.036582112        840030901.52463150     
  -1549382886.4887505        88904049.931096077        811553025.50033164     
  -2894342050.8553538       -141280969.33656085        853510750.73995864     
  -2610060005.8303781       -110036473.81950104        799288762.96246195     
  -2321186858.1251922       -63488302.701752305        754611872.45781374     
  -2027722607.7398136       -1636455.9833489656        719480079.22602868     
  -1729667254.6742237        75519066.335743070        693893383.26709569     
  -3183944734.0265594       -167770838.91759574        721944692.69724488     
  -2874736858.8399639       -136940216.59362566        670838068.88844502     
  -2560285360.0689764       -88630848.988350034        629455572.51412809     
  -2240590237.7135940       -22842736.101756096        597797203.57430303     
  -1915651491.7738109        60424122.066149116        575862962.06896341     
  -5958054744.9445992       -1787416423.4833798        1149997128.0509164     
  -6088521162.8803663       -1502369804.9917879        1227852825.7889619     
  -6221690878.7291861       -1226334179.5436947        1268386150.7076387     
  -6357563892.4910545       -959309547.13909984        1271597102.8069477     
  -6496140204.1659698       -701295907.77800274        1237485682.0868878     
  -6810824410.3446560       -2043247323.1033967        1353710727.2833180     
  -6828642626.7304916       -1395487258.1802325        1202705640.7025049     
  -6897835770.8937731       -918976952.51522040        1091972286.6491075     
  -7018403842.8345003       -613716406.10835910        1021510665.1231244     
  -7190346842.5526752       -479705618.95965099        991320776.12455690     
  -8338200376.7146015       -2501460113.0143805        1712323412.8981276     
  -8021672947.7025528       -1424477368.5052578        1275673973.8233273     
  -7805192076.3323441       -680983149.46893978        956890372.62272584     
  -7688757762.6039801       -270977455.90542793        755972609.29632282     
  -7672370006.5174522       -194460287.81471920        672920683.84411836     
  -10540182644.054438       -3162054793.2163315        2225835184.8953443     
  -9667612125.7965527       -1589340135.9668646        1446757825.1514287     
  -8943759795.0449009       -512352770.40485525        863140408.62849498     
  -8368625651.7994881        68907303.469694138        474982935.32654226     
  -7942209696.0603151        154440085.65678501        282285405.24557298     
  -13416771212.364162       -4025031363.7092485        2894246043.2749696     
  -11766460161.012484       -1890075560.5650506        1715957194.6868091     
  -10313538927.031443       -413085815.32296705        810722394.66641450     
  -9058007510.4210320        405937872.01700640        178541643.21378481     
  -7999865911.1812544        566995501.45486784       -180585059.67107949     
  -6496140204.1659698       -701295907.77800274        1237485682.0868878     
  -6239192219.4293737       -375670834.76329994        1053288264.1575420     
  -6013197544.6499567       -153223461.60586476        908020316.42108047     
  -5818156179.8277206       -33953788.305695057        801681838.87750399     
  -5654068124.9626627       -17861814.862792492        734272831.52681136     
  -7190346842.5526752       -479705618.95965099        991320776.12455690     
  -6900548113.9590025       -304490100.01909184        846930646.51346707     
  -6623540031.2373610       -171910067.31863332        723590746.77050614     
  -6359322594.3877487       -81965520.858275890        621301076.89567578     
  -6107895803.4101667       -34656460.638016939        540061636.88897455     
  -7672370006.5174522       -194460287.81471920        672920683.84411836     
  -7400804077.8517246       -184979386.08381176        589527617.31729186     
  -7123866130.9728699       -157591756.97583389        509305540.33384246     
  -6841556165.8808994       -112297400.49078989        432254452.89376700     
  -6553874182.5758057       -49096316.628682137        358374354.99706632     
  -7942209696.0603151        154440085.65678501        282285405.24557298     
  -7739960111.1075344       -17138692.957458496        281079176.56902057     
  -7514175843.8564873       -110268530.57746935        265164697.11108616     
  -7264856894.3071680       -124949427.20324850        234541966.87177718     
  -6992003262.4595757       -61181382.834787846        189210985.85108164     
  -7999865911.1812544        566995501.45486784       -180585059.67107949     
  -7918016213.7264404        199031979.35996723       -78414675.731351212     
  -7794469169.8882093       -29940388.123533726       -8831782.8977561165     
  -7629224779.6665545       -119921600.99562979        28163618.829704445     
  -7422283043.0614815       -70911659.256332874        32571529.451025371     
  -5654068124.9626627       -17861814.862792492        734272831.52681136     
  -5520510664.3659573       -49558917.448519230        721287349.18420565     
  -5381470156.0635872       -62979194.348690748        710257717.27891958     
  -5236946600.0555468       -58122645.563298225        701183935.81095219     
  -5086939996.3418369       -34989271.092343569        694066004.78030562     
  -6107895803.4101667       -34656460.638016939        540061636.88897455     
  -5959415307.5757647       -36208205.405696630        533874333.23211551     
  -5809997077.8110809       -34634170.405774355        530253815.97815651     
  -5659641114.1161127       -29934355.638245344        529200085.12709612     
  -5508347416.4908705       -22108761.103117466        530713140.67893511     
  -6553874182.5758057       -49096316.628682137        358374354.99706632     
  -6388725120.1734762       -19979044.179246426        353682363.95466954     
  -6227183637.6162491       -2887037.8801600933        352168095.28074878     
  -6069249734.9041309        2179702.2685687542        353831548.97531247     
  -5914923412.0371180       -4778823.7330563068        358672725.03835058     
  -6992003262.4595757       -61181382.834787846        189210985.85108164     
  -6808440102.1590881       -871433.76916265488        180711441.35186213     
  -6633029835.4790983        32262203.228147984        176000555.18670142     
  -6465772462.4196005        38219528.157147169        175078327.35559979     
  -6306667982.9805927        17000541.017838240        177944757.85855430     
  -7422283043.0614815       -70911659.256332874        32571529.451025371     
  -7218560253.5326147        21114625.824542046        14961565.423700148     
  -7027535671.3996239        70813552.919154644        1751195.6960065647     
  -6849209296.6625185        78185122.027491570       -7059579.7320402497     
  -6683581129.3212910        43229333.149562836       -11470760.860451743     
  -5086939996.3418369       -34989271.092343569        694066004.78030562     
  -4934199336.7096968       -7681546.7701716423        676092165.54211462     
  -4784730208.4695759        8721072.9119300842        664690310.83224452     
  -4638532611.6214828        14218587.953936100        659860440.65069485     
  -4495606546.1654158        8810998.3558633327        661602554.99746215     
  -5508347416.4908705       -22108761.103117466        530713140.67893511     
  -5344963428.8085108       -10514687.272266626        514863993.62751102     
  -5182423949.3782587       -1735640.9484117031        504256264.50746804     
  -5020728978.2000961        4228377.8684620857        498889953.31880331     
  -4859878515.2740297        7377369.1783535480        498765060.06152046     
  -5914923412.0371180       -4778823.7330563068        358672725.03835058     
  -5744697715.1529522       -10038886.048061848        347779797.17027819     
  -5572889503.3809547       -10023898.736953020        340797720.63664514     
  -5399498776.7211266       -4733861.7997307777        337726495.43745577     
  -5224525535.1734591        5831224.7635998726        338566121.57270461     
  -6306667982.9805927        17000541.017838240        177944757.85855430     
  -6133402195.7430182       -6254143.0975418091        174839576.17041689     
  -5956126870.4776735       -16143700.453704596        174314679.21977884     
  -5774842007.1845684       -12668131.050658464        176370067.00664490     
  -5589547605.8637018        4172565.1115984917        181005739.53101021     
  -6683581129.3212910        43229333.149562836       -11470760.860451743     
  -6511076870.5786934        839541.57930541039       -3956669.3720712778     
  -6332136050.6684074       -20095046.098654270        4807140.2568697352     
  -6146758669.5904284       -19574429.884299278        14820668.026371537     
  -5954944727.3447533        2401390.2223641872        26083913.936440453     
  -4495606546.1654158        8810998.3558633327        661602554.99746215     
  -4366964292.7207088       -3768781.1324753761        659270925.50768745     
  -4236954054.8863158       -11788612.655174732        660174277.31016135     
  -4105575832.6622148       -15248496.212192535        664312610.40488029     
  -3972829626.0484180       -14148431.803561687        671685924.79185081     
  -4859878515.2740297        7377369.1783535480        498765060.06152046     
  -4719949759.4760065        2984244.5178618431        497267379.93080664     
  -4580010959.4909277       -1375399.5191059113        499327415.35781580     
  -4440062115.3187885       -5701562.9325418472        504945166.34254783     
  -4300103226.9595909       -9994245.7224433422        514120632.88500631     
  -5224525535.1734591        5831224.7635998726        338566121.57270461     
  -5072388179.1207600        9901384.3013651371        336318127.23130709     
  -4921598719.0836430        9478557.1205284595        337950582.71310490     
  -4772157155.0621033        4562743.2210979462        343463488.01810431     
  -4624063487.0561409       -4846057.3969347477        352856843.14630234     
  -5589547605.8637018        4172565.1115984917        181005739.53101021     
  -5424279551.6549664        16982638.218034267        176423167.40918362     
  -5261717333.6644516        20773257.263739824        176043779.37602919     
  -5101860951.8921556        15544422.248720884        179867575.43155321     
  -4944710406.3380766        1296133.1729664803        187894555.57574710     
  -5954944727.3447533        2401390.2223641872        26083913.936440453     
  -5775623877.0786314        24228006.267859221        17582500.464443993     
  -5600366803.2333632        32508700.910510302        13607005.346585449     
  -5429173505.8089533        27243474.150299072        14157428.582891243     
  -5262043984.8053980        8432325.9872386456        19233770.173337195     
  -3972829626.0484180       -14148431.803561687        671685924.79185081     
  -3778656789.6589384        6497378.8451633453        654362624.47142947     
  -3585114954.8191338        25039850.994984150        643971228.20534158     
  -3392204121.5289845        41478984.645943642        640511735.99358082     
  -3199924289.7885036        55814779.798007607        643984147.83615232     
  -4300103226.9595909       -9994245.7224433422        514120632.88500631     
  -4090664075.1146255        6772010.8492856026        497053093.67759311     
  -3881093301.3143735        23977007.271957397        485692251.70707470     
  -3671390905.5588336        41620743.545597076        480038106.97344726     
  -3461556887.8480048        59703219.670188665        480090659.47671008     
  -4624063487.0561409       -4846057.3969347477        352856843.14630234     
  -4402858610.6626577        6990467.8257009983        336934792.47434515     
  -4180759488.8089299        21807811.249139071        325494232.22184426     
  -3957766121.4949646        39605972.873369932        318535162.38879198     
  -3733878508.7207608        60384952.698408127        316057582.97519326     
  -4944710406.3380766        1296133.1729664803        187894555.57574710     
  -4715240396.3030424        7152749.7744119167        174007720.86169234     
  -4484113517.3028049        18532262.926535368        163377169.74964947     
  -4251329769.3373880        35434672.629252672        156002902.23961857     
  -4016889152.4067726        57859978.882636547        151884918.33160251     
  -5262043984.8053980        8432325.9872386456        19233770.173337195     
  -5027809432.0357780        7258856.6954116821        8271878.8396223094     
  -4791155386.7960043        14150362.304112434       -658935.70950844919     
  -4552081849.0860968        29106842.813261271       -7558673.4740743758     
  -4310588818.9060345        52128298.222910404       -12427334.454063060     
  -3199924289.7885036        55814779.798007607        643984147.83615232     
  -3192767112.8874216        10459334.987756968        667403778.50126016     
  -3187718127.9600682       -41923416.401582599        688203746.19980836     
  -3184777335.0064449       -101333474.37003040        706384050.93180430     
  -3183944734.0265594       -167770838.91759574        721944692.69724488     
  -3461556887.8480048        59703219.670188665        480090659.47671008     
  -3458287325.5251222        16026189.419812918        499474041.34279472     
  -3455011035.5478077       -27628415.315797567        518099286.98608220     
  -3451728017.9160652       -71260594.536644459        535966396.40657115     
  -3448438272.6298933       -114870348.24272668        553075369.60426414     
  -3733878508.7207608        60384952.698408127        316057582.97519326     
  -3729177913.1367755        19981931.359671116        333872122.27511495     
  -3722355670.2701988       -13348932.370424509        352790052.09599441     
  -3713411780.1210256       -39607638.491866827        372811372.43783653     
  -3702346242.6892657       -58794187.004675865        393936083.30063462     
  -4016889152.4067726        57859978.882636547        151884918.33160251     
  -4005438875.7223797        22326560.807336807        170598021.29821837     
  -3989752032.1272230        915032.43458652496        192276041.52954689     
  -3969828621.6213331       -6374606.2357106209        216918979.02558705     
  -3945668644.2046618        457644.79657435417        244526833.78634983     
  -4310588818.9060345        52128298.222910404       -12427334.454063060     
  -4287070213.2819295        23060077.762838602        9651738.4120962620     
  -4257200121.1189065        15163479.099168539        36557255.286726683     
  -4220978542.4169626        28438502.231891394        68289216.169840053     
  -4178405477.1761060        62885147.161003828        104847621.06141619     
  -3183944734.0265594       -167770838.91759574        721944692.69724488     
  -2874736858.8399639       -136940216.59362566        670838068.88844502     
  -2560285360.0689764       -88630848.988350034        629455572.51412809     
  -2240590237.7135940       -22842736.101756096        597797203.57430303     
  -1915651491.7738109        60424122.066149116        575862962.06896341     
  -3448438272.6298933       -114870348.24272668        553075369.60426414     
  -3104780202.7049737       -60403075.043476701        507975857.53721458     
  -2763788291.5243521       -14822997.658553600        474197756.09394270     
  -2425462539.0880356        21869883.912042379        451741065.27443963     
  -2089802945.3960042        49675569.668320894        440605785.07871306     
  -3702346242.6892657       -58794187.004675865        393936083.30063462     
  -3319674311.7709193        20678836.946391582        345615603.59186447     
  -2947578321.9255657        64898723.987491131        310213817.69615477     
  -2586058273.1531992        73865474.118637443        287730725.61350572     
  -2235114165.4538240        47579087.339811325        278166327.34390771     
  -3945668644.2046618        457644.79657435417        244526833.78634983     
  -3519419186.0377955        106305519.37599039        183757307.05238914     
  -3111655451.2726054        150534315.94981146        137503757.32076755     
  -2722377439.9091010        133144034.51799440        105766184.59149440     
  -2351585151.9472723        54134675.080626488        88544588.864564493     
  -4178405477.1761060        62885147.161003828        104847621.06141619     
  -3704014825.5056043        196476972.24530983        22400967.918790188     
  -3256019679.5654855        242083778.22833991       -43932425.032217696     
  -2834420039.3557377        199705565.11014915       -94152557.791585535     
  -2439215904.8763523        69342332.890718699       -128259430.35932660     
 </DataArray>
 <DataArray  type="Float64" Name="VM" NumberOfComponents="1" format="ascii">
   12935381128.680553     
   11340617781.018379     
   10210231162.727669     
   9272861760.7381935     
   8304084779.8471403     
   10130398584.163303     
   9322033688.0105133     
   8826280422.3416862     
   8443292264.9366703     
   8035264052.8780327     
   7982615392.9090452     
   7735047240.5663090     
   7669018020.2621288     
   7669212014.0686932     
   7665700468.4659185     
   6491942384.5436249     
   6586943355.0117588     
   6757276289.7036448     
   6960851513.9821568     
   7171008073.7145672     
   5657928160.0882111     
   5890883326.0375481     
   6116242781.7405519     
   6331542833.4336376     
   6536549497.7525358     
   8304084779.8471403     
   8020519412.6284132     
   7779194419.3577061     
   7569404654.5863791     
   7386186765.1340837     
   8035264052.8780327     
   7746576836.4623585     
   7473669363.3881884     
   7214568665.0972633     
   6969283787.8305607     
   7665700468.4659185     
   7380836528.1941547     
   7101440942.1339064     
   6827591150.6001158     
   6559494366.7748585     
   7171008073.7145672     
   6910732554.9864683     
   6658387547.7685108     
   6410126678.1219521     
   6162809242.3404207     
   6536549497.7525358     
   6328612236.4142733     
   6142830893.5281687     
   5965317686.2514429     
   5787062895.4970665     
   7386186765.1340837     
   7228701970.4352102     
   7063411738.7576952     
   6889607096.5048523     
   6707120595.1995735     
   6969283787.8305607     
   6815089170.6382036     
   6656012979.2426310     
   6491758565.2203827     
   6322280992.5932360     
   6559494366.7748585     
   6408191736.7927685     
   6255043829.3704576     
   6100012209.9658489     
   5943127472.0686340     
   6162809242.3404207     
   6013005596.2182341     
   5864398479.6918049     
   5717027907.7767487     
   5570950478.4495087     
   5787062895.4970665     
   5635995358.5316877     
   5489094594.0230808     
   5346279627.7949877     
   5207594851.0289602     
   6707120595.1995735     
   6513845110.0942602     
   6324794062.2181587     
   6139842426.3554020     
   5959008907.8860598     
   6322280992.5932360     
   6138501973.0650396     
   5957667530.0505753     
   5779751155.5716066     
   5604806048.4809084     
   5943127472.0686340     
   5770540775.6323156     
   5599930728.9012060     
   5431323592.1258087     
   5264790926.3538580     
   5570950478.4495087     
   5411764734.4911613     
   5253927034.3848333     
   5097477487.2192440     
   4942505591.0469217     
   5207594851.0289602     
   5064561250.0904083     
   4922635138.2009382     
   4781839837.1200075     
   4642301318.2085161     
   5959008907.8860598     
   5785703972.4550543     
   5610067048.1566458     
   5432039207.9998178     
   5251676480.1298504     
   5604806048.4809084     
   5444292049.4706821     
   5282494468.6383114     
   5119440382.1998987     
   4955246186.9131441     
   5264790926.3538580     
   5115873031.1742525     
   4966689024.0298529     
   4817325290.9068604     
   4667933609.9643087     
   4942505591.0469217     
   4803831713.2252235     
   4665835516.8684816     
   4528635409.0072374     
   4392394841.1619425     
   4642301318.2085161     
   4512339163.6942225     
   4383877916.0122633     
   4257041507.7119174     
   4131984747.2627869     
   5251676480.1298504     
   5021128389.5119953     
   4791570304.1516619     
   4563016666.1525736     
   4335497342.5702915     
   4955246186.9131441     
   4727486584.2905140     
   4500750202.0576296     
   4275058036.0267138     
   4050451673.8118730     
   4667933609.9643087     
   4448169502.1020451     
   4229980729.1574440     
   4013452526.8820505     
   3798731015.5104694     
   4392394841.1619425     
   4185878842.8363976     
   3982086961.9157987     
   3781236328.8863969     
   3583683519.1068859     
   4131984747.2627869     
   3943861758.3386397     
   3760270659.5587263     
   3581614520.8837204     
   3408542890.4558158     
   4335497342.5702915     
   4309062494.8671684     
   4289621426.8380737     
   4277308382.7778563     
   4272779490.5541697     
   4050451673.8118730     
   4033569601.2890201     
   4022233542.3335094     
   4016309833.8321824     
   4015966343.7708430     
   3798731015.5104694     
   3785921288.7453513     
   3776743018.1398902     
   3770937223.6319609     
   3768389515.4783511     
   3583683519.1068859     
   3570541907.8761125     
   3558565540.0009580     
   3547466003.0786123     
   3537013746.0692010     
   3408542890.4558158     
   3392187279.8821702     
   3373968608.7949519     
   3353597541.7930961     
   3330838284.7016664     
   4272779490.5541697     
   3795759274.0514102     
   3286621362.7664161     
   2747531901.6530113     
   2224776915.5353570     
   4015966343.7708430     
   3604091046.0053344     
   3169179131.2634449     
   2710712685.6220059     
   2248869252.1865368     
   3768389515.4783511     
   3416000508.8497291     
   3054410411.5717754     
   2683021568.3596988     
   2308628577.2399325     
   3537013746.0692010     
   3231509558.3511715     
   2930470424.1052980     
   2634505653.6765532     
   2345864541.6292672     
   3330838284.7016664     
   3051521842.9472609     
   2787907988.2402754     
   2544735901.2675467     
   2329932879.1078005     
   5657928160.0882111     
   5890883326.0375481     
   6116242781.7405519     
   6331542833.4336376     
   6536549497.7525358     
   5151347497.3795080     
   5311243736.4930048     
   5467799829.3842411     
   5618120855.5625391     
   5760737824.9538488     
   4643255376.6671982     
   4755440883.7507296     
   4868763377.0095415     
   4980591518.4019041     
   5089001933.1267729     
   4133916897.6541414     
   4224313532.2772865     
   4320629166.4106064     
   4421211007.9066944     
   4524608056.7766247     
   3624852744.6218963     
   3719686955.7471752     
   3825755692.5928669     
   3942997097.4232092     
   4071319667.5783796     
   6536549497.7525358     
   6328612236.4142733     
   6142830893.5281687     
   5965317686.2514429     
   5787062895.4970665     
   5760737824.9538488     
   5652108562.7421131     
   5559447076.6803312     
   5473697224.4429522     
   5389313139.6365576     
   5089001933.1267729     
   5054077532.9864397     
   5029637257.7936430     
   5010470899.7855921     
   4993373170.1803141     
   4524608056.7766247     
   4539111454.3546686     
   4558275230.5344334     
   4579610298.1519833     
   4601389322.7510595     
   4071319667.5783796     
   4112534729.7677732     
   4151129152.7087555     
   4186191039.9194551     
   4216977449.0007877     
   5787062895.4970665     
   5635995358.5316877     
   5489094594.0230808     
   5346279627.7949877     
   5207594851.0289602     
   5389313139.6365576     
   5248214384.7604694     
   5110366541.5835781     
   4975814227.3092661     
   4844654781.2093630     
   4993373170.1803141     
   4866518749.9652519     
   4742926095.0729780     
   4622571177.6423702     
   4505505251.0122852     
   4601389322.7510595     
   4493572279.7045269     
   4390072226.7290754     
   4290590002.1961131     
   4195049534.1599593     
   4216977449.0007877     
   4133325958.4251432     
   4056268582.0233555     
   3984984977.3342686     
   3919188118.9194064     
   5207594851.0289602     
   5064561250.0904083     
   4922635138.2009382     
   4781839837.1200075     
   4642301318.2085161     
   4844654781.2093630     
   4717324292.0384865     
   4591806878.0466347     
   4468206989.4193354     
   4346724694.9419069     
   4505505251.0122852     
   4393370674.9020166     
   4283761937.9085293     
   4176849364.1855297     
   4072888289.5615673     
   4195049534.1599593     
   4097599841.5061007     
   4003362462.3918686     
   3912553506.6114459     
   3825459907.5622082     
   3919188118.9194064     
   3835870206.4052944     
   3756378869.9491496     
   3680951249.3994055     
   3609878315.4100680     
   4642301318.2085161     
   4512339163.6942225     
   4383877916.0122633     
   4257041507.7119174     
   4131984747.2627869     
   4346724694.9419069     
   4226736637.2611227     
   4108956097.7361894     
   3993571174.9258428     
   3880814742.4986372     
   4072888289.5615673     
   3964647634.0399351     
   3859523322.6065469     
   3757775099.5183563     
   3659721050.2930665     
   3825459907.5622082     
   3730647480.1962528     
   3640059849.0209117     
   3554024813.9384780     
   3472938348.0494871     
   3609878315.4100680     
   3529926771.6164017     
   3455482639.9831529     
   3386921922.8537750     
   3324691515.2854977     
   4131984747.2627869     
   3943861758.3386397     
   3760270659.5587263     
   3581614520.8837204     
   3408542890.4558158     
   3880814742.4986372     
   3713320087.7622609     
   3550833261.7113895     
   3393806173.3314643     
   3242900426.5116549     
   3659721050.2930665     
   3511372693.3172059     
   3368377022.8828516     
   3231213392.4258423     
   3100530838.6807179     
   3472938348.0494871     
   3342443780.8604865     
   3217469185.3325315     
   3098495496.1835561     
   2986132399.9600873     
   3324691515.2854977     
   3210959916.4574127     
   3102691796.7182269     
   3000341677.4148498     
   2904454272.5361247     
   3408542890.4558158     
   3392187279.8821702     
   3373968608.7949519     
   3353597541.7930961     
   3330838284.7016664     
   3242900426.5116549     
   3222265732.0285759     
   3200465860.2490716     
   3177397969.4583879     
   3152975229.3970957     
   3100530838.6807179     
   3082589653.0907550     
   3065016589.9319334     
   3047972623.8236628     
   3031639617.5698476     
   2986132399.9600873     
   2977611035.2090397     
   2971814081.5686278     
   2969217989.8475628     
   2970352128.2614737     
   2904454272.5361247     
   2911284205.9646149     
   2923919784.8727398     
   2943138371.2938533     
   2969806800.6695304     
   3330838284.7016664     
   3051521842.9472609     
   2787907988.2402754     
   2544735901.2675467     
   2329932879.1078005     
   3152975229.3970957     
   2890345737.4767432     
   2640425159.5741663     
   2406041548.2865009     
   2191947840.9166932     
   3031639617.5698476     
   2786420920.3903227     
   2551653322.9180484     
   2329006479.7241297     
   2121143837.8723500     
   2970352128.2614737     
   2745581779.5171275     
   2530064470.8869247     
   2325180493.1070709     
   2132851627.0561318     
   2969806800.6695304     
   2770336728.6978502     
   2580083526.9023466     
   2400906275.4355869     
   2235177596.6266212     
   3624852744.6218963     
   3719686955.7471752     
   3825755692.5928669     
   3942997097.4232092     
   4071319667.5783796     
   3137956489.7744985     
   3255560913.0040112     
   3382566526.4585471     
   3518504254.9236746     
   3662916462.1196046     
   2694810433.3507357     
   2830593437.3196626     
   2973675013.2969751     
   3122971447.4729896     
   3277570836.9081383     
   2298901000.5532069     
   2449575684.9606013     
   2604964149.7155886     
   2763141044.4528995     
   2922674293.8368402     
   1955433675.6149065     
   2119461223.2087157     
   2284845787.6629148     
   2448622767.5102830     
   2608829739.9508996     
   4071319667.5783796     
   4112534729.7677732     
   4151129152.7087555     
   4186191039.9194551     
   4216977449.0007877     
   3662916462.1196046     
   3702240730.4242206     
   3740213151.7619467     
   3775927447.3151579     
   3808628862.8007460     
   3277570836.9081383     
   3320812873.9885225     
   3364322713.9075198     
   3407275725.7670760     
   3448992965.8052716     
   2922674293.8368402     
   2975636400.6916294     
   3030837867.6811199     
   3087599457.1286144     
   3145390155.6703100     
   2608829739.9508996     
   2676765789.2335968     
   2749209686.0933199     
   2825658970.2262378     
   2905763331.0177560     
   4216977449.0007877     
   4133325958.4251432     
   4056268582.0233555     
   3984984977.3342686     
   3919188118.9194064     
   3808628862.8007460     
   3756182452.0888982     
   3709765274.1783137     
   3668916638.4294419     
   3633540776.5302982     
   3448992965.8052716     
   3423175461.5389528     
   3402439870.1755638     
   3386559141.3755245     
   3375514790.8865008     
   3145390155.6703100     
   3141932941.3001919     
   3142022420.2201939     
   3145554514.1227126     
   3152512321.1542950     
   2905763331.0177560     
   2920785548.3627267     
   2937054714.1099811     
   2954509199.5979218     
   2973105613.1882091     
   3919188118.9194064     
   3835870206.4052944     
   3756378869.9491496     
   3680951249.3994055     
   3609878315.4100680     
   3633540776.5302982     
   3563045070.5193071     
   3497096276.8014069     
   3435939231.0345650     
   3379874258.3654304     
   3375514790.8865008     
   3318173481.3945150     
   3266196020.3652430     
   3219815747.6506820     
   3179320290.9225087     
   3152512321.1542950     
   3108297943.7039700     
   3070337776.8021312     
   3038827233.7201843     
   3014012233.8123355     
   2973105613.1882091     
   2941397410.8695025     
   2916871215.6447177     
   2899655174.2941403     
   2889923152.6762938     
   3609878315.4100680     
   3529926771.6164017     
   3455482639.9831529     
   3386921922.8537750     
   3324691515.2854977     
   3379874258.3654304     
   3314036240.5842180     
   3253929034.6087422     
   3199885295.5131187     
   3152291536.8872666     
   3179320290.9225087     
   3126643798.4045610     
   3079840503.0176415     
   3039188438.9737825     
   3005003548.7583838     
   3014012233.8123355     
   2973364784.1159949     
   2938625233.3976955     
   2910008633.5027823     
   2887754545.0163321     
   2889923152.6762938     
   2859932448.1644197     
   2835754873.4384408     
   2817539745.8705201     
   2805451258.8790426     
   3324691515.2854977     
   3210959916.4574127     
   3102691796.7182269     
   3000341677.4148498     
   2904454272.5361247     
   3152291536.8872666     
   3051772668.2926302     
   2958390645.3215690     
   2872648906.2456350     
   2795138566.5602479     
   3005003548.7583838     
   2918193983.5298572     
   2840250783.8498526     
   2771670371.4828176     
   2713023052.2520871     
   2887754545.0163321     
   2814230106.6985893     
   2751297642.9576569     
   2699383212.0162296     
   2658966883.2141352     
   2805451258.8790426     
   2743629569.4594507     
   2694081352.1435685     
   2657110641.0033650     
   2633057086.1523080     
   2904454272.5361247     
   2911284205.9646149     
   2923919784.8727398     
   2943138371.2938533     
   2969806800.6695304     
   2795138566.5602479     
   2819086164.8286891     
   2846987005.9616489     
   2879289773.5110879     
   2916482927.4502969     
   2713023052.2520871     
   2749675546.3159537     
   2787960640.3067622     
   2828077382.8455110     
   2870243469.1163497     
   2658966883.2141352     
   2704361774.4765906     
   2748689086.0129433     
   2791975557.6184530     
   2834261101.1308179     
   2633057086.1523080     
   2683949585.2263136     
   2730807727.6407614     
   2773551638.2834859     
   2812116800.6105313     
   2969806800.6695304     
   2770336728.6978502     
   2580083526.9023466     
   2400906275.4355869     
   2235177596.6266212     
   2916482927.4502969     
   2730234365.2790365     
   2558788255.4808483     
   2404064079.3103261     
   2268369347.9727416     
   2870243469.1163497     
   2697562413.4936757     
   2545174128.8772020     
   2414945030.5822711     
   2309080254.1224155     
   2834261101.1308179     
   2672682716.9912152     
   2536824757.4925141     
   2428389410.0503664     
   2349469569.2245903     
   2812116800.6105313     
   2656139289.1334662     
   2531584630.0674143     
   2439995774.0165167     
   2383460813.6386776     
   1955433675.6149065     
   2119461223.2087157     
   2284845787.6629148     
   2448622767.5102830     
   2608829739.9508996     
   1653921893.2999372     
   1820361104.2604573     
   1988502011.3121140     
   2155644065.7623944     
   2320025867.3378620     
   1393726138.6917007     
   1571113472.8246202     
   1749511548.3952353     
   1926913334.4622135     
   2102066208.1011398     
   1207165544.2745872     
   1399141072.8084331     
   1590697354.3132443     
   1781055995.8016431     
   1969757526.2493105     
   1136930605.7464042     
   1335292637.8502049     
   1533963096.1684234     
   1732941979.8107293     
   1932229288.7984581     
   2608829739.9508996     
   2676765789.2335968     
   2749209686.0933199     
   2825658970.2262378     
   2905763331.0177560     
   2320025867.3378620     
   2407010591.1788321     
   2496433632.0659323     
   2587909384.3989239     
   2681164171.7975993     
   2102066208.1011398     
   2205705211.4718947     
   2309250566.9042816     
   2412468158.5392079     
   2515192203.2423577     
   1969757526.2493105     
   2086776435.6345069     
   2200941894.5960717     
   2312179417.9624453     
   2420437197.0658817     
   1932229288.7984581     
   2058767373.6510024     
   2179884140.6340685     
   2295579590.2413168     
   2405853723.9999032     
   2905763331.0177560     
   2920785548.3627267     
   2937054714.1099811     
   2954509199.5979218     
   2973105613.1882091     
   2681164171.7975993     
   2703141553.7669668     
   2727421253.5208011     
   2753982400.5583696     
   2782815311.1188946     
   2515192203.2423577     
   2544026329.6437693     
   2576241048.4737802     
   2611836655.6019673     
   2650818435.4454985     
   2420437197.0658817     
   2454539423.1426167     
   2493095623.3663244     
   2536108949.9219966     
   2583583702.2072458     
   2405853723.9999032     
   2442053475.9595041     
   2483766204.5013394     
   2530991917.3504295     
   2583730624.7872810     
   2973105613.1882091     
   2941397410.8695025     
   2916871215.6447177     
   2899655174.2941403     
   2889923152.6762938     
   2782815311.1188946     
   2764956093.6893525     
   2754198319.7994361     
   2750625356.7143111     
   2754344126.1869287     
   2650818435.4454985     
   2644235602.0466332     
   2644433886.7933073     
   2651452120.0664296     
   2665338081.3938665     
   2583583702.2072458     
   2585172775.3265185     
   2592987283.8990517     
   2607036438.2986879     
   2627331166.7092576     
   2583730624.7872810     
   2590135222.1121411     
   2602018046.7069225     
   2619379081.8308997     
   2642218335.1746583     
   2889923152.6762938     
   2859932448.1644197     
   2835754873.4384408     
   2817539745.8705201     
   2805451258.8790426     
   2754344126.1869287     
   2734233017.2776494     
   2720636035.4801216     
   2713658393.3080235     
   2713412569.5854917     
   2665338081.3938665     
   2653380364.7148895     
   2648540806.0895510     
   2650875027.7507763     
   2660440920.4597292     
   2627331166.7092576     
   2620977555.8585577     
   2622243002.2557850     
   2631143389.7995853     
   2647694776.2236547     
   2642218335.1746583     
   2638268708.9499211     
   2642347689.3834996     
   2654455322.2800102     
   2674591653.4529076     
   2805451258.8790426     
   2743629569.4594507     
   2694081352.1435685     
   2657110641.0033650     
   2633057086.1523080     
   2713412569.5854917     
   2663327475.6766386     
   2624771681.1758347     
   2597899330.2429786     
   2582880363.7920480     
   2660440920.4597292     
   2618917379.1189208     
   2588056382.8759646     
   2567915562.8222432     
   2558558348.3418713     
   2647694776.2236547     
   2611658612.2957621     
   2585326557.6428556     
   2568709216.4536772     
   2561818878.4648795     
   2674591653.4529076     
   2641299498.8606229     
   2616694668.7720900     
   2600778323.9628248     
   2593552477.5324621     
   2633057086.1523080     
   2683949585.2263136     
   2730807727.6407614     
   2773551638.2834859     
   2812116800.6105313     
   2582880363.7920480     
   2636082479.3762960     
   2688102598.0860925     
   2738888736.8780279     
   2788394635.4749942     
   2558558348.3418713     
   2614223296.8646307     
   2671566631.8354549     
   2730563781.6946383     
   2791193264.6217084     
   2561818878.4648795     
   2618634629.8079095     
   2679963559.5521407     
   2745802716.9416461     
   2816157391.4380703     
   2593552477.5324621     
   2648807068.0664225     
   2711405069.3303699     
   2781368586.3686814     
   2858740129.6005650     
   2812116800.6105313     
   2656139289.1334662     
   2531584630.0674143     
   2439995774.0165167     
   2383460813.6386776     
   2788394635.4749942     
   2645292650.6266284     
   2526714840.6076784     
   2433039974.1752748     
   2364767975.9779549     
   2791193264.6217084     
   2661195835.8679223     
   2549435417.5871625     
   2455937908.6406069     
   2380770437.6460505     
   2816157391.4380703     
   2702131392.2914824     
   2600470831.1267438     
   2511402361.3118610     
   2435485625.3253293     
   2858740129.6005650     
   2765814037.4549217     
   2679737902.6094007     
   2601293717.9689898     
   2532213228.1379557     
   1136930605.7464042     
   1335292637.8502049     
   1533963096.1684234     
   1732941979.8107293     
   1932229288.7984581     
   1207166185.6952436     
   1399146114.8284237     
   1590708376.7371764     
   1781076522.8829572     
   1969792133.6603129     
   1393711304.1210344     
   1571109652.5424767     
   1749524043.9492793     
   1926951205.7312188     
   2102140936.3204889     
   1653890596.5396609     
   1820339436.9487293     
   1988501813.1993818     
   2155682158.7402182     
   2320122769.5036364     
   1955392113.5758762     
   2119416781.5926266     
   2284818264.3326306     
   2448637718.2202368     
   2608917474.6486802     
   1932229288.7984581     
   2058767373.6510024     
   2179884140.6340685     
   2295579590.2413168     
   2405853723.9999032     
   1969792133.6603129     
   2086836195.2198710     
   2201018628.8870940     
   2312264774.1334071     
   2420522584.8296113     
   2102140936.3204889     
   2205811468.6506958     
   2309371053.4369087     
   2412584332.2952437     
   2515284773.7823057     
   2320122769.5036364     
   2407137923.1033783     
   2496564164.9539909     
   2588012677.3513503     
   2681208089.0921826     
   2608917474.6486802     
   2676884462.9494252     
   2749321844.6943979     
   2825721040.4452186     
   2905728405.9239564     
   2405853723.9999032     
   2442053475.9595041     
   2483766204.5013394     
   2530991917.3504295     
   2583730624.7872810     
   2420522584.8296113     
   2454819067.3541522     
   2493634435.6960120     
   2536972139.2121162     
   2584836500.3513646     
   2515284773.7823057     
   2544441498.7212806     
   2577108498.9051661     
   2613288093.9238710     
   2652986935.4878058     
   2681208089.0921826     
   2703520420.5422626     
   2728325932.0023675     
   2755608862.7810555     
   2785363635.3334374     
   2905728405.9239564     
   2920957727.6123357     
   2937678028.1976352     
   2955836232.8588309     
   2975396272.0650320     
   2583730624.7872810     
   2590135222.1121411     
   2602018046.7069225     
   2619379081.8308997     
   2642218335.1746583     
   2584836500.3513646     
   2586462307.2292404     
   2594335157.8358302     
   2608464087.5292521     
   2628861136.2074294     
   2652986935.4878058     
   2646367564.4429178     
   2646564722.9452438     
   2653617562.2854762     
   2667577534.8952417     
   2785363635.3334374     
   2767280128.1590466     
   2756339589.1649208     
   2752626618.9960356     
   2756255522.9168320     
   2975396272.0650320     
   2943165877.3886714     
   2918157317.7354164     
   2900500642.3453293     
   2890381198.2839680     
   2642218335.1746583     
   2638268708.9499211     
   2642347689.3834996     
   2654455322.2800102     
   2674591653.4529076     
   2628861136.2074294     
   2623284427.3012543     
   2625578223.7998576     
   2635756745.4207702     
   2653834607.2752900     
   2667577534.8952417     
   2657215293.4335527     
   2654502213.0573497     
   2659493553.3511586     
   2672246164.9878063     
   2756255522.9168320     
   2738394181.8131409     
   2727882550.9868789     
   2724834184.1742225     
   2729367528.2371550     
   2890381198.2839680     
   2862952284.5469666     
   2842489461.5702581     
   2829168814.3293853     
   2823177468.8393106     
   2674591653.4529076     
   2641299498.8606229     
   2616694668.7720900     
   2600778323.9628248     
   2593552477.5324621     
   2653834607.2752900     
   2618900968.0214791     
   2592913261.3172693     
   2575889750.6102157     
   2567848977.4869375     
   2672246164.9878063     
   2632751739.4366555     
   2602374437.4481916     
   2581179317.3502169     
   2569233939.2352138     
   2729367528.2371550     
   2682508762.5403247     
   2644829983.1872373     
   2616469311.8782144     
   2597573979.9679151     
   2823177468.8393106     
   2766452514.6983080     
   2718846704.8158388     
   2680588142.0525718     
   2651926425.2955379     
   2593552477.5324621     
   2648807068.0664225     
   2711405069.3303699     
   2781368586.3686814     
   2858740129.6005650     
   2567848977.4869375     
   2619501279.8401337     
   2676932296.0850282     
   2740175451.5944800     
   2809275064.1711440     
   2569233939.2352138     
   2615878146.5827451     
   2666894395.3354397     
   2722320929.0355988     
   2782198780.0811782     
   2597573979.9679151     
   2638552007.0808372     
   2682616095.5574250     
   2729795005.9950953     
   2780115815.7604289     
   2651926425.2955379     
   2687363180.7055955     
   2724701015.4794316     
   2763940578.6505065     
   2805080853.6987934     
   2858740129.6005650     
   2765814037.4549217     
   2679737902.6094007     
   2601293717.9689898     
   2532213228.1379557     
   2809275064.1711440     
   2725643940.9363894     
   2652641239.4478254     
   2590509881.0657597     
   2539815014.8884511     
   2782198780.0811782     
   2697931882.1764064     
   2627716848.9954715     
   2571648778.3512096     
   2529854205.6321397     
   2780115815.7604289     
   2684193247.8259573     
   2605352589.7272124     
   2543985260.4819913     
   2500547500.8138118     
   2805080853.6987934     
   2685834450.0597944     
   2586184877.4410815     
   2507294531.7471175     
   2450801491.8536167     
   1955392113.5758762     
   2119416781.5926266     
   2284818264.3326306     
   2448637718.2202368     
   2608917474.6486802     
   2298867315.2386961     
   2449515622.3274126     
   2604895584.3720613     
   2763084204.1963820     
   2922651114.4176130     
   2694804070.4005733     
   2830534733.8920565     
   2973577238.4141779     
   3122847269.3331819     
   3277432134.2197194     
   3137987788.1259232     
   3255517707.4916182     
   3382456245.7319646     
   3518330543.6637030     
   3662679584.5795369     
   3624926983.2845178     
   3719671396.2354050     
   3825651748.0198708     
   3942798597.9418507     
   4071013896.2173324     
   2608917474.6486802     
   2676884462.9494252     
   2749321844.6943979     
   2825721040.4452186     
   2905728405.9239564     
   2922651114.4176130     
   2975631302.2141027     
   3030824252.8699646     
   3087548447.4586883     
   3145271246.4989729     
   3277432134.2197194     
   3320715267.3502030     
   3364253126.6854944     
   3407224061.8351784     
   3448950999.9111238     
   3662679584.5795369     
   3702088544.3773041     
   3740147483.2110105     
   3775958803.3446870     
   3808773908.9938693     
   4071013896.2173324     
   4112367988.8506136     
   4151117822.4093065     
   4186365476.0683141     
   4217378235.0460024     
   2905728405.9239564     
   2920957727.6123357     
   2937678028.1976352     
   2955836232.8588309     
   2975396272.0650320     
   3145271246.4989729     
   3141751181.5159068     
   3141897023.9038315     
   3145609819.6121821     
   3152879599.6973610     
   3448950999.9111238     
   3422806051.5970345     
   3401740489.0171113     
   3385525985.5788541     
   3374149801.5914826     
   3808773908.9938693     
   3755816670.4885798     
   3708775389.1757998     
   3667176869.8191891     
   3630925643.8723869     
   4217378235.0460024     
   4133161426.5901551     
   4055331693.5299644     
   3983039968.5198841     
   3915988379.0000253     
   2975396272.0650320     
   2943165877.3886714     
   2918157317.7354164     
   2900500642.3453293     
   2890381198.2839680     
   3152879599.6973610     
   3107470503.6426711     
   3068307412.6357274     
   3035583930.0465164     
   3009543523.0647712     
   3374149801.5914826     
   3315622966.5471349     
   3262466879.7578979     
   3214905777.8784909     
   3173210461.2465935     
   3630925643.8723869     
   3559840947.3743963     
   3493384955.4950066     
   3431786265.5268245     
   3375317392.6293783     
   3915988379.0000253     
   3833160192.1848421     
   3754367313.3276844     
   3679825522.4741378     
   3609792294.2547660     
   2890381198.2839680     
   2862952284.5469666     
   2842489461.5702581     
   2829168814.3293853     
   2823177468.8393106     
   3009543523.0647712     
   2969945107.5272698     
   2936826453.4139643     
   2910435089.5910959     
   2891044322.1729660     
   3173210461.2465935     
   3119991117.6898990     
   3072600761.0306153     
   3031339171.2520652     
   2996550968.6842899     
   3375317392.6293783     
   3307667679.6972609     
   3245079391.4375005     
   3187875819.4108257     
   3136444656.5942836     
   3609792294.2547660     
   3527380962.5373960     
   3449202241.5506458     
   3375572971.1641626     
   3306890975.8752985     
   2823177468.8393106     
   2766452514.6983080     
   2718846704.8158388     
   2680588142.0525718     
   2651926425.2955379     
   2891044322.1729660     
   2821954944.0844593     
   2761820708.2155752     
   2710971209.5580397     
   2669776829.3294005     
   2996550968.6842899     
   2913483371.7491460     
   2839065640.3987002     
   2773722668.5840964     
   2717946497.5679460     
   3136444656.5942836     
   3038187296.3491945     
   2948152722.4532871     
   2866842984.5550647     
   2794857797.7469645     
   3306890975.8752985     
   3192575073.3217049     
   3085966712.0712523     
   2987620364.3563242     
   2898218976.1952534     
   2651926425.2955379     
   2687363180.7055955     
   2724701015.4794316     
   2763940578.6505065     
   2805080853.6987934     
   2669776829.3294005     
   2699825960.1529169     
   2731951272.9277472     
   2766172673.5415578     
   2802507226.7082119     
   2717946497.5679460     
   2741410717.9647331     
   2767074493.2725015     
   2794986338.4328785     
   2825191430.6039000     
   2794857797.7469645     
   2810822446.0485473     
   2829037619.0371094     
   2849587819.7480154     
   2872554967.4731941     
   2898218976.1952534     
   2906072611.2757983     
   2916144502.1620059     
   2928559047.8335519     
   2943440467.3450727     
   2805080853.6987934     
   2685834450.0597944     
   2586184877.4410815     
   2507294531.7471175     
   2450801491.8536167     
   2802507226.7082119     
   2658214535.2421279     
   2532392959.7685866     
   2426275786.0726647     
   2341452069.9524617     
   2825191430.6039000     
   2657273954.3748779     
   2506723318.0602217     
   2374944765.3429270     
   2263682385.7340512     
   2872554967.4731941     
   2683008578.0438080     
   2509777758.4145055     
   2354520316.0775561     
   2219334999.9804206     
   2943440467.3450727     
   2734634385.1173840     
   2541226227.5508108     
   2365200621.8517356     
   2209207199.8535643     
   3624926983.2845178     
   3719671396.2354050     
   3825651748.0198708     
   3942798597.9418507     
   4071013896.2173324     
   4134013719.6445312     
   4224331785.9937773     
   4320561645.1332674     
   4421045321.0910196     
   4524327469.5886936     
   4643332910.9928188     
   4755477666.2760429     
   4868745820.9714575     
   4980505819.6783533     
   5088835053.1534052     
   5151365504.5049582     
   5311284370.3666525     
   5467844356.5911999     
   5618156492.5377636     
   5760758941.4792662     
   5657846683.6018085     
   5890913538.2402296     
   6116360928.9477873     
   6331737462.2867785     
   6536822576.8353281     
   4071013896.2173324     
   4112367988.8506136     
   4151117822.4093065     
   4186365476.0683141     
   4217378235.0460024     
   4524327469.5886936     
   4539004578.7609758     
   4558365226.1040878     
   4579927500.7797918     
   4601967194.9456644     
   5088835053.1534052     
   5054044804.9952250     
   5029754235.0343952     
   5010754176.6786022     
   4993842547.8415661     
   5760758941.4792662     
   5652157402.3255787     
   5559525738.4353628     
   5473799398.9921160     
   5389436622.7748146     
   6536822576.8353281     
   6328745063.5962648     
   6142813840.7540817     
   5965117522.8746767     
   5786646979.1611185     
   4217378235.0460024     
   4133161426.5901551     
   4055331693.5299644     
   3983039968.5198841     
   3915988379.0000253     
   4601967194.9456644     
   4493722283.1799870     
   4389664765.6738424     
   4289480181.8074465     
   4193078305.4410110     
   4993842547.8415661     
   4866828691.7755041     
   4743031577.6881447     
   4622421987.6718502     
   4505042833.0503979     
   5389436622.7748146     
   5248513538.9511805     
   5110886253.5167418     
   4976598536.0345135     
   4845748671.5241842     
   5786646979.1611185     
   5636104139.3561468     
   5489869291.6631660     
   5347857466.1456423     
   5210122581.0806465     
   3915988379.0000253     
   3833160192.1848421     
   3754367313.3276844     
   3679825522.4741378     
   3609792294.2547660     
   4193078305.4410110     
   4097410516.9791017     
   4005124542.9009051     
   3916437713.4580255     
   3831629332.8811483     
   4505042833.0503979     
   4394990609.2285748     
   4287486714.1823916     
   4182716945.1567903     
   4080955925.0223026     
   4845748671.5241842     
   4719996019.1231165     
   4595848446.4156227     
   4473426160.5818338     
   4352967456.2677822     
   5210122581.0806465     
   5067522241.3415403     
   4925534167.3679237     
   4784180989.9545135     
   4643632248.1266479     
   3609792294.2547660     
   3527380962.5373960     
   3449202241.5506458     
   3375572971.1641626     
   3306890975.8752985     
   3831629332.8811483     
   3734965314.2916341     
   3641844996.8328810     
   3552548187.8891034     
   3467421109.7730279     
   4080955925.0223026     
   3971402451.4025187     
   3864887541.1280932     
   3761643247.8305211     
   3661956715.2296438     
   4352967456.2677822     
   4231797832.5981450     
   4113343103.0356178     
   3997785163.3786416     
   3885354012.5989389     
   4643632248.1266479     
   4511967161.2984505     
   4382859917.1866169     
   4256443974.7132101     
   4132898746.8107233     
   3306890975.8752985     
   3192575073.3217049     
   3085966712.0712523     
   2987620364.3563242     
   2898218976.1952534     
   3467421109.7730279     
   3336385451.7727308     
   3212052635.1603651     
   3095000961.1846347     
   2985970816.5378370     
   3661956715.2296438     
   3513380572.3386493     
   3370402250.7047067     
   3233570960.1791711     
   3103622147.6289496     
   3885354012.5989389     
   3718774078.0929613     
   3556657284.5281720     
   3399478758.5119286     
   3247910864.2319932     
   4132898746.8107233     
   3948089670.6598659     
   3766635608.3304768     
   3588905173.2798443     
   3415461984.5080938     
   2898218976.1952534     
   2906072611.2757983     
   2916144502.1620059     
   2928559047.8335519     
   2943440467.3450727     
   2985970816.5378370     
   2984854905.8336444     
   2984703520.2472773     
   2985627316.2069201     
   2987745026.6593328     
   3103622147.6289496     
   3095297118.3337073     
   3086822625.6984921     
   3078293106.6496005     
   3069822303.5134387     
   3247910864.2319932     
   3234828967.4091907     
   3220687454.5797086     
   3205577444.9558611     
   3189624205.7640433     
   3415461984.5080938     
   3400521852.0498772     
   3383864298.4861298     
   3365603345.0749965     
   3345906523.2867508     
   2943440467.3450727     
   2734634385.1173840     
   2541226227.5508108     
   2365200621.8517356     
   2209207199.8535643     
   2987745026.6593328     
   2754721853.8588886     
   2536005958.2306514     
   2333732216.2033086     
   2150977560.4432516     
   3069822303.5134387     
   2812249370.8177023     
   2567575591.9182158     
   2337904297.0300131     
   2126521246.5755827     
   3189624205.7640433     
   2907560324.3787065     
   2636832989.6297817     
   2379348256.6330228     
   2138349569.0467832     
   3345906523.2867508     
   3039616536.0789318     
   2743107588.2232242     
   2457980814.0466805     
   2187230606.3344932     
   5657846683.6018085     
   5890913538.2402296     
   6116360928.9477873     
   6331737462.2867785     
   6536822576.8353281     
   6491809318.4286938     
   6586954046.4169149     
   6757434075.9062138     
   6961162464.8531246     
   7171478652.1299753     
   7982566440.2903433     
   7735096207.8182383     
   7669189961.8933163     
   7669512921.5646591     
   7666131474.2830296     
   10130569206.381008     
   9322173937.7714882     
   8826438614.6961002     
   8443466664.2555618     
   8035433858.3588524     
   12935906724.745977     
   11340899384.204037     
   10210345775.600203     
   9272804606.1243153     
   8303797888.3617516     
   6536822576.8353281     
   6328745063.5962648     
   6142813840.7540817     
   5965117522.8746767     
   5786646979.1611185     
   7171478652.1299753     
   6910933690.0796556     
   6658298064.1022177     
   6409719346.5705252     
   6162054355.4893351     
   7666131474.2830296     
   7381039941.0865192     
   7101395470.8981457     
   6827279417.1953487     
   6558902553.1933756     
   8035433858.3588524     
   7746718012.6158562     
   7473777999.2592335     
   7214641234.9565802     
   6969323837.1429205     
   8303797888.3617516     
   8020534864.5445824     
   7779557226.2297068     
   7570133595.0831909     
   7387297905.3423319     
   5786646979.1611185     
   5636104139.3561468     
   5489869291.6631660     
   5347857466.1456423     
   5210122581.0806465     
   6162054355.4893351     
   6012921712.4293737     
   5865112826.6352406     
   5718668908.6396437     
   5573649310.2852182     
   6558902553.1933756     
   6408107430.8749380     
   6255550605.5451078     
   6101197960.0978632     
   5945083161.9162197     
   6969323837.1429205     
   6815195826.5754128     
   6656203902.4478273     
   6492052857.3734083     
   6322701941.7513247     
   7387297905.3423319     
   7229187140.0157843     
   7063209337.2126665     
   6888645489.5316029     
   6705329744.1512852     
   5210122581.0806465     
   5067522241.3415403     
   4925534167.3679237     
   4784180989.9545135     
   4643632248.1266479     
   5573649310.2852182     
   5413667776.1768360     
   5254650256.4114914     
   5096630303.2081757     
   4939699027.4896040     
   5945083161.9162197     
   5771207379.2173729     
   5599086092.7975368     
   5428740786.3541498     
   5260232647.8560696     
   6322701941.7513247     
   6137752770.0478916     
   5955729242.5364447     
   5776601374.1430817     
   5600417112.4190025     
   6705329744.1512852     
   6511500288.3261366     
   6322117962.7561064     
   6137048554.5169859     
   5956317128.0706482     
   4643632248.1266479     
   4511967161.2984505     
   4382859917.1866169     
   4256443974.7132101     
   4132898746.8107233     
   4939699027.4896040     
   4799358776.2655334     
   4660277517.3902912     
   4522585285.5609322     
   4386453172.5128422     
   5260232647.8560696     
   5110652912.2897205     
   4960998411.4472742     
   4811359512.8352327     
   4661877518.2106905     
   5600417112.4190025     
   5441377678.8345022     
   5280944808.6677227     
   5119139509.3775606     
   4956055364.6768980     
   5956317128.0706482     
   5787856032.2653952     
   5616741159.0327129     
   5442901616.7368746     
   5266370580.0230713     
   4132898746.8107233     
   3948089670.6598659     
   3766635608.3304768     
   3588905173.2798443     
   3415461984.5080938     
   4386453172.5128422     
   4183594840.6681538     
   3982989832.1234322     
   3784832788.8414373     
   3589438365.1865849     
   4661877518.2106905     
   4444835881.8661537     
   4229448921.9443755     
   4015797110.4404387     
   3804029748.1484332     
   4956055364.6768980     
   4728435909.7059574     
   4502309912.7345972     
   4277699804.6632080     
   4054672668.2509699     
   5266370580.0230713     
   5031463186.3868446     
   4798246352.6110220     
   4566723606.7629671     
   4336941353.1366215     
   3415461984.5080938     
   3400521852.0498772     
   3383864298.4861298     
   3365603345.0749965     
   3345906523.2867508     
   3589438365.1865849     
   3572653661.6789398     
   3556358913.1027927     
   3540524272.6884575     
   3525120636.9658027     
   3804029748.1484332     
   3783661605.4549313     
   3765607908.2215548     
   3749784167.2110920     
   3736135026.0678301     
   4054672668.2509699     
   4027502674.3252616     
   4004083302.8424664     
   3984398995.6763887     
   3968562345.6545787     
   4336941353.1366215     
   4298679148.4654627     
   4265272097.5517006     
   4236920717.0760446     
   4214115042.0564008     
   3345906523.2867508     
   3039616536.0789318     
   2743107588.2232242     
   2457980814.0466805     
   2187230606.3344932     
   3525120636.9658027     
   3198419732.0751948     
   2876172517.4102945     
   2559023519.7571802     
   2248545427.1927118     
   3736135026.0678301     
   3383439461.6537657     
   3028600620.4641390     
   2670681716.7610946     
   2310080801.8900561     
   3968562345.6545787     
   3587902757.6928205     
   3198467289.5582047     
   2797336953.6924138     
   2384052436.6468196     
   4214115042.0564008     
   3806256435.9677835     
   3384418477.2751889     
   2943885670.3976307     
   2484567357.7967367     
 </DataArray>
 <DataArray  type="Float64" Name="strain" NumberOfComponents="3" format="ascii">
  0.20347901201832849        0.0000000000000000       0.12541368656852961     
  0.18665202199543482       -2.7328784152700712E-002   7.4360342937698373E-002
  0.16982503197254115       -4.4679989719259322E-002   3.5135284659877759E-002
  0.15299804194964747       -5.2053616699675842E-002   7.7385117350677844E-003
  0.13617105192675383       -4.9449665093950282E-002  -7.8299758367315619E-003
  0.15985661496568651        0.0000000000000000        9.6451694548790767E-002
  0.15317739125476187       -2.1847574190954809E-002   6.2694794832420242E-002
  0.14649816754383727       -3.6177475576407381E-002   3.7405142386977203E-002
  0.13981894383291268       -4.2989704156357722E-002   2.0582737212461663E-002
  0.13313972012198808       -4.2284259930805812E-002   1.2227579308873603E-002
  0.12646355517272465        0.0000000000000000        7.4200865381117767E-002
  0.12657105969168597       -1.6366364229208903E-002   5.5280503798568068E-002
  0.12667856421064727       -2.7674961433555426E-002   4.1466351404862767E-002
  0.12678606872960860       -3.3925791613039574E-002   3.2758408200001796E-002
  0.12689357324856990       -3.5118854767661349E-002   2.9156674183985185E-002
  0.10329983263944290        0.0000000000000000        5.8661199065510580E-002
  0.10683302730620700       -1.0885154267463004E-002   5.2117469836141905E-002
  0.11036622197297109       -1.9172447290703484E-002   4.7318911713534452E-002
  0.11389941663973520       -2.4861879069721437E-002   4.4265524697688199E-002
  0.11743261130649930       -2.7953449604516876E-002   4.2957308788603196E-002
   9.0365447365841262E-002   0.0000000000000000        4.9832695601969235E-002
   9.3963294098325018E-002  -5.4039443057171035E-003   5.3205692945141700E-002
   9.7561140830808760E-002  -1.0669933147851540E-002   5.4962823312992230E-002
  0.10115898756329250       -1.5797966526403306E-002   5.5104086705520867E-002
  0.10475683429577626       -2.0788044441372416E-002   5.3629483122727570E-002
  0.13617105192675383       -4.9449665093950282E-002  -7.8299758367315619E-003
  0.13296101728518955       -4.2909923151852318E-002  -3.4076346286051745E-003
  0.12975098264362522       -3.8476179123151627E-002  -3.8970434778565557E-004
  0.12654094800206092       -3.6148433007848271E-002   1.2238150057268700E-003
  0.12333091336049665       -3.5926684805942244E-002   1.4329234319323814E-003
  0.13313972012198808       -4.2284259930805812E-002   1.2227579308873603E-002
  0.12891131688440030       -3.8414565293198602E-002   1.2173562832236608E-002
  0.12468291364681251       -3.5734042636982946E-002   1.1487220090859604E-002
  0.12045451040922470       -3.4242691962158907E-002   1.0168551084742522E-002
  0.11622610717163698       -3.3940513268726422E-002   8.2175558138854743E-003
  0.12689357324856990       -3.5118854767661349E-002   2.9156674183985185E-002
  0.12241888607752553       -3.3919207434544879E-002   2.5543125954590542E-002
  0.11794419890648115       -3.2991906150814224E-002   2.2069336123022684E-002
  0.11346951173543683       -3.2336950916469522E-002   1.8735304689281768E-002
  0.10899482456439244       -3.1954341731510627E-002   1.5541031653367732E-002
  0.11743261130649930       -2.7953449604516876E-002   4.2957308788603196E-002
  0.11348372486456529       -2.9423849575891128E-002   3.6701054738456543E-002
  0.10953483842263127       -3.0249769664645522E-002   3.1356643748703700E-002
  0.10558595198069726       -3.0431209870780084E-002   2.6924075819344636E-002
  0.10163706553876327       -2.9968170194294763E-002   2.3403350950379393E-002
  0.10475683429577626       -2.0788044441372416E-002   5.3629483122727570E-002
  0.10210583324551953       -2.4928491717237398E-002   4.5647349183834618E-002
   9.9454832195262785E-002  -2.7507633178476813E-002   3.9349142967902498E-002
   9.6803831145006042E-002  -2.8525468825090695E-002   3.4734864474930974E-002
   9.4152830094749299E-002  -2.7981998657078955E-002   3.1804513704920281E-002
  0.12333091336049665       -3.5926684805942244E-002   1.4329234319323814E-003
  0.12040746533723129       -3.6439363668267194E-002   6.6937471553539518E-004
  0.11748401731396589       -3.6314898745656868E-002   8.1649323514509931E-005
  0.11456056929070049       -3.5553290038111141E-002  -3.3025274413021194E-004
  0.11163712126743514       -3.4154537545630304E-002  -5.6633148739876349E-004
  0.11622610717163698       -3.3940513268726422E-002   8.2175558138854743E-003
  0.11346758994752539       -3.4026855131777514E-002   7.8412754805611551E-003
  0.11070907272341383       -3.3701066126404181E-002   7.6190334211684724E-003
  0.10795055549930230       -3.2963146252606421E-002   7.5508296357074400E-003
  0.10519203827519075       -3.1813095510384026E-002   7.6366641241779054E-003
  0.10899482456439244       -3.1954341731510627E-002   1.5541031653367732E-002
  0.10637945308899016       -3.1614346595287848E-002   1.5327006786605566E-002
  0.10376408161358781       -3.1087233507151431E-002   1.5245235143330323E-002
  0.10114871013818548       -3.0373002467101451E-002   1.5295716723541845E-002
   9.8533338662783188E-002  -2.9471653475137777E-002   1.5478451527240464E-002
  0.10163706553876327       -2.9968170194294763E-002   2.3403350950379393E-002
   9.9143054761625549E-002  -2.9201838058798148E-002   2.3126568633668357E-002
   9.6649043984487801E-002  -2.8473400887898740E-002   2.2960254489999561E-002
   9.4155033207350095E-002  -2.7782858681596495E-002   2.2904408519373195E-002
   9.1661022430212347E-002  -2.7130211439891513E-002   2.2959030721788908E-002
   9.4152830094749299E-002  -2.7981998657078955E-002   3.1804513704920281E-002
   9.1758394965431589E-002  -2.6789329522308475E-002   3.1239961021749522E-002
   8.9363959836113810E-002  -2.5859568268645973E-002   3.0764091461176424E-002
   8.6969524706796059E-002  -2.5192714896091609E-002   3.0376905023201145E-002
   8.4575089577478307E-002  -2.4788769404645195E-002   3.0078401707823416E-002
  0.11163712126743514       -3.4154537545630304E-002  -5.6633148739876349E-004
  0.10855880920413796       -3.2591203240346145E-002  -2.1618275445695057E-004
  0.10548049714084079       -3.1335849094390536E-002   2.0348650910909094E-004
  0.10240218507754359       -3.0388475107763841E-002   6.9267630329872265E-004
   9.9323873014246444E-002  -2.9749081280465717E-002   1.2513866281122499E-003
  0.10519203827519075       -3.1813095510384026E-002   7.6366641241779054E-003
  0.10220770066999463       -3.0558419717035559E-002   7.5422197016833809E-003
   9.9223363064798564E-002  -2.9506624689859429E-002   7.5662036647672209E-003
   9.6239025459602473E-002  -2.8657710428855260E-002   7.7086160134293286E-003
   9.3254687854406437E-002  -2.8011676934023289E-002   7.9694567476699119E-003
   9.8533338662783188E-002  -2.9471653475137777E-002   1.5478451527240464E-002
   9.5691883370642619E-002  -2.8525636193725112E-002   1.5044513342465982E-002
   9.2850428078502051E-002  -2.7677400285328092E-002   1.4777911398224534E-002
   9.0008972786361455E-002  -2.6926945749946675E-002   1.4678645694515439E-002
   8.7167517494220900E-002  -2.6274272587580860E-002   1.4746716231339441E-002
   9.1661022430212347E-002  -2.7130211439891513E-002   2.2959030721788908E-002
   8.9011357306081756E-002  -2.6492852670414624E-002   2.2290698167891282E-002
   8.6361692181951166E-002  -2.5848175880796815E-002   2.1838609709480657E-002
   8.3712027057820548E-002  -2.5196181071038080E-002   2.1602765346557543E-002
   8.1062361933689972E-002  -2.4536868241138488E-002   2.1583165079121218E-002
   8.4575089577478307E-002  -2.4788769404645195E-002   3.0078401707823416E-002
   8.2166122476312109E-002  -2.4460069147104108E-002   2.9280774177958879E-002
   7.9757155375145924E-002  -2.4018951476265607E-002   2.8748298598536060E-002
   7.7348188273979712E-002  -2.3465416392129516E-002   2.8480974969554755E-002
   7.4939221172813514E-002  -2.2799463894696059E-002   2.8478803291015070E-002
   9.9323873014246444E-002  -2.9749081280465717E-002   1.2513866281122499E-003
   9.6368845378398627E-002  -2.9172025192181650E-002   8.8173375981254187E-004
   9.3413817742550781E-002  -2.8411664422597321E-002   7.6899057969226359E-004
   9.0458790106702949E-002  -2.7467998971712308E-002   9.1315708775151216E-004
   8.7503762470855118E-002  -2.6341028839526937E-002   1.3142332839897186E-003
   9.3254687854406437E-002  -2.8011676934023289E-002   7.9694567476699119E-003
   9.0539766817521600E-002  -2.7399050752505066E-002   7.7247010002306493E-003
   8.7824845780636734E-002  -2.6650358431442284E-002   7.7032487625384727E-003
   8.5109924743751883E-002  -2.5765599970834670E-002   7.9051000345925909E-003
   8.2395003706867087E-002  -2.4744775370682426E-002   8.3302548163933232E-003
   8.7167517494220900E-002  -2.6274272587580860E-002   1.4746716231339441E-002
   8.4659096877866241E-002  -2.5626076312828483E-002   1.4579619063005422E-002
   8.2150676261511596E-002  -2.4889052440287038E-002   1.4602219225985077E-002
   7.9642255645156923E-002  -2.4063200969956813E-002   1.4814516720278559E-002
   7.7133835028802306E-002  -2.3148521901837582E-002   1.5216511545885797E-002
   8.1062361933689972E-002  -2.4536868241138488E-002   2.1583165079121218E-002
   7.8726835559432648E-002  -2.3853101873151789E-002   2.1446487948136313E-002
   7.6391309185175324E-002  -2.3127746449132007E-002   2.1465901970032442E-002
   7.4055782810917986E-002  -2.2360801969079011E-002   2.1641407144809381E-002
   7.1720256436660690E-002  -2.1552268432992849E-002   2.1973003472467133E-002
   7.4939221172813514E-002  -2.2799463894696059E-002   2.8478803291015070E-002
   7.2742982862220695E-002  -2.2080127433475094E-002   2.8325307655623605E-002
   7.0546744551627918E-002  -2.1366440457976865E-002   2.8294296994680140E-002
   6.8350506241035142E-002  -2.0658402968201206E-002   2.8385771308184940E-002
   6.6154267930442295E-002  -1.9956014964148228E-002   2.8599730596137740E-002
   8.7503762470855118E-002  -2.6341028839526937E-002   1.3142332839897186E-003
   8.3669931127884456E-002  -2.5159165396394678E-002   1.0157170067868759E-003
   7.9836099784913794E-002  -2.4050820012669477E-002   7.0288555991865342E-004
   7.6002268441943160E-002  -2.3015992688350979E-002   3.7573894338471803E-004
   7.2168437098972471E-002  -2.2054683423439858E-002   3.4277157184958718E-005
   8.2395003706867087E-002  -2.4744775370682426E-002   8.3302548163933232E-003
   7.8593473748627130E-002  -2.3686214577546355E-002   7.8588892730177828E-003
   7.4791943790387255E-002  -2.2688247537988065E-002   7.4664416687692803E-003
   7.0990413832147395E-002  -2.1750874252007536E-002   7.1529120036482874E-003
   6.7188883873907423E-002  -2.0874094719604885E-002   6.9183002776539992E-003
   7.7133835028802306E-002  -2.3148521901837582E-002   1.5216511545885797E-002
   7.3457839564085831E-002  -2.2213263758698115E-002   1.4585221042166807E-002
   6.9781844099369397E-002  -2.1325675063306973E-002   1.4126081586367523E-002
   6.6105848634652964E-002  -2.0485755815664090E-002   1.3839093178488325E-002
   6.2429853169936461E-002  -1.9693506015769913E-002   1.3724255818528847E-002
   7.1720256436660690E-002  -2.1552268432992849E-002   2.1973003472467133E-002
   6.8263028574260434E-002  -2.0740312939849667E-002   2.1194712314234067E-002
   6.4805800711860165E-002  -1.9963102588625721E-002   2.0681805312713634E-002
   6.1348572849459874E-002  -1.9220637379320754E-002   2.0434282467905428E-002
   5.7891344987059654E-002  -1.8512917311935051E-002   2.0452143779809827E-002
   6.6154267930442295E-002  -1.9956014964148228E-002   2.8599730596137740E-002
   6.3009040779150927E-002  -1.9267362121001413E-002   2.7687363089219735E-002
   5.9863813627859572E-002  -1.8600530113944469E-002   2.7133612847806937E-002
   5.6718586476568210E-002  -1.7955518942977172E-002   2.6938479871899540E-002
   5.3573359325276848E-002  -1.7332328608100023E-002   2.7101964161497127E-002
   7.2168437098972471E-002  -2.2054683423439858E-002   3.4277157184958718E-005
   7.1854626720401826E-002  -2.1363371969835732E-002   1.3057088764053537E-003
   7.1540816341831182E-002  -2.1138538079438468E-002   2.7429103029382729E-003
   7.1227005963260592E-002  -2.1380181752249268E-002   4.3458814367831333E-003
   7.0913195584689892E-002  -2.2088302988267805E-002   6.1146222779397963E-003
   6.7188883873907423E-002  -2.0874094719604885E-002   6.9183002776539992E-003
   6.6993730316668720E-002  -2.0203768982441694E-002   7.9537459319339310E-003
   6.6798576759430045E-002  -1.9885757082179295E-002   9.0607355215659990E-003
   6.6603423202191411E-002  -1.9920059018818707E-002   1.0239269046549399E-002
   6.6408269644952667E-002  -2.0306674792359258E-002   1.1489346506884379E-002
   6.2429853169936461E-002  -1.9693506015769913E-002   1.3724255818528847E-002
   6.2259130662069437E-002  -1.9044165995047380E-002   1.4637879134174414E-002
   6.2088408154202357E-002  -1.8632976084919997E-002   1.5528820613211661E-002
   6.1917685646335291E-002  -1.8459936285388032E-002   1.6397080255640038E-002
   6.1746963138468253E-002  -1.8525046596451211E-002   1.7242658061460275E-002
   5.7891344987059654E-002  -1.8512917311935051E-002   2.0452143779809827E-002
   5.7650827756603837E-002  -1.7884563007653315E-002   2.1358108483127324E-002
   5.7410310526148027E-002  -1.7380195087660762E-002   2.2147165577875837E-002
   5.7169793295692231E-002  -1.6999813551957413E-002   2.2819315064055462E-002
   5.6929276065236407E-002  -1.6743418400543025E-002   2.3374556941665993E-002
   5.3573359325276848E-002  -1.7332328608100023E-002   2.7101964161497127E-002
   5.3168821600271976E-002  -1.6724960020259194E-002   2.8114433978792375E-002
   5.2764283875267104E-002  -1.6127414090401526E-002   2.8915770415558317E-002
   5.2359746150262260E-002  -1.5539690818526741E-002   2.9505973471795066E-002
   5.1955208425257415E-002  -1.4961790204634673E-002   2.9885043147502566E-002
   7.0913195584689892E-002  -2.2088302988267805E-002   6.1146222779397963E-003
   6.2588584830308380E-002  -2.1584273457759928E-002   3.9187911501892270E-004
   5.4263974075927035E-002  -1.8189464830993235E-002  -3.9424374737705992E-003
   4.5939363321545662E-002  -1.1903877107967135E-002  -6.8883274884294632E-003
   3.7614752567164178E-002  -2.7275102886825664E-003  -8.4457909289574751E-003
   6.6408269644952667E-002  -2.0306674792359258E-002   1.1489346506884379E-002
   5.9352455952983774E-002  -1.9852896780105600E-002   7.9525335178723955E-003
   5.2296642261014908E-002  -1.7366017359361913E-002   5.5648880795542977E-003
   4.5240828569045918E-002  -1.2846036530128217E-002   4.3264101919301690E-003
   3.8185014877077150E-002  -6.2929542924043957E-003   4.2370998549998706E-003
   6.1746963138468253E-002  -1.8525046596451211E-002   1.7242658061460275E-002
   5.5720687485474735E-002  -1.8121520102451438E-002   1.5034097558587423E-002
   4.9694411832481342E-002  -1.6542569887730604E-002   1.3735445582972308E-002
   4.3668136179487831E-002  -1.3788195952289081E-002   1.3346702134613704E-002
   3.7641860526494431E-002  -9.8583982961260030E-003   1.3867867213511853E-002
   5.6929276065236407E-002  -1.6743418400543025E-002   2.3374556941665993E-002
   5.1693279427781395E-002  -1.6390143424797193E-002   2.1636571237164358E-002
   4.6457282790326376E-002  -1.5719122416099511E-002   2.0569235036482374E-002
   4.1221286152871309E-002  -1.4730355374449609E-002   2.0172548339620483E-002
   3.5985289515416269E-002  -1.3423842299847943E-002   2.0446511146578444E-002
   5.1955208425257415E-002  -1.4961790204634673E-002   2.9885043147502566E-002
   4.7270231779903638E-002  -1.4658766747142782E-002   2.7759954553602251E-002
   4.2585255134549888E-002  -1.4895674944468265E-002   2.6066256440085228E-002
   3.7900278489196179E-002  -1.5672514796610432E-002   2.4803948806950651E-002
   3.3215301843842360E-002  -1.6989286303569662E-002   2.3973031654199062E-002
   9.0365447365841262E-002   0.0000000000000000        4.9832695601969235E-002
   9.3963294098325018E-002  -5.4039443057171035E-003   5.3205692945141700E-002
   9.7561140830808760E-002  -1.0669933147851540E-002   5.4962823312992230E-002
  0.10115898756329250       -1.5797966526403306E-002   5.5104086705520867E-002
  0.10475683429577626       -2.0788044441372416E-002   5.3629483122727570E-002
   8.2424667636725846E-002   0.0000000000000000        4.4781627395826820E-002
   8.4635230232157979E-002  -4.5737588687821563E-003   4.8265514644347494E-002
   8.6845792827590126E-002  -9.0366067255758086E-003   5.0590700594086865E-002
   8.9056355423022260E-002  -1.3388543570380957E-002   5.1757185245044954E-002
   9.1266918018454407E-002  -1.7629569403197598E-002   5.1764968597221732E-002
   7.4241761736902737E-002   0.0000000000000000        4.0574266852416420E-002
   7.5522205871823886E-002  -3.7435734318472091E-003   4.4141999554691148E-002
   7.6802650006745049E-002  -7.4032803033000777E-003   4.7008196634725205E-002
   7.8083094141666212E-002  -1.0979120614358604E-002   4.9172858092518569E-002
   7.9363538276587361E-002  -1.4471094365022794E-002   5.0635983928071261E-002
   6.5816729666371962E-002   0.0000000000000000        3.7210613971738062E-002
   6.6624221017322738E-002  -2.9133879949122614E-003   4.0835147676172669E-002
   6.7431712368273541E-002  -5.7699538810243450E-003   4.4215311434907235E-002
   6.8239203719224317E-002  -8.5696976583362512E-003   4.7351105247941741E-002
   6.9046695070175121E-002  -1.1312619326847979E-002   5.0242529115276165E-002
   5.7149571425133494E-002   0.0000000000000000        3.4690668753791717E-002
   5.7941275668654535E-002  -2.0832025579773147E-003   3.8344959008792062E-002
   5.8732979912175583E-002  -4.1366274587486158E-003   4.2212044994632977E-002
   5.9524684155696617E-002  -6.1602747023139018E-003   4.6291926711314442E-002
   6.0316388399217671E-002  -8.1541442886731760E-003   5.0584604158836463E-002
  0.10475683429577626       -2.0788044441372416E-002   5.3629483122727570E-002
  0.10210583324551953       -2.4928491717237398E-002   4.5647349183834618E-002
   9.9454832195262785E-002  -2.7507633178476813E-002   3.9349142967902498E-002
   9.6803831145006042E-002  -2.8525468825090695E-002   3.4734864474930974E-002
   9.4152830094749299E-002  -2.7981998657078955E-002   3.1804513704920281E-002
   9.1266918018454407E-002  -1.7629569403197598E-002   5.1764968597221732E-002
   9.0063045990917495E-002  -2.1204894692335278E-002   4.6523470438540222E-002
   8.8859173963380625E-002  -2.3559729906103503E-002   4.2492302602337689E-002
   8.7655301935843741E-002  -2.4694075044502280E-002   3.9671465088614105E-002
   8.6451429908306829E-002  -2.4607930107531602E-002   3.8060957897369435E-002
   7.9363538276587361E-002  -1.4471094365022794E-002   5.0635983928071261E-002
   7.9133197871288544E-002  -1.7481297667433147E-002   4.7794305810345064E-002
   7.8902857465989684E-002  -1.9611826633730175E-002   4.5689360614616065E-002
   7.8672517060690880E-002  -2.0862681263913874E-002   4.4321148340884180E-002
   7.8442176655392035E-002  -2.1233861557984263E-002   4.3689668989149527E-002
   6.9046695070175121E-002  -1.1312619326847979E-002   5.0242529115276165E-002
   6.9316288886632577E-002  -1.3757700642531021E-002   4.9459855299249157E-002
   6.9585882703090032E-002  -1.5663923361356847E-002   4.8940317004737527E-002
   6.9855476519547488E-002  -1.7031287483325479E-002   4.8683914231741302E-002
   7.0125070336004944E-002  -1.7859793008436910E-002   4.8690646980260460E-002
   6.0316388399217671E-002  -8.1541442886731760E-003   5.0584604158836463E-002
   6.0612319036949629E-002  -1.0034103617628888E-002   5.1520118905252502E-002
   6.0908249674681607E-002  -1.1716020088983529E-002   5.2245171772702145E-002
   6.1204180312413564E-002  -1.3199893702737076E-002   5.2759762761185429E-002
   6.1500110950145542E-002  -1.4485724458889578E-002   5.3063891870702311E-002
   9.4152830094749299E-002  -2.7981998657078955E-002   3.1804513704920281E-002
   9.1758394965431589E-002  -2.6789329522308475E-002   3.1239961021749522E-002
   8.9363959836113810E-002  -2.5859568268645973E-002   3.0764091461176424E-002
   8.6969524706796059E-002  -2.5192714896091609E-002   3.0376905023201145E-002
   8.4575089577478307E-002  -2.4788769404645195E-002   3.0078401707823416E-002
   8.6451429908306829E-002  -2.4607930107531602E-002   3.8060957897369435E-002
   8.4190995632757171E-002  -2.3963104367876090E-002   3.7050851703342963E-002
   8.1930561357207526E-002  -2.3421407098220347E-002   3.6220064094254947E-002
   7.9670127081657868E-002  -2.2982838298564404E-002   3.5568595070105485E-002
   7.7409692806108196E-002  -2.2647397968908231E-002   3.5096444630894480E-002
   7.8442176655392035E-002  -2.1233861557984263E-002   4.3689668989149527E-002
   7.6406378695951321E-002  -2.1136879213443732E-002   4.2393788695375439E-002
   7.4370580736510636E-002  -2.0983245927794731E-002   4.1367862448880743E-002
   7.2334782777069895E-002  -2.0772961701037242E-002   4.0611890249665446E-002
   7.0298984817629223E-002  -2.0506026533171268E-002   4.0125872097729415E-002
   7.0125070336004944E-002  -1.7859793008436910E-002   4.8690646980260460E-002
   6.8404544155014013E-002  -1.8310654059011354E-002   4.7268771997847160E-002
   6.6684017974023069E-002  -1.8545084757369074E-002   4.6207486525054020E-002
   6.4963491793032124E-002  -1.8563085103510072E-002   4.5506790561881102E-002
   6.3242965612041194E-002  -1.8364655097434290E-002   4.5166684108328400E-002
   6.1500110950145542E-002  -1.4485724458889578E-002   5.3063891870702311E-002
   6.0185492009945232E-002  -1.5484428904578990E-002   5.1675801610757972E-002
   5.8870873069744922E-002  -1.6106923586943475E-002   5.0738936322774653E-002
   5.7556254129544626E-002  -1.6353208505982871E-002   5.0253296006752393E-002
   5.6241635189344288E-002  -1.6223283661697313E-002   5.0218880662691229E-002
   8.4575089577478307E-002  -2.4788769404645195E-002   3.0078401707823416E-002
   8.2166122476312109E-002  -2.4460069147104108E-002   2.9280774177958879E-002
   7.9757155375145924E-002  -2.4018951476265607E-002   2.8748298598536060E-002
   7.7348188273979712E-002  -2.3465416392129516E-002   2.8480974969554755E-002
   7.4939221172813514E-002  -2.2799463894696059E-002   2.8478803291015070E-002
   7.7409692806108196E-002  -2.2647397968908231E-002   3.5096444630894480E-002
   7.5255518754806627E-002  -2.2317245192997791E-002   3.4445632371246933E-002
   7.3101344703505045E-002  -2.1894539054578926E-002   3.4039254260887164E-002
   7.0947170652203462E-002  -2.1379279553651712E-002   3.3877310299814660E-002
   6.8792996600901879E-002  -2.0771466690216123E-002   3.3959800488029934E-002
   7.0298984817629223E-002  -2.0506026533171268E-002   4.0125872097729415E-002
   6.8378886015038234E-002  -2.0174421238891474E-002   3.9602011057509781E-002
   6.6458787212447218E-002  -1.9770126632892300E-002   3.9301866365423800E-002
   6.4538688409856201E-002  -1.9293142715173892E-002   3.9225438021471326E-002
   6.2618589607265213E-002  -1.8743469485736186E-002   3.9372726025652574E-002
   6.3242965612041194E-002  -1.8364655097434290E-002   4.5166684108328400E-002
   6.1536224257006791E-002  -1.8031597284785102E-002   4.4749910236747514E-002
   5.9829482901972417E-002  -1.7645714211205647E-002   4.4536134912146204E-002
   5.8122741546938035E-002  -1.7207005876696109E-002   4.4525358134524587E-002
   5.6416000191903633E-002  -1.6715472281256222E-002   4.4717579903882511E-002
   5.6241635189344288E-002  -1.6223283661697313E-002   5.0218880662691229E-002
   5.4727533480712492E-002  -1.5888773330678813E-002   4.9889329908960056E-002
   5.3213431772080662E-002  -1.5521301789519000E-002   4.9742059901054486E-002
   5.1699330063448845E-002  -1.5120869038218259E-002   4.9777070638974553E-002
   5.0185228354817035E-002  -1.4687475076776313E-002   4.9994362122720043E-002
   7.4939221172813514E-002  -2.2799463894696059E-002   2.8478803291015070E-002
   7.2742982862220695E-002  -2.2080127433475094E-002   2.8325307655623605E-002
   7.0546744551627918E-002  -2.1366440457976865E-002   2.8294296994680140E-002
   6.8350506241035142E-002  -2.0658402968201206E-002   2.8385771308184940E-002
   6.6154267930442295E-002  -1.9956014964148228E-002   2.8599730596137740E-002
   6.8792996600901879E-002  -2.0771466690216123E-002   3.3959800488029934E-002
   6.6731390828100701E-002  -2.0118348880407477E-002   3.3786473516514592E-002
   6.4669785055299508E-002  -1.9467174540361065E-002   3.3759926646134336E-002
   6.2608179282498316E-002  -1.8817943670076942E-002   3.3880159876889131E-002
   6.0546573509697166E-002  -1.8170656269555052E-002   3.4147173208779108E-002
   6.2618589607265213E-002  -1.8743469485736186E-002   3.9372726025652574E-002
   6.0715911498942704E-002  -1.8156570327339805E-002   3.9183273733973525E-002
   5.8813233390620154E-002  -1.7567908622745265E-002   3.9164896670116758E-002
   5.6910555282297624E-002  -1.6977484371952622E-002   3.9317594834082183E-002
   5.5007877173975060E-002  -1.6385297574961877E-002   3.9641368225869653E-002
   5.6416000191903633E-002  -1.6715472281256222E-002   4.4717579903882511E-002
   5.4696544874746768E-002  -1.6194791774272160E-002   4.4515708308000383E-002
   5.2977089557589896E-002  -1.5668642705129465E-002   4.4509207066627428E-002
   5.1257634240433003E-002  -1.5137025073828386E-002   4.4698076179763652E-002
   4.9538178923276159E-002  -1.4599938880368701E-002   4.5082315647409110E-002
   5.0185228354817035E-002  -1.4687475076776313E-002   4.9994362122720043E-002
   4.8673290955512843E-002  -1.4233013221204460E-002   4.9783777238595200E-002
   4.7161353556208679E-002  -1.3769376787513651E-002   4.9792857835666532E-002
   4.5649416156904508E-002  -1.3296565775704063E-002   5.0021603913934093E-002
   4.4137478757600324E-002  -1.2814580185775581E-002   5.0470015473397689E-002
   6.6154267930442295E-002  -1.9956014964148228E-002   2.8599730596137740E-002
   6.3009040779150927E-002  -1.9267362121001413E-002   2.7687363089219735E-002
   5.9863813627859572E-002  -1.8600530113944469E-002   2.7133612847806937E-002
   5.6718586476568210E-002  -1.7955518942977172E-002   2.6938479871899540E-002
   5.3573359325276848E-002  -1.7332328608100023E-002   2.7101964161497127E-002
   6.0546573509697166E-002  -1.8170656269555052E-002   3.4147173208779108E-002
   5.7738802360442834E-002  -1.7530069795093528E-002   3.3266002914191906E-002
   5.4931031211188530E-002  -1.6900941702990585E-002   3.2701127358173321E-002
   5.2123260061934219E-002  -1.6283271993246369E-002   3.2452546540723763E-002
   4.9315488912679895E-002  -1.5677060665860609E-002   3.2520260461843142E-002
   5.5007877173975060E-002  -1.6385297574961877E-002   3.9641368225869653E-002
   5.2495239499821433E-002  -1.5792777469185768E-002   3.8801757597344375E-002
   4.9982601825667813E-002  -1.5201353292036868E-002   3.8236119180451514E-002
   4.7469964151514200E-002  -1.4611025043515288E-002   3.7944452975191181E-002
   4.4957326477360518E-002  -1.4021792723621057E-002   3.7926758981563335E-002
   4.9538178923276159E-002  -1.4599938880368701E-002   4.5082315647409110E-002
   4.7278352197286821E-002  -1.4055485143277917E-002   4.4294627138677156E-002
   4.5018525471297456E-002  -1.3501764881083234E-002   4.3738588314641107E-002
   4.2758698745308139E-002  -1.2938778093784332E-002   4.3414199175301371E-002
   4.0498872019318816E-002  -1.2366524781381491E-002   4.3321459720657651E-002
   4.4137478757600324E-002  -1.2814580185775581E-002   5.0470015473397689E-002
   4.2088140452838929E-002  -1.2318192817370177E-002   4.9744611538190264E-002
   4.0038802148077493E-002  -1.1802176470129266E-002   4.9208534760742551E-002
   3.7989463843316071E-002  -1.1266531144053349E-002   4.8861785141054451E-002
   3.5940125538554663E-002  -1.0711256839142036E-002   4.8704362679126201E-002
   5.3573359325276848E-002  -1.7332328608100023E-002   2.7101964161497127E-002
   5.3168821600271976E-002  -1.6724960020259194E-002   2.8114433978792375E-002
   5.2764283875267104E-002  -1.6127414090401526E-002   2.8915770415558317E-002
   5.2359746150262260E-002  -1.5539690818526741E-002   2.9505973471795066E-002
   5.1955208425257415E-002  -1.4961790204634673E-002   2.9885043147502566E-002
   4.9315488912679895E-002  -1.5677060665860609E-002   3.2520260461843142E-002
   4.8751982277844025E-002  -1.5061100811101347E-002   3.3495169116675438E-002
   4.8188475643008127E-002  -1.4414185519236622E-002   3.4363273332375072E-002
   4.7624969008172216E-002  -1.3736314790266255E-002   3.5124573108941723E-002
   4.7061462373336360E-002  -1.3027488624190398E-002   3.5779068446375628E-002
   4.4957326477360518E-002  -1.4021792723621057E-002   3.7926758981563335E-002
   4.4339179874090098E-002  -1.3397241601943305E-002   3.8904884569021331E-002
   4.3721033270819609E-002  -1.2700956948071607E-002   3.9880534658742889E-002
   4.3102886667549210E-002  -1.1932938762005713E-002   4.0853709250728149E-002
   4.2484740064278700E-002  -1.1093187043745761E-002   4.1824408344976874E-002
   4.0498872019318816E-002  -1.2366524781381491E-002   4.3321459720657651E-002
   3.9930414389010210E-002  -1.1733382392785388E-002   4.4343580335829802E-002
   3.9361956758701647E-002  -1.0987728376906813E-002   4.5467554394662088E-002
   3.8793499128393027E-002  -1.0129562733745226E-002   4.6693381897154343E-002
   3.8225041498084478E-002  -9.1588854633013056E-003   4.8021062843306844E-002
   3.5940125538554663E-002  -1.0711256839142036E-002   4.8704362679126201E-002
   3.5525685822604375E-002  -1.0069523183627388E-002   4.9811256417101102E-002
   3.5111246106654101E-002  -9.2744998057419231E-003   5.1124332540132544E-002
   3.4696806390703834E-002  -8.3261867054848539E-003   5.2643591048220459E-002
   3.4282366674753567E-002  -7.2245838828567388E-003   5.4369031941364776E-002
   5.1955208425257415E-002  -1.4961790204634673E-002   2.9885043147502566E-002
   4.7270231779903638E-002  -1.4658766747142782E-002   2.7759954553602251E-002
   4.2585255134549888E-002  -1.4895674944468265E-002   2.6066256440085228E-002
   3.7900278489196179E-002  -1.5672514796610432E-002   2.4803948806950651E-002
   3.3215301843842360E-002  -1.6989286303569662E-002   2.3973031654199062E-002
   4.7061462373336360E-002  -1.3027488624190398E-002   3.5779068446375628E-002
   4.2773439065077690E-002  -1.2499012547643934E-002   3.3470772816560301E-002
   3.8485415756819019E-002  -1.2362192087262469E-002   3.1524993380552230E-002
   3.4197392448560321E-002  -1.2617027243045906E-002   2.9941730138351677E-002
   2.9909369140301678E-002  -1.3263518014994036E-002   2.8720983089958407E-002
   4.2484740064278700E-002  -1.1093187043745761E-002   4.1824408344976874E-002
   3.8524795806539655E-002  -1.0339258348145003E-002   3.9481181717898606E-002
   3.4564851548800589E-002  -9.8287092300568882E-003   3.7431596998052034E-002
   3.0604907291061547E-002  -9.5615396894812941E-003   3.5675654185437555E-002
   2.6644963033322422E-002  -9.5377497264182987E-003   3.4213353280054981E-002
   3.8225041498084478E-002  -9.1588854633013056E-003   4.8021062843306844E-002
   3.4524302004289534E-002  -8.1795041486460024E-003   4.5791181257617580E-002
   3.0823562510494631E-002  -7.2952263728513662E-003   4.3786067292584947E-002
   2.7122823016699656E-002  -6.5060521359168360E-003   4.2005720948208786E-002
   2.3422083522904785E-002  -5.8119814378426171E-003   4.0450142224488603E-002
   3.4282366674753567E-002  -7.2245838828567388E-003   5.4369031941364776E-002
   3.0771957658327381E-002  -6.0197499491471129E-003   5.2400771435717142E-002
   2.7261548641901098E-002  -4.7617435156455390E-003   5.0588404264150511E-002
   2.3751139625474878E-002  -3.4505645823521350E-003   4.8931930426664688E-002
   2.0240730609048685E-002  -2.0862131492669356E-003   4.7431349923259702E-002
   5.7149571425133494E-002   0.0000000000000000        3.4690668753791717E-002
   5.7941275668654535E-002  -2.0832025579773147E-003   3.8344959008792062E-002
   5.8732979912175583E-002  -4.1366274587486158E-003   4.2212044994632977E-002
   5.9524684155696617E-002  -6.1602747023139018E-003   4.6291926711314442E-002
   6.0316388399217671E-002  -8.1541442886731760E-003   5.0584604158836463E-002
   4.8651216550197773E-002   0.0000000000000000        3.2790721558767083E-002
   4.9590575039247686E-002  -1.7090353505544529E-003   3.6967259713286377E-002
   5.0529933528297606E-002  -3.4325353952799117E-003   4.1226310628022886E-002
   5.1469292017347533E-002  -5.1705001341763694E-003   4.5567874302976562E-002
   5.2408650506397446E-002  -6.9229295672438348E-003   4.9991950738147453E-002
   4.0732594578575164E-002   0.0000000000000000        3.1287062746853819E-002
   4.1689324342530601E-002  -1.3348681431315894E-003   3.5941606449515065E-002
   4.2646054106486038E-002  -2.7284433318112040E-003   4.0548379941770130E-002
   4.3602783870441468E-002  -4.1807255660388405E-003   4.5107383223619041E-002
   4.4559513634396905E-002  -5.6917148458145014E-003   4.9618616295061743E-002
   3.3393705510265714E-002   0.0000000000000000        3.0179692318051930E-002
   3.4237523578503286E-002  -9.6070093570872674E-004   3.5267999217478092E-002
   3.5081341646740864E-002  -2.0243512683424973E-003   4.0178252935874702E-002
   3.5925159714978450E-002  -3.1909509979013090E-003   4.4910453473241782E-002
   3.6768977783216021E-002  -4.4605001243851645E-003   4.9464600829579326E-002
   2.6634549345269386E-002   0.0000000000000000        2.9468610272361410E-002
   2.7235172747165741E-002  -5.8653372828586410E-004   3.4946438017175466E-002
   2.7835796149062095E-002  -1.3202592048737923E-003   4.0115929610336616E-002
   2.8436419550958453E-002  -2.2011764297637810E-003   4.4977085051844862E-002
   2.9037042952854801E-002  -3.2292854029558294E-003   4.9529904341700202E-002
   6.0316388399217671E-002  -8.1541442886731760E-003   5.0584604158836463E-002
   6.0612319036949629E-002  -1.0034103617628888E-002   5.1520118905252502E-002
   6.0908249674681607E-002  -1.1716020088983529E-002   5.2245171772702145E-002
   6.1204180312413564E-002  -1.3199893702737076E-002   5.2759762761185429E-002
   6.1500110950145542E-002  -1.4485724458889578E-002   5.3063891870702311E-002
   5.2408650506397446E-002  -6.9229295672438348E-003   4.9991950738147453E-002
   5.2532835930565847E-002  -8.5872234281944050E-003   5.1219172518788943E-002
   5.2657021354734261E-002  -1.0060781450740150E-002   5.2313365751269617E-002
   5.2781206778902669E-002  -1.1343603634881072E-002   5.3274530435589579E-002
   5.2905392203071076E-002  -1.2435689980617205E-002   5.4102666571748781E-002
   4.4559513634396905E-002  -5.6917148458145014E-003   4.9618616295061743E-002
   4.4589387175807363E-002  -7.1403432387598977E-003   5.1130238090732354E-002
   4.4619260717217835E-002  -8.4055428124967489E-003   5.2586264669047852E-002
   4.4649134258628292E-002  -9.4873135670250595E-003   5.3986696030008233E-002
   4.4679007800038764E-002  -1.0385655502344830E-002   5.5331532173613432E-002
   3.6768977783216021E-002  -4.4605001243851645E-003   4.9464600829579326E-002
   3.6781972772674171E-002  -5.6934630493254059E-003   5.1253315621082811E-002
   3.6794967762132327E-002  -6.7503041742533673E-003   5.3063868526036832E-002
   3.6807962751590477E-002  -7.6310234991690592E-003   5.4896259544441370E-002
   3.6820957741048627E-002  -8.3356210240724486E-003   5.6750488676296326E-002
   2.9037042952854801E-002  -3.2292854029558294E-003   4.9529904341700202E-002
   2.9110592721166270E-002  -4.2465828598909081E-003   5.1588405109840321E-002
   2.9184142489477725E-002  -5.0950655360099675E-003   5.3746177322236584E-002
   2.9257692257789198E-002  -5.7747334313130345E-003   5.6003220978888983E-002
   2.9331242026100657E-002  -6.2855865458000884E-003   5.8359536079797485E-002
   6.1500110950145542E-002  -1.4485724458889578E-002   5.3063891870702311E-002
   6.0185492009945232E-002  -1.5484428904578990E-002   5.1675801610757972E-002
   5.8870873069744922E-002  -1.6106923586943475E-002   5.0738936322774653E-002
   5.7556254129544626E-002  -1.6353208505982871E-002   5.0253296006752393E-002
   5.6241635189344288E-002  -1.6223283661697313E-002   5.0218880662691229E-002
   5.2905392203071076E-002  -1.2435689980617205E-002   5.4102666571748781E-002
   5.1989694578080177E-002  -1.3282698210380646E-002   5.3368422077527768E-002
   5.1073996953089298E-002  -1.3830286046603460E-002   5.2980795241764564E-002
   5.0158299328098427E-002  -1.4078453489285740E-002   5.2939786064459093E-002
   4.9242601703107521E-002  -1.4027200538427431E-002   5.3245394545611502E-002
   4.4679007800038764E-002  -1.0385655502344830E-002   5.5331532173613432E-002
   4.4057624176754059E-002  -1.1080967516182233E-002   5.5174344075331332E-002
   4.3436240553469355E-002  -1.1553648506263496E-002   5.5259166322003832E-002
   4.2814856930184650E-002  -1.1803698472588593E-002   5.5585998913630794E-002
   4.2193473306899945E-002  -1.1831117415157563E-002   5.6154841850212377E-002
   3.6820957741048627E-002  -8.3356210240724486E-003   5.6750488676296326E-002
   3.6389280805966859E-002  -8.8792368219838685E-003   5.7093567604168699E-002
   3.5957603870885091E-002  -9.2770109659235205E-003   5.7574049563492387E-002
   3.5525926935803344E-002  -9.5289434558914893E-003   5.8191934554267404E-002
   3.5094250000721555E-002  -9.6350342918876744E-003   5.8947222576493791E-002
   2.9331242026100657E-002  -6.2855865458000884E-003   5.8359536079797485E-002
   2.8984664465718582E-002  -6.6775061277854729E-003   5.9126092664039898E-002
   2.8638086905336518E-002  -7.0003734255835396E-003   5.9925444966230437E-002
   2.8291509344954453E-002  -7.2541884391942920E-003   6.0757592986368993E-002
   2.7944931784572372E-002  -7.4389511686177856E-003   6.1622536724455695E-002
   5.6241635189344288E-002  -1.6223283661697313E-002   5.0218880662691229E-002
   5.4727533480712492E-002  -1.5888773330678813E-002   4.9889329908960056E-002
   5.3213431772080662E-002  -1.5521301789519000E-002   4.9742059901054486E-002
   5.1699330063448845E-002  -1.5120869038218259E-002   4.9777070638974553E-002
   5.0185228354817035E-002  -1.4687475076776313E-002   4.9994362122720043E-002
   4.9242601703107521E-002  -1.4027200538427431E-002   5.3245394545611502E-002
   4.7915351549550643E-002  -1.3804979136559446E-002   5.2908058550468907E-002
   4.6588101395993758E-002  -1.3540241226212495E-002   5.2762144919650603E-002
   4.5260851242436867E-002  -1.3232986807386700E-002   5.2807653653156532E-002
   4.3933601088879976E-002  -1.2883215880081955E-002   5.3044584750986862E-002
   4.2193473306899945E-002  -1.1831117415157563E-002   5.6154841850212377E-002
   4.1062216326916694E-002  -1.1721184942440108E-002   5.5819275911996154E-002
   3.9930959346933442E-002  -1.1559180662905930E-002   5.5684273956602859E-002
   3.8799702366950198E-002  -1.1345104576555083E-002   5.5749835984032645E-002
   3.7668445386966919E-002  -1.1078956683387542E-002   5.6015961994285324E-002
   3.5094250000721555E-002  -9.6350342918876744E-003   5.8947222576493791E-002
   3.4168127812810645E-002  -9.6373907483207691E-003   5.8622981993541670E-002
   3.3242005624899748E-002  -9.5781200995993954E-003   5.8508447011911262E-002
   3.2315883436988845E-002  -9.4572223457235101E-003   5.8603617631602593E-002
   3.1389761249077955E-002  -9.2746974866931564E-003   5.8908493852615568E-002
   2.7944931784572372E-002  -7.4389511686177856E-003   6.1622536724455695E-002
   2.7233086007232517E-002  -7.5535965542014305E-003   6.1319176795105526E-002
   2.6521240229892676E-002  -7.5970595362928467E-003   6.1234664085575791E-002
   2.5809394452552814E-002  -7.5693401148919058E-003   6.1368998595866434E-002
   2.5097548675212966E-002  -7.4704382899987432E-003   6.1722180325977510E-002
   5.0185228354817035E-002  -1.4687475076776313E-002   4.9994362122720043E-002
   4.8673290955512843E-002  -1.4233013221204460E-002   4.9783777238595200E-002
   4.7161353556208679E-002  -1.3769376787513651E-002   4.9792857835666532E-002
   4.5649416156904508E-002  -1.3296565775704063E-002   5.0021603913934093E-002
   4.4137478757600324E-002  -1.2814580185775581E-002   5.0470015473397689E-002
   4.3933601088879976E-002  -1.2883215880081955E-002   5.3044584750986862E-002
   4.2634167220651394E-002  -1.2504972866131392E-002   5.2825110602231107E-002
   4.1334733352422839E-002  -1.2112302187368210E-002   5.2810978034430439E-002
   4.0035299484194251E-002  -1.1705203843792329E-002   5.3002187047584678E-002
   3.8735865615965689E-002  -1.1283677835404016E-002   5.3398737641694005E-002
   3.7668445386966919E-002  -1.1078956683387542E-002   5.6015961994285324E-002
   3.6567191149572756E-002  -1.0776932511058407E-002   5.5792851667592597E-002
   3.5465936912178600E-002  -1.0455227587222830E-002   5.5760759021613711E-002
   3.4364682674784444E-002  -1.0113841911880762E-002   5.5919684056348534E-002
   3.3263428437390247E-002  -9.7527754850322557E-003   5.6269626771797310E-002
   3.1389761249077955E-002  -9.2746974866931564E-003   5.8908493852615568E-002
   3.0472362742276958E-002  -9.0488921559854218E-003   5.8687000434679740E-002
   2.9554964235475989E-002  -8.7981529870773643E-003   5.8642200797216298E-002
   2.8637565728675003E-002  -8.5224799799691400E-003   5.8774094940225521E-002
   2.7720167221874016E-002  -8.2218731346605928E-003   5.9082682863707464E-002
   2.5097548675212966E-002  -7.4704382899987432E-003   6.1722180325977510E-002
   2.4349681998763972E-002  -7.3208518009123813E-003   6.1507556903492133E-002
   2.3601815322314985E-002  -7.1410783869319608E-003   6.1455303361238237E-002
   2.2853948645866002E-002  -6.9311180480573654E-003   6.1565419699215647E-002
   2.2106081969417005E-002  -6.6909707842888744E-003   6.1837905917424496E-002
   4.4137478757600324E-002  -1.2814580185775581E-002   5.0470015473397689E-002
   4.2088140452838929E-002  -1.2318192817370177E-002   4.9744611538190264E-002
   4.0038802148077493E-002  -1.1802176470129266E-002   4.9208534760742551E-002
   3.7989463843316071E-002  -1.1266531144053349E-002   4.8861785141054451E-002
   3.5940125538554663E-002  -1.0711256839142036E-002   4.8704362679126201E-002
   3.8735865615965689E-002  -1.1283677835404016E-002   5.3398737641694005E-002
   3.6892929618877024E-002  -1.0850763804431937E-002   5.2633573499053551E-002
   3.5049993621788365E-002  -1.0409501393105813E-002   5.2091886813998872E-002
   3.3207057624699693E-002  -9.9598906014254224E-003   5.1773677586529926E-002
   3.1364121627611027E-002  -9.5019314293907642E-003   5.1678945816646865E-002
   3.3263428437390247E-002  -9.7527754850322557E-003   5.6269626771797310E-002
   3.1661045047800401E-002  -9.3833347914939191E-003   5.5453421823242671E-002
   3.0058661658210570E-002  -9.0168263160823048E-003   5.4894844632100009E-002
   2.8456278268620752E-002  -8.6532500587975514E-003   5.4593895198369186E-002
   2.6853894879030886E-002  -8.2926060196395202E-003   5.4550573522050269E-002
   2.7720167221874016E-002  -8.2218731346605928E-003   5.9082682863707464E-002
   2.6392486739609079E-002  -7.9159057785557069E-003   5.8204156510757860E-002
   2.5064806257344120E-002  -7.6241512390588795E-003   5.7617408215046281E-002
   2.3737125775079158E-002  -7.3466095161695416E-003   5.7322437976572410E-002
   2.2409445292814224E-002  -7.0832806098882622E-003   5.7319245795336649E-002
   2.2106081969417005E-002  -6.6909707842888744E-003   6.1837905917424496E-002
   2.1087254694303018E-002  -6.4484767656177167E-003   6.0885777561598908E-002
   2.0068427419189024E-002  -6.2314761620353015E-003   6.0259577562837230E-002
   1.9049600144075026E-002  -6.0399689735417712E-003   5.9959305921139502E-002
   1.8030772868961029E-002  -5.8739552001370599E-003   5.9984962636505934E-002
   3.5940125538554663E-002  -1.0711256839142036E-002   4.8704362679126201E-002
   3.5525685822604375E-002  -1.0069523183627388E-002   4.9811256417101102E-002
   3.5111246106654101E-002  -9.2744998057419231E-003   5.1124332540132544E-002
   3.4696806390703834E-002  -8.3261867054848539E-003   5.2643591048220459E-002
   3.4282366674753567E-002  -7.2245838828567388E-003   5.4369031941364776E-002
   3.1364121627611027E-002  -9.5019314293907642E-003   5.1678945816646865E-002
   3.1114920835326895E-002  -8.9786064880631455E-003   5.2948509695896151E-002
   3.0865720043042756E-002  -8.3328983885042202E-003   5.4342369037421137E-002
   3.0616519250758607E-002  -7.5648071307137139E-003   5.5860523841221844E-002
   3.0367318458474471E-002  -6.6743327146916998E-003   5.7502974107298210E-002
   2.6853894879030886E-002  -8.2926060196395202E-003   5.4550573522050269E-002
   2.6688046087632061E-002  -7.8876897924989170E-003   5.5951900978434291E-002
   2.6522197296233261E-002  -7.3912969712667323E-003   5.7395636974313193E-002
   2.6356348504834433E-002  -6.8034275559425168E-003   5.8881781509687106E-002
   2.6190499713435643E-002  -6.1240815465266052E-003   6.0410334584555886E-002
   2.2409445292814224E-002  -7.0832806098882622E-003   5.7319245795336649E-002
   2.2245061579519911E-002  -6.7967730969347370E-003   5.8821430264715674E-002
   2.2080677866225615E-002  -6.4496955540290814E-003   6.0284136350808773E-002
   2.1916294152931295E-002  -6.0420479811714037E-003   6.1707364053616001E-002
   2.1751910439637007E-002  -5.5738303783615384E-003   6.3091113373137331E-002
   1.8030772868961029E-002  -5.8739552001370599E-003   5.9984962636505934E-002
   1.7785967310990414E-002  -5.7058564013704738E-003   6.1557097554740148E-002
   1.7541161753019820E-002  -5.5080941367915692E-003   6.3007867166907872E-002
   1.7296356195049229E-002  -5.2806684064002699E-003   6.4337271473008828E-002
   1.7051550637078625E-002  -5.0235792101964161E-003   6.5545310473043183E-002
   3.4282366674753567E-002  -7.2245838828567388E-003   5.4369031941364776E-002
   3.0771957658327381E-002  -6.0197499491471129E-003   5.2400771435717142E-002
   2.7261548641901098E-002  -4.7617435156455390E-003   5.0588404264150511E-002
   2.3751139625474878E-002  -3.4505645823521350E-003   4.8931930426664688E-002
   2.0240730609048685E-002  -2.0862131492669356E-003   4.7431349923259702E-002
   3.0367318458474471E-002  -6.6743327146916998E-003   5.7502974107298210E-002
   2.7088358443865895E-002  -5.7440126278777148E-003   5.5353739082199649E-002
   2.3809398429257340E-002  -4.8563843577110744E-003   5.3511508726655443E-002
   2.0530438414648761E-002  -4.0114479041919726E-003   5.1976283040665081E-002
   1.7251478400040210E-002  -3.2092032673204374E-003   5.0748062024229768E-002
   2.6190499713435643E-002  -6.1240815465266052E-003   6.0410334584555886E-002
   2.3294100036118058E-002  -5.4682753066081502E-003   5.7984260723566911E-002
   2.0397700358800463E-002  -4.9510251997765403E-003   5.6016302867605824E-002
   1.7501300681482840E-002  -4.5723312260318345E-003   5.4506461016672329E-002
   1.4604901004165255E-002  -4.3321933853738281E-003   5.3454735170766488E-002
   2.1751910439637007E-002  -5.5738303783615384E-003   6.3091113373137331E-002
   1.9389182435083752E-002  -5.1925379853387799E-003   6.0292336359819010E-002
   1.7026454430530490E-002  -5.0456660418419855E-003   5.8102786687001542E-002
   1.4663726425977210E-002  -5.1332145478716288E-003   5.6522464354685213E-002
   1.2300998421423980E-002  -5.4551835034272189E-003   5.5551369362869779E-002
   1.7051550637078625E-002  -5.0235792101964161E-003   6.5545310473043183E-002
   1.5373605640763038E-002  -4.9168006640691875E-003   6.2277965990955697E-002
   1.3695660644447459E-002  -5.1403068839074723E-003   5.9770960184842820E-002
   1.2017715648131883E-002  -5.6940978697114057E-003   5.8024293054704204E-002
   1.0339770651816294E-002  -6.5781736214807207E-003   5.7037964600539892E-002
   2.6634549345269386E-002   0.0000000000000000        2.9468610272361410E-002
   2.7235172747165741E-002  -5.8653372828586410E-004   3.4946438017175466E-002
   2.7835796149062095E-002  -1.3202592048737923E-003   4.0115929610336616E-002
   2.8436419550958453E-002  -2.2011764297637810E-003   4.4977085051844862E-002
   2.9037042952854801E-002  -3.2292854029558294E-003   4.9529904341700202E-002
   2.0117996132226305E-002   0.0000000000000000        2.9019888212856733E-002
   2.0449789943532921E-002  -4.3974314879804185E-004   3.4313862761252756E-002
   2.0781583754839541E-002  -9.8996006544312728E-004   3.9378514280122207E-002
   2.1113377566146153E-002  -1.6506507499352546E-003   4.4213842769465092E-002
   2.1445171377452769E-002  -2.4218152022744237E-003   4.8819848229281426E-002
   1.3506915919776579E-002   0.0000000000000000        2.8699597742612368E-002
   1.3648893262619793E-002  -2.9295256931021960E-004   3.3846437075045373E-002
   1.3790870605463005E-002  -6.5966092601246230E-004   3.8842966500078159E-002
   1.3932847948306222E-002  -1.1001250701067307E-003   4.3689186017710706E-002
   1.4074825291149434E-002  -1.6143450015930149E-003   4.8385095627943006E-002
   6.8013087079202067E-003   0.0000000000000000        2.8507738861628315E-002
   6.8324827044263523E-003  -1.4616198982239604E-004   3.3544160958553330E-002
   6.8636567009324970E-003  -3.2936178658179733E-004   3.8509286270204460E-002
   6.8948306974386427E-003  -5.4959939027820212E-004   4.3403114796581689E-002
   6.9260046939447891E-003  -8.0687480091161108E-004   4.8225646537685012E-002
   1.1744966571863510E-006   0.0000000000000000        2.8444311569904575E-002
   5.5826895259923626E-007   6.2858966542490846E-007   3.3407034411776629E-002
  -5.7958751987011170E-008   9.3735284886591053E-007   3.8377473590501109E-002
  -6.7418645657412596E-007   9.2628955031780202E-007   4.3355629106078035E-002
  -1.2904141611612407E-006   5.9539976979966491E-007   4.8341500958507380E-002
   2.9037042952854801E-002  -3.2292854029558294E-003   4.9529904341700202E-002
   2.9110592721166270E-002  -4.2465828598909081E-003   5.1588405109840321E-002
   2.9184142489477725E-002  -5.0950655360099675E-003   5.3746177322236584E-002
   2.9257692257789198E-002  -5.7747334313130345E-003   5.6003220978888983E-002
   2.9331242026100657E-002  -6.2855865458000884E-003   5.8359536079797485E-002
   2.1445171377452769E-002  -2.4218152022744237E-003   4.8819848229281426E-002
   2.1588629491428993E-002  -3.1848475772333290E-003   5.1218287739640690E-002
   2.1732087605405216E-002  -3.8211420295846425E-003   5.3657272497073312E-002
   2.1875545719381440E-002  -4.3306985593284343E-003   5.6136802501579354E-002
   2.2019003833357663E-002  -4.7135171664646064E-003   5.8656877753158837E-002
   1.4074825291149434E-002  -1.6143450015930149E-003   4.8385095627943006E-002
   1.4229465553607691E-002  -2.1231122945757496E-003   5.1081397022312965E-002
   1.4384105816065950E-002  -2.5472185231593387E-003   5.3759517466573543E-002
   1.4538746078524211E-002  -2.8866636873438132E-003   5.6419456960724854E-002
   1.4693386340982469E-002  -3.1414477871291348E-003   5.9061215504766805E-002
   6.9260046939447891E-003  -8.0687480091161108E-004   4.8225646537685012E-002
   7.0331009077023564E-003  -1.0613770119181703E-003   5.1177732957857186E-002
   7.1401971214599264E-003  -1.2732950167340278E-003   5.4052912230737334E-002
   7.2472933352174937E-003  -1.4426288153591852E-003   5.6851184356325433E-002
   7.3543895489750662E-003  -1.5693784077936371E-003   5.9572549334621451E-002
  -1.2904141611612407E-006   5.9539976979966491E-007   4.8341500958507380E-002
  -4.6444628700684915E-007   3.5827073940376819E-007   5.1507295546273382E-002
   3.6152158714754246E-007   6.2848969129697396E-007   5.4537456789564599E-002
   1.1874894613028014E-006   1.4060566254098933E-006   5.7431984688381066E-002
   2.0134573354563257E-006   2.6909715418119151E-006   6.0190879242722727E-002
   2.9331242026100657E-002  -6.2855865458000884E-003   5.8359536079797485E-002
   2.8984664465718582E-002  -6.6775061277854729E-003   5.9126092664039898E-002
   2.8638086905336518E-002  -7.0003734255835396E-003   5.9925444966230437E-002
   2.8291509344954453E-002  -7.2541884391942920E-003   6.0757592986368993E-002
   2.7944931784572372E-002  -7.4389511686177856E-003   6.1622536724455695E-002
   2.2019003833357663E-002  -4.7135171664646064E-003   5.8656877753158837E-002
   2.1718363182465200E-002  -5.0069500254430778E-003   5.9483739158258164E-002
   2.1417722531572723E-002  -5.2483493107137354E-003   6.0369678664388596E-002
   2.1117081880680254E-002  -5.4377150222764794E-003   6.1314696271550180E-002
   2.0816441229787791E-002  -5.5750471601314217E-003   6.2318791979742910E-002
   1.4693386340982469E-002  -3.1414477871291348E-003   5.9061215504766805E-002
   1.4464964982662653E-002  -3.3363939231006983E-003   5.9931363020243558E-002
   1.4236543624342835E-002  -3.4963251958438470E-003   6.0886871019834560E-002
   1.4008122266023016E-002  -3.6212416053586520E-003   6.1927739503539671E-002
   1.3779700907703200E-002  -3.7111431516450438E-003   6.3053968471358968E-002
   7.3543895489750662E-003  -1.5693784077936371E-003   5.9572549334621451E-002
   7.2244698663109508E-003  -1.6658378207583388E-003   6.0468964249996204E-002
   7.0945501836468363E-003  -1.7443010809740493E-003   6.1477022032568177E-002
   6.9646305009827235E-003  -1.8047681884408042E-003   6.2596722682337416E-002
   6.8347108183186064E-003  -1.8472391431587007E-003   6.3828066199303812E-002
   2.0134573354563257E-006   2.6909715418119151E-006   6.0190879242722727E-002
  -3.1221665899036979E-006   4.7182815840658698E-006   6.1096542847515992E-002
  -8.2577905152637215E-006   7.7230338958508143E-006   6.2140131702589557E-002
  -1.3393414440623311E-005   1.1705228476996312E-005   6.3321645807943361E-002
  -1.8529038365983769E-005   1.6664865327697953E-005   6.4641085163577500E-002
   2.7944931784572372E-002  -7.4389511686177856E-003   6.1622536724455695E-002
   2.7233086007232517E-002  -7.5535965542014305E-003   6.1319176795105526E-002
   2.6521240229892676E-002  -7.5970595362928467E-003   6.1234664085575791E-002
   2.5809394452552814E-002  -7.5693401148919058E-003   6.1368998595866434E-002
   2.5097548675212966E-002  -7.4704382899987432E-003   6.1722180325977510E-002
   2.0816441229787791E-002  -5.5750471601314217E-003   6.2318791979742910E-002
   2.0313219065705299E-002  -5.6599741309633009E-003   6.2158938258445019E-002
   1.9809996901622818E-002  -5.6921243414569840E-003   6.2197484543841386E-002
   1.9306774737540347E-002  -5.6714977916123678E-003   6.2434430835931982E-002
   1.8803552573457852E-002  -5.5980944814295330E-003   6.2869777134717225E-002
   1.3779700907703200E-002  -3.7111431516450438E-003   6.3053968471358968E-002
   1.3464655143752004E-002  -3.7663517077251712E-003   6.3019215314959201E-002
   1.3149609379800805E-002  -3.7871891466210936E-003   6.3162414952127682E-002
   1.2834563615849606E-002  -3.7736554683328021E-003   6.3483567382864467E-002
   1.2519517851898417E-002  -3.7257506728603368E-003   6.3982672607169333E-002
   6.8347108183186064E-003  -1.8472391431587007E-003   6.3828066199303812E-002
   6.6873942413726174E-003  -1.8727292844870139E-003   6.3900007964648189E-002
   6.5400776644266292E-003  -1.8822539517852170E-003   6.4129455310434749E-002
   6.3927610874806428E-003  -1.8758131450532225E-003   6.4516408236663395E-002
   6.2454445105346442E-003  -1.8534068642911336E-003   6.5060866743334306E-002
  -1.8529038365983769E-005   1.6664865327697953E-005   6.4641085163577500E-002
  -1.8563641432848763E-005   2.0893138751081064E-005   6.4801316207511922E-002
  -1.8598244499712022E-005   2.2681243050631794E-005   6.5098605618762476E-002
  -1.8632847566571811E-005   2.2029178226350143E-005   6.5532953397329063E-002
  -1.8667450633440275E-005   1.8936944278069578E-005   6.6104359543211783E-002
   2.5097548675212966E-002  -7.4704382899987432E-003   6.1722180325977510E-002
   2.4349681998763972E-002  -7.3208518009123813E-003   6.1507556903492133E-002
   2.3601815322314985E-002  -7.1410783869319608E-003   6.1455303361238237E-002
   2.2853948645866002E-002  -6.9311180480573654E-003   6.1565419699215647E-002
   2.2106081969417005E-002  -6.6909707842888744E-003   6.1837905917424496E-002
   1.8803552573457852E-002  -5.5980944814295330E-003   6.2869777134717225E-002
   1.8222865509549629E-002  -5.4872118159597222E-003   6.2696109262301750E-002
   1.7642178445641397E-002  -5.3541472002542265E-003   6.2694430734736573E-002
   1.7061491381733164E-002  -5.1989006343128846E-003   6.2864741552021430E-002
   1.6480804317824949E-002  -5.0214721181359723E-003   6.3207041714156587E-002
   1.2519517851898417E-002  -3.7257506728603368E-003   6.3982672607169333E-002
   1.2115629865149701E-002  -3.6535718310071047E-003   6.3841955310165593E-002
   1.1711741878400994E-002  -3.5672160135764332E-003   6.3882846822630721E-002
   1.1307853891652279E-002  -3.4666832205683751E-003   6.4105347144564798E-002
   1.0903965904903560E-002  -3.3519734519829869E-003   6.4509456275967755E-002
   6.2454445105346442E-003  -1.8534068642911336E-003   6.5060866743334306E-002
   6.0279750655642126E-003  -1.8199318460544109E-003   6.4945095047083762E-002
   5.8105056205937800E-003  -1.7802848268986694E-003   6.5020551624920958E-002
   5.5930361756233414E-003  -1.7344658068238800E-003   6.5287236476845797E-002
   5.3755667306529089E-003  -1.6824747858300154E-003   6.5745149602858280E-002
  -1.8667450633440275E-005   1.8936944278069578E-005   6.6104359543211783E-002
  -4.0098889206845872E-005   1.3708138898199662E-005   6.6005528473056241E-002
  -6.1530327780249736E-005   6.6463597790944462E-006   6.6107545141607049E-002
  -8.2961766353657936E-005  -2.2483930793570917E-006   6.6410409548864346E-002
  -1.0439320492705920E-004  -1.2976119677099440E-005   6.6914121694827966E-002
   2.2106081969417005E-002  -6.6909707842888744E-003   6.1837905917424496E-002
   2.1087254694303018E-002  -6.4484767656177167E-003   6.0885777561598908E-002
   2.0068427419189024E-002  -6.2314761620353015E-003   6.0259577562837230E-002
   1.9049600144075026E-002  -6.0399689735417712E-003   5.9959305921139502E-002
   1.8030772868961029E-002  -5.8739552001370599E-003   5.9984962636505934E-002
   1.6480804317824949E-002  -5.0214721181359723E-003   6.3207041714156587E-002
   1.5774314894914369E-002  -4.8405781189496677E-003   6.2269389892487981E-002
   1.5067825472003811E-002  -4.6749351039807596E-003   6.1630485418162240E-002
   1.4361336049093242E-002  -4.5245430732292619E-003   6.1290328291179363E-002
   1.3654846626182680E-002  -4.3894020266949108E-003   6.1248918511539435E-002
   1.0903965904903560E-002  -3.3519734519829869E-003   6.4509456275967755E-002
   1.0482633324475316E-002  -3.2326794722817576E-003   6.3596523419327672E-002
   1.0061300744047057E-002  -3.1183940459262663E-003   6.2955156900309533E-002
   9.6399681636188013E-003  -3.0091171729166397E-003   6.2585356718913104E-002
   9.2186355831905507E-003  -2.9048488532528449E-003   6.2487122875138246E-002
   5.3755667306529089E-003  -1.6824747858300154E-003   6.5745149602858280E-002
   5.2122099829858331E-003  -1.6247808256137503E-003   6.4867178142118384E-002
   5.0488532353187721E-003  -1.5618529878718042E-003   6.4233592009279139E-002
   4.8854964876516999E-003  -1.4936912726041572E-003   6.3844391204340420E-002
   4.7221397399846354E-003  -1.4202956798107097E-003   6.3699575727302560E-002
  -1.0439320492705920E-004  -1.2976119677099440E-005   6.6914121694827966E-002
  -3.6955129554060162E-005  -1.6882178945826221E-005   6.6081354060859798E-002
   3.0482945818940607E-005  -5.3119298172171758E-006   6.5465790745071029E-002
   9.7921021191943111E-005   2.1734627708439730E-005   6.5067431747461782E-002
   1.6535909656494041E-004   6.4257493631314500E-005   6.4886277068032017E-002
   1.8030772868961029E-002  -5.8739552001370599E-003   5.9984962636505934E-002
   1.7785967310990414E-002  -5.7058564013704738E-003   6.1557097554740148E-002
   1.7541161753019820E-002  -5.5080941367915692E-003   6.3007867166907872E-002
   1.7296356195049229E-002  -5.2806684064002699E-003   6.4337271473008828E-002
   1.7051550637078625E-002  -5.0235792101964161E-003   6.5545310473043183E-002
   1.3654846626182680E-002  -4.3894020266949108E-003   6.1248918511539435E-002
   1.3326764300056824E-002  -4.2607547416236291E-003   6.2814820631023255E-002
   1.2998681973930958E-002  -4.1298439952613397E-003   6.4335534520263207E-002
   1.2670599647805104E-002  -3.9966697876077789E-003   6.5811060179259334E-002
   1.2342517321679250E-002  -3.8612321186630716E-003   6.7241397608011622E-002
   9.2186355831905507E-003  -2.9048488532528449E-003   6.2487122875138246E-002
   8.8834535647323298E-003  -2.8156530818769926E-003   6.4019392191350249E-002
   8.5482715462741141E-003  -2.7515938537311518E-003   6.5582650353141383E-002
   8.2130895278159019E-003  -2.7126711688156176E-003   6.7176897360511523E-002
   7.8779075093576810E-003  -2.6988850271299769E-003   6.8802133213460889E-002
   4.7221397399846354E-003  -1.4202956798107097E-003   6.3699575727302560E-002
   4.4560351050169540E-003  -1.3705514221302520E-003   6.5170812235721354E-002
   4.1899304700492735E-003  -1.3733437122009709E-003   6.6749214665542234E-002
   3.9238258350815973E-003  -1.4286725500231804E-003   6.8434783016765158E-002
   3.6577212001139203E-003  -1.5365379355965908E-003   7.0227517289389862E-002
   1.6535909656494041E-004   6.4257493631314500E-005   6.4886277068032017E-002
   4.4508920910697053E-005   7.4550237616544113E-005   6.6269080764136623E-002
  -7.6341254743553244E-005   4.9064293292794270E-006   6.7835227457465980E-002
  -1.9719143039780181E-004  -1.4467393123093406E-004   6.9584717148020350E-002
  -3.1804160605204690E-004  -3.7419084406353775E-004   7.1517549835799499E-002
   1.7051550637078625E-002  -5.0235792101964161E-003   6.5545310473043183E-002
   1.5373605640763038E-002  -4.9168006640691875E-003   6.2277965990955697E-002
   1.3695660644447459E-002  -5.1403068839074723E-003   5.9770960184842820E-002
   1.2017715648131883E-002  -5.6940978697114057E-003   5.8024293054704204E-002
   1.0339770651816294E-002  -6.5781736214807207E-003   5.7037964600539892E-002
   1.2342517321679250E-002  -3.8612321186630716E-003   6.7241397608011622E-002
   1.1351556197616512E-002  -3.7910438723029460E-003   6.3913598289068063E-002
   1.0360595073553761E-002  -3.8536179324025754E-003   6.1199428038655690E-002
   9.3696339494910262E-003  -4.0489542989621818E-003   5.9098886856774585E-002
   8.3786728254282850E-003  -4.3770529719815432E-003   5.7611974743424610E-002
   7.8779075093576810E-003  -2.6988850271299769E-003   6.8802133213460889E-002
   7.4272206501047600E-003  -2.6652870805365936E-003   6.5611401517166212E-002
   6.9765337908518268E-003  -2.5669289808975745E-003   6.2887589281960088E-002
   6.5258469315989014E-003  -2.4038107282127654E-003   6.0630696507841988E-002
   6.0751600723459864E-003  -2.1759323224822547E-003   5.8840723194812372E-002
   3.6577212001139203E-003  -1.5365379355965908E-003   7.0227517289389862E-002
   3.6005989982278025E-003  -1.5395302887702966E-003   6.7371375675250214E-002
   3.5434767963416869E-003  -1.2802400293925702E-003   6.4835443914755736E-002
   3.4863545944555626E-003  -7.5866715746333423E-004   6.2619722007906803E-002
   3.4292323925694534E-003   2.5188327016922862E-005   6.0724209954702790E-002
  -3.1804160605204690E-004  -3.7419084406353775E-004   7.1517549835799499E-002
  -1.2830875801438449E-004  -4.1377349700388866E-004   6.9193520763320193E-002
   6.1424090023281391E-005   6.4489221124619522E-006   6.7042991937043050E-002
   2.5115693806093513E-004   8.8647641328582633E-004   6.5065963356968459E-002
   4.4088978609861662E-004   2.2263089765162114E-003   6.3262435023095920E-002
   1.1744966571863510E-006   0.0000000000000000        2.8444311569904575E-002
   5.5826895259923626E-007   6.2858966542490846E-007   3.3407034411776629E-002
  -5.7958751987011170E-008   9.3735284886591053E-007   3.8377473590501109E-002
  -6.7418645657412596E-007   9.2628955031780202E-007   4.3355629106078035E-002
  -1.2904141611612407E-006   5.9539976979966491E-007   4.8341500958507380E-002
  -6.7990566446905565E-003   0.0000000000000000        2.8508910641989599E-002
  -6.8313673034868794E-003   1.4680752026022953E-004   3.3544793820910287E-002
  -6.8636779622832014E-003   3.3041079851365944E-004   3.8509571800795055E-002
  -6.8959886210795242E-003   5.5080983476028973E-004   4.3403244581643928E-002
  -6.9282992798758436E-003   8.0800462900011694E-004   4.8225812163456915E-002
  -1.3504954646801104E-002   0.0000000000000000        2.8701130852431835E-002
  -1.3647781272577498E-002   2.9298645085503415E-004   3.3847289952876343E-002
  -1.3790607898353898E-002   6.5988424417845384E-004   3.8843522318396606E-002
  -1.3933434524130296E-002   1.1006933799702591E-003   4.3689827948992614E-002
  -1.4076261149906691E-002   1.6154138582304481E-003   4.8386206844664388E-002
  -2.0116519509674448E-002   0.0000000000000000        2.9020972201231284E-002
  -2.0448683638319264E-002   4.3916538144983877E-004   3.4314522807674802E-002
  -2.0780847766964077E-002   9.8935768984324867E-004   3.9379325143305721E-002
  -2.1113011895608890E-002   1.6505769251802280E-003   4.4215379208124059E-002
  -2.1445176024253703E-002   2.4228230874607723E-003   4.8822685002129808E-002
  -2.6633751233310597E-002   0.0000000000000000        2.9468434688387946E-002
  -2.7234074400712169E-002   5.8534431204464339E-004   3.4946492385305644E-002
  -2.7834397568113740E-002   1.3188311355080418E-003   4.0116980275522421E-002
  -2.8434720735515312E-002   2.2004604703901968E-003   4.4979898359038269E-002
  -2.9035043902916880E-002   3.2302323166910991E-003   4.9535246635853188E-002
  -1.2904141611612407E-006   5.9539976979966491E-007   4.8341500958507380E-002
  -4.6444628700684915E-007   3.5827073940376819E-007   5.1507295546273382E-002
   3.6152158714754246E-007   6.2848969129697396E-007   5.4537456789564599E-002
   1.1874894613028014E-006   1.4060566254098933E-006   5.7431984688381066E-002
   2.0134573354563257E-006   2.6909715418119151E-006   6.0190879242722727E-002
  -6.9282992798758436E-003   8.0800462900011694E-004   4.8225812163456915E-002
  -7.0338720249671673E-003   1.0624619124592958E-003   5.1179006662629922E-002
  -7.1394447700584892E-003   1.2746484163639448E-003   5.4055037080346757E-002
  -7.2450175151498111E-003   1.4445641407140638E-003   5.6853903416607419E-002
  -7.3505902602411305E-003   1.5722090855096599E-003   5.9575605671411888E-002
  -1.4076261149906691E-002   1.6154138582304481E-003   4.8386206844664388E-002
  -1.4229763344944890E-002   2.1245655541791810E-003   5.1084023127707635E-002
  -1.4383265539983082E-002   2.5486683430365996E-003   5.3763144592313294E-002
  -1.4536767735021282E-002   2.8877222248027178E-003   5.6423571238481372E-002
  -1.4690269930059468E-002   3.1417271994775113E-003   5.9065303066211904E-002
  -2.1445176024253703E-002   2.4228230874607723E-003   4.8822685002129808E-002
  -2.1588138406220168E-002   3.1866691958990626E-003   5.1222344941506473E-002
  -2.1731100788186634E-002   3.8226882697092648E-003   5.3661779325464183E-002
  -2.1874063170153099E-002   4.3308803088913540E-003   5.6140988154002931E-002
  -2.2017025552119558E-002   4.7112453134453749E-003   5.8659971427122683E-002
  -2.9035043902916880E-002   3.2302323166910991E-003   4.9535246635853188E-002
  -2.9108997208793012E-002   4.2487728376189434E-003   5.1593972104026511E-002
  -2.9182950514669140E-002   5.0967081963819083E-003   5.3750941279799465E-002
  -2.9256903820545271E-002   5.7740383929800205E-003   5.6006154163172069E-002
  -2.9330857126421403E-002   6.2807634274132038E-003   5.8359610754144288E-002
   2.0134573354563257E-006   2.6909715418119151E-006   6.0190879242722727E-002
  -3.1221665899036979E-006   4.7182815840658698E-006   6.1096542847515992E-002
  -8.2577905152637215E-006   7.7230338958508143E-006   6.2140131702589557E-002
  -1.3393414440623311E-005   1.1705228476996312E-005   6.3321645807943361E-002
  -1.8529038365983769E-005   1.6664865327697953E-005   6.4641085163577500E-002
  -7.3505902602411305E-003   1.5722090855096599E-003   5.9575605671411888E-002
  -7.2300907441355524E-003   1.6707708642980240E-003   6.0474444158618829E-002
  -7.1095912280299736E-003   1.7534370906264023E-003   6.1486627675607357E-002
  -6.9890917119243929E-003   1.8202077644948389E-003   6.2612156222377521E-002
  -6.8685921958188158E-003   1.8710828859032358E-003   6.3851029798929204E-002
  -1.4690269930059468E-002   3.1417271994775113E-003   5.9065303066211904E-002
  -1.4468715494421629E-002   3.3368234470119527E-003   5.9940443441103039E-002
  -1.4247161058783788E-002   3.4991511473570101E-003   6.0904348625277091E-002
  -1.4025606623145951E-002   3.6287103005126402E-003   6.1957018618734101E-002
  -1.3804052187508107E-002   3.7255009064788569E-003   6.3098453421473980E-002
  -2.2017025552119558E-002   4.7112453134453749E-003   5.8659971427122683E-002
  -2.1718996417448139E-002   5.0028760297258753E-003   5.9494540694968630E-002
  -2.1420967282776718E-002   5.2448652040875832E-003   6.0393294551598788E-002
  -2.1122938148105293E-002   5.4372128365304476E-003   6.1356232997013246E-002
  -2.0824909013433871E-002   5.5799189270544364E-003   6.2383356031211819E-002
  -2.9330857126421403E-002   6.2807634274132038E-003   5.8359610754144288E-002
  -2.8980933513215082E-002   6.6689286124398464E-003   5.9136735920215573E-002
  -2.8631009900008754E-002   6.9905792608181815E-003   5.9953465454572405E-002
  -2.8281086286802429E-002   7.2457153725482941E-003   6.0809799357214783E-002
  -2.7931162673596105E-002   7.4343369476300436E-003   6.1705737628142771E-002
  -1.8529038365983769E-005   1.6664865327697953E-005   6.4641085163577500E-002
  -1.8563641432848763E-005   2.0893138751081064E-005   6.4801316207511922E-002
  -1.8598244499712022E-005   2.2681243050631794E-005   6.5098605618762476E-002
  -1.8632847566571811E-005   2.2029178226350143E-005   6.5532953397329063E-002
  -1.8667450633440275E-005   1.8936944278069578E-005   6.6104359543211783E-002
  -6.8685921958188158E-003   1.8710828859032358E-003   6.3851029798929204E-002
  -6.7208914958117386E-003   1.9025246895704104E-003   6.3923835318311778E-002
  -6.5731907958046613E-003   1.9109954102149232E-003   6.4155053076526178E-002
  -6.4254900957975833E-003   1.8964950478368523E-003   6.4544683073572320E-002
  -6.2777893957905069E-003   1.8590236024361162E-003   6.5092725309450261E-002
  -1.3804052187508107E-002   3.7255009064788569E-003   6.3098453421473980E-002
  -1.3487262312911381E-002   3.7841562403897154E-003   6.3063302502405966E-002
  -1.3170472438314654E-002   3.7993095773792146E-003   6.3207917693685459E-002
  -1.2853682563717926E-002   3.7709609174473822E-003   6.3532298995312458E-002
  -1.2536892689121198E-002   3.6991102605941906E-003   6.4036446407287007E-002
  -2.0824909013433871E-002   5.5799189270544364E-003   6.2383356031211819E-002
  -2.0317676092731787E-002   5.6657877912090187E-003   6.2219717759794492E-002
  -1.9810443172029707E-002   5.6876237445434921E-003   6.2257199470240387E-002
  -1.9303210251327613E-002   5.6454267870578983E-003   6.2495801162549505E-002
  -1.8795977330625532E-002   5.5391969187522788E-003   6.2935522836721769E-002
  -2.7931162673596105E-002   7.4343369476300436E-003   6.1705737628142771E-002
  -2.7212132835272948E-002   7.5474193420283428E-003   6.1393081090477364E-002
  -2.6493102996949795E-002   7.5759379117078182E-003   6.1302898406190923E-002
  -2.5774073158626641E-002   7.5198926566684195E-003   6.1435189575283426E-002
  -2.5055043320303491E-002   7.3792835769103116E-003   6.1789954597754770E-002
  -1.8667450633440275E-005   1.8936944278069578E-005   6.6104359543211783E-002
  -4.0098889206845872E-005   1.3708138898199662E-005   6.6005528473056241E-002
  -6.1530327780249736E-005   6.6463597790944462E-006   6.6107545141607049E-002
  -8.2961766353657936E-005  -2.2483930793570917E-006   6.6410409548864346E-002
  -1.0439320492705920E-004  -1.2976119677099440E-005   6.6914121694827966E-002
  -6.2777893957905069E-003   1.8590236024361162E-003   6.5092725309450261E-002
  -6.0998275819560948E-003   1.8083162685388898E-003   6.4989791570967598E-002
  -5.9218657681216827E-003   1.7541082406712094E-003   6.5084796598594188E-002
  -5.7439039542872706E-003   1.6963995188332068E-003   6.5377740392330047E-002
  -5.5659421404528585E-003   1.6351901030247085E-003   6.5868622952175021E-002
  -1.2536892689121198E-002   3.6991102605941906E-003   6.4036446407287007E-002
  -1.2162446595476160E-002   3.6029243981795661E-003   6.3927742280246086E-002
  -1.1788000501831118E-002   3.5015701215633799E-003   6.4014067946717323E-002
  -1.1413554408186087E-002   3.3950474307456596E-003   6.4295423406700483E-002
  -1.1039108314541041E-002   3.2833563257263498E-003   6.4771808660195732E-002
  -1.8795977330625532E-002   5.5391969187522788E-003   6.2935522836721769E-002
  -1.8227955929767049E-002   5.3975325278202493E-003   6.2819380600891539E-002
  -1.7659934528908558E-002   5.2490320024554671E-003   6.2895359185976218E-002
  -1.7091913128050071E-002   5.0936953426581402E-003   6.3163458591975807E-002
  -1.6523891727191587E-002   4.9315225484281022E-003   6.3623678818890014E-002
  -2.5055043320303491E-002   7.3792835769103116E-003   6.1789954597754770E-002
  -2.4296355584828750E-002   7.1921406574608632E-003   6.1664706532904123E-002
  -2.3537667849354002E-002   6.9964938833476237E-003   6.1728670316371109E-002
  -2.2778980113879261E-002   6.7923432545706382E-003   6.1981845948155825E-002
  -2.2020292378404516E-002   6.5796887711297436E-003   6.2424233428258202E-002
  -1.0439320492705920E-004  -1.2976119677099440E-005   6.6914121694827966E-002
  -3.6955129554060162E-005  -1.6882178945826221E-005   6.6081354060859798E-002
   3.0482945818940607E-005  -5.3119298172171758E-006   6.5465790745071029E-002
   9.7921021191943111E-005   2.1734627708439730E-005   6.5067431747461782E-002
   1.6535909656494041E-004   6.4257493631314500E-005   6.4886277068032017E-002
  -5.5659421404528585E-003   1.6351901030247085E-003   6.5868622952175021E-002
  -5.2782440362602167E-003   1.5776093023880805E-003   6.5040410906640270E-002
  -4.9905459320675628E-003   1.5307864260658138E-003   6.4435514600565361E-002
  -4.7028478278749132E-003   1.4947214740577870E-003   6.4053934033950266E-002
  -4.4151497236822740E-003   1.4694144463641146E-003   6.3895669206794847E-002
  -1.1039108314541041E-002   3.2833563257263498E-003   6.4771808660195732E-002
  -1.0525038760248462E-002   3.1721007837219733E-003   6.3943433819011630E-002
  -1.0010969205955879E-002   3.0668847819488934E-003   6.3344486138567552E-002
  -9.4968996516633045E-003   2.9677083204071326E-003   6.2974965618863524E-002
  -8.9828300973707163E-003   2.8745713990967203E-003   6.2834872259899574E-002
  -1.6523891727191587E-002   4.9315225484281022E-003   6.3623678818890014E-002
  -1.5777339301518797E-002   4.7665922650559842E-003   6.2790422797973533E-002
  -1.5030786875846002E-002   4.6029831378319210E-003   6.2192705359077408E-002
  -1.4284234450173209E-002   4.4406951667566178E-003   6.1830526502201597E-002
  -1.3537682024500418E-002   4.2797283518294787E-003   6.1703886227346086E-002
  -2.2020292378404516E-002   6.5796887711297436E-003   6.2424233428258202E-002
  -2.1035145660071225E-002   6.3610837463897729E-003   6.1581377843526242E-002
  -2.0049998941737937E-002   6.1390814937150456E-003   6.0980172262095012E-002
  -1.9064852223404653E-002   5.9136820131058636E-003   6.0620616683964443E-002
  -1.8079705505071361E-002   5.6848853045620706E-003   6.0502711109134411E-002
   1.6535909656494041E-004   6.4257493631314500E-005   6.4886277068032017E-002
   4.4508920910697053E-005   7.4550237616544113E-005   6.6269080764136623E-002
  -7.6341254743553244E-005   4.9064293292794270E-006   6.7835227457465980E-002
  -1.9719143039780181E-004  -1.4467393123093406E-004   6.9584717148020350E-002
  -3.1804160605204690E-004  -3.7419084406353775E-004   7.1517549835799499E-002
  -4.4151497236822740E-003   1.4694144463641146E-003   6.3895669206794847E-002
  -4.3710511610105980E-003   1.4194957493827154E-003   6.5202948182978143E-002
  -4.3269525983389272E-003   1.3095957895122717E-003   6.6656781638588541E-002
  -4.2828540356672565E-003   1.1397145667522389E-003   6.8257169573625889E-002
  -4.2387554729955874E-003   9.0985208110294646E-004   7.0004111988090090E-002
  -8.9828300973707163E-003   2.8745713990967203E-003   6.2834872259899574E-002
  -8.8105713141710500E-003   2.7644412611489699E-003   6.4086581805545065E-002
  -8.6383125309714009E-003   2.6142851496951461E-003   6.5448057312819441E-002
  -8.4660537477717381E-003   2.4241030647352991E-003   6.6919298781722994E-002
  -8.2937949645720838E-003   2.1938950062693197E-003   6.8500306212255391E-002
  -1.3537682024500418E-002   4.2797283518294787E-003   6.1703886227346086E-002
  -1.3274051538570690E-002   4.1093867729151273E-003   6.2919981631836958E-002
  -1.3010421052640969E-002   3.9189745098782459E-003   6.4209054480158886E-002
  -1.2746790566711253E-002   3.7084915627183601E-003   6.5571104772311831E-002
  -1.2483160080781527E-002   3.4779379314358039E-003   6.7006132508296040E-002
  -1.8079705505071361E-002   5.6848853045620706E-003   6.0502711109134411E-002
  -1.7761491834209490E-002   5.4543322846814235E-003   6.1703147661853974E-002
  -1.7443278163347647E-002   5.2236638700610127E-003   6.2939773140606642E-002
  -1.7125064492485777E-002   4.9928800607014490E-003   6.4212587545392552E-002
  -1.6806850821623927E-002   4.7619808566021216E-003   6.5521590876211511E-002
  -3.1804160605204690E-004  -3.7419084406353775E-004   7.1517549835799499E-002
  -1.2830875801438449E-004  -4.1377349700388866E-004   6.9193520763320193E-002
   6.1424090023281391E-005   6.4489221124619522E-006   6.7042991937043050E-002
   2.5115693806093513E-004   8.8647641328582633E-004   6.5065963356968459E-002
   4.4088978609861662E-004   2.2263089765162114E-003   6.3262435023095920E-002
  -4.2387554729955874E-003   9.0985208110294646E-004   7.0004111988090090E-002
  -3.8328838914013716E-003   7.8813090616070003E-004   6.7956430256512157E-002
  -3.4270123098071644E-003   9.4267361552133333E-004   6.6167525745845029E-002
  -3.0211407282129329E-003   1.3734802091856721E-003   6.4637398456089040E-002
  -2.6152691466187275E-003   2.0805506871530710E-003   6.3366048387243468E-002
  -8.2937949645720838E-003   2.1938950062693197E-003   6.8500306212255391E-002
  -7.5865076747127632E-003   1.9900353093252332E-003   6.6545430633825342E-002
  -6.8792203848534348E-003   1.8788983089305794E-003   6.4934609251014505E-002
  -6.1719330949941073E-003   1.8604840050856254E-003   6.3667842063823227E-002
  -5.4646458051347997E-003   1.9347923977901527E-003   6.2745129072251216E-002
  -1.2483160080781527E-002   3.4779379314358039E-003   6.7006132508296040E-002
  -1.1389180107948539E-002   3.1919397124896831E-003   6.4960521895259887E-002
  -1.0295200135115560E-002   2.8151230023396381E-003   6.3344242452551769E-002
  -9.2012201622826001E-003   2.3474878009854695E-003   6.2157294180171685E-002
  -8.1072401894496070E-003   1.7890341084270678E-003   6.1399677078119344E-002
  -1.6806850821623927E-002   4.7619808566021216E-003   6.5521590876211511E-002
  -1.5240901191108727E-002   4.3938441156542996E-003   6.3201704040815820E-002
  -1.3674951560593535E-002   3.7513476957486275E-003   6.1396425350456557E-002
  -1.2109001930078335E-002   2.8344915968854627E-003   6.0105754805133818E-002
  -1.0543052299563149E-002   1.6432758190640939E-003   5.9329692404847645E-002
  -2.6633751233310597E-002   0.0000000000000000        2.9468434688387946E-002
  -2.7234074400712169E-002   5.8534431204464339E-004   3.4946492385305644E-002
  -2.7834397568113740E-002   1.3188311355080418E-003   4.0116980275522421E-002
  -2.8434720735515312E-002   2.2004604703901968E-003   4.4979898359038269E-002
  -2.9035043902916880E-002   3.2302323166910991E-003   4.9535246635853188E-002
  -3.3393624841134985E-002   0.0000000000000000        3.0178278088438933E-002
  -3.4236496744594828E-002   9.6007492933447916E-004   3.5267472389662768E-002
  -3.5079368648054672E-002   2.0234722298045063E-003   4.0179139025470975E-002
  -3.5922240551514509E-002   3.1901919014100831E-003   4.4913277995863574E-002
  -3.6765112454974359E-002   4.4602339441512061E-003   4.9469889300840550E-002
  -4.0733115356573049E-002   0.0000000000000000        3.1285262175921355E-002
  -4.1688493854805851E-002   1.3348055466243175E-003   3.5940772941168118E-002
  -4.2643872353038667E-002   2.7281133241009725E-003   4.0548798182284566E-002
  -4.3599250851271462E-002   4.1799233324299693E-003   4.5109337899270699E-002
  -4.4554629349504264E-002   5.6902355716113035E-003   4.9622392092126530E-002
  -4.8652222779624790E-002   0.0000000000000000        3.2789386950835227E-002
  -4.9590065731345237E-002   1.7095361639141542E-003   3.6966394039821694E-002
  -5.0527908683065698E-002   3.4327544183974418E-003   4.1225957745963160E-002
  -5.1465751634786151E-002   5.1696547634498572E-003   4.5568078069259638E-002
  -5.2403594586506612E-002   6.9202371990714088E-003   4.9992755009711114E-002
  -5.7150947110290201E-002   0.0000000000000000        3.4690652413180534E-002
  -5.7941212374213000E-002   2.0842667812039908E-003   3.8344335685623510E-002
  -5.8731477638135798E-002   4.1373955126939033E-003   4.2210617716506804E-002
  -5.9521742902058604E-002   6.1593861944697417E-003   4.6289498505830404E-002
  -6.0312008165981389E-002   8.1502388265315053E-003   5.0580978053594322E-002
  -2.9035043902916880E-002   3.2302323166910991E-003   4.9535246635853188E-002
  -2.9108997208793012E-002   4.2487728376189434E-003   5.1593972104026511E-002
  -2.9182950514669140E-002   5.0967081963819083E-003   5.3750941279799465E-002
  -2.9256903820545271E-002   5.7740383929800205E-003   5.6006154163172069E-002
  -2.9330857126421403E-002   6.2807634274132038E-003   5.8359610754144288E-002
  -3.6765112454974359E-002   4.4602339441512061E-003   4.9469889300840550E-002
  -3.6779417531664450E-002   5.6936710499375758E-003   5.1257002244522877E-002
  -3.6793722608354548E-002   6.7505759106788786E-003   5.3065167938977621E-002
  -3.6808027685044632E-002   7.6309485263751442E-003   5.4894386384204817E-002
  -3.6822332761734744E-002   8.3347888970263448E-003   5.6744657580204423E-002
  -4.4554629349504264E-002   5.6902355716113035E-003   4.9622392092126530E-002
  -4.4586477153835534E-002   7.1385692622561933E-003   5.1131965428437676E-002
  -4.4618324958166783E-002   8.4044436249758568E-003   5.2585400558694040E-002
  -4.4650172762498046E-002   9.4878586597702819E-003   5.3982697482895671E-002
  -4.4682020566829315E-002   1.0388814366639475E-002   5.5323856201042507E-002
  -5.2403594586506612E-002   6.9202371990714088E-003   4.9992755009711114E-002
  -5.2530176075306238E-002   8.5834674745748248E-003   5.1218861655770900E-002
  -5.2656757564105872E-002   1.0058311339272824E-002   5.2311639138948735E-002
  -5.2783339052905498E-002   1.1344768793165427E-002   5.3271087459244568E-002
  -5.2909920541705124E-002   1.2442839836252625E-002   5.4097206616658462E-002
  -6.0312008165981389E-002   8.1502388265315053E-003   5.0580978053594322E-002
  -6.0610514296076584E-002   1.0028365686893446E-002   5.1517690926522600E-002
  -6.0909020426171800E-002   1.1712179053569806E-002   5.2243883679741664E-002
  -6.1207526556266982E-002   1.3201678926560545E-002   5.2759556313251590E-002
  -6.1506032686362178E-002   1.4496865305865733E-002   5.3064708827052331E-002
  -2.9330857126421403E-002   6.2807634274132038E-003   5.8359610754144288E-002
  -2.8980933513215082E-002   6.6689286124398464E-003   5.9136735920215573E-002
  -2.8631009900008754E-002   6.9905792608181815E-003   5.9953465454572405E-002
  -2.8281086286802429E-002   7.2457153725482941E-003   6.0809799357214783E-002
  -2.7931162673596105E-002   7.4343369476300436E-003   6.1705737628142771E-002
  -3.6822332761734744E-002   8.3347888970263448E-003   5.6744657580204423E-002
  -3.6381948957470364E-002   8.8769265615878980E-003   5.7097732547375712E-002
  -3.5941565153205991E-002   9.2721910590152379E-003   5.7592123528377531E-002
  -3.5501181348941598E-002   9.5205823893083075E-003   5.8227830523209873E-002
  -3.5060797544677239E-002   9.6221005524672054E-003   5.9004853531872785E-002
  -4.4682020566829315E-002   1.0388814366639475E-002   5.5323856201042507E-002
  -4.4049464925961908E-002   1.1084924510735967E-002   5.5172522338827787E-002
  -4.3416909285094500E-002   1.1553802857212268E-002   5.5264216135988614E-002
  -4.2784353644227099E-002   1.1795449406068378E-002   5.5598937592524954E-002
  -4.2151798003359699E-002   1.1809864157304298E-002   5.6176686708436820E-002
  -5.2909920541705124E-002   1.2442839836252625E-002   5.4097206616658462E-002
  -5.1983481418689720E-002   1.3292922459884069E-002   5.3361105294571852E-002
  -5.1057042295674294E-002   1.3835414655409269E-002   5.2969743277405751E-002
  -5.0130603172658883E-002   1.4070316422828419E-002   5.2923120565160076E-002
  -4.9204164049643485E-002   1.3997627762141397E-002   5.3221237157834986E-002
  -6.1506032686362178E-002   1.4496865305865733E-002   5.3064708827052331E-002
  -6.0183998435653779E-002   1.5500920409032080E-002   5.1663481414607824E-002
  -5.8861964184945381E-002   1.6117026453606333E-002   5.0708704952628830E-002
  -5.7539929934236997E-002   1.6345183439588497E-002   5.0200379441115280E-002
  -5.6217895683528592E-002   1.6185391366978538E-002   5.0138504880067228E-002
  -2.7931162673596105E-002   7.4343369476300436E-003   6.1705737628142771E-002
  -2.7212132835272948E-002   7.5474193420283428E-003   6.1393081090477364E-002
  -2.6493102996949795E-002   7.5759379117078182E-003   6.1302898406190923E-002
  -2.5774073158626641E-002   7.5198926566684195E-003   6.1435189575283426E-002
  -2.5055043320303491E-002   7.3792835769103116E-003   6.1789954597754770E-002
  -3.5060797544677239E-002   9.6221005524672054E-003   5.9004853531872785E-002
  -3.4125990912729109E-002   9.6201559801172773E-003   5.8651826282551105E-002
  -3.3191184280780966E-002   9.5581591038841202E-003   5.8507878767100452E-002
  -3.2256377648832844E-002   9.4361099237678277E-003   5.8573010985520854E-002
  -3.1321571016884708E-002   9.2540084397682021E-003   5.8847222937812318E-002
  -4.2151798003359699E-002   1.1809864157304298E-002   5.6176686708436820E-002
  -4.1014608697294466E-002   1.1692892618206299E-002   5.5807800268294433E-002
  -3.9877419391229248E-002   1.1540380296060564E-002   5.5634599442515170E-002
  -3.8740230085164029E-002   1.1352327190867182E-002   5.5657084231099066E-002
  -3.7603040779098804E-002   1.1128733302626093E-002   5.5875254634046093E-002
  -4.9204164049643485E-002   1.3997627762141397E-002   5.3221237157834986E-002
  -4.7877986188969046E-002   1.3765629256295235E-002   5.2861003047707425E-002
  -4.6551808328294642E-002   1.3522601488236993E-002   5.2683060432435078E-002
  -4.5225630467620209E-002   1.3268544457966521E-002   5.2687409312018076E-002
  -4.3899452606945763E-002   1.3003458165484025E-002   5.2874049686456204E-002
  -5.6217895683528592E-002   1.6185391366978538E-002   5.0138504880067228E-002
  -5.4716123387752849E-002   1.5838365894384261E-002   4.9811434620790060E-002
  -5.3214351091977100E-002   1.5504822680413314E-002   4.9653261736860167E-002
  -5.1712578796201371E-002   1.5184761725065943E-002   4.9663986228277751E-002
  -5.0210806500425642E-002   1.4878183028341846E-002   4.9843608095042652E-002
  -2.5055043320303491E-002   7.3792835769103116E-003   6.1789954597754770E-002
  -2.4296355584828750E-002   7.1921406574608632E-003   6.1664706532904123E-002
  -2.3537667849354002E-002   6.9964938833476237E-003   6.1728670316371109E-002
  -2.2778980113879261E-002   6.7923432545706382E-003   6.1981845948155825E-002
  -2.2020292378404516E-002   6.5796887711297436E-003   6.2424233428258202E-002
  -3.1321571016884708E-002   9.2540084397682021E-003   5.8847222937812318E-002
  -3.0372652289837793E-002   9.0302401482598993E-003   5.8692159367684238E-002
  -2.9423733562790849E-002   8.7831905456172144E-003   5.8728345932382832E-002
  -2.8474814835743923E-002   8.5128596318403832E-003   5.8955782631908191E-002
  -2.7525896108696990E-002   8.2192474069292532E-003   5.9374469466260182E-002
  -3.7603040779098804E-002   1.1128733302626093E-002   5.5875254634046093E-002
  -3.6461852773970661E-002   1.0868339639058804E-002   5.5675598102170210E-002
  -3.5320664768842526E-002   1.0569887207886798E-002   5.5669229991630036E-002
  -3.4179476763714363E-002   1.0233376009110043E-002   5.5856150302425550E-002
  -3.3038288758586234E-002   9.8588060427286239E-003   5.6236359034556857E-002
  -4.3899452606945763E-002   1.3003458165484025E-002   5.2874049686456204E-002
  -4.2563957037227401E-002   1.2706439129857802E-002   5.2615022736361976E-002
  -4.1228461467509012E-002   1.2356583870156413E-002   5.2551322494112471E-002
  -3.9892965897790615E-002   1.1953892386379856E-002   5.2682948959707827E-002
  -3.8557470328072226E-002   1.1498364678528064E-002   5.3009902133147699E-002
  -5.0210806500425642E-002   1.4878183028341846E-002   4.9843608095042652E-002
  -4.8678965079607950E-002   1.4544538620656730E-002   4.9510433270259641E-002
  -4.7147123658790285E-002   1.4143280532425979E-002   4.9374623439830387E-002
  -4.5615282237972649E-002   1.3674408763649478E-002   4.9436178603754953E-002
  -4.4083440817154970E-002   1.3137923314327449E-002   4.9695098762033263E-002
  -2.2020292378404516E-002   6.5796887711297436E-003   6.2424233428258202E-002
  -2.1035145660071225E-002   6.3610837463897729E-003   6.1581377843526242E-002
  -2.0049998941737937E-002   6.1390814937150456E-003   6.0980172262095012E-002
  -1.9064852223404653E-002   5.9136820131058636E-003   6.0620616683964443E-002
  -1.8079705505071361E-002   5.6848853045620706E-003   6.0502711109134411E-002
  -2.7525896108696990E-002   8.2192474069292532E-003   5.9374469466260182E-002
  -2.6296062726738016E-002   7.9168348332023658E-003   5.8529003315040865E-002
  -2.5066229344779020E-002   7.6201028729787623E-003   5.7931260487772362E-002
  -2.3836395962820046E-002   7.3290515262581513E-003   5.7581240984454551E-002
  -2.2606562580861050E-002   7.0436807930406298E-003   5.7478944805087612E-002
  -3.3038288758586234E-002   9.8588060427286239E-003   5.6236359034556857E-002
  -3.1557695392351440E-002   9.4725859200151530E-003   5.5397360158287667E-002
  -3.0077102026116635E-002   9.1011242522423749E-003   5.4812157926619427E-002
  -2.8596508659881802E-002   8.7444210394103297E-003   5.4480752339552088E-002
  -2.7115915293647035E-002   8.4024762815189946E-003   5.4403143397085518E-002
  -3.8557470328072226E-002   1.1498364678528064E-002   5.3009902133147699E-002
  -3.6820043656911494E-002   1.1028337006827843E-002   5.2186448373266456E-002
  -3.5082616985750721E-002   1.0582145631505984E-002   5.1622864578636241E-002
  -3.3345190314589997E-002   1.0159790552562619E-002   5.1319150749257005E-002
  -3.1607763643429224E-002   9.7612717699974011E-003   5.1275306885128713E-002
  -4.4083440817154970E-002   1.3137923314327449E-002   4.9695098762033263E-002
  -4.2083107520418134E-002   1.2584088093640561E-002   4.8896267959977535E-002
  -4.0082774223681346E-002   1.2063167010769663E-002   4.8363380443822879E-002
  -3.8082440926944544E-002   1.1575160065714785E-002   4.8096436213569335E-002
  -3.6082107630207735E-002   1.1120067258475863E-002   4.8095435269216946E-002
  -1.8079705505071361E-002   5.6848853045620706E-003   6.0502711109134411E-002
  -1.7761491834209490E-002   5.4543322846814235E-003   6.1703147661853974E-002
  -1.7443278163347647E-002   5.2236638700610127E-003   6.2939773140606642E-002
  -1.7125064492485777E-002   4.9928800607014490E-003   6.4212587545392552E-002
  -1.6806850821623927E-002   4.7619808566021216E-003   6.5521590876211511E-002
  -2.2606562580861050E-002   7.0436807930406298E-003   5.7478944805087612E-002
  -2.2250980179723011E-002   6.7569189116462036E-003   5.8693776372755635E-002
  -2.1895397778584957E-002   6.4616941203950728E-003   5.9947156474943017E-002
  -2.1539815377446928E-002   6.1580064192872583E-003   6.1239085111649612E-002
  -2.1184232976308889E-002   5.8458558083226975E-003   6.2569562282875357E-002
  -2.7115915293647035E-002   8.4024762815189946E-003   5.4403143397085518E-002
  -2.6720604553746766E-002   8.0595055386111364E-003   5.5624022464585171E-002
  -2.6325293813846479E-002   7.6997243707291330E-003   5.6885809675089979E-002
  -2.5929983073946193E-002   7.3231327778732896E-003   5.8188505028600027E-002
  -2.5534672334045924E-002   6.9297307600433011E-003   5.9532108525115382E-002
  -3.1607763643429224E-002   9.7612717699974011E-003   5.1275306885128713E-002
  -3.1170364956280720E-002   9.3620921655760483E-003   5.2493885937342423E-002
  -3.0732966269132210E-002   8.9377546210631931E-003   5.3755732741047391E-002
  -3.0295567581983693E-002   8.4882591364590435E-003   5.5060847296243658E-002
  -2.9858168894835193E-002   8.0136057117638909E-003   5.6409229602931169E-002
  -3.6082107630207735E-002   1.1120067258475863E-002   4.8095435269216946E-002
  -3.5600261387324916E-002   1.0664678792540849E-002   4.9303366791027425E-002
  -3.5118415144442132E-002   1.0175784871397225E-002   5.0556925672815445E-002
  -3.4636568901559334E-002   9.6533854950451789E-003   5.1856111914580616E-002
  -3.4154722658676528E-002   9.0974806634844252E-003   5.3200925516323105E-002
  -1.6806850821623927E-002   4.7619808566021216E-003   6.5521590876211511E-002
  -1.5240901191108727E-002   4.3938441156542996E-003   6.3201704040815820E-002
  -1.3674951560593535E-002   3.7513476957486275E-003   6.1396425350456557E-002
  -1.2109001930078335E-002   2.8344915968854627E-003   6.0105754805133818E-002
  -1.0543052299563149E-002   1.6432758190640939E-003   5.9329692404847645E-002
  -2.1184232976308889E-002   5.8458558083226975E-003   6.2569562282875357E-002
  -1.9119207848785319E-002   5.4432313723383752E-003   6.0037663386829032E-002
  -1.7054182721261746E-002   4.8681221961707766E-003   5.7989307339762847E-002
  -1.4989157593738197E-002   4.1205282798200543E-003   5.6424494141676981E-002
  -1.2924132466214620E-002   3.2004496232862500E-003   5.5343223792571505E-002
  -2.5534672334045924E-002   6.9297307600433011E-003   5.9532108525115382E-002
  -2.3001637005570220E-002   6.4926186290220345E-003   5.6890072507192746E-002
  -2.0468601677094515E-002   5.9848966965927106E-003   5.4700514042194413E-002
  -1.7935566348618769E-002   5.4065649627547310E-003   5.2963433130120335E-002
  -1.5402531020143103E-002   4.7576234275082951E-003   5.1678829770969659E-002
  -2.9858168894835193E-002   8.0136057117638909E-003   5.6409229602931169E-002
  -2.6888188661463520E-002   7.5420058857060129E-003   5.3758931401907420E-002
  -2.3918208428091878E-002   7.1016711970146966E-003   5.1530045457751562E-002
  -2.0948228194720253E-002   6.6926016456891986E-003   4.9722571770463520E-002
  -1.7978247961348587E-002   6.3147972317303958E-003   4.8336510340043173E-002
  -3.4154722658676528E-002   9.0974806634844252E-003   5.3200925516323105E-002
  -3.0778862816465191E-002   8.5913931423897694E-003   5.0644240070972679E-002
  -2.7403002974253826E-002   8.2184456974366410E-003   4.8477901586433919E-002
  -2.4027143132042454E-002   7.9786383286240443E-003   4.6701910062706589E-002
  -2.0651283289831124E-002   7.8719710359524964E-003   4.5316265499790953E-002
  -5.7150947110290201E-002   0.0000000000000000        3.4690652413180534E-002
  -5.7941212374213000E-002   2.0842667812039908E-003   3.8344335685623510E-002
  -5.8731477638135798E-002   4.1373955126939033E-003   4.2210617716506804E-002
  -5.9521742902058604E-002   6.1593861944697417E-003   4.6289498505830404E-002
  -6.0312008165981389E-002   8.1502388265315053E-003   5.0580978053594322E-002
  -6.5818151897896651E-002   0.0000000000000000        3.7211939047040420E-002
  -6.6624556100955759E-002   2.9139773520376680E-003   4.0835211481160261E-002
  -6.7430960304014867E-002   5.7704344848331819E-003   4.4213607278567185E-002
  -6.8237364507073961E-002   8.5693713983865469E-003   4.7347126439261186E-002
  -6.9043768710133083E-002   1.1310788092697751E-002   5.0235768963242250E-002
  -7.4242700691771510E-002   0.0000000000000000        4.0576127336498020E-002
  -7.5522719229120142E-002   3.7436879228713456E-003   4.4142606762766649E-002
  -7.6802737766468787E-002   7.4034734569724606E-003   4.7006734157169126E-002
  -7.8082756303817447E-002   1.0979356602303342E-002   4.9168509519705438E-002
  -7.9362774841166078E-002   1.4471337358863991E-002   5.0627932850375590E-002
  -8.2424593491914763E-002   0.0000000000000000        4.4783217281553343E-002
  -8.4635701758706189E-002   4.5733984937050250E-003   4.8266521530442683E-002
  -8.6846810025497601E-002   9.0365124291117409E-003   5.0589998352312621E-002
  -8.9057918292289026E-002   1.3389341806220140E-002   5.1753647747163178E-002
  -9.1269026559080452E-002   1.7631886625030235E-002   5.1757469714994314E-002
  -9.0363830298326425E-002   0.0000000000000000        4.9833208882206381E-002
  -9.3963503689713845E-002   5.4031090645387022E-003   5.3206955784188353E-002
  -9.7563177081101293E-002   1.0669551401251018E-002   5.4963399863997682E-002
 -0.10116285047248874        1.5799327010136942E-002   5.5102541121634402E-002
 -0.10476252386387616        2.0792435891196472E-002   5.3624379557098478E-002
  -6.0312008165981389E-002   8.1502388265315053E-003   5.0580978053594322E-002
  -6.0610514296076584E-002   1.0028365686893446E-002   5.1517690926522600E-002
  -6.0909020426171800E-002   1.1712179053569806E-002   5.2243883679741664E-002
  -6.1207526556266982E-002   1.3201678926560545E-002   5.2759556313251590E-002
  -6.1506032686362178E-002   1.4496865305865733E-002   5.3064708827052331E-002
  -6.9043768710133083E-002   1.1310788092697751E-002   5.0235768963242250E-002
  -6.9315611981428993E-002   1.3754969394609720E-002   4.9456787198176651E-002
  -6.9587455252724917E-002   1.5662200130965351E-002   4.8941651270418739E-002
  -6.9859298524020855E-002   1.7032480301764678E-002   4.8690361179968548E-002
  -7.0131141795316820E-002   1.7865809907007681E-002   4.8702916926826038E-002
  -7.9362774841166078E-002   1.4471337358863991E-002   5.0627932850375590E-002
  -7.9133589296645879E-002   1.7481573102325988E-002   4.7790619375445383E-002
  -7.8904403752125679E-002   1.9612221208360918E-002   4.5691517694839742E-002
  -7.8675218207605438E-002   2.0863281676968784E-002   4.4330627808558662E-002
  -7.8446032663085252E-002   2.1234754508149593E-002   4.3707949716602190E-002
  -9.1269026559080452E-002   1.7631886625030235E-002   5.1757469714994314E-002
  -9.0064446241727228E-002   2.1208176810042258E-002   4.6519187458328760E-002
  -8.8859865924374018E-002   2.3562242285756475E-002   4.2493482953004653E-002
  -8.7655285607020794E-002   2.4694083052172897E-002   3.9680356199021993E-002
  -8.6450705289667584E-002   2.4603699109291534E-002   3.8079807196380780E-002
 -0.10476252386387616        2.0792435891196472E-002   5.3624379557098478E-002
 -0.10210818281667307        2.4934780517758538E-002   4.5642491446826819E-002
  -9.9453841769469961E-002   2.7512263363152038E-002   3.9347547044913486E-002
  -9.6799500722266854E-002   2.8524884427377013E-002   3.4739546351358508E-002
  -9.4145159675063747E-002   2.7972643710433440E-002   3.1818489366161828E-002
  -6.1506032686362178E-002   1.4496865305865733E-002   5.3064708827052331E-002
  -6.0183998435653779E-002   1.5500920409032080E-002   5.1663481414607824E-002
  -5.8861964184945381E-002   1.6117026453606333E-002   5.0708704952628830E-002
  -5.7539929934236997E-002   1.6345183439588497E-002   5.0200379441115280E-002
  -5.6217895683528592E-002   1.6185391366978538E-002   5.0138504880067228E-002
  -7.0131141795316820E-002   1.7865809907007681E-002   4.8702916926826038E-002
  -6.8407868773082289E-002   1.8319833147862691E-002   4.7261889965722434E-002
  -6.6684595750847786E-002   1.8552194225498045E-002   4.6176889597205589E-002
  -6.4961322728613283E-002   1.8562893139913710E-002   4.5447915821275470E-002
  -6.3238049706378766E-002   1.8351929891109772E-002   4.5074968637932096E-002
  -7.8446032663085252E-002   2.1234754508149593E-002   4.3707949716602190E-002
  -7.6411945227203404E-002   2.1138745886693271E-002   4.2393410102211926E-002
  -7.4377857791321514E-002   2.0987361997389712E-002   4.1344472722529668E-002
  -7.2343770355439652E-002   2.0780602840238960E-002   4.0561137577555410E-002
  -7.0309682919557803E-002   2.0518468415240985E-002   4.0043404667289118E-002
  -8.6450705289667584E-002   2.4603699109291534E-002   3.8079807196380780E-002
  -8.4196227798017109E-002   2.3957658625523875E-002   3.7058041824076314E-002
  -8.1941750306366579E-002   2.3422529769281414E-002   3.6211454328601046E-002
  -7.9687272814716076E-002   2.2998312540564180E-002   3.5540044709955108E-002
  -7.7432795323065573E-002   2.2685006939372209E-002   3.5043812968138417E-002
  -9.4145159675063747E-002   2.7972643710433440E-002   3.1818489366161828E-002
  -9.1760716485523350E-002   2.6776571364354462E-002   3.1255785131315578E-002
  -8.9376273295982994E-002   2.5857697541173088E-002   3.0777834415419848E-002
  -8.6991830106442625E-002   2.5216022240889431E-002   3.0384637218474595E-002
  -8.4607386916902227E-002   2.4851545463503460E-002   3.0076193540479912E-002
  -5.6217895683528592E-002   1.6185391366978538E-002   5.0138504880067228E-002
  -5.4716123387752849E-002   1.5838365894384261E-002   4.9811434620790060E-002
  -5.3214351091977100E-002   1.5504822680413314E-002   4.9653261736860167E-002
  -5.1712578796201371E-002   1.5184761725065943E-002   4.9663986228277751E-002
  -5.0210806500425642E-002   1.4878183028341846E-002   4.9843608095042652E-002
  -6.3238049706378766E-002   1.8351929891109772E-002   4.5074968637932096E-002
  -6.1552893957645682E-002   1.8014517146799594E-002   4.4702027981351367E-002
  -5.9867738208912599E-002   1.7645867574696637E-002   4.4526956855337960E-002
  -5.8182582460179516E-002   1.7245981174801035E-002   4.4549755259891945E-002
  -5.6497426711446433E-002   1.6814857947112655E-002   4.4770423195013162E-002
  -7.0309682919557803E-002   2.0518468415240985E-002   4.0043404667289118E-002
  -6.8412171562647409E-002   2.0190668399214937E-002   3.9579874526988759E-002
  -6.6514660205737028E-002   1.9786912468980011E-002   3.9343186072475660E-002
  -6.4617148848826633E-002   1.9307200624536142E-002   3.9333339303749847E-002
  -6.2719637491916225E-002   1.8751532865883339E-002   3.9550334220811341E-002
  -7.7432795323065573E-002   2.2685006939372209E-002   3.5043812968138417E-002
  -7.5293956202757986E-002   2.2366819651630274E-002   3.4444974257702161E-002
  -7.3155117082450344E-002   2.1927957363263278E-002   3.4101949388273232E-002
  -7.1016277962142715E-002   2.1368420074271213E-002   3.4014738359851450E-002
  -6.8877438841835101E-002   2.0688207784654043E-002   3.4183341172436862E-002
  -8.4607386916902227E-002   2.4851545463503460E-002   3.0076193540479912E-002
  -8.2198247877977429E-002   2.4542970904045627E-002   2.9297327173491636E-002
  -7.9789108839052575E-002   2.4069002257546712E-002   2.8803246802730595E-002
  -7.7379969800127735E-002   2.3429639524006354E-002   2.8593952428196776E-002
  -7.4970830761202922E-002   2.2624882703424803E-002   2.8669444049890025E-002
  -5.0210806500425642E-002   1.4878183028341846E-002   4.9843608095042652E-002
  -4.8678965079607950E-002   1.4544538620656730E-002   4.9510433270259641E-002
  -4.7147123658790285E-002   1.4143280532425979E-002   4.9374623439830387E-002
  -4.5615282237972649E-002   1.3674408763649478E-002   4.9436178603754953E-002
  -4.4083440817154970E-002   1.3137923314327449E-002   4.9695098762033263E-002
  -5.6497426711446433E-002   1.6814857947112655E-002   4.4770423195013162E-002
  -5.4775368105236172E-002   1.6351406076674790E-002   4.4443992922694048E-002
  -5.3053309499025932E-002   1.5854533748530776E-002   4.4300632026806279E-002
  -5.1331250892815691E-002   1.5324240962680808E-002   4.4340340507349849E-002
  -4.9609192286605451E-002   1.4760527719124616E-002   4.4563118364324833E-002
  -6.2719637491916225E-002   1.8751532865883339E-002   3.9550334220811341E-002
  -6.0821657318235842E-002   1.8158273532692802E-002   3.9264841723795608E-002
  -5.8923677144555431E-002   1.7565786964635680E-002   3.9148122985288830E-002
  -5.7025696970875020E-002   1.6974073161712025E-002   3.9200178005290909E-002
  -5.5127716797194623E-002   1.6383132123921756E-002   3.9421006783802032E-002
  -6.8877438841835101E-002   2.0688207784654043E-002   3.4183341172436862E-002
  -6.6817832718606973E-002   1.9965140988710838E-002   3.3972979673564115E-002
  -6.4758226595378832E-002   1.9277040180740557E-002   3.3917096315277874E-002
  -6.2698620472150690E-002   1.8623905360743272E-002   3.4015691097578148E-002
  -6.0639014348922549E-002   1.8005736528718855E-002   3.4268764020464956E-002
  -7.4970830761202922E-002   2.2624882703424803E-002   2.8669444049890025E-002
  -7.2763894306349441E-002   2.1772008444728957E-002   2.8568406771999788E-002
  -7.0556957851496058E-002   2.0988293396845333E-002   2.8607552016773660E-002
  -6.8350021396642618E-002   2.0273737559774532E-002   2.8786879784211482E-002
  -6.6143084941789165E-002   1.9628340933516064E-002   2.9106390074313537E-002
  -4.4083440817154970E-002   1.3137923314327449E-002   4.9695098762033263E-002
  -4.2083107520418134E-002   1.2584088093640561E-002   4.8896267959977535E-002
  -4.0082774223681346E-002   1.2063167010769663E-002   4.8363380443822879E-002
  -3.8082440926944544E-002   1.1575160065714785E-002   4.8096436213569335E-002
  -3.6082107630207735E-002   1.1120067258475863E-002   4.8095435269216946E-002
  -4.9609192286605451E-002   1.4760527719124616E-002   4.4563118364324833E-002
  -4.7338610801077513E-002   1.4188459469158851E-002   4.3800631715371838E-002
  -4.5068029315549638E-002   1.3633101664080355E-002   4.3312698158100044E-002
  -4.2797447830021700E-002   1.3094454303888607E-002   4.3099317692509236E-002
  -4.0526866344493796E-002   1.2572517388584226E-002   4.3160490318599642E-002
  -5.5127716797194623E-002   1.6383132123921756E-002   3.9421006783802032E-002
  -5.2578277317095634E-002   1.5792830844677322E-002   3.8678660595022965E-002
  -5.0028837836996659E-002   1.5203036317390874E-002   3.8219477303704931E-002
  -4.7479398356897663E-002   1.4613748542062705E-002   3.8043456909847825E-002
  -4.4929958876798695E-002   1.4024967518692616E-002   3.8150599413451947E-002
  -6.0639014348922549E-002   1.8005736528718855E-002   3.4268764020464956E-002
  -5.7802107068472518E-002   1.7397202220195647E-002   3.3530354598930785E-002
  -5.4965199788022528E-002   1.6772970970701451E-002   3.3083717880637617E-002
  -5.2128292507572463E-002   1.6133042780236747E-002   3.2928853865585521E-002
  -4.9291385227122508E-002   1.5477417648800965E-002   3.3065762553774358E-002
  -6.6143084941789165E-002   1.9628340933516064E-002   2.9106390074313537E-002
  -6.3010100055208129E-002   1.9001573595714083E-002   2.8355713727095277E-002
  -5.9877115168627149E-002   1.8342905624012071E-002   2.7905419888898136E-002
  -5.6744130282046126E-002   1.7652337018410649E-002   2.7755508559721837E-002
  -5.3611145395465104E-002   1.6929867778909313E-002   2.7905979739566600E-002
  -3.6082107630207735E-002   1.1120067258475863E-002   4.8095435269216946E-002
  -3.5600261387324916E-002   1.0664678792540849E-002   4.9303366791027425E-002
  -3.5118415144442132E-002   1.0175784871397225E-002   5.0556925672815445E-002
  -3.4636568901559334E-002   9.6533854950451789E-003   5.1856111914580616E-002
  -3.4154722658676528E-002   9.0974806634844252E-003   5.3200925516323105E-002
  -4.0526866344493796E-002   1.2572517388584226E-002   4.3160490318599642E-002
  -4.0019286002699710E-002   1.2033048547963915E-002   4.4347554885961621E-002
  -3.9511705660905602E-002   1.1441805411824740E-002   4.5540460291168955E-002
  -3.9004125319111488E-002   1.0798787980166653E-002   4.6739206534221533E-002
  -3.8496544977317346E-002   1.0103996252989855E-002   4.7943793615119468E-002
  -4.4929958876798695E-002   1.4024967518692616E-002   3.8150599413451947E-002
  -4.4436430958225311E-002   1.3401418303386925E-002   3.9298528186055212E-002
  -4.3942903039651919E-002   1.2707825952252269E-002   4.0412511274371690E-002
  -4.3449375121078521E-002   1.1944190465288409E-002   4.1492548678401388E-002
  -4.2955847202505192E-002   1.1110511842495313E-002   4.2538640398144520E-002
  -4.9291385227122508E-002   1.5477417648800965E-002   3.3065762553774358E-002
  -4.8851696253901809E-002   1.4769788058809991E-002   3.4156286691308511E-002
  -4.8412007280681131E-002   1.3973846492679846E-002   3.5173078622423790E-002
  -4.7972318307460488E-002   1.3089592950409913E-002   3.6116138347120387E-002
  -4.7532629334239761E-002   1.2117027432000757E-002   3.6985465865398207E-002
  -5.3611145395465104E-002   1.6929867778909313E-002   2.7905979739566600E-002
  -5.3265081889729143E-002   1.6138157814233056E-002   2.8920830401721276E-002
  -5.2919018383993224E-002   1.5239867033107299E-002   2.9822162335325031E-002
  -5.2572954878257271E-002   1.4234995435531719E-002   3.0609975540378184E-002
  -5.2226891372521345E-002   1.3123543021506201E-002   3.1284270016880611E-002
  -3.4154722658676528E-002   9.0974806634844252E-003   5.3200925516323105E-002
  -3.0778862816465191E-002   8.5913931423897694E-003   5.0644240070972679E-002
  -2.7403002974253826E-002   8.2184456974366410E-003   4.8477901586433919E-002
  -2.4027143132042454E-002   7.9786383286240443E-003   4.6701910062706589E-002
  -2.0651283289831124E-002   7.8719710359524964E-003   4.5316265499790953E-002
  -3.8496544977317346E-002   1.0103996252989855E-002   4.7943793615119468E-002
  -3.4726459187459091E-002   9.4663816945356749E-003   4.5423141604610029E-002
  -3.0956373397600760E-002   8.9948957690454134E-003   4.3300594528582759E-002
  -2.7186287607742523E-002   8.6895384765193415E-003   4.1576152387038101E-002
  -2.3416201817884119E-002   8.5503098169572578E-003   4.0249815179975501E-002
  -4.2955847202505192E-002   1.1110511842495313E-002   4.2538640398144520E-002
  -3.8783777491329219E-002   1.0341370246681358E-002   4.0087010379299182E-002
  -3.4611707780153253E-002   9.7713458406544565E-003   3.8041243268606743E-002
  -3.0439638068977232E-002   9.4004386244146646E-003   3.6401339066067365E-002
  -2.6267568357801321E-002   9.2286485979620192E-003   3.5167297771681039E-002
  -4.7532629334239761E-002   1.2117027432000757E-002   3.6985465865398207E-002
  -4.2950817728075470E-002   1.1216358798826875E-002   3.4635846395040019E-002
  -3.8369006121911103E-002   1.0547795912263420E-002   3.2699847806505263E-002
  -3.3787194515746813E-002   1.0111338772309918E-002   3.1177470099794578E-002
  -2.9205382909582443E-002   9.9069873789668361E-003   3.0068713274907483E-002
  -5.2226891372521345E-002   1.3123543021506201E-002   3.1284270016880611E-002
  -4.7227579897697936E-002   1.2091347350972725E-002   2.9069649651832619E-002
  -4.2228268422874526E-002   1.1324245983872383E-002   2.7276408142278885E-002
  -3.7228956948051117E-002   1.0822238920205368E-002   2.5904545488219799E-002
  -3.2229645473227597E-002   1.0585326159971542E-002   2.4954061689655083E-002
  -9.0363830298326425E-002   0.0000000000000000        4.9833208882206381E-002
  -9.3963503689713845E-002   5.4031090645387022E-003   5.3206955784188353E-002
  -9.7563177081101293E-002   1.0669551401251018E-002   5.4963399863997682E-002
 -0.10116285047248874        1.5799327010136942E-002   5.5102541121634402E-002
 -0.10476252386387616        2.0792435891196472E-002   5.3624379557098478E-002
 -0.10329750355689395        0.0000000000000000        5.8660798182277117E-002
 -0.10683327415460704        1.0885092163981921E-002   5.2117244430441884E-002
 -0.11036904475232012        1.9172896312548530E-002   4.7318799088127993E-002
 -0.11390481535003322        2.4863412445699853E-002   4.4265462155335389E-002
 -0.11744058594774633        2.7956640563435862E-002   4.2957233632064135E-002
 -0.12646270571350479        0.0000000000000000        7.4200681225585527E-002
 -0.12657216228584958        1.6367075263425134E-002   5.5279205532344181E-002
 -0.12668161885819437        2.7676241223846057E-002   4.1465249480318121E-002
 -0.12679107543053919        3.3927497881262772E-002   3.2758813069507321E-002
 -0.12690053200288395        3.5120845235675276E-002   2.9159896299911794E-002
 -0.15985943676815897        0.0000000000000000        9.6452858012131590E-002
 -0.15318016808344154        2.1849058362868348E-002   6.2692839089895244E-002
 -0.14650089939872407        3.6179586135143584E-002   3.7402751040568116E-002
 -0.13982163071400661        4.2991583316825677E-002   2.0582593864150164E-002
 -0.13314236202928917        4.2285049907914658E-002   1.2232367560641496E-002
 -0.20348769672085645        0.0000000000000000       0.12541732854191534     
 -0.18665729154738281        2.7331041462311571E-002   7.4358145103095061E-002
 -0.16982688637390919        4.4682931046441089E-002   3.5131303768877964E-002
 -0.15299648120043555        5.2055668752388595E-002   7.7368045392640084E-003
 -0.13616607602696190        4.9449254580154069E-002  -7.8253525857467782E-003
 -0.10476252386387616        2.0792435891196472E-002   5.3624379557098478E-002
 -0.10210818281667307        2.4934780517758538E-002   4.5642491446826819E-002
  -9.9453841769469961E-002   2.7512263363152038E-002   3.9347547044913486E-002
  -9.6799500722266854E-002   2.8524884427377013E-002   3.4739546351358508E-002
  -9.4145159675063747E-002   2.7972643710433440E-002   3.1818489366161828E-002
 -0.11744058594774633        2.7956640563435862E-002   4.2957233632064135E-002
 -0.11348668473255458        2.9427905569476810E-002   3.6700328015583573E-002
 -0.10953278351736284        3.0252532367542911E-002   3.1355599026721935E-002
 -0.10557888230217109        3.0430520957634145E-002   2.6923046665479285E-002
 -0.10162498108697936        2.9961871339750548E-002   2.3402670931855565E-002
 -0.12690053200288395        3.5120845235675276E-002   2.9159896299911794E-002
 -0.12242183770044301        3.3921030621195093E-002   2.5546196750415980E-002
 -0.11794314339800199        3.2992801371933785E-002   2.2069906747799840E-002
 -0.11346444909556104        3.2336157487891329E-002   1.8731026292063236E-002
 -0.10898575479312002        3.1951098969067664E-002   1.5529555383206207E-002
 -0.13314236202928917        4.2285049907914658E-002   1.2232367560641496E-002
 -0.12891364172033828        3.8414155672913362E-002   1.2180097651324225E-002
 -0.12468492141138746        3.5733070376324616E-002   1.1490470208147066E-002
 -0.12045620110243656        3.4241794018148371E-002   1.0163485231110344E-002
 -0.11622748079348566        3.3940326598384751E-002   8.1991427202135377E-003
 -0.13616607602696190        4.9449254580154069E-002  -7.8253525857467782E-003
 -0.13296209679224053        4.2907280724631666E-002  -3.3979692816918858E-003
 -0.12975811755751915        3.8473339380715482E-002  -3.8271059223609835E-004
 -0.12655413832279777        3.6147430548405614E-002   1.2204234826205260E-003
 -0.12335015908807637        3.5929554227701860E-002   1.4114329428777661E-003
  -9.4145159675063747E-002   2.7972643710433440E-002   3.1818489366161828E-002
  -9.1760716485523350E-002   2.6776571364354462E-002   3.1255785131315578E-002
  -8.9376273295982994E-002   2.5857697541173088E-002   3.0777834415419848E-002
  -8.6991830106442625E-002   2.5216022240889431E-002   3.0384637218474595E-002
  -8.4607386916902227E-002   2.4851545463503460E-002   3.0076193540479912E-002
 -0.10162498108697936        2.9961871339750548E-002   2.3402670931855565E-002
  -9.9142547432567590E-002   2.9193606447783876E-002   2.3134554440058339E-002
  -9.6660113778155810E-002   2.8472749215625832E-002   2.2977665359053448E-002
  -9.4177680123743987E-002   2.7799299643276477E-002   2.2932003688840831E-002
  -9.1695246469332248E-002   2.7173257730735728E-002   2.2997569429420522E-002
 -0.10898575479312002        3.1951098969067664E-002   1.5529555383206207E-002
 -0.10637885678199505        3.1610641531213277E-002   1.5326235771369014E-002
 -0.10377195877087002        3.1087800890078579E-002   1.5260617462165780E-002
 -0.10116506075974503        3.0382577045663470E-002   1.5332700455596874E-002
  -9.8558162748620018E-002   2.9494969997967982E-002   1.5542484751661860E-002
 -0.11622748079348566        3.3940326598384751E-002   8.1991427202135377E-003
 -0.11346964453380566        3.4027676614642725E-002   7.8308291252473586E-003
 -0.11071180827412572        3.3702852564531295E-002   7.6266907247570619E-003
 -0.10795397201444575        3.2965854448050454E-002   7.5867275187426579E-003
 -0.10519613575476575        3.1816682265200270E-002   7.7109395072040201E-003
 -0.12335015908807637        3.5929554227701860E-002   1.4114329428777661E-003
 -0.12041491068799962        3.6444711698072105E-002   6.4833450169367313E-004
 -0.11747966228792285        3.6317904238984032E-002   7.5885146826951133E-005
 -0.11454441388784611        3.5549131850437461E-002  -3.0591512172174415E-004
 -0.11160916548776934        3.4138394532432503E-002  -4.9706630395290885E-004
  -8.4607386916902227E-002   2.4851545463503460E-002   3.0076193540479912E-002
  -8.2198247877977429E-002   2.4542970904045627E-002   2.9297327173491636E-002
  -7.9789108839052575E-002   2.4069002257546712E-002   2.8803246802730595E-002
  -7.7379969800127735E-002   2.3429639524006354E-002   2.8593952428196776E-002
  -7.4970830761202922E-002   2.2624882703424803E-002   2.8669444049890025E-002
  -9.1695246469332248E-002   2.7173257730735728E-002   2.2997569429420522E-002
  -8.9030150377113856E-002   2.6549572356171447E-002   2.2310773057192146E-002
  -8.6365054284895576E-002   2.5883192397751095E-002   2.1851104795323616E-002
  -8.3699958192677254E-002   2.5174117855474850E-002   2.1618564643814810E-002
  -8.1034862100458932E-002   2.4422348729342708E-002   2.1613152602665886E-002
  -9.8558162748620018E-002   2.9494969997967982E-002   1.5542484751661860E-002
  -9.5694767488975568E-002   2.8556173808297065E-002   1.5070457877378721E-002
  -9.2831372229331161E-002   2.7697382537955562E-002   1.4767901227587955E-002
  -8.9967976969686794E-002   2.6918596186943457E-002   1.4634814802289751E-002
  -8.7104581710042317E-002   2.6219814755260626E-002   1.4671198601483866E-002
 -0.10519613575476575        3.1816682265200270E-002   7.7109395072040201E-003
 -0.10219209921356259        3.0562775260422729E-002   7.5763816340513983E-003
  -9.9188062672359370E-002   2.9511572678159959E-002   7.5536360995237493E-003
  -9.6184026131156189E-002   2.8663074518411869E-002   7.6427029036212797E-003
  -9.3179989589953022E-002   2.8017280781178482E-002   7.8435820463437760E-003
 -0.11160916548776934        3.4138394532432503E-002  -4.9706630395290885E-004
 -0.10852214555087475        3.2569376712548559E-002  -1.7145567278975538E-004
 -0.10543512561398019        3.1325762818364467E-002   2.0830941113102186E-004
 -0.10234810567708565        3.0407552849880490E-002   6.4222894780943326E-004
  -9.9261085740191046E-002   2.9814746807096504E-002   1.1303029372457529E-003
  -7.4970830761202922E-002   2.2624882703424803E-002   2.8669444049890025E-002
  -7.2763894306349441E-002   2.1772008444728957E-002   2.8568406771999788E-002
  -7.0556957851496058E-002   2.0988293396845333E-002   2.8607552016773660E-002
  -6.8350021396642618E-002   2.0273737559774532E-002   2.8786879784211482E-002
  -6.6143084941789165E-002   1.9628340933516064E-002   2.9106390074313537E-002
  -8.1034862100458932E-002   2.4422348729342708E-002   2.1613152602665886E-002
  -7.8680750547189426E-002   2.3649486206011067E-002   2.1548253130334954E-002
  -7.6326638993919935E-002   2.2877131472136207E-002   2.1637521332172019E-002
  -7.3972527440650443E-002   2.2105284527718247E-002   2.1880957208177072E-002
  -7.1618415887380979E-002   2.1333945372757235E-002   2.2278560758350274E-002
  -8.7104581710042317E-002   2.6219814755260626E-002   1.4671198601483866E-002
  -8.4589309906852816E-002   2.5526963967293217E-002   1.4573785513356641E-002
  -8.2074038103663358E-002   2.4765969547427023E-002   1.4644525250901212E-002
  -7.9558766300473885E-002   2.3936831495662149E-002   1.4883417814117854E-002
  -7.7043494497284343E-002   2.3039549811998461E-002   1.5290463203006435E-002
  -9.3179989589953022E-002   2.8017280781178482E-002   7.8435820463437760E-003
  -9.0489572385339612E-002   2.7404441728575403E-002   7.6450039210646231E-003
  -8.7799155180726229E-002   2.6654807622717921E-002   7.6285637729612650E-003
  -8.5108737976112861E-002   2.5768378463606124E-002   7.7942616020339733E-003
  -8.2418320771499451E-002   2.4745154251239826E-002   8.1420974082823741E-003
  -9.9261085740191046E-002   2.9814746807096504E-002   1.1303029372457529E-003
  -9.6381537982649812E-002   2.9281919489857478E-002   7.6190835345923968E-004
  -9.3501990225108605E-002   2.8543645698008657E-002   5.8963689835203614E-004
  -9.0622442467567385E-002   2.7599925431549752E-002   6.1348857192528722E-004
  -8.7742894710026165E-002   2.6450758690480969E-002   8.3346337417794514E-004
  -6.6143084941789165E-002   1.9628340933516064E-002   2.9106390074313537E-002
  -6.3010100055208129E-002   1.9001573595714083E-002   2.8355713727095277E-002
  -5.9877115168627149E-002   1.8342905624012071E-002   2.7905419888898136E-002
  -5.6744130282046126E-002   1.7652337018410649E-002   2.7755508559721837E-002
  -5.3611145395465104E-002   1.6929867778909313E-002   2.7905979739566600E-002
  -7.1618415887380979E-002   2.1333945372757235E-002   2.2278560758350274E-002
  -6.8211594639490183E-002   2.0566187223061222E-002   2.1538967392695701E-002
  -6.4804773391599346E-002   1.9805083294437822E-002   2.1046664240639903E-002
  -6.1397952143708551E-002   1.9050633586887456E-002   2.0801651302182714E-002
  -5.7991130895817686E-002   1.8302838100409835E-002   2.0803928577324104E-002
  -7.7043494497284343E-002   2.3039549811998461E-002   1.5290463203006435E-002
  -7.3415929183506132E-002   2.2130800850408305E-002   1.4600507673888291E-002
  -6.9788363869727865E-002   2.1267260964863637E-002   1.4104750062946585E-002
  -6.6160798555949599E-002   2.0448930155364323E-002   1.3803190370180986E-002
  -6.2533233242171388E-002   1.9675808421910607E-002   1.3695828595591708E-002
  -8.2418320771499451E-002   2.4745154251239826E-002   8.1420974082823741E-003
  -7.8623103687256113E-002   2.3695414477755417E-002   7.5403345706733342E-003
  -7.4827886603012761E-002   2.2729438635289614E-002   7.0796773558181435E-003
  -7.1032669518769409E-002   2.1847226723841158E-002   6.7601257637168047E-003
  -6.7237452434526071E-002   2.1048778743411142E-002   6.5816797943694418E-003
  -8.7742894710026165E-002   2.6450758690480969E-002   8.3346337417794514E-004
  -8.3833118150740016E-002   2.5260028105102417E-002   3.5844808305030007E-004
  -7.9923341591453978E-002   2.4191616305715230E-002  -2.8553880745366134E-005
  -7.6013565032167912E-002   2.3245523292318167E-002  -3.2754251720988961E-004
  -7.2103788472881791E-002   2.2421749064912011E-002  -5.3851782634273260E-004
  -5.3611145395465104E-002   1.6929867778909313E-002   2.7905979739566600E-002
  -5.3265081889729143E-002   1.6138157814233056E-002   2.8920830401721276E-002
  -5.2919018383993224E-002   1.5239867033107299E-002   2.9822162335325031E-002
  -5.2572954878257271E-002   1.4234995435531719E-002   3.0609975540378184E-002
  -5.2226891372521345E-002   1.3123543021506201E-002   3.1284270016880611E-002
  -5.7991130895817686E-002   1.8302838100409835E-002   2.0803928577324104E-002
  -5.7718253039184431E-002   1.7558539784622490E-002   2.1643875124854439E-002
  -5.7445375182551141E-002   1.6814581589142411E-002   2.2450969102730228E-002
  -5.7172497325917865E-002   1.6070963513969586E-002   2.3225210510951416E-002
  -5.6899619469284582E-002   1.5327685559104021E-002   2.3966599349518114E-002
  -6.2533233242171388E-002   1.9675808421910607E-002   1.3695828595591708E-002
  -6.2252874875744615E-002   1.8978921755011730E-002   1.4467791965254981E-002
  -6.1972516509317857E-002   1.8389296145177252E-002   1.5287568924159757E-002
  -6.1692158142891092E-002   1.7906931592407346E-002   1.6155159472306248E-002
  -6.1411799776464382E-002   1.7531828096701729E-002   1.7070563609694167E-002
  -6.7237452434526071E-002   2.1048778743411142E-002   6.5816797943694418E-003
  -6.6868947399409670E-002   2.0399303725400844E-002   7.3925809229227965E-003
  -6.6500442364293325E-002   1.9964010701212561E-002   8.3319617996136987E-003
  -6.6131937329177007E-002   1.9742899670844825E-002   9.3998224244421051E-003
  -6.5763432294060578E-002   1.9735970634299549E-002   1.0596162797408493E-002
  -7.2103788472881791E-002   2.2421749064912011E-002  -5.3851782634273260E-004
  -7.1566470610179678E-002   2.1819685695790292E-002   4.1824199785750471E-004
  -7.1029152747477620E-002   2.1538725257247343E-002   1.5841477290914896E-003
  -7.0491834884775506E-002   2.1578867749283005E-002   2.9591993673597355E-003
  -6.9954517022073448E-002   2.1940113171897258E-002   4.5433969126613682E-003
  -5.2226891372521345E-002   1.3123543021506201E-002   3.1284270016880611E-002
  -4.7227579897697936E-002   1.2091347350972725E-002   2.9069649651832619E-002
  -4.2228268422874526E-002   1.1324245983872383E-002   2.7276408142278885E-002
  -3.7228956948051117E-002   1.0822238920205368E-002   2.5904545488219799E-002
  -3.2229645473227597E-002   1.0585326159971542E-002   2.4954061689655083E-002
  -5.6899619469284582E-002   1.5327685559104021E-002   2.3966599349518114E-002
  -5.1444321336532178E-002   1.4517183096133590E-002   2.2012287159945965E-002
  -4.5989023203779768E-002   1.3571891496645866E-002   2.0548569430737518E-002
  -4.0533725071027468E-002   1.2491810760640883E-002   1.9575446161892385E-002
  -3.5078426938275009E-002   1.1276940888118703E-002   1.9092917353410899E-002
  -6.1411799776464382E-002   1.7531828096701729E-002   1.7070563609694167E-002
  -5.5431299380913943E-002   1.6943018841294455E-002   1.4976676155647461E-002
  -4.9450798985363559E-002   1.5819537009419349E-002   1.3442598766833375E-002
  -4.3470298589813175E-002   1.4161382601076619E-002   1.2468331443251914E-002
  -3.7489798194262791E-002   1.1968555616265975E-002   1.2053874184902669E-002
  -6.5763432294060578E-002   1.9735970634299549E-002   1.0596162797408493E-002
  -5.9188514030843214E-002   1.9368854586455486E-002   7.9628166389368628E-003
  -5.2613595767625816E-002   1.8067182522193220E-002   5.9584961505665945E-003
  -4.6038677504408321E-002   1.5830954441512078E-002   4.5832013322980904E-003
  -3.9463759241190999E-002   1.2660170344413468E-002   3.8369321841311282E-003
  -6.9954517022073448E-002   2.1940113171897258E-002   4.5433969126613682E-003
  -6.2715965286319952E-002   2.1794690331616517E-002   9.7070860981424145E-004
  -5.5477413550566457E-002   2.0314828034966426E-002  -1.9037384180627670E-003
  -4.8238861814813044E-002   1.7500526281947842E-002  -4.0799441709687065E-003
  -4.1000310079059465E-002   1.3351785072560407E-002  -5.5579086489041529E-003
 </DataArray>
 </PointData>
 </Piece>
 <Piece  NumberOfPoints="          1600 "  NumberOfCells="         1024 ">
 <Points>
 <DataArray  type="Float64" NumberOfComponents="3"  format="ascii" >
  0.50000000000000000        0.0000000000000000        0.0000000000000000     
  0.53125000000000000        0.0000000000000000        0.0000000000000000     
  0.56250000000000000        0.0000000000000000        0.0000000000000000     
  0.59375000000000000        0.0000000000000000        0.0000000000000000     
  0.62500000000000000        0.0000000000000000        0.0000000000000000     
  0.50000000000000000        3.1250000000000000E-002   0.0000000000000000     
  0.53125000000000000        3.1250000000000000E-002   0.0000000000000000     
  0.56250000000000000        3.1250000000000000E-002   0.0000000000000000     
  0.59375000000000000        3.1250000000000000E-002   0.0000000000000000     
  0.62500000000000000        3.1250000000000000E-002   0.0000000000000000     
  0.50000000000000000        6.2500000000000000E-002   0.0000000000000000     
  0.53125000000000000        6.2500000000000000E-002   0.0000000000000000     
  0.56250000000000000        6.2500000000000000E-002   0.0000000000000000     
  0.59375000000000000        6.2500000000000000E-002   0.0000000000000000     
  0.62500000000000000        6.2500000000000000E-002   0.0000000000000000     
  0.50000000000000000        9.3750000000000000E-002   0.0000000000000000     
  0.53125000000000000        9.3750000000000000E-002   0.0000000000000000     
  0.56250000000000000        9.3750000000000000E-002   0.0000000000000000     
  0.59375000000000000        9.3750000000000000E-002   0.0000000000000000     
  0.62500000000000000        9.3750000000000000E-002   0.0000000000000000     
  0.50000000000000000       0.12500000000000000        0.0000000000000000     
  0.53125000000000000       0.12500000000000000        0.0000000000000000     
  0.56250000000000000       0.12500000000000000        0.0000000000000000     
  0.59375000000000000       0.12500000000000000        0.0000000000000000     
  0.62500000000000000       0.12500000000000000        0.0000000000000000     
  0.62500000000000000        0.0000000000000000        0.0000000000000000     
  0.65625000000000000        0.0000000000000000        0.0000000000000000     
  0.68750000000000000        0.0000000000000000        0.0000000000000000     
  0.71875000000000000        0.0000000000000000        0.0000000000000000     
  0.75000000000000000        0.0000000000000000        0.0000000000000000     
  0.62500000000000000        3.1250000000000000E-002   0.0000000000000000     
  0.65625000000000000        3.1250000000000000E-002   0.0000000000000000     
  0.68750000000000000        3.1250000000000000E-002   0.0000000000000000     
  0.71875000000000000        3.1250000000000000E-002   0.0000000000000000     
  0.75000000000000000        3.1250000000000000E-002   0.0000000000000000     
  0.62500000000000000        6.2500000000000000E-002   0.0000000000000000     
  0.65625000000000000        6.2500000000000000E-002   0.0000000000000000     
  0.68750000000000000        6.2500000000000000E-002   0.0000000000000000     
  0.71875000000000000        6.2500000000000000E-002   0.0000000000000000     
  0.75000000000000000        6.2500000000000000E-002   0.0000000000000000     
  0.62500000000000000        9.3750000000000000E-002   0.0000000000000000     
  0.65625000000000000        9.3750000000000000E-002   0.0000000000000000     
  0.68750000000000000        9.3750000000000000E-002   0.0000000000000000     
  0.71875000000000000        9.3750000000000000E-002   0.0000000000000000     
  0.75000000000000000        9.3750000000000000E-002   0.0000000000000000     
  0.62500000000000000       0.12500000000000000        0.0000000000000000     
  0.65625000000000000       0.12500000000000000        0.0000000000000000     
  0.68750000000000000       0.12500000000000000        0.0000000000000000     
  0.71875000000000000       0.12500000000000000        0.0000000000000000     
  0.75000000000000000       0.12500000000000000        0.0000000000000000     
  0.75000000000000000        0.0000000000000000        0.0000000000000000     
  0.78125000000000000        0.0000000000000000        0.0000000000000000     
  0.81250000000000000        0.0000000000000000        0.0000000000000000     
  0.84375000000000000        0.0000000000000000        0.0000000000000000     
  0.87500000000000000        0.0000000000000000        0.0000000000000000     
  0.75000000000000000        3.1250000000000000E-002   0.0000000000000000     
  0.78125000000000000        3.1250000000000000E-002   0.0000000000000000     
  0.81250000000000000        3.1250000000000000E-002   0.0000000000000000     
  0.84375000000000000        3.1250000000000000E-002   0.0000000000000000     
  0.87500000000000000        3.1250000000000000E-002   0.0000000000000000     
  0.75000000000000000        6.2500000000000000E-002   0.0000000000000000     
  0.78125000000000000        6.2500000000000000E-002   0.0000000000000000     
  0.81250000000000000        6.2500000000000000E-002   0.0000000000000000     
  0.84375000000000000        6.2500000000000000E-002   0.0000000000000000     
  0.87500000000000000        6.2500000000000000E-002   0.0000000000000000     
  0.75000000000000000        9.3750000000000000E-002   0.0000000000000000     
  0.78125000000000000        9.3750000000000000E-002   0.0000000000000000     
  0.81250000000000000        9.3750000000000000E-002   0.0000000000000000     
  0.84375000000000000        9.3750000000000000E-002   0.0000000000000000     
  0.87500000000000000        9.3750000000000000E-002   0.0000000000000000     
  0.75000000000000000       0.12500000000000000        0.0000000000000000     
  0.78125000000000000       0.12500000000000000        0.0000000000000000     
  0.81250000000000000       0.12500000000000000        0.0000000000000000     
  0.84375000000000000       0.12500000000000000        0.0000000000000000     
  0.87500000000000000       0.12500000000000000        0.0000000000000000     
  0.87500000000000000        0.0000000000000000        0.0000000000000000     
  0.90625000000000000        0.0000000000000000        0.0000000000000000     
  0.93750000000000000        0.0000000000000000        0.0000000000000000     
  0.96875000000000000        0.0000000000000000        0.0000000000000000     
   1.0000000000000000        0.0000000000000000        0.0000000000000000     
  0.87500000000000000        3.1250000000000000E-002   0.0000000000000000     
  0.90625000000000000        3.1250000000000000E-002   0.0000000000000000     
  0.93750000000000000        3.1250000000000000E-002   0.0000000000000000     
  0.96875000000000000        3.1250000000000000E-002   0.0000000000000000     
   1.0000000000000000        3.1250000000000000E-002   0.0000000000000000     
  0.87500000000000000        6.2500000000000000E-002   0.0000000000000000     
  0.90625000000000000        6.2500000000000000E-002   0.0000000000000000     
  0.93750000000000000        6.2500000000000000E-002   0.0000000000000000     
  0.96875000000000000        6.2500000000000000E-002   0.0000000000000000     
   1.0000000000000000        6.2500000000000000E-002   0.0000000000000000     
  0.87500000000000000        9.3750000000000000E-002   0.0000000000000000     
  0.90625000000000000        9.3750000000000000E-002   0.0000000000000000     
  0.93750000000000000        9.3750000000000000E-002   0.0000000000000000     
  0.96875000000000000        9.3750000000000000E-002   0.0000000000000000     
   1.0000000000000000        9.3750000000000000E-002   0.0000000000000000     
  0.87500000000000000       0.12500000000000000        0.0000000000000000     
  0.90625000000000000       0.12500000000000000        0.0000000000000000     
  0.93750000000000000       0.12500000000000000        0.0000000000000000     
  0.96875000000000000       0.12500000000000000        0.0000000000000000     
   1.0000000000000000       0.12500000000000000        0.0000000000000000     
   1.0000000000000000        0.0000000000000000        0.0000000000000000     
   1.0312500000000000        0.0000000000000000        0.0000000000000000     
   1.0625000000000000        0.0000000000000000        0.0000000000000000     
   1.0937500000000000        0.0000000000000000        0.0000000000000000     
   1.1250000000000000        0.0000000000000000        0.0000000000000000     
   1.0000000000000000        3.1250000000000000E-002   0.0000000000000000     
   1.0312500000000000        3.1250000000000000E-002   0.0000000000000000     
   1.0625000000000000        3.1250000000000000E-002   0.0000000000000000     
   1.0937500000000000        3.1250000000000000E-002   0.0000000000000000     
   1.1250000000000000        3.1250000000000000E-002   0.0000000000000000     
   1.0000000000000000        6.2500000000000000E-002   0.0000000000000000     
   1.0312500000000000        6.2500000000000000E-002   0.0000000000000000     
   1.0625000000000000        6.2500000000000000E-002   0.0000000000000000     
   1.0937500000000000        6.2500000000000000E-002   0.0000000000000000     
   1.1250000000000000        6.2500000000000000E-002   0.0000000000000000     
   1.0000000000000000        9.3750000000000000E-002   0.0000000000000000     
   1.0312500000000000        9.3750000000000000E-002   0.0000000000000000     
   1.0625000000000000        9.3750000000000000E-002   0.0000000000000000     
   1.0937500000000000        9.3750000000000000E-002   0.0000000000000000     
   1.1250000000000000        9.3750000000000000E-002   0.0000000000000000     
   1.0000000000000000       0.12500000000000000        0.0000000000000000     
   1.0312500000000000       0.12500000000000000        0.0000000000000000     
   1.0625000000000000       0.12500000000000000        0.0000000000000000     
   1.0937500000000000       0.12500000000000000        0.0000000000000000     
   1.1250000000000000       0.12500000000000000        0.0000000000000000     
   1.1250000000000000        0.0000000000000000        0.0000000000000000     
   1.1562500000000000        0.0000000000000000        0.0000000000000000     
   1.1875000000000000        0.0000000000000000        0.0000000000000000     
   1.2187500000000000        0.0000000000000000        0.0000000000000000     
   1.2500000000000000        0.0000000000000000        0.0000000000000000     
   1.1250000000000000        3.1250000000000000E-002   0.0000000000000000     
   1.1562500000000000        3.1250000000000000E-002   0.0000000000000000     
   1.1875000000000000        3.1250000000000000E-002   0.0000000000000000     
   1.2187500000000000        3.1250000000000000E-002   0.0000000000000000     
   1.2500000000000000        3.1250000000000000E-002   0.0000000000000000     
   1.1250000000000000        6.2500000000000000E-002   0.0000000000000000     
   1.1562500000000000        6.2500000000000000E-002   0.0000000000000000     
   1.1875000000000000        6.2500000000000000E-002   0.0000000000000000     
   1.2187500000000000        6.2500000000000000E-002   0.0000000000000000     
   1.2500000000000000        6.2500000000000000E-002   0.0000000000000000     
   1.1250000000000000        9.3750000000000000E-002   0.0000000000000000     
   1.1562500000000000        9.3750000000000000E-002   0.0000000000000000     
   1.1875000000000000        9.3750000000000000E-002   0.0000000000000000     
   1.2187500000000000        9.3750000000000000E-002   0.0000000000000000     
   1.2500000000000000        9.3750000000000000E-002   0.0000000000000000     
   1.1250000000000000       0.12500000000000000        0.0000000000000000     
   1.1562500000000000       0.12500000000000000        0.0000000000000000     
   1.1875000000000000       0.12500000000000000        0.0000000000000000     
   1.2187500000000000       0.12500000000000000        0.0000000000000000     
   1.2500000000000000       0.12500000000000000        0.0000000000000000     
   1.2500000000000000        0.0000000000000000        0.0000000000000000     
   1.2812500000000000        0.0000000000000000        0.0000000000000000     
   1.3125000000000000        0.0000000000000000        0.0000000000000000     
   1.3437500000000000        0.0000000000000000        0.0000000000000000     
   1.3750000000000000        0.0000000000000000        0.0000000000000000     
   1.2500000000000000        3.1250000000000000E-002   0.0000000000000000     
   1.2812500000000000        3.1250000000000000E-002   0.0000000000000000     
   1.3125000000000000        3.1250000000000000E-002   0.0000000000000000     
   1.3437500000000000        3.1250000000000000E-002   0.0000000000000000     
   1.3750000000000000        3.1250000000000000E-002   0.0000000000000000     
   1.2500000000000000        6.2500000000000000E-002   0.0000000000000000     
   1.2812500000000000        6.2500000000000000E-002   0.0000000000000000     
   1.3125000000000000        6.2500000000000000E-002   0.0000000000000000     
   1.3437500000000000        6.2500000000000000E-002   0.0000000000000000     
   1.3750000000000000        6.2500000000000000E-002   0.0000000000000000     
   1.2500000000000000        9.3750000000000000E-002   0.0000000000000000     
   1.2812500000000000        9.3750000000000000E-002   0.0000000000000000     
   1.3125000000000000        9.3750000000000000E-002   0.0000000000000000     
   1.3437500000000000        9.3750000000000000E-002   0.0000000000000000     
   1.3750000000000000        9.3750000000000000E-002   0.0000000000000000     
   1.2500000000000000       0.12500000000000000        0.0000000000000000     
   1.2812500000000000       0.12500000000000000        0.0000000000000000     
   1.3125000000000000       0.12500000000000000        0.0000000000000000     
   1.3437500000000000       0.12500000000000000        0.0000000000000000     
   1.3750000000000000       0.12500000000000000        0.0000000000000000     
   1.3750000000000000        0.0000000000000000        0.0000000000000000     
   1.4062500000000000        0.0000000000000000        0.0000000000000000     
   1.4375000000000000        0.0000000000000000        0.0000000000000000     
   1.4687500000000000        0.0000000000000000        0.0000000000000000     
   1.5000000000000000        0.0000000000000000        0.0000000000000000     
   1.3750000000000000        3.1250000000000000E-002   0.0000000000000000     
   1.4062500000000000        3.1250000000000000E-002   0.0000000000000000     
   1.4375000000000000        3.1250000000000000E-002   0.0000000000000000     
   1.4687500000000000        3.1250000000000000E-002   0.0000000000000000     
   1.5000000000000000        3.1250000000000000E-002   0.0000000000000000     
   1.3750000000000000        6.2500000000000000E-002   0.0000000000000000     
   1.4062500000000000        6.2500000000000000E-002   0.0000000000000000     
   1.4375000000000000        6.2500000000000000E-002   0.0000000000000000     
   1.4687500000000000        6.2500000000000000E-002   0.0000000000000000     
   1.5000000000000000        6.2500000000000000E-002   0.0000000000000000     
   1.3750000000000000        9.3750000000000000E-002   0.0000000000000000     
   1.4062500000000000        9.3750000000000000E-002   0.0000000000000000     
   1.4375000000000000        9.3750000000000000E-002   0.0000000000000000     
   1.4687500000000000        9.3750000000000000E-002   0.0000000000000000     
   1.5000000000000000        9.3750000000000000E-002   0.0000000000000000     
   1.3750000000000000       0.12500000000000000        0.0000000000000000     
   1.4062500000000000       0.12500000000000000        0.0000000000000000     
   1.4375000000000000       0.12500000000000000        0.0000000000000000     
   1.4687500000000000       0.12500000000000000        0.0000000000000000     
   1.5000000000000000       0.12500000000000000        0.0000000000000000     
  0.50000000000000000       0.12500000000000000        0.0000000000000000     
  0.53125000000000000       0.12500000000000000        0.0000000000000000     
  0.56250000000000000       0.12500000000000000        0.0000000000000000     
  0.59375000000000000       0.12500000000000000        0.0000000000000000     
  0.62500000000000000       0.12500000000000000        0.0000000000000000     
  0.50000000000000000       0.15625000000000000        0.0000000000000000     
  0.53125000000000000       0.15625000000000000        0.0000000000000000     
  0.56250000000000000       0.15625000000000000        0.0000000000000000     
  0.59375000000000000       0.15625000000000000        0.0000000000000000     
  0.62500000000000000       0.15625000000000000        0.0000000000000000     
  0.50000000000000000       0.18750000000000000        0.0000000000000000     
  0.53125000000000000       0.18750000000000000        0.0000000000000000     
  0.56250000000000000       0.18750000000000000        0.0000000000000000     
  0.59375000000000000       0.18750000000000000        0.0000000000000000     
  0.62500000000000000       0.18750000000000000        0.0000000000000000     
  0.50000000000000000       0.21875000000000000        0.0000000000000000     
  0.53125000000000000       0.21875000000000000        0.0000000000000000     
  0.56250000000000000       0.21875000000000000        0.0000000000000000     
  0.59375000000000000       0.21875000000000000        0.0000000000000000     
  0.62500000000000000       0.21875000000000000        0.0000000000000000     
  0.50000000000000000       0.25000000000000000        0.0000000000000000     
  0.53125000000000000       0.25000000000000000        0.0000000000000000     
  0.56250000000000000       0.25000000000000000        0.0000000000000000     
  0.59375000000000000       0.25000000000000000        0.0000000000000000     
  0.62500000000000000       0.25000000000000000        0.0000000000000000     
  0.62500000000000000       0.12500000000000000        0.0000000000000000     
  0.65625000000000000       0.12500000000000000        0.0000000000000000     
  0.68750000000000000       0.12500000000000000        0.0000000000000000     
  0.71875000000000000       0.12500000000000000        0.0000000000000000     
  0.75000000000000000       0.12500000000000000        0.0000000000000000     
  0.62500000000000000       0.15625000000000000        0.0000000000000000     
  0.65625000000000000       0.15625000000000000        0.0000000000000000     
  0.68750000000000000       0.15625000000000000        0.0000000000000000     
  0.71875000000000000       0.15625000000000000        0.0000000000000000     
  0.75000000000000000       0.15625000000000000        0.0000000000000000     
  0.62500000000000000       0.18750000000000000        0.0000000000000000     
  0.65625000000000000       0.18750000000000000        0.0000000000000000     
  0.68750000000000000       0.18750000000000000        0.0000000000000000     
  0.71875000000000000       0.18750000000000000        0.0000000000000000     
  0.75000000000000000       0.18750000000000000        0.0000000000000000     
  0.62500000000000000       0.21875000000000000        0.0000000000000000     
  0.65625000000000000       0.21875000000000000        0.0000000000000000     
  0.68750000000000000       0.21875000000000000        0.0000000000000000     
  0.71875000000000000       0.21875000000000000        0.0000000000000000     
  0.75000000000000000       0.21875000000000000        0.0000000000000000     
  0.62500000000000000       0.25000000000000000        0.0000000000000000     
  0.65625000000000000       0.25000000000000000        0.0000000000000000     
  0.68750000000000000       0.25000000000000000        0.0000000000000000     
  0.71875000000000000       0.25000000000000000        0.0000000000000000     
  0.75000000000000000       0.25000000000000000        0.0000000000000000     
  0.75000000000000000       0.12500000000000000        0.0000000000000000     
  0.78125000000000000       0.12500000000000000        0.0000000000000000     
  0.81250000000000000       0.12500000000000000        0.0000000000000000     
  0.84375000000000000       0.12500000000000000        0.0000000000000000     
  0.87500000000000000       0.12500000000000000        0.0000000000000000     
  0.75000000000000000       0.15625000000000000        0.0000000000000000     
  0.78125000000000000       0.15625000000000000        0.0000000000000000     
  0.81250000000000000       0.15625000000000000        0.0000000000000000     
  0.84375000000000000       0.15625000000000000        0.0000000000000000     
  0.87500000000000000       0.15625000000000000        0.0000000000000000     
  0.75000000000000000       0.18750000000000000        0.0000000000000000     
  0.78125000000000000       0.18750000000000000        0.0000000000000000     
  0.81250000000000000       0.18750000000000000        0.0000000000000000     
  0.84375000000000000       0.18750000000000000        0.0000000000000000     
  0.87500000000000000       0.18750000000000000        0.0000000000000000     
  0.75000000000000000       0.21875000000000000        0.0000000000000000     
  0.78125000000000000       0.21875000000000000        0.0000000000000000     
  0.81250000000000000       0.21875000000000000        0.0000000000000000     
  0.84375000000000000       0.21875000000000000        0.0000000000000000     
  0.87500000000000000       0.21875000000000000        0.0000000000000000     
  0.75000000000000000       0.25000000000000000        0.0000000000000000     
  0.78125000000000000       0.25000000000000000        0.0000000000000000     
  0.81250000000000000       0.25000000000000000        0.0000000000000000     
  0.84375000000000000       0.25000000000000000        0.0000000000000000     
  0.87500000000000000       0.25000000000000000        0.0000000000000000     
  0.87500000000000000       0.12500000000000000        0.0000000000000000     
  0.90625000000000000       0.12500000000000000        0.0000000000000000     
  0.93750000000000000       0.12500000000000000        0.0000000000000000     
  0.96875000000000000       0.12500000000000000        0.0000000000000000     
   1.0000000000000000       0.12500000000000000        0.0000000000000000     
  0.87500000000000000       0.15625000000000000        0.0000000000000000     
  0.90625000000000000       0.15625000000000000        0.0000000000000000     
  0.93750000000000000       0.15625000000000000        0.0000000000000000     
  0.96875000000000000       0.15625000000000000        0.0000000000000000     
   1.0000000000000000       0.15625000000000000        0.0000000000000000     
  0.87500000000000000       0.18750000000000000        0.0000000000000000     
  0.90625000000000000       0.18750000000000000        0.0000000000000000     
  0.93750000000000000       0.18750000000000000        0.0000000000000000     
  0.96875000000000000       0.18750000000000000        0.0000000000000000     
   1.0000000000000000       0.18750000000000000        0.0000000000000000     
  0.87500000000000000       0.21875000000000000        0.0000000000000000     
  0.90625000000000000       0.21875000000000000        0.0000000000000000     
  0.93750000000000000       0.21875000000000000        0.0000000000000000     
  0.96875000000000000       0.21875000000000000        0.0000000000000000     
   1.0000000000000000       0.21875000000000000        0.0000000000000000     
  0.87500000000000000       0.25000000000000000        0.0000000000000000     
  0.90625000000000000       0.25000000000000000        0.0000000000000000     
  0.93750000000000000       0.25000000000000000        0.0000000000000000     
  0.96875000000000000       0.25000000000000000        0.0000000000000000     
   1.0000000000000000       0.25000000000000000        0.0000000000000000     
   1.0000000000000000       0.12500000000000000        0.0000000000000000     
   1.0312500000000000       0.12500000000000000        0.0000000000000000     
   1.0625000000000000       0.12500000000000000        0.0000000000000000     
   1.0937500000000000       0.12500000000000000        0.0000000000000000     
   1.1250000000000000       0.12500000000000000        0.0000000000000000     
   1.0000000000000000       0.15625000000000000        0.0000000000000000     
   1.0312500000000000       0.15625000000000000        0.0000000000000000     
   1.0625000000000000       0.15625000000000000        0.0000000000000000     
   1.0937500000000000       0.15625000000000000        0.0000000000000000     
   1.1250000000000000       0.15625000000000000        0.0000000000000000     
   1.0000000000000000       0.18750000000000000        0.0000000000000000     
   1.0312500000000000       0.18750000000000000        0.0000000000000000     
   1.0625000000000000       0.18750000000000000        0.0000000000000000     
   1.0937500000000000       0.18750000000000000        0.0000000000000000     
   1.1250000000000000       0.18750000000000000        0.0000000000000000     
   1.0000000000000000       0.21875000000000000        0.0000000000000000     
   1.0312500000000000       0.21875000000000000        0.0000000000000000     
   1.0625000000000000       0.21875000000000000        0.0000000000000000     
   1.0937500000000000       0.21875000000000000        0.0000000000000000     
   1.1250000000000000       0.21875000000000000        0.0000000000000000     
   1.0000000000000000       0.25000000000000000        0.0000000000000000     
   1.0312500000000000       0.25000000000000000        0.0000000000000000     
   1.0625000000000000       0.25000000000000000        0.0000000000000000     
   1.0937500000000000       0.25000000000000000        0.0000000000000000     
   1.1250000000000000       0.25000000000000000        0.0000000000000000     
   1.1250000000000000       0.12500000000000000        0.0000000000000000     
   1.1562500000000000       0.12500000000000000        0.0000000000000000     
   1.1875000000000000       0.12500000000000000        0.0000000000000000     
   1.2187500000000000       0.12500000000000000        0.0000000000000000     
   1.2500000000000000       0.12500000000000000        0.0000000000000000     
   1.1250000000000000       0.15625000000000000        0.0000000000000000     
   1.1562500000000000       0.15625000000000000        0.0000000000000000     
   1.1875000000000000       0.15625000000000000        0.0000000000000000     
   1.2187500000000000       0.15625000000000000        0.0000000000000000     
   1.2500000000000000       0.15625000000000000        0.0000000000000000     
   1.1250000000000000       0.18750000000000000        0.0000000000000000     
   1.1562500000000000       0.18750000000000000        0.0000000000000000     
   1.1875000000000000       0.18750000000000000        0.0000000000000000     
   1.2187500000000000       0.18750000000000000        0.0000000000000000     
   1.2500000000000000       0.18750000000000000        0.0000000000000000     
   1.1250000000000000       0.21875000000000000        0.0000000000000000     
   1.1562500000000000       0.21875000000000000        0.0000000000000000     
   1.1875000000000000       0.21875000000000000        0.0000000000000000     
   1.2187500000000000       0.21875000000000000        0.0000000000000000     
   1.2500000000000000       0.21875000000000000        0.0000000000000000     
   1.1250000000000000       0.25000000000000000        0.0000000000000000     
   1.1562500000000000       0.25000000000000000        0.0000000000000000     
   1.1875000000000000       0.25000000000000000        0.0000000000000000     
   1.2187500000000000       0.25000000000000000        0.0000000000000000     
   1.2500000000000000       0.25000000000000000        0.0000000000000000     
   1.2500000000000000       0.12500000000000000        0.0000000000000000     
   1.2812500000000000       0.12500000000000000        0.0000000000000000     
   1.3125000000000000       0.12500000000000000        0.0000000000000000     
   1.3437500000000000       0.12500000000000000        0.0000000000000000     
   1.3750000000000000       0.12500000000000000        0.0000000000000000     
   1.2500000000000000       0.15625000000000000        0.0000000000000000     
   1.2812500000000000       0.15625000000000000        0.0000000000000000     
   1.3125000000000000       0.15625000000000000        0.0000000000000000     
   1.3437500000000000       0.15625000000000000        0.0000000000000000     
   1.3750000000000000       0.15625000000000000        0.0000000000000000     
   1.2500000000000000       0.18750000000000000        0.0000000000000000     
   1.2812500000000000       0.18750000000000000        0.0000000000000000     
   1.3125000000000000       0.18750000000000000        0.0000000000000000     
   1.3437500000000000       0.18750000000000000        0.0000000000000000     
   1.3750000000000000       0.18750000000000000        0.0000000000000000     
   1.2500000000000000       0.21875000000000000        0.0000000000000000     
   1.2812500000000000       0.21875000000000000        0.0000000000000000     
   1.3125000000000000       0.21875000000000000        0.0000000000000000     
   1.3437500000000000       0.21875000000000000        0.0000000000000000     
   1.3750000000000000       0.21875000000000000        0.0000000000000000     
   1.2500000000000000       0.25000000000000000        0.0000000000000000     
   1.2812500000000000       0.25000000000000000        0.0000000000000000     
   1.3125000000000000       0.25000000000000000        0.0000000000000000     
   1.3437500000000000       0.25000000000000000        0.0000000000000000     
   1.3750000000000000       0.25000000000000000        0.0000000000000000     
   1.3750000000000000       0.12500000000000000        0.0000000000000000     
   1.4062500000000000       0.12500000000000000        0.0000000000000000     
   1.4375000000000000       0.12500000000000000        0.0000000000000000     
   1.4687500000000000       0.12500000000000000        0.0000000000000000     
   1.5000000000000000       0.12500000000000000        0.0000000000000000     
   1.3750000000000000       0.15625000000000000        0.0000000000000000     
   1.4062500000000000       0.15625000000000000        0.0000000000000000     
   1.4375000000000000       0.15625000000000000        0.0000000000000000     
   1.4687500000000000       0.15625000000000000        0.0000000000000000     
   1.5000000000000000       0.15625000000000000        0.0000000000000000     
   1.3750000000000000       0.18750000000000000        0.0000000000000000     
   1.4062500000000000       0.18750000000000000        0.0000000000000000     
   1.4375000000000000       0.18750000000000000        0.0000000000000000     
   1.4687500000000000       0.18750000000000000        0.0000000000000000     
   1.5000000000000000       0.18750000000000000        0.0000000000000000     
   1.3750000000000000       0.21875000000000000        0.0000000000000000     
   1.4062500000000000       0.21875000000000000        0.0000000000000000     
   1.4375000000000000       0.21875000000000000        0.0000000000000000     
   1.4687500000000000       0.21875000000000000        0.0000000000000000     
   1.5000000000000000       0.21875000000000000        0.0000000000000000     
   1.3750000000000000       0.25000000000000000        0.0000000000000000     
   1.4062500000000000       0.25000000000000000        0.0000000000000000     
   1.4375000000000000       0.25000000000000000        0.0000000000000000     
   1.4687500000000000       0.25000000000000000        0.0000000000000000     
   1.5000000000000000       0.25000000000000000        0.0000000000000000     
  0.50000000000000000       0.25000000000000000        0.0000000000000000     
  0.53125000000000000       0.25000000000000000        0.0000000000000000     
  0.56250000000000000       0.25000000000000000        0.0000000000000000     
  0.59375000000000000       0.25000000000000000        0.0000000000000000     
  0.62500000000000000       0.25000000000000000        0.0000000000000000     
  0.50000000000000000       0.28125000000000000        0.0000000000000000     
  0.53125000000000000       0.28125000000000000        0.0000000000000000     
  0.56250000000000000       0.28125000000000000        0.0000000000000000     
  0.59375000000000000       0.28125000000000000        0.0000000000000000     
  0.62500000000000000       0.28125000000000000        0.0000000000000000     
  0.50000000000000000       0.31250000000000000        0.0000000000000000     
  0.53125000000000000       0.31250000000000000        0.0000000000000000     
  0.56250000000000000       0.31250000000000000        0.0000000000000000     
  0.59375000000000000       0.31250000000000000        0.0000000000000000     
  0.62500000000000000       0.31250000000000000        0.0000000000000000     
  0.50000000000000000       0.34375000000000000        0.0000000000000000     
  0.53125000000000000       0.34375000000000000        0.0000000000000000     
  0.56250000000000000       0.34375000000000000        0.0000000000000000     
  0.59375000000000000       0.34375000000000000        0.0000000000000000     
  0.62500000000000000       0.34375000000000000        0.0000000000000000     
  0.50000000000000000       0.37500000000000000        0.0000000000000000     
  0.53125000000000000       0.37500000000000000        0.0000000000000000     
  0.56250000000000000       0.37500000000000000        0.0000000000000000     
  0.59375000000000000       0.37500000000000000        0.0000000000000000     
  0.62500000000000000       0.37500000000000000        0.0000000000000000     
  0.62500000000000000       0.25000000000000000        0.0000000000000000     
  0.65625000000000000       0.25000000000000000        0.0000000000000000     
  0.68750000000000000       0.25000000000000000        0.0000000000000000     
  0.71875000000000000       0.25000000000000000        0.0000000000000000     
  0.75000000000000000       0.25000000000000000        0.0000000000000000     
  0.62500000000000000       0.28125000000000000        0.0000000000000000     
  0.65625000000000000       0.28125000000000000        0.0000000000000000     
  0.68750000000000000       0.28125000000000000        0.0000000000000000     
  0.71875000000000000       0.28125000000000000        0.0000000000000000     
  0.75000000000000000       0.28125000000000000        0.0000000000000000     
  0.62500000000000000       0.31250000000000000        0.0000000000000000     
  0.65625000000000000       0.31250000000000000        0.0000000000000000     
  0.68750000000000000       0.31250000000000000        0.0000000000000000     
  0.71875000000000000       0.31250000000000000        0.0000000000000000     
  0.75000000000000000       0.31250000000000000        0.0000000000000000     
  0.62500000000000000       0.34375000000000000        0.0000000000000000     
  0.65625000000000000       0.34375000000000000        0.0000000000000000     
  0.68750000000000000       0.34375000000000000        0.0000000000000000     
  0.71875000000000000       0.34375000000000000        0.0000000000000000     
  0.75000000000000000       0.34375000000000000        0.0000000000000000     
  0.62500000000000000       0.37500000000000000        0.0000000000000000     
  0.65625000000000000       0.37500000000000000        0.0000000000000000     
  0.68750000000000000       0.37500000000000000        0.0000000000000000     
  0.71875000000000000       0.37500000000000000        0.0000000000000000     
  0.75000000000000000       0.37500000000000000        0.0000000000000000     
  0.75000000000000000       0.25000000000000000        0.0000000000000000     
  0.78125000000000000       0.25000000000000000        0.0000000000000000     
  0.81250000000000000       0.25000000000000000        0.0000000000000000     
  0.84375000000000000       0.25000000000000000        0.0000000000000000     
  0.87500000000000000       0.25000000000000000        0.0000000000000000     
  0.75000000000000000       0.28125000000000000        0.0000000000000000     
  0.78125000000000000       0.28125000000000000        0.0000000000000000     
  0.81250000000000000       0.28125000000000000        0.0000000000000000     
  0.84375000000000000       0.28125000000000000        0.0000000000000000     
  0.87500000000000000       0.28125000000000000        0.0000000000000000     
  0.75000000000000000       0.31250000000000000        0.0000000000000000     
  0.78125000000000000       0.31250000000000000        0.0000000000000000     
  0.81250000000000000       0.31250000000000000        0.0000000000000000     
  0.84375000000000000       0.31250000000000000        0.0000000000000000     
  0.87500000000000000       0.31250000000000000        0.0000000000000000     
  0.75000000000000000       0.34375000000000000        0.0000000000000000     
  0.78125000000000000       0.34375000000000000        0.0000000000000000     
  0.81250000000000000       0.34375000000000000        0.0000000000000000     
  0.84375000000000000       0.34375000000000000        0.0000000000000000     
  0.87500000000000000       0.34375000000000000        0.0000000000000000     
  0.75000000000000000       0.37500000000000000        0.0000000000000000     
  0.78125000000000000       0.37500000000000000        0.0000000000000000     
  0.81250000000000000       0.37500000000000000        0.0000000000000000     
  0.84375000000000000       0.37500000000000000        0.0000000000000000     
  0.87500000000000000       0.37500000000000000        0.0000000000000000     
  0.87500000000000000       0.25000000000000000        0.0000000000000000     
  0.90625000000000000       0.25000000000000000        0.0000000000000000     
  0.93750000000000000       0.25000000000000000        0.0000000000000000     
  0.96875000000000000       0.25000000000000000        0.0000000000000000     
   1.0000000000000000       0.25000000000000000        0.0000000000000000     
  0.87500000000000000       0.28125000000000000        0.0000000000000000     
  0.90625000000000000       0.28125000000000000        0.0000000000000000     
  0.93750000000000000       0.28125000000000000        0.0000000000000000     
  0.96875000000000000       0.28125000000000000        0.0000000000000000     
   1.0000000000000000       0.28125000000000000        0.0000000000000000     
  0.87500000000000000       0.31250000000000000        0.0000000000000000     
  0.90625000000000000       0.31250000000000000        0.0000000000000000     
  0.93750000000000000       0.31250000000000000        0.0000000000000000     
  0.96875000000000000       0.31250000000000000        0.0000000000000000     
   1.0000000000000000       0.31250000000000000        0.0000000000000000     
  0.87500000000000000       0.34375000000000000        0.0000000000000000     
  0.90625000000000000       0.34375000000000000        0.0000000000000000     
  0.93750000000000000       0.34375000000000000        0.0000000000000000     
  0.96875000000000000       0.34375000000000000        0.0000000000000000     
   1.0000000000000000       0.34375000000000000        0.0000000000000000     
  0.87500000000000000       0.37500000000000000        0.0000000000000000     
  0.90625000000000000       0.37500000000000000        0.0000000000000000     
  0.93750000000000000       0.37500000000000000        0.0000000000000000     
  0.96875000000000000       0.37500000000000000        0.0000000000000000     
   1.0000000000000000       0.37500000000000000        0.0000000000000000     
   1.0000000000000000       0.25000000000000000        0.0000000000000000     
   1.0312500000000000       0.25000000000000000        0.0000000000000000     
   1.0625000000000000       0.25000000000000000        0.0000000000000000     
   1.0937500000000000       0.25000000000000000        0.0000000000000000     
   1.1250000000000000       0.25000000000000000        0.0000000000000000     
   1.0000000000000000       0.28125000000000000        0.0000000000000000     
   1.0312500000000000       0.28125000000000000        0.0000000000000000     
   1.0625000000000000       0.28125000000000000        0.0000000000000000     
   1.0937500000000000       0.28125000000000000        0.0000000000000000     
   1.1250000000000000       0.28125000000000000        0.0000000000000000     
   1.0000000000000000       0.31250000000000000        0.0000000000000000     
   1.0312500000000000       0.31250000000000000        0.0000000000000000     
   1.0625000000000000       0.31250000000000000        0.0000000000000000     
   1.0937500000000000       0.31250000000000000        0.0000000000000000     
   1.1250000000000000       0.31250000000000000        0.0000000000000000     
   1.0000000000000000       0.34375000000000000        0.0000000000000000     
   1.0312500000000000       0.34375000000000000        0.0000000000000000     
   1.0625000000000000       0.34375000000000000        0.0000000000000000     
   1.0937500000000000       0.34375000000000000        0.0000000000000000     
   1.1250000000000000       0.34375000000000000        0.0000000000000000     
   1.0000000000000000       0.37500000000000000        0.0000000000000000     
   1.0312500000000000       0.37500000000000000        0.0000000000000000     
   1.0625000000000000       0.37500000000000000        0.0000000000000000     
   1.0937500000000000       0.37500000000000000        0.0000000000000000     
   1.1250000000000000       0.37500000000000000        0.0000000000000000     
   1.1250000000000000       0.25000000000000000        0.0000000000000000     
   1.1562500000000000       0.25000000000000000        0.0000000000000000     
   1.1875000000000000       0.25000000000000000        0.0000000000000000     
   1.2187500000000000       0.25000000000000000        0.0000000000000000     
   1.2500000000000000       0.25000000000000000        0.0000000000000000     
   1.1250000000000000       0.28125000000000000        0.0000000000000000     
   1.1562500000000000       0.28125000000000000        0.0000000000000000     
   1.1875000000000000       0.28125000000000000        0.0000000000000000     
   1.2187500000000000       0.28125000000000000        0.0000000000000000     
   1.2500000000000000       0.28125000000000000        0.0000000000000000     
   1.1250000000000000       0.31250000000000000        0.0000000000000000     
   1.1562500000000000       0.31250000000000000        0.0000000000000000     
   1.1875000000000000       0.31250000000000000        0.0000000000000000     
   1.2187500000000000       0.31250000000000000        0.0000000000000000     
   1.2500000000000000       0.31250000000000000        0.0000000000000000     
   1.1250000000000000       0.34375000000000000        0.0000000000000000     
   1.1562500000000000       0.34375000000000000        0.0000000000000000     
   1.1875000000000000       0.34375000000000000        0.0000000000000000     
   1.2187500000000000       0.34375000000000000        0.0000000000000000     
   1.2500000000000000       0.34375000000000000        0.0000000000000000     
   1.1250000000000000       0.37500000000000000        0.0000000000000000     
   1.1562500000000000       0.37500000000000000        0.0000000000000000     
   1.1875000000000000       0.37500000000000000        0.0000000000000000     
   1.2187500000000000       0.37500000000000000        0.0000000000000000     
   1.2500000000000000       0.37500000000000000        0.0000000000000000     
   1.2500000000000000       0.25000000000000000        0.0000000000000000     
   1.2812500000000000       0.25000000000000000        0.0000000000000000     
   1.3125000000000000       0.25000000000000000        0.0000000000000000     
   1.3437500000000000       0.25000000000000000        0.0000000000000000     
   1.3750000000000000       0.25000000000000000        0.0000000000000000     
   1.2500000000000000       0.28125000000000000        0.0000000000000000     
   1.2812500000000000       0.28125000000000000        0.0000000000000000     
   1.3125000000000000       0.28125000000000000        0.0000000000000000     
   1.3437500000000000       0.28125000000000000        0.0000000000000000     
   1.3750000000000000       0.28125000000000000        0.0000000000000000     
   1.2500000000000000       0.31250000000000000        0.0000000000000000     
   1.2812500000000000       0.31250000000000000        0.0000000000000000     
   1.3125000000000000       0.31250000000000000        0.0000000000000000     
   1.3437500000000000       0.31250000000000000        0.0000000000000000     
   1.3750000000000000       0.31250000000000000        0.0000000000000000     
   1.2500000000000000       0.34375000000000000        0.0000000000000000     
   1.2812500000000000       0.34375000000000000        0.0000000000000000     
   1.3125000000000000       0.34375000000000000        0.0000000000000000     
   1.3437500000000000       0.34375000000000000        0.0000000000000000     
   1.3750000000000000       0.34375000000000000        0.0000000000000000     
   1.2500000000000000       0.37500000000000000        0.0000000000000000     
   1.2812500000000000       0.37500000000000000        0.0000000000000000     
   1.3125000000000000       0.37500000000000000        0.0000000000000000     
   1.3437500000000000       0.37500000000000000        0.0000000000000000     
   1.3750000000000000       0.37500000000000000        0.0000000000000000     
   1.3750000000000000       0.25000000000000000        0.0000000000000000     
   1.4062500000000000       0.25000000000000000        0.0000000000000000     
   1.4375000000000000       0.25000000000000000        0.0000000000000000     
   1.4687500000000000       0.25000000000000000        0.0000000000000000     
   1.5000000000000000       0.25000000000000000        0.0000000000000000     
   1.3750000000000000       0.28125000000000000        0.0000000000000000     
   1.4062500000000000       0.28125000000000000        0.0000000000000000     
   1.4375000000000000       0.28125000000000000        0.0000000000000000     
   1.4687500000000000       0.28125000000000000        0.0000000000000000     
   1.5000000000000000       0.28125000000000000        0.0000000000000000     
   1.3750000000000000       0.31250000000000000        0.0000000000000000     
   1.4062500000000000       0.31250000000000000        0.0000000000000000     
   1.4375000000000000       0.31250000000000000        0.0000000000000000     
   1.4687500000000000       0.31250000000000000        0.0000000000000000     
   1.5000000000000000       0.31250000000000000        0.0000000000000000     
   1.3750000000000000       0.34375000000000000        0.0000000000000000     
   1.4062500000000000       0.34375000000000000        0.0000000000000000     
   1.4375000000000000       0.34375000000000000        0.0000000000000000     
   1.4687500000000000       0.34375000000000000        0.0000000000000000     
   1.5000000000000000       0.34375000000000000        0.0000000000000000     
   1.3750000000000000       0.37500000000000000        0.0000000000000000     
   1.4062500000000000       0.37500000000000000        0.0000000000000000     
   1.4375000000000000       0.37500000000000000        0.0000000000000000     
   1.4687500000000000       0.37500000000000000        0.0000000000000000     
   1.5000000000000000       0.37500000000000000        0.0000000000000000     
  0.50000000000000000       0.37500000000000000        0.0000000000000000     
  0.53125000000000000       0.37500000000000000        0.0000000000000000     
  0.56250000000000000       0.37500000000000000        0.0000000000000000     
  0.59375000000000000       0.37500000000000000        0.0000000000000000     
  0.62500000000000000       0.37500000000000000        0.0000000000000000     
  0.50000000000000000       0.40625000000000000        0.0000000000000000     
  0.53125000000000000       0.40625000000000000        0.0000000000000000     
  0.56250000000000000       0.40625000000000000        0.0000000000000000     
  0.59375000000000000       0.40625000000000000        0.0000000000000000     
  0.62500000000000000       0.40625000000000000        0.0000000000000000     
  0.50000000000000000       0.43750000000000000        0.0000000000000000     
  0.53125000000000000       0.43750000000000000        0.0000000000000000     
  0.56250000000000000       0.43750000000000000        0.0000000000000000     
  0.59375000000000000       0.43750000000000000        0.0000000000000000     
  0.62500000000000000       0.43750000000000000        0.0000000000000000     
  0.50000000000000000       0.46875000000000000        0.0000000000000000     
  0.53125000000000000       0.46875000000000000        0.0000000000000000     
  0.56250000000000000       0.46875000000000000        0.0000000000000000     
  0.59375000000000000       0.46875000000000000        0.0000000000000000     
  0.62500000000000000       0.46875000000000000        0.0000000000000000     
  0.50000000000000000       0.50000000000000000        0.0000000000000000     
  0.53125000000000000       0.50000000000000000        0.0000000000000000     
  0.56250000000000000       0.50000000000000000        0.0000000000000000     
  0.59375000000000000       0.50000000000000000        0.0000000000000000     
  0.62500000000000000       0.50000000000000000        0.0000000000000000     
  0.62500000000000000       0.37500000000000000        0.0000000000000000     
  0.65625000000000000       0.37500000000000000        0.0000000000000000     
  0.68750000000000000       0.37500000000000000        0.0000000000000000     
  0.71875000000000000       0.37500000000000000        0.0000000000000000     
  0.75000000000000000       0.37500000000000000        0.0000000000000000     
  0.62500000000000000       0.40625000000000000        0.0000000000000000     
  0.65625000000000000       0.40625000000000000        0.0000000000000000     
  0.68750000000000000       0.40625000000000000        0.0000000000000000     
  0.71875000000000000       0.40625000000000000        0.0000000000000000     
  0.75000000000000000       0.40625000000000000        0.0000000000000000     
  0.62500000000000000       0.43750000000000000        0.0000000000000000     
  0.65625000000000000       0.43750000000000000        0.0000000000000000     
  0.68750000000000000       0.43750000000000000        0.0000000000000000     
  0.71875000000000000       0.43750000000000000        0.0000000000000000     
  0.75000000000000000       0.43750000000000000        0.0000000000000000     
  0.62500000000000000       0.46875000000000000        0.0000000000000000     
  0.65625000000000000       0.46875000000000000        0.0000000000000000     
  0.68750000000000000       0.46875000000000000        0.0000000000000000     
  0.71875000000000000       0.46875000000000000        0.0000000000000000     
  0.75000000000000000       0.46875000000000000        0.0000000000000000     
  0.62500000000000000       0.50000000000000000        0.0000000000000000     
  0.65625000000000000       0.50000000000000000        0.0000000000000000     
  0.68750000000000000       0.50000000000000000        0.0000000000000000     
  0.71875000000000000       0.50000000000000000        0.0000000000000000     
  0.75000000000000000       0.50000000000000000        0.0000000000000000     
  0.75000000000000000       0.37500000000000000        0.0000000000000000     
  0.78125000000000000       0.37500000000000000        0.0000000000000000     
  0.81250000000000000       0.37500000000000000        0.0000000000000000     
  0.84375000000000000       0.37500000000000000        0.0000000000000000     
  0.87500000000000000       0.37500000000000000        0.0000000000000000     
  0.75000000000000000       0.40625000000000000        0.0000000000000000     
  0.78125000000000000       0.40625000000000000        0.0000000000000000     
  0.81250000000000000       0.40625000000000000        0.0000000000000000     
  0.84375000000000000       0.40625000000000000        0.0000000000000000     
  0.87500000000000000       0.40625000000000000        0.0000000000000000     
  0.75000000000000000       0.43750000000000000        0.0000000000000000     
  0.78125000000000000       0.43750000000000000        0.0000000000000000     
  0.81250000000000000       0.43750000000000000        0.0000000000000000     
  0.84375000000000000       0.43750000000000000        0.0000000000000000     
  0.87500000000000000       0.43750000000000000        0.0000000000000000     
  0.75000000000000000       0.46875000000000000        0.0000000000000000     
  0.78125000000000000       0.46875000000000000        0.0000000000000000     
  0.81250000000000000       0.46875000000000000        0.0000000000000000     
  0.84375000000000000       0.46875000000000000        0.0000000000000000     
  0.87500000000000000       0.46875000000000000        0.0000000000000000     
  0.75000000000000000       0.50000000000000000        0.0000000000000000     
  0.78125000000000000       0.50000000000000000        0.0000000000000000     
  0.81250000000000000       0.50000000000000000        0.0000000000000000     
  0.84375000000000000       0.50000000000000000        0.0000000000000000     
  0.87500000000000000       0.50000000000000000        0.0000000000000000     
  0.87500000000000000       0.37500000000000000        0.0000000000000000     
  0.90625000000000000       0.37500000000000000        0.0000000000000000     
  0.93750000000000000       0.37500000000000000        0.0000000000000000     
  0.96875000000000000       0.37500000000000000        0.0000000000000000     
   1.0000000000000000       0.37500000000000000        0.0000000000000000     
  0.87500000000000000       0.40625000000000000        0.0000000000000000     
  0.90625000000000000       0.40625000000000000        0.0000000000000000     
  0.93750000000000000       0.40625000000000000        0.0000000000000000     
  0.96875000000000000       0.40625000000000000        0.0000000000000000     
   1.0000000000000000       0.40625000000000000        0.0000000000000000     
  0.87500000000000000       0.43750000000000000        0.0000000000000000     
  0.90625000000000000       0.43750000000000000        0.0000000000000000     
  0.93750000000000000       0.43750000000000000        0.0000000000000000     
  0.96875000000000000       0.43750000000000000        0.0000000000000000     
   1.0000000000000000       0.43750000000000000        0.0000000000000000     
  0.87500000000000000       0.46875000000000000        0.0000000000000000     
  0.90625000000000000       0.46875000000000000        0.0000000000000000     
  0.93750000000000000       0.46875000000000000        0.0000000000000000     
  0.96875000000000000       0.46875000000000000        0.0000000000000000     
   1.0000000000000000       0.46875000000000000        0.0000000000000000     
  0.87500000000000000       0.50000000000000000        0.0000000000000000     
  0.90625000000000000       0.50000000000000000        0.0000000000000000     
  0.93750000000000000       0.50000000000000000        0.0000000000000000     
  0.96875000000000000       0.50000000000000000        0.0000000000000000     
   1.0000000000000000       0.50000000000000000        0.0000000000000000     
   1.0000000000000000       0.37500000000000000        0.0000000000000000     
   1.0312500000000000       0.37500000000000000        0.0000000000000000     
   1.0625000000000000       0.37500000000000000        0.0000000000000000     
   1.0937500000000000       0.37500000000000000        0.0000000000000000     
   1.1250000000000000       0.37500000000000000        0.0000000000000000     
   1.0000000000000000       0.40625000000000000        0.0000000000000000     
   1.0312500000000000       0.40625000000000000        0.0000000000000000     
   1.0625000000000000       0.40625000000000000        0.0000000000000000     
   1.0937500000000000       0.40625000000000000        0.0000000000000000     
   1.1250000000000000       0.40625000000000000        0.0000000000000000     
   1.0000000000000000       0.43750000000000000        0.0000000000000000     
   1.0312500000000000       0.43750000000000000        0.0000000000000000     
   1.0625000000000000       0.43750000000000000        0.0000000000000000     
   1.0937500000000000       0.43750000000000000        0.0000000000000000     
   1.1250000000000000       0.43750000000000000        0.0000000000000000     
   1.0000000000000000       0.46875000000000000        0.0000000000000000     
   1.0312500000000000       0.46875000000000000        0.0000000000000000     
   1.0625000000000000       0.46875000000000000        0.0000000000000000     
   1.0937500000000000       0.46875000000000000        0.0000000000000000     
   1.1250000000000000       0.46875000000000000        0.0000000000000000     
   1.0000000000000000       0.50000000000000000        0.0000000000000000     
   1.0312500000000000       0.50000000000000000        0.0000000000000000     
   1.0625000000000000       0.50000000000000000        0.0000000000000000     
   1.0937500000000000       0.50000000000000000        0.0000000000000000     
   1.1250000000000000       0.50000000000000000        0.0000000000000000     
   1.1250000000000000       0.37500000000000000        0.0000000000000000     
   1.1562500000000000       0.37500000000000000        0.0000000000000000     
   1.1875000000000000       0.37500000000000000        0.0000000000000000     
   1.2187500000000000       0.37500000000000000        0.0000000000000000     
   1.2500000000000000       0.37500000000000000        0.0000000000000000     
   1.1250000000000000       0.40625000000000000        0.0000000000000000     
   1.1562500000000000       0.40625000000000000        0.0000000000000000     
   1.1875000000000000       0.40625000000000000        0.0000000000000000     
   1.2187500000000000       0.40625000000000000        0.0000000000000000     
   1.2500000000000000       0.40625000000000000        0.0000000000000000     
   1.1250000000000000       0.43750000000000000        0.0000000000000000     
   1.1562500000000000       0.43750000000000000        0.0000000000000000     
   1.1875000000000000       0.43750000000000000        0.0000000000000000     
   1.2187500000000000       0.43750000000000000        0.0000000000000000     
   1.2500000000000000       0.43750000000000000        0.0000000000000000     
   1.1250000000000000       0.46875000000000000        0.0000000000000000     
   1.1562500000000000       0.46875000000000000        0.0000000000000000     
   1.1875000000000000       0.46875000000000000        0.0000000000000000     
   1.2187500000000000       0.46875000000000000        0.0000000000000000     
   1.2500000000000000       0.46875000000000000        0.0000000000000000     
   1.1250000000000000       0.50000000000000000        0.0000000000000000     
   1.1562500000000000       0.50000000000000000        0.0000000000000000     
   1.1875000000000000       0.50000000000000000        0.0000000000000000     
   1.2187500000000000       0.50000000000000000        0.0000000000000000     
   1.2500000000000000       0.50000000000000000        0.0000000000000000     
   1.2500000000000000       0.37500000000000000        0.0000000000000000     
   1.2812500000000000       0.37500000000000000        0.0000000000000000     
   1.3125000000000000       0.37500000000000000        0.0000000000000000     
   1.3437500000000000       0.37500000000000000        0.0000000000000000     
   1.3750000000000000       0.37500000000000000        0.0000000000000000     
   1.2500000000000000       0.40625000000000000        0.0000000000000000     
   1.2812500000000000       0.40625000000000000        0.0000000000000000     
   1.3125000000000000       0.40625000000000000        0.0000000000000000     
   1.3437500000000000       0.40625000000000000        0.0000000000000000     
   1.3750000000000000       0.40625000000000000        0.0000000000000000     
   1.2500000000000000       0.43750000000000000        0.0000000000000000     
   1.2812500000000000       0.43750000000000000        0.0000000000000000     
   1.3125000000000000       0.43750000000000000        0.0000000000000000     
   1.3437500000000000       0.43750000000000000        0.0000000000000000     
   1.3750000000000000       0.43750000000000000        0.0000000000000000     
   1.2500000000000000       0.46875000000000000        0.0000000000000000     
   1.2812500000000000       0.46875000000000000        0.0000000000000000     
   1.3125000000000000       0.46875000000000000        0.0000000000000000     
   1.3437500000000000       0.46875000000000000        0.0000000000000000     
   1.3750000000000000       0.46875000000000000        0.0000000000000000     
   1.2500000000000000       0.50000000000000000        0.0000000000000000     
   1.2812500000000000       0.50000000000000000        0.0000000000000000     
   1.3125000000000000       0.50000000000000000        0.0000000000000000     
   1.3437500000000000       0.50000000000000000        0.0000000000000000     
   1.3750000000000000       0.50000000000000000        0.0000000000000000     
   1.3750000000000000       0.37500000000000000        0.0000000000000000     
   1.4062500000000000       0.37500000000000000        0.0000000000000000     
   1.4375000000000000       0.37500000000000000        0.0000000000000000     
   1.4687500000000000       0.37500000000000000        0.0000000000000000     
   1.5000000000000000       0.37500000000000000        0.0000000000000000     
   1.3750000000000000       0.40625000000000000        0.0000000000000000     
   1.4062500000000000       0.40625000000000000        0.0000000000000000     
   1.4375000000000000       0.40625000000000000        0.0000000000000000     
   1.4687500000000000       0.40625000000000000        0.0000000000000000     
   1.5000000000000000       0.40625000000000000        0.0000000000000000     
   1.3750000000000000       0.43750000000000000        0.0000000000000000     
   1.4062500000000000       0.43750000000000000        0.0000000000000000     
   1.4375000000000000       0.43750000000000000        0.0000000000000000     
   1.4687500000000000       0.43750000000000000        0.0000000000000000     
   1.5000000000000000       0.43750000000000000        0.0000000000000000     
   1.3750000000000000       0.46875000000000000        0.0000000000000000     
   1.4062500000000000       0.46875000000000000        0.0000000000000000     
   1.4375000000000000       0.46875000000000000        0.0000000000000000     
   1.4687500000000000       0.46875000000000000        0.0000000000000000     
   1.5000000000000000       0.46875000000000000        0.0000000000000000     
   1.3750000000000000       0.50000000000000000        0.0000000000000000     
   1.4062500000000000       0.50000000000000000        0.0000000000000000     
   1.4375000000000000       0.50000000000000000        0.0000000000000000     
   1.4687500000000000       0.50000000000000000        0.0000000000000000     
   1.5000000000000000       0.50000000000000000        0.0000000000000000     
  0.50000000000000000       0.50000000000000000        0.0000000000000000     
  0.53125000000000000       0.50000000000000000        0.0000000000000000     
  0.56250000000000000       0.50000000000000000        0.0000000000000000     
  0.59375000000000000       0.50000000000000000        0.0000000000000000     
  0.62500000000000000       0.50000000000000000        0.0000000000000000     
  0.50000000000000000       0.53125000000000000        0.0000000000000000     
  0.53125000000000000       0.53125000000000000        0.0000000000000000     
  0.56250000000000000       0.53125000000000000        0.0000000000000000     
  0.59375000000000000       0.53125000000000000        0.0000000000000000     
  0.62500000000000000       0.53125000000000000        0.0000000000000000     
  0.50000000000000000       0.56250000000000000        0.0000000000000000     
  0.53125000000000000       0.56250000000000000        0.0000000000000000     
  0.56250000000000000       0.56250000000000000        0.0000000000000000     
  0.59375000000000000       0.56250000000000000        0.0000000000000000     
  0.62500000000000000       0.56250000000000000        0.0000000000000000     
  0.50000000000000000       0.59375000000000000        0.0000000000000000     
  0.53125000000000000       0.59375000000000000        0.0000000000000000     
  0.56250000000000000       0.59375000000000000        0.0000000000000000     
  0.59375000000000000       0.59375000000000000        0.0000000000000000     
  0.62500000000000000       0.59375000000000000        0.0000000000000000     
  0.50000000000000000       0.62500000000000000        0.0000000000000000     
  0.53125000000000000       0.62500000000000000        0.0000000000000000     
  0.56250000000000000       0.62500000000000000        0.0000000000000000     
  0.59375000000000000       0.62500000000000000        0.0000000000000000     
  0.62500000000000000       0.62500000000000000        0.0000000000000000     
  0.62500000000000000       0.50000000000000000        0.0000000000000000     
  0.65625000000000000       0.50000000000000000        0.0000000000000000     
  0.68750000000000000       0.50000000000000000        0.0000000000000000     
  0.71875000000000000       0.50000000000000000        0.0000000000000000     
  0.75000000000000000       0.50000000000000000        0.0000000000000000     
  0.62500000000000000       0.53125000000000000        0.0000000000000000     
  0.65625000000000000       0.53125000000000000        0.0000000000000000     
  0.68750000000000000       0.53125000000000000        0.0000000000000000     
  0.71875000000000000       0.53125000000000000        0.0000000000000000     
  0.75000000000000000       0.53125000000000000        0.0000000000000000     
  0.62500000000000000       0.56250000000000000        0.0000000000000000     
  0.65625000000000000       0.56250000000000000        0.0000000000000000     
  0.68750000000000000       0.56250000000000000        0.0000000000000000     
  0.71875000000000000       0.56250000000000000        0.0000000000000000     
  0.75000000000000000       0.56250000000000000        0.0000000000000000     
  0.62500000000000000       0.59375000000000000        0.0000000000000000     
  0.65625000000000000       0.59375000000000000        0.0000000000000000     
  0.68750000000000000       0.59375000000000000        0.0000000000000000     
  0.71875000000000000       0.59375000000000000        0.0000000000000000     
  0.75000000000000000       0.59375000000000000        0.0000000000000000     
  0.62500000000000000       0.62500000000000000        0.0000000000000000     
  0.65625000000000000       0.62500000000000000        0.0000000000000000     
  0.68750000000000000       0.62500000000000000        0.0000000000000000     
  0.71875000000000000       0.62500000000000000        0.0000000000000000     
  0.75000000000000000       0.62500000000000000        0.0000000000000000     
  0.75000000000000000       0.50000000000000000        0.0000000000000000     
  0.78125000000000000       0.50000000000000000        0.0000000000000000     
  0.81250000000000000       0.50000000000000000        0.0000000000000000     
  0.84375000000000000       0.50000000000000000        0.0000000000000000     
  0.87500000000000000       0.50000000000000000        0.0000000000000000     
  0.75000000000000000       0.53125000000000000        0.0000000000000000     
  0.78125000000000000       0.53125000000000000        0.0000000000000000     
  0.81250000000000000       0.53125000000000000        0.0000000000000000     
  0.84375000000000000       0.53125000000000000        0.0000000000000000     
  0.87500000000000000       0.53125000000000000        0.0000000000000000     
  0.75000000000000000       0.56250000000000000        0.0000000000000000     
  0.78125000000000000       0.56250000000000000        0.0000000000000000     
  0.81250000000000000       0.56250000000000000        0.0000000000000000     
  0.84375000000000000       0.56250000000000000        0.0000000000000000     
  0.87500000000000000       0.56250000000000000        0.0000000000000000     
  0.75000000000000000       0.59375000000000000        0.0000000000000000     
  0.78125000000000000       0.59375000000000000        0.0000000000000000     
  0.81250000000000000       0.59375000000000000        0.0000000000000000     
  0.84375000000000000       0.59375000000000000        0.0000000000000000     
  0.87500000000000000       0.59375000000000000        0.0000000000000000     
  0.75000000000000000       0.62500000000000000        0.0000000000000000     
  0.78125000000000000       0.62500000000000000        0.0000000000000000     
  0.81250000000000000       0.62500000000000000        0.0000000000000000     
  0.84375000000000000       0.62500000000000000        0.0000000000000000     
  0.87500000000000000       0.62500000000000000        0.0000000000000000     
  0.87500000000000000       0.50000000000000000        0.0000000000000000     
  0.90625000000000000       0.50000000000000000        0.0000000000000000     
  0.93750000000000000       0.50000000000000000        0.0000000000000000     
  0.96875000000000000       0.50000000000000000        0.0000000000000000     
   1.0000000000000000       0.50000000000000000        0.0000000000000000     
  0.87500000000000000       0.53125000000000000        0.0000000000000000     
  0.90625000000000000       0.53125000000000000        0.0000000000000000     
  0.93750000000000000       0.53125000000000000        0.0000000000000000     
  0.96875000000000000       0.53125000000000000        0.0000000000000000     
   1.0000000000000000       0.53125000000000000        0.0000000000000000     
  0.87500000000000000       0.56250000000000000        0.0000000000000000     
  0.90625000000000000       0.56250000000000000        0.0000000000000000     
  0.93750000000000000       0.56250000000000000        0.0000000000000000     
  0.96875000000000000       0.56250000000000000        0.0000000000000000     
   1.0000000000000000       0.56250000000000000        0.0000000000000000     
  0.87500000000000000       0.59375000000000000        0.0000000000000000     
  0.90625000000000000       0.59375000000000000        0.0000000000000000     
  0.93750000000000000       0.59375000000000000        0.0000000000000000     
  0.96875000000000000       0.59375000000000000        0.0000000000000000     
   1.0000000000000000       0.59375000000000000        0.0000000000000000     
  0.87500000000000000       0.62500000000000000        0.0000000000000000     
  0.90625000000000000       0.62500000000000000        0.0000000000000000     
  0.93750000000000000       0.62500000000000000        0.0000000000000000     
  0.96875000000000000       0.62500000000000000        0.0000000000000000     
   1.0000000000000000       0.62500000000000000        0.0000000000000000     
   1.0000000000000000       0.50000000000000000        0.0000000000000000     
   1.0312500000000000       0.50000000000000000        0.0000000000000000     
   1.0625000000000000       0.50000000000000000        0.0000000000000000     
   1.0937500000000000       0.50000000000000000        0.0000000000000000     
   1.1250000000000000       0.50000000000000000        0.0000000000000000     
   1.0000000000000000       0.53125000000000000        0.0000000000000000     
   1.0312500000000000       0.53125000000000000        0.0000000000000000     
   1.0625000000000000       0.53125000000000000        0.0000000000000000     
   1.0937500000000000       0.53125000000000000        0.0000000000000000     
   1.1250000000000000       0.53125000000000000        0.0000000000000000     
   1.0000000000000000       0.56250000000000000        0.0000000000000000     
   1.0312500000000000       0.56250000000000000        0.0000000000000000     
   1.0625000000000000       0.56250000000000000        0.0000000000000000     
   1.0937500000000000       0.56250000000000000        0.0000000000000000     
   1.1250000000000000       0.56250000000000000        0.0000000000000000     
   1.0000000000000000       0.59375000000000000        0.0000000000000000     
   1.0312500000000000       0.59375000000000000        0.0000000000000000     
   1.0625000000000000       0.59375000000000000        0.0000000000000000     
   1.0937500000000000       0.59375000000000000        0.0000000000000000     
   1.1250000000000000       0.59375000000000000        0.0000000000000000     
   1.0000000000000000       0.62500000000000000        0.0000000000000000     
   1.0312500000000000       0.62500000000000000        0.0000000000000000     
   1.0625000000000000       0.62500000000000000        0.0000000000000000     
   1.0937500000000000       0.62500000000000000        0.0000000000000000     
   1.1250000000000000       0.62500000000000000        0.0000000000000000     
   1.1250000000000000       0.50000000000000000        0.0000000000000000     
   1.1562500000000000       0.50000000000000000        0.0000000000000000     
   1.1875000000000000       0.50000000000000000        0.0000000000000000     
   1.2187500000000000       0.50000000000000000        0.0000000000000000     
   1.2500000000000000       0.50000000000000000        0.0000000000000000     
   1.1250000000000000       0.53125000000000000        0.0000000000000000     
   1.1562500000000000       0.53125000000000000        0.0000000000000000     
   1.1875000000000000       0.53125000000000000        0.0000000000000000     
   1.2187500000000000       0.53125000000000000        0.0000000000000000     
   1.2500000000000000       0.53125000000000000        0.0000000000000000     
   1.1250000000000000       0.56250000000000000        0.0000000000000000     
   1.1562500000000000       0.56250000000000000        0.0000000000000000     
   1.1875000000000000       0.56250000000000000        0.0000000000000000     
   1.2187500000000000       0.56250000000000000        0.0000000000000000     
   1.2500000000000000       0.56250000000000000        0.0000000000000000     
   1.1250000000000000       0.59375000000000000        0.0000000000000000     
   1.1562500000000000       0.59375000000000000        0.0000000000000000     
   1.1875000000000000       0.59375000000000000        0.0000000000000000     
   1.2187500000000000       0.59375000000000000        0.0000000000000000     
   1.2500000000000000       0.59375000000000000        0.0000000000000000     
   1.1250000000000000       0.62500000000000000        0.0000000000000000     
   1.1562500000000000       0.62500000000000000        0.0000000000000000     
   1.1875000000000000       0.62500000000000000        0.0000000000000000     
   1.2187500000000000       0.62500000000000000        0.0000000000000000     
   1.2500000000000000       0.62500000000000000        0.0000000000000000     
   1.2500000000000000       0.50000000000000000        0.0000000000000000     
   1.2812500000000000       0.50000000000000000        0.0000000000000000     
   1.3125000000000000       0.50000000000000000        0.0000000000000000     
   1.3437500000000000       0.50000000000000000        0.0000000000000000     
   1.3750000000000000       0.50000000000000000        0.0000000000000000     
   1.2500000000000000       0.53125000000000000        0.0000000000000000     
   1.2812500000000000       0.53125000000000000        0.0000000000000000     
   1.3125000000000000       0.53125000000000000        0.0000000000000000     
   1.3437500000000000       0.53125000000000000        0.0000000000000000     
   1.3750000000000000       0.53125000000000000        0.0000000000000000     
   1.2500000000000000       0.56250000000000000        0.0000000000000000     
   1.2812500000000000       0.56250000000000000        0.0000000000000000     
   1.3125000000000000       0.56250000000000000        0.0000000000000000     
   1.3437500000000000       0.56250000000000000        0.0000000000000000     
   1.3750000000000000       0.56250000000000000        0.0000000000000000     
   1.2500000000000000       0.59375000000000000        0.0000000000000000     
   1.2812500000000000       0.59375000000000000        0.0000000000000000     
   1.3125000000000000       0.59375000000000000        0.0000000000000000     
   1.3437500000000000       0.59375000000000000        0.0000000000000000     
   1.3750000000000000       0.59375000000000000        0.0000000000000000     
   1.2500000000000000       0.62500000000000000        0.0000000000000000     
   1.2812500000000000       0.62500000000000000        0.0000000000000000     
   1.3125000000000000       0.62500000000000000        0.0000000000000000     
   1.3437500000000000       0.62500000000000000        0.0000000000000000     
   1.3750000000000000       0.62500000000000000        0.0000000000000000     
   1.3750000000000000       0.50000000000000000        0.0000000000000000     
   1.4062500000000000       0.50000000000000000        0.0000000000000000     
   1.4375000000000000       0.50000000000000000        0.0000000000000000     
   1.4687500000000000       0.50000000000000000        0.0000000000000000     
   1.5000000000000000       0.50000000000000000        0.0000000000000000     
   1.3750000000000000       0.53125000000000000        0.0000000000000000     
   1.4062500000000000       0.53125000000000000        0.0000000000000000     
   1.4375000000000000       0.53125000000000000        0.0000000000000000     
   1.4687500000000000       0.53125000000000000        0.0000000000000000     
   1.5000000000000000       0.53125000000000000        0.0000000000000000     
   1.3750000000000000       0.56250000000000000        0.0000000000000000     
   1.4062500000000000       0.56250000000000000        0.0000000000000000     
   1.4375000000000000       0.56250000000000000        0.0000000000000000     
   1.4687500000000000       0.56250000000000000        0.0000000000000000     
   1.5000000000000000       0.56250000000000000        0.0000000000000000     
   1.3750000000000000       0.59375000000000000        0.0000000000000000     
   1.4062500000000000       0.59375000000000000        0.0000000000000000     
   1.4375000000000000       0.59375000000000000        0.0000000000000000     
   1.4687500000000000       0.59375000000000000        0.0000000000000000     
   1.5000000000000000       0.59375000000000000        0.0000000000000000     
   1.3750000000000000       0.62500000000000000        0.0000000000000000     
   1.4062500000000000       0.62500000000000000        0.0000000000000000     
   1.4375000000000000       0.62500000000000000        0.0000000000000000     
   1.4687500000000000       0.62500000000000000        0.0000000000000000     
   1.5000000000000000       0.62500000000000000        0.0000000000000000     
  0.50000000000000000       0.62500000000000000        0.0000000000000000     
  0.53125000000000000       0.62500000000000000        0.0000000000000000     
  0.56250000000000000       0.62500000000000000        0.0000000000000000     
  0.59375000000000000       0.62500000000000000        0.0000000000000000     
  0.62500000000000000       0.62500000000000000        0.0000000000000000     
  0.50000000000000000       0.65625000000000000        0.0000000000000000     
  0.53125000000000000       0.65625000000000000        0.0000000000000000     
  0.56250000000000000       0.65625000000000000        0.0000000000000000     
  0.59375000000000000       0.65625000000000000        0.0000000000000000     
  0.62500000000000000       0.65625000000000000        0.0000000000000000     
  0.50000000000000000       0.68750000000000000        0.0000000000000000     
  0.53125000000000000       0.68750000000000000        0.0000000000000000     
  0.56250000000000000       0.68750000000000000        0.0000000000000000     
  0.59375000000000000       0.68750000000000000        0.0000000000000000     
  0.62500000000000000       0.68750000000000000        0.0000000000000000     
  0.50000000000000000       0.71875000000000000        0.0000000000000000     
  0.53125000000000000       0.71875000000000000        0.0000000000000000     
  0.56250000000000000       0.71875000000000000        0.0000000000000000     
  0.59375000000000000       0.71875000000000000        0.0000000000000000     
  0.62500000000000000       0.71875000000000000        0.0000000000000000     
  0.50000000000000000       0.75000000000000000        0.0000000000000000     
  0.53125000000000000       0.75000000000000000        0.0000000000000000     
  0.56250000000000000       0.75000000000000000        0.0000000000000000     
  0.59375000000000000       0.75000000000000000        0.0000000000000000     
  0.62500000000000000       0.75000000000000000        0.0000000000000000     
  0.62500000000000000       0.62500000000000000        0.0000000000000000     
  0.65625000000000000       0.62500000000000000        0.0000000000000000     
  0.68750000000000000       0.62500000000000000        0.0000000000000000     
  0.71875000000000000       0.62500000000000000        0.0000000000000000     
  0.75000000000000000       0.62500000000000000        0.0000000000000000     
  0.62500000000000000       0.65625000000000000        0.0000000000000000     
  0.65625000000000000       0.65625000000000000        0.0000000000000000     
  0.68750000000000000       0.65625000000000000        0.0000000000000000     
  0.71875000000000000       0.65625000000000000        0.0000000000000000     
  0.75000000000000000       0.65625000000000000        0.0000000000000000     
  0.62500000000000000       0.68750000000000000        0.0000000000000000     
  0.65625000000000000       0.68750000000000000        0.0000000000000000     
  0.68750000000000000       0.68750000000000000        0.0000000000000000     
  0.71875000000000000       0.68750000000000000        0.0000000000000000     
  0.75000000000000000       0.68750000000000000        0.0000000000000000     
  0.62500000000000000       0.71875000000000000        0.0000000000000000     
  0.65625000000000000       0.71875000000000000        0.0000000000000000     
  0.68750000000000000       0.71875000000000000        0.0000000000000000     
  0.71875000000000000       0.71875000000000000        0.0000000000000000     
  0.75000000000000000       0.71875000000000000        0.0000000000000000     
  0.62500000000000000       0.75000000000000000        0.0000000000000000     
  0.65625000000000000       0.75000000000000000        0.0000000000000000     
  0.68750000000000000       0.75000000000000000        0.0000000000000000     
  0.71875000000000000       0.75000000000000000        0.0000000000000000     
  0.75000000000000000       0.75000000000000000        0.0000000000000000     
  0.75000000000000000       0.62500000000000000        0.0000000000000000     
  0.78125000000000000       0.62500000000000000        0.0000000000000000     
  0.81250000000000000       0.62500000000000000        0.0000000000000000     
  0.84375000000000000       0.62500000000000000        0.0000000000000000     
  0.87500000000000000       0.62500000000000000        0.0000000000000000     
  0.75000000000000000       0.65625000000000000        0.0000000000000000     
  0.78125000000000000       0.65625000000000000        0.0000000000000000     
  0.81250000000000000       0.65625000000000000        0.0000000000000000     
  0.84375000000000000       0.65625000000000000        0.0000000000000000     
  0.87500000000000000       0.65625000000000000        0.0000000000000000     
  0.75000000000000000       0.68750000000000000        0.0000000000000000     
  0.78125000000000000       0.68750000000000000        0.0000000000000000     
  0.81250000000000000       0.68750000000000000        0.0000000000000000     
  0.84375000000000000       0.68750000000000000        0.0000000000000000     
  0.87500000000000000       0.68750000000000000        0.0000000000000000     
  0.75000000000000000       0.71875000000000000        0.0000000000000000     
  0.78125000000000000       0.71875000000000000        0.0000000000000000     
  0.81250000000000000       0.71875000000000000        0.0000000000000000     
  0.84375000000000000       0.71875000000000000        0.0000000000000000     
  0.87500000000000000       0.71875000000000000        0.0000000000000000     
  0.75000000000000000       0.75000000000000000        0.0000000000000000     
  0.78125000000000000       0.75000000000000000        0.0000000000000000     
  0.81250000000000000       0.75000000000000000        0.0000000000000000     
  0.84375000000000000       0.75000000000000000        0.0000000000000000     
  0.87500000000000000       0.75000000000000000        0.0000000000000000     
  0.87500000000000000       0.62500000000000000        0.0000000000000000     
  0.90625000000000000       0.62500000000000000        0.0000000000000000     
  0.93750000000000000       0.62500000000000000        0.0000000000000000     
  0.96875000000000000       0.62500000000000000        0.0000000000000000     
   1.0000000000000000       0.62500000000000000        0.0000000000000000     
  0.87500000000000000       0.65625000000000000        0.0000000000000000     
  0.90625000000000000       0.65625000000000000        0.0000000000000000     
  0.93750000000000000       0.65625000000000000        0.0000000000000000     
  0.96875000000000000       0.65625000000000000        0.0000000000000000     
   1.0000000000000000       0.65625000000000000        0.0000000000000000     
  0.87500000000000000       0.68750000000000000        0.0000000000000000     
  0.90625000000000000       0.68750000000000000        0.0000000000000000     
  0.93750000000000000       0.68750000000000000        0.0000000000000000     
  0.96875000000000000       0.68750000000000000        0.0000000000000000     
   1.0000000000000000       0.68750000000000000        0.0000000000000000     
  0.87500000000000000       0.71875000000000000        0.0000000000000000     
  0.90625000000000000       0.71875000000000000        0.0000000000000000     
  0.93750000000000000       0.71875000000000000        0.0000000000000000     
  0.96875000000000000       0.71875000000000000        0.0000000000000000     
   1.0000000000000000       0.71875000000000000        0.0000000000000000     
  0.87500000000000000       0.75000000000000000        0.0000000000000000     
  0.90625000000000000       0.75000000000000000        0.0000000000000000     
  0.93750000000000000       0.75000000000000000        0.0000000000000000     
  0.96875000000000000       0.75000000000000000        0.0000000000000000     
   1.0000000000000000       0.75000000000000000        0.0000000000000000     
   1.0000000000000000       0.62500000000000000        0.0000000000000000     
   1.0312500000000000       0.62500000000000000        0.0000000000000000     
   1.0625000000000000       0.62500000000000000        0.0000000000000000     
   1.0937500000000000       0.62500000000000000        0.0000000000000000     
   1.1250000000000000       0.62500000000000000        0.0000000000000000     
   1.0000000000000000       0.65625000000000000        0.0000000000000000     
   1.0312500000000000       0.65625000000000000        0.0000000000000000     
   1.0625000000000000       0.65625000000000000        0.0000000000000000     
   1.0937500000000000       0.65625000000000000        0.0000000000000000     
   1.1250000000000000       0.65625000000000000        0.0000000000000000     
   1.0000000000000000       0.68750000000000000        0.0000000000000000     
   1.0312500000000000       0.68750000000000000        0.0000000000000000     
   1.0625000000000000       0.68750000000000000        0.0000000000000000     
   1.0937500000000000       0.68750000000000000        0.0000000000000000     
   1.1250000000000000       0.68750000000000000        0.0000000000000000     
   1.0000000000000000       0.71875000000000000        0.0000000000000000     
   1.0312500000000000       0.71875000000000000        0.0000000000000000     
   1.0625000000000000       0.71875000000000000        0.0000000000000000     
   1.0937500000000000       0.71875000000000000        0.0000000000000000     
   1.1250000000000000       0.71875000000000000        0.0000000000000000     
   1.0000000000000000       0.75000000000000000        0.0000000000000000     
   1.0312500000000000       0.75000000000000000        0.0000000000000000     
   1.0625000000000000       0.75000000000000000        0.0000000000000000     
   1.0937500000000000       0.75000000000000000        0.0000000000000000     
   1.1250000000000000       0.75000000000000000        0.0000000000000000     
   1.1250000000000000       0.62500000000000000        0.0000000000000000     
   1.1562500000000000       0.62500000000000000        0.0000000000000000     
   1.1875000000000000       0.62500000000000000        0.0000000000000000     
   1.2187500000000000       0.62500000000000000        0.0000000000000000     
   1.2500000000000000       0.62500000000000000        0.0000000000000000     
   1.1250000000000000       0.65625000000000000        0.0000000000000000     
   1.1562500000000000       0.65625000000000000        0.0000000000000000     
   1.1875000000000000       0.65625000000000000        0.0000000000000000     
   1.2187500000000000       0.65625000000000000        0.0000000000000000     
   1.2500000000000000       0.65625000000000000        0.0000000000000000     
   1.1250000000000000       0.68750000000000000        0.0000000000000000     
   1.1562500000000000       0.68750000000000000        0.0000000000000000     
   1.1875000000000000       0.68750000000000000        0.0000000000000000     
   1.2187500000000000       0.68750000000000000        0.0000000000000000     
   1.2500000000000000       0.68750000000000000        0.0000000000000000     
   1.1250000000000000       0.71875000000000000        0.0000000000000000     
   1.1562500000000000       0.71875000000000000        0.0000000000000000     
   1.1875000000000000       0.71875000000000000        0.0000000000000000     
   1.2187500000000000       0.71875000000000000        0.0000000000000000     
   1.2500000000000000       0.71875000000000000        0.0000000000000000     
   1.1250000000000000       0.75000000000000000        0.0000000000000000     
   1.1562500000000000       0.75000000000000000        0.0000000000000000     
   1.1875000000000000       0.75000000000000000        0.0000000000000000     
   1.2187500000000000       0.75000000000000000        0.0000000000000000     
   1.2500000000000000       0.75000000000000000        0.0000000000000000     
   1.2500000000000000       0.62500000000000000        0.0000000000000000     
   1.2812500000000000       0.62500000000000000        0.0000000000000000     
   1.3125000000000000       0.62500000000000000        0.0000000000000000     
   1.3437500000000000       0.62500000000000000        0.0000000000000000     
   1.3750000000000000       0.62500000000000000        0.0000000000000000     
   1.2500000000000000       0.65625000000000000        0.0000000000000000     
   1.2812500000000000       0.65625000000000000        0.0000000000000000     
   1.3125000000000000       0.65625000000000000        0.0000000000000000     
   1.3437500000000000       0.65625000000000000        0.0000000000000000     
   1.3750000000000000       0.65625000000000000        0.0000000000000000     
   1.2500000000000000       0.68750000000000000        0.0000000000000000     
   1.2812500000000000       0.68750000000000000        0.0000000000000000     
   1.3125000000000000       0.68750000000000000        0.0000000000000000     
   1.3437500000000000       0.68750000000000000        0.0000000000000000     
   1.3750000000000000       0.68750000000000000        0.0000000000000000     
   1.2500000000000000       0.71875000000000000        0.0000000000000000     
   1.2812500000000000       0.71875000000000000        0.0000000000000000     
   1.3125000000000000       0.71875000000000000        0.0000000000000000     
   1.3437500000000000       0.71875000000000000        0.0000000000000000     
   1.3750000000000000       0.71875000000000000        0.0000000000000000     
   1.2500000000000000       0.75000000000000000        0.0000000000000000     
   1.2812500000000000       0.75000000000000000        0.0000000000000000     
   1.3125000000000000       0.75000000000000000        0.0000000000000000     
   1.3437500000000000       0.75000000000000000        0.0000000000000000     
   1.3750000000000000       0.75000000000000000        0.0000000000000000     
   1.3750000000000000       0.62500000000000000        0.0000000000000000     
   1.4062500000000000       0.62500000000000000        0.0000000000000000     
   1.4375000000000000       0.62500000000000000        0.0000000000000000     
   1.4687500000000000       0.62500000000000000        0.0000000000000000     
   1.5000000000000000       0.62500000000000000        0.0000000000000000     
   1.3750000000000000       0.65625000000000000        0.0000000000000000     
   1.4062500000000000       0.65625000000000000        0.0000000000000000     
   1.4375000000000000       0.65625000000000000        0.0000000000000000     
   1.4687500000000000       0.65625000000000000        0.0000000000000000     
   1.5000000000000000       0.65625000000000000        0.0000000000000000     
   1.3750000000000000       0.68750000000000000        0.0000000000000000     
   1.4062500000000000       0.68750000000000000        0.0000000000000000     
   1.4375000000000000       0.68750000000000000        0.0000000000000000     
   1.4687500000000000       0.68750000000000000        0.0000000000000000     
   1.5000000000000000       0.68750000000000000        0.0000000000000000     
   1.3750000000000000       0.71875000000000000        0.0000000000000000     
   1.4062500000000000       0.71875000000000000        0.0000000000000000     
   1.4375000000000000       0.71875000000000000        0.0000000000000000     
   1.4687500000000000       0.71875000000000000        0.0000000000000000     
   1.5000000000000000       0.71875000000000000        0.0000000000000000     
   1.3750000000000000       0.75000000000000000        0.0000000000000000     
   1.4062500000000000       0.75000000000000000        0.0000000000000000     
   1.4375000000000000       0.75000000000000000        0.0000000000000000     
   1.4687500000000000       0.75000000000000000        0.0000000000000000     
   1.5000000000000000       0.75000000000000000        0.0000000000000000     
  0.50000000000000000       0.75000000000000000        0.0000000000000000     
  0.53125000000000000       0.75000000000000000        0.0000000000000000     
  0.56250000000000000       0.75000000000000000        0.0000000000000000     
  0.59375000000000000       0.75000000000000000        0.0000000000000000     
  0.62500000000000000       0.75000000000000000        0.0000000000000000     
  0.50000000000000000       0.78125000000000000        0.0000000000000000     
  0.53125000000000000       0.78125000000000000        0.0000000000000000     
  0.56250000000000000       0.78125000000000000        0.0000000000000000     
  0.59375000000000000       0.78125000000000000        0.0000000000000000     
  0.62500000000000000       0.78125000000000000        0.0000000000000000     
  0.50000000000000000       0.81250000000000000        0.0000000000000000     
  0.53125000000000000       0.81250000000000000        0.0000000000000000     
  0.56250000000000000       0.81250000000000000        0.0000000000000000     
  0.59375000000000000       0.81250000000000000        0.0000000000000000     
  0.62500000000000000       0.81250000000000000        0.0000000000000000     
  0.50000000000000000       0.84375000000000000        0.0000000000000000     
  0.53125000000000000       0.84375000000000000        0.0000000000000000     
  0.56250000000000000       0.84375000000000000        0.0000000000000000     
  0.59375000000000000       0.84375000000000000        0.0000000000000000     
  0.62500000000000000       0.84375000000000000        0.0000000000000000     
  0.50000000000000000       0.87500000000000000        0.0000000000000000     
  0.53125000000000000       0.87500000000000000        0.0000000000000000     
  0.56250000000000000       0.87500000000000000        0.0000000000000000     
  0.59375000000000000       0.87500000000000000        0.0000000000000000     
  0.62500000000000000       0.87500000000000000        0.0000000000000000     
  0.62500000000000000       0.75000000000000000        0.0000000000000000     
  0.65625000000000000       0.75000000000000000        0.0000000000000000     
  0.68750000000000000       0.75000000000000000        0.0000000000000000     
  0.71875000000000000       0.75000000000000000        0.0000000000000000     
  0.75000000000000000       0.75000000000000000        0.0000000000000000     
  0.62500000000000000       0.78125000000000000        0.0000000000000000     
  0.65625000000000000       0.78125000000000000        0.0000000000000000     
  0.68750000000000000       0.78125000000000000        0.0000000000000000     
  0.71875000000000000       0.78125000000000000        0.0000000000000000     
  0.75000000000000000       0.78125000000000000        0.0000000000000000     
  0.62500000000000000       0.81250000000000000        0.0000000000000000     
  0.65625000000000000       0.81250000000000000        0.0000000000000000     
  0.68750000000000000       0.81250000000000000        0.0000000000000000     
  0.71875000000000000       0.81250000000000000        0.0000000000000000     
  0.75000000000000000       0.81250000000000000        0.0000000000000000     
  0.62500000000000000       0.84375000000000000        0.0000000000000000     
  0.65625000000000000       0.84375000000000000        0.0000000000000000     
  0.68750000000000000       0.84375000000000000        0.0000000000000000     
  0.71875000000000000       0.84375000000000000        0.0000000000000000     
  0.75000000000000000       0.84375000000000000        0.0000000000000000     
  0.62500000000000000       0.87500000000000000        0.0000000000000000     
  0.65625000000000000       0.87500000000000000        0.0000000000000000     
  0.68750000000000000       0.87500000000000000        0.0000000000000000     
  0.71875000000000000       0.87500000000000000        0.0000000000000000     
  0.75000000000000000       0.87500000000000000        0.0000000000000000     
  0.75000000000000000       0.75000000000000000        0.0000000000000000     
  0.78125000000000000       0.75000000000000000        0.0000000000000000     
  0.81250000000000000       0.75000000000000000        0.0000000000000000     
  0.84375000000000000       0.75000000000000000        0.0000000000000000     
  0.87500000000000000       0.75000000000000000        0.0000000000000000     
  0.75000000000000000       0.78125000000000000        0.0000000000000000     
  0.78125000000000000       0.78125000000000000        0.0000000000000000     
  0.81250000000000000       0.78125000000000000        0.0000000000000000     
  0.84375000000000000       0.78125000000000000        0.0000000000000000     
  0.87500000000000000       0.78125000000000000        0.0000000000000000     
  0.75000000000000000       0.81250000000000000        0.0000000000000000     
  0.78125000000000000       0.81250000000000000        0.0000000000000000     
  0.81250000000000000       0.81250000000000000        0.0000000000000000     
  0.84375000000000000       0.81250000000000000        0.0000000000000000     
  0.87500000000000000       0.81250000000000000        0.0000000000000000     
  0.75000000000000000       0.84375000000000000        0.0000000000000000     
  0.78125000000000000       0.84375000000000000        0.0000000000000000     
  0.81250000000000000       0.84375000000000000        0.0000000000000000     
  0.84375000000000000       0.84375000000000000        0.0000000000000000     
  0.87500000000000000       0.84375000000000000        0.0000000000000000     
  0.75000000000000000       0.87500000000000000        0.0000000000000000     
  0.78125000000000000       0.87500000000000000        0.0000000000000000     
  0.81250000000000000       0.87500000000000000        0.0000000000000000     
  0.84375000000000000       0.87500000000000000        0.0000000000000000     
  0.87500000000000000       0.87500000000000000        0.0000000000000000     
  0.87500000000000000       0.75000000000000000        0.0000000000000000     
  0.90625000000000000       0.75000000000000000        0.0000000000000000     
  0.93750000000000000       0.75000000000000000        0.0000000000000000     
  0.96875000000000000       0.75000000000000000        0.0000000000000000     
   1.0000000000000000       0.75000000000000000        0.0000000000000000     
  0.87500000000000000       0.78125000000000000        0.0000000000000000     
  0.90625000000000000       0.78125000000000000        0.0000000000000000     
  0.93750000000000000       0.78125000000000000        0.0000000000000000     
  0.96875000000000000       0.78125000000000000        0.0000000000000000     
   1.0000000000000000       0.78125000000000000        0.0000000000000000     
  0.87500000000000000       0.81250000000000000        0.0000000000000000     
  0.90625000000000000       0.81250000000000000        0.0000000000000000     
  0.93750000000000000       0.81250000000000000        0.0000000000000000     
  0.96875000000000000       0.81250000000000000        0.0000000000000000     
   1.0000000000000000       0.81250000000000000        0.0000000000000000     
  0.87500000000000000       0.84375000000000000        0.0000000000000000     
  0.90625000000000000       0.84375000000000000        0.0000000000000000     
  0.93750000000000000       0.84375000000000000        0.0000000000000000     
  0.96875000000000000       0.84375000000000000        0.0000000000000000     
   1.0000000000000000       0.84375000000000000        0.0000000000000000     
  0.87500000000000000       0.87500000000000000        0.0000000000000000     
  0.90625000000000000       0.87500000000000000        0.0000000000000000     
  0.93750000000000000       0.87500000000000000        0.0000000000000000     
  0.96875000000000000       0.87500000000000000        0.0000000000000000     
   1.0000000000000000       0.87500000000000000        0.0000000000000000     
   1.0000000000000000       0.75000000000000000        0.0000000000000000     
   1.0312500000000000       0.75000000000000000        0.0000000000000000     
   1.0625000000000000       0.75000000000000000        0.0000000000000000     
   1.0937500000000000       0.75000000000000000        0.0000000000000000     
   1.1250000000000000       0.75000000000000000        0.0000000000000000     
   1.0000000000000000       0.78125000000000000        0.0000000000000000     
   1.0312500000000000       0.78125000000000000        0.0000000000000000     
   1.0625000000000000       0.78125000000000000        0.0000000000000000     
   1.0937500000000000       0.78125000000000000        0.0000000000000000     
   1.1250000000000000       0.78125000000000000        0.0000000000000000     
   1.0000000000000000       0.81250000000000000        0.0000000000000000     
   1.0312500000000000       0.81250000000000000        0.0000000000000000     
   1.0625000000000000       0.81250000000000000        0.0000000000000000     
   1.0937500000000000       0.81250000000000000        0.0000000000000000     
   1.1250000000000000       0.81250000000000000        0.0000000000000000     
   1.0000000000000000       0.84375000000000000        0.0000000000000000     
   1.0312500000000000       0.84375000000000000        0.0000000000000000     
   1.0625000000000000       0.84375000000000000        0.0000000000000000     
   1.0937500000000000       0.84375000000000000        0.0000000000000000     
   1.1250000000000000       0.84375000000000000        0.0000000000000000     
   1.0000000000000000       0.87500000000000000        0.0000000000000000     
   1.0312500000000000       0.87500000000000000        0.0000000000000000     
   1.0625000000000000       0.87500000000000000        0.0000000000000000     
   1.0937500000000000       0.87500000000000000        0.0000000000000000     
   1.1250000000000000       0.87500000000000000        0.0000000000000000     
   1.1250000000000000       0.75000000000000000        0.0000000000000000     
   1.1562500000000000       0.75000000000000000        0.0000000000000000     
   1.1875000000000000       0.75000000000000000        0.0000000000000000     
   1.2187500000000000       0.75000000000000000        0.0000000000000000     
   1.2500000000000000       0.75000000000000000        0.0000000000000000     
   1.1250000000000000       0.78125000000000000        0.0000000000000000     
   1.1562500000000000       0.78125000000000000        0.0000000000000000     
   1.1875000000000000       0.78125000000000000        0.0000000000000000     
   1.2187500000000000       0.78125000000000000        0.0000000000000000     
   1.2500000000000000       0.78125000000000000        0.0000000000000000     
   1.1250000000000000       0.81250000000000000        0.0000000000000000     
   1.1562500000000000       0.81250000000000000        0.0000000000000000     
   1.1875000000000000       0.81250000000000000        0.0000000000000000     
   1.2187500000000000       0.81250000000000000        0.0000000000000000     
   1.2500000000000000       0.81250000000000000        0.0000000000000000     
   1.1250000000000000       0.84375000000000000        0.0000000000000000     
   1.1562500000000000       0.84375000000000000        0.0000000000000000     
   1.1875000000000000       0.84375000000000000        0.0000000000000000     
   1.2187500000000000       0.84375000000000000        0.0000000000000000     
   1.2500000000000000       0.84375000000000000        0.0000000000000000     
   1.1250000000000000       0.87500000000000000        0.0000000000000000     
   1.1562500000000000       0.87500000000000000        0.0000000000000000     
   1.1875000000000000       0.87500000000000000        0.0000000000000000     
   1.2187500000000000       0.87500000000000000        0.0000000000000000     
   1.2500000000000000       0.87500000000000000        0.0000000000000000     
   1.2500000000000000       0.75000000000000000        0.0000000000000000     
   1.2812500000000000       0.75000000000000000        0.0000000000000000     
   1.3125000000000000       0.75000000000000000        0.0000000000000000     
   1.3437500000000000       0.75000000000000000        0.0000000000000000     
   1.3750000000000000       0.75000000000000000        0.0000000000000000     
   1.2500000000000000       0.78125000000000000        0.0000000000000000     
   1.2812500000000000       0.78125000000000000        0.0000000000000000     
   1.3125000000000000       0.78125000000000000        0.0000000000000000     
   1.3437500000000000       0.78125000000000000        0.0000000000000000     
   1.3750000000000000       0.78125000000000000        0.0000000000000000     
   1.2500000000000000       0.81250000000000000        0.0000000000000000     
   1.2812500000000000       0.81250000000000000        0.0000000000000000     
   1.3125000000000000       0.81250000000000000        0.0000000000000000     
   1.3437500000000000       0.81250000000000000        0.0000000000000000     
   1.3750000000000000       0.81250000000000000        0.0000000000000000     
   1.2500000000000000       0.84375000000000000        0.0000000000000000     
   1.2812500000000000       0.84375000000000000        0.0000000000000000     
   1.3125000000000000       0.84375000000000000        0.0000000000000000     
   1.3437500000000000       0.84375000000000000        0.0000000000000000     
   1.3750000000000000       0.84375000000000000        0.0000000000000000     
   1.2500000000000000       0.87500000000000000        0.0000000000000000     
   1.2812500000000000       0.87500000000000000        0.0000000000000000     
   1.3125000000000000       0.87500000000000000        0.0000000000000000     
   1.3437500000000000       0.87500000000000000        0.0000000000000000     
   1.3750000000000000       0.87500000000000000        0.0000000000000000     
   1.3750000000000000       0.75000000000000000        0.0000000000000000     
   1.4062500000000000       0.75000000000000000        0.0000000000000000     
   1.4375000000000000       0.75000000000000000        0.0000000000000000     
   1.4687500000000000       0.75000000000000000        0.0000000000000000     
   1.5000000000000000       0.75000000000000000        0.0000000000000000     
   1.3750000000000000       0.78125000000000000        0.0000000000000000     
   1.4062500000000000       0.78125000000000000        0.0000000000000000     
   1.4375000000000000       0.78125000000000000        0.0000000000000000     
   1.4687500000000000       0.78125000000000000        0.0000000000000000     
   1.5000000000000000       0.78125000000000000        0.0000000000000000     
   1.3750000000000000       0.81250000000000000        0.0000000000000000     
   1.4062500000000000       0.81250000000000000        0.0000000000000000     
   1.4375000000000000       0.81250000000000000        0.0000000000000000     
   1.4687500000000000       0.81250000000000000        0.0000000000000000     
   1.5000000000000000       0.81250000000000000        0.0000000000000000     
   1.3750000000000000       0.84375000000000000        0.0000000000000000     
   1.4062500000000000       0.84375000000000000        0.0000000000000000     
   1.4375000000000000       0.84375000000000000        0.0000000000000000     
   1.4687500000000000       0.84375000000000000        0.0000000000000000     
   1.5000000000000000       0.84375000000000000        0.0000000000000000     
   1.3750000000000000       0.87500000000000000        0.0000000000000000     
   1.4062500000000000       0.87500000000000000        0.0000000000000000     
   1.4375000000000000       0.87500000000000000        0.0000000000000000     
   1.4687500000000000       0.87500000000000000        0.0000000000000000     
   1.5000000000000000       0.87500000000000000        0.0000000000000000     
  0.50000000000000000       0.87500000000000000        0.0000000000000000     
  0.53125000000000000       0.87500000000000000        0.0000000000000000     
  0.56250000000000000       0.87500000000000000        0.0000000000000000     
  0.59375000000000000       0.87500000000000000        0.0000000000000000     
  0.62500000000000000       0.87500000000000000        0.0000000000000000     
  0.50000000000000000       0.90625000000000000        0.0000000000000000     
  0.53125000000000000       0.90625000000000000        0.0000000000000000     
  0.56250000000000000       0.90625000000000000        0.0000000000000000     
  0.59375000000000000       0.90625000000000000        0.0000000000000000     
  0.62500000000000000       0.90625000000000000        0.0000000000000000     
  0.50000000000000000       0.93750000000000000        0.0000000000000000     
  0.53125000000000000       0.93750000000000000        0.0000000000000000     
  0.56250000000000000       0.93750000000000000        0.0000000000000000     
  0.59375000000000000       0.93750000000000000        0.0000000000000000     
  0.62500000000000000       0.93750000000000000        0.0000000000000000     
  0.50000000000000000       0.96875000000000000        0.0000000000000000     
  0.53125000000000000       0.96875000000000000        0.0000000000000000     
  0.56250000000000000       0.96875000000000000        0.0000000000000000     
  0.59375000000000000       0.96875000000000000        0.0000000000000000     
  0.62500000000000000       0.96875000000000000        0.0000000000000000     
  0.50000000000000000        1.0000000000000000        0.0000000000000000     
  0.53125000000000000        1.0000000000000000        0.0000000000000000     
  0.56250000000000000        1.0000000000000000        0.0000000000000000     
  0.59375000000000000        1.0000000000000000        0.0000000000000000     
  0.62500000000000000        1.0000000000000000        0.0000000000000000     
  0.62500000000000000       0.87500000000000000        0.0000000000000000     
  0.65625000000000000       0.87500000000000000        0.0000000000000000     
  0.68750000000000000       0.87500000000000000        0.0000000000000000     
  0.71875000000000000       0.87500000000000000        0.0000000000000000     
  0.75000000000000000       0.87500000000000000        0.0000000000000000     
  0.62500000000000000       0.90625000000000000        0.0000000000000000     
  0.65625000000000000       0.90625000000000000        0.0000000000000000     
  0.68750000000000000       0.90625000000000000        0.0000000000000000     
  0.71875000000000000       0.90625000000000000        0.0000000000000000     
  0.75000000000000000       0.90625000000000000        0.0000000000000000     
  0.62500000000000000       0.93750000000000000        0.0000000000000000     
  0.65625000000000000       0.93750000000000000        0.0000000000000000     
  0.68750000000000000       0.93750000000000000        0.0000000000000000     
  0.71875000000000000       0.93750000000000000        0.0000000000000000     
  0.75000000000000000       0.93750000000000000        0.0000000000000000     
  0.62500000000000000       0.96875000000000000        0.0000000000000000     
  0.65625000000000000       0.96875000000000000        0.0000000000000000     
  0.68750000000000000       0.96875000000000000        0.0000000000000000     
  0.71875000000000000       0.96875000000000000        0.0000000000000000     
  0.75000000000000000       0.96875000000000000        0.0000000000000000     
  0.62500000000000000        1.0000000000000000        0.0000000000000000     
  0.65625000000000000        1.0000000000000000        0.0000000000000000     
  0.68750000000000000        1.0000000000000000        0.0000000000000000     
  0.71875000000000000        1.0000000000000000        0.0000000000000000     
  0.75000000000000000        1.0000000000000000        0.0000000000000000     
  0.75000000000000000       0.87500000000000000        0.0000000000000000     
  0.78125000000000000       0.87500000000000000        0.0000000000000000     
  0.81250000000000000       0.87500000000000000        0.0000000000000000     
  0.84375000000000000       0.87500000000000000        0.0000000000000000     
  0.87500000000000000       0.87500000000000000        0.0000000000000000     
  0.75000000000000000       0.90625000000000000        0.0000000000000000     
  0.78125000000000000       0.90625000000000000        0.0000000000000000     
  0.81250000000000000       0.90625000000000000        0.0000000000000000     
  0.84375000000000000       0.90625000000000000        0.0000000000000000     
  0.87500000000000000       0.90625000000000000        0.0000000000000000     
  0.75000000000000000       0.93750000000000000        0.0000000000000000     
  0.78125000000000000       0.93750000000000000        0.0000000000000000     
  0.81250000000000000       0.93750000000000000        0.0000000000000000     
  0.84375000000000000       0.93750000000000000        0.0000000000000000     
  0.87500000000000000       0.93750000000000000        0.0000000000000000     
  0.75000000000000000       0.96875000000000000        0.0000000000000000     
  0.78125000000000000       0.96875000000000000        0.0000000000000000     
  0.81250000000000000       0.96875000000000000        0.0000000000000000     
  0.84375000000000000       0.96875000000000000        0.0000000000000000     
  0.87500000000000000       0.96875000000000000        0.0000000000000000     
  0.75000000000000000        1.0000000000000000        0.0000000000000000     
  0.78125000000000000        1.0000000000000000        0.0000000000000000     
  0.81250000000000000        1.0000000000000000        0.0000000000000000     
  0.84375000000000000        1.0000000000000000        0.0000000000000000     
  0.87500000000000000        1.0000000000000000        0.0000000000000000     
  0.87500000000000000       0.87500000000000000        0.0000000000000000     
  0.90625000000000000       0.87500000000000000        0.0000000000000000     
  0.93750000000000000       0.87500000000000000        0.0000000000000000     
  0.96875000000000000       0.87500000000000000        0.0000000000000000     
   1.0000000000000000       0.87500000000000000        0.0000000000000000     
  0.87500000000000000       0.90625000000000000        0.0000000000000000     
  0.90625000000000000       0.90625000000000000        0.0000000000000000     
  0.93750000000000000       0.90625000000000000        0.0000000000000000     
  0.96875000000000000       0.90625000000000000        0.0000000000000000     
   1.0000000000000000       0.90625000000000000        0.0000000000000000     
  0.87500000000000000       0.93750000000000000        0.0000000000000000     
  0.90625000000000000       0.93750000000000000        0.0000000000000000     
  0.93750000000000000       0.93750000000000000        0.0000000000000000     
  0.96875000000000000       0.93750000000000000        0.0000000000000000     
   1.0000000000000000       0.93750000000000000        0.0000000000000000     
  0.87500000000000000       0.96875000000000000        0.0000000000000000     
  0.90625000000000000       0.96875000000000000        0.0000000000000000     
  0.93750000000000000       0.96875000000000000        0.0000000000000000     
  0.96875000000000000       0.96875000000000000        0.0000000000000000     
   1.0000000000000000       0.96875000000000000        0.0000000000000000     
  0.87500000000000000        1.0000000000000000        0.0000000000000000     
  0.90625000000000000        1.0000000000000000        0.0000000000000000     
  0.93750000000000000        1.0000000000000000        0.0000000000000000     
  0.96875000000000000        1.0000000000000000        0.0000000000000000     
   1.0000000000000000        1.0000000000000000        0.0000000000000000     
   1.0000000000000000       0.87500000000000000        0.0000000000000000     
   1.0312500000000000       0.87500000000000000        0.0000000000000000     
   1.0625000000000000       0.87500000000000000        0.0000000000000000     
   1.0937500000000000       0.87500000000000000        0.0000000000000000     
   1.1250000000000000       0.87500000000000000        0.0000000000000000     
   1.0000000000000000       0.90625000000000000        0.0000000000000000     
   1.0312500000000000       0.90625000000000000        0.0000000000000000     
   1.0625000000000000       0.90625000000000000        0.0000000000000000     
   1.0937500000000000       0.90625000000000000        0.0000000000000000     
   1.1250000000000000       0.90625000000000000        0.0000000000000000     
   1.0000000000000000       0.93750000000000000        0.0000000000000000     
   1.0312500000000000       0.93750000000000000        0.0000000000000000     
   1.0625000000000000       0.93750000000000000        0.0000000000000000     
   1.0937500000000000       0.93750000000000000        0.0000000000000000     
   1.1250000000000000       0.93750000000000000        0.0000000000000000     
   1.0000000000000000       0.96875000000000000        0.0000000000000000     
   1.0312500000000000       0.96875000000000000        0.0000000000000000     
   1.0625000000000000       0.96875000000000000        0.0000000000000000     
   1.0937500000000000       0.96875000000000000        0.0000000000000000     
   1.1250000000000000       0.96875000000000000        0.0000000000000000     
   1.0000000000000000        1.0000000000000000        0.0000000000000000     
   1.0312500000000000        1.0000000000000000        0.0000000000000000     
   1.0625000000000000        1.0000000000000000        0.0000000000000000     
   1.0937500000000000        1.0000000000000000        0.0000000000000000     
   1.1250000000000000        1.0000000000000000        0.0000000000000000     
   1.1250000000000000       0.87500000000000000        0.0000000000000000     
   1.1562500000000000       0.87500000000000000        0.0000000000000000     
   1.1875000000000000       0.87500000000000000        0.0000000000000000     
   1.2187500000000000       0.87500000000000000        0.0000000000000000     
   1.2500000000000000       0.87500000000000000        0.0000000000000000     
   1.1250000000000000       0.90625000000000000        0.0000000000000000     
   1.1562500000000000       0.90625000000000000        0.0000000000000000     
   1.1875000000000000       0.90625000000000000        0.0000000000000000     
   1.2187500000000000       0.90625000000000000        0.0000000000000000     
   1.2500000000000000       0.90625000000000000        0.0000000000000000     
   1.1250000000000000       0.93750000000000000        0.0000000000000000     
   1.1562500000000000       0.93750000000000000        0.0000000000000000     
   1.1875000000000000       0.93750000000000000        0.0000000000000000     
   1.2187500000000000       0.93750000000000000        0.0000000000000000     
   1.2500000000000000       0.93750000000000000        0.0000000000000000     
   1.1250000000000000       0.96875000000000000        0.0000000000000000     
   1.1562500000000000       0.96875000000000000        0.0000000000000000     
   1.1875000000000000       0.96875000000000000        0.0000000000000000     
   1.2187500000000000       0.96875000000000000        0.0000000000000000     
   1.2500000000000000       0.96875000000000000        0.0000000000000000     
   1.1250000000000000        1.0000000000000000        0.0000000000000000     
   1.1562500000000000        1.0000000000000000        0.0000000000000000     
   1.1875000000000000        1.0000000000000000        0.0000000000000000     
   1.2187500000000000        1.0000000000000000        0.0000000000000000     
   1.2500000000000000        1.0000000000000000        0.0000000000000000     
   1.2500000000000000       0.87500000000000000        0.0000000000000000     
   1.2812500000000000       0.87500000000000000        0.0000000000000000     
   1.3125000000000000       0.87500000000000000        0.0000000000000000     
   1.3437500000000000       0.87500000000000000        0.0000000000000000     
   1.3750000000000000       0.87500000000000000        0.0000000000000000     
   1.2500000000000000       0.90625000000000000        0.0000000000000000     
   1.2812500000000000       0.90625000000000000        0.0000000000000000     
   1.3125000000000000       0.90625000000000000        0.0000000000000000     
   1.3437500000000000       0.90625000000000000        0.0000000000000000     
   1.3750000000000000       0.90625000000000000        0.0000000000000000     
   1.2500000000000000       0.93750000000000000        0.0000000000000000     
   1.2812500000000000       0.93750000000000000        0.0000000000000000     
   1.3125000000000000       0.93750000000000000        0.0000000000000000     
   1.3437500000000000       0.93750000000000000        0.0000000000000000     
   1.3750000000000000       0.93750000000000000        0.0000000000000000     
   1.2500000000000000       0.96875000000000000        0.0000000000000000     
   1.2812500000000000       0.96875000000000000        0.0000000000000000     
   1.3125000000000000       0.96875000000000000        0.0000000000000000     
   1.3437500000000000       0.96875000000000000        0.0000000000000000     
   1.3750000000000000       0.96875000000000000        0.0000000000000000     
   1.2500000000000000        1.0000000000000000        0.0000000000000000     
   1.2812500000000000        1.0000000000000000        0.0000000000000000     
   1.3125000000000000        1.0000000000000000        0.0000000000000000     
   1.3437500000000000        1.0000000000000000        0.0000000000000000     
   1.3750000000000000        1.0000000000000000        0.0000000000000000     
   1.3750000000000000       0.87500000000000000        0.0000000000000000     
   1.4062500000000000       0.87500000000000000        0.0000000000000000     
   1.4375000000000000       0.87500000000000000        0.0000000000000000     
   1.4687500000000000       0.87500000000000000        0.0000000000000000     
   1.5000000000000000       0.87500000000000000        0.0000000000000000     
   1.3750000000000000       0.90625000000000000        0.0000000000000000     
   1.4062500000000000       0.90625000000000000        0.0000000000000000     
   1.4375000000000000       0.90625000000000000        0.0000000000000000     
   1.4687500000000000       0.90625000000000000        0.0000000000000000     
   1.5000000000000000       0.90625000000000000        0.0000000000000000     
   1.3750000000000000       0.93750000000000000        0.0000000000000000     
   1.4062500000000000       0.93750000000000000        0.0000000000000000     
   1.4375000000000000       0.93750000000000000        0.0000000000000000     
   1.4687500000000000       0.93750000000000000        0.0000000000000000     
   1.5000000000000000       0.93750000000000000        0.0000000000000000     
   1.3750000000000000       0.96875000000000000        0.0000000000000000     
   1.4062500000000000       0.96875000000000000        0.0000000000000000     
   1.4375000000000000       0.96875000000000000        0.0000000000000000     
   1.4687500000000000       0.96875000000000000        0.0000000000000000     
   1.5000000000000000       0.96875000000000000        0.0000000000000000     
   1.3750000000000000        1.0000000000000000        0.0000000000000000     
   1.4062500000000000        1.0000000000000000        0.0000000000000000     
   1.4375000000000000        1.0000000000000000        0.0000000000000000     
   1.4687500000000000        1.0000000000000000        0.0000000000000000     
   1.5000000000000000        1.0000000000000000        0.0000000000000000     
 </DataArray>
 </Points>
 <Cells>
 <DataArray  type="Int32"  Name="connectivity"  format="ascii">
           0           1           6           5
           1           2           7           6
           2           3           8           7
           3           4           9           8
           5           6          11          10
           6           7          12          11
           7           8          13          12
           8           9          14          13
          10          11          16          15
          11          12          17          16
          12          13          18          17
          13          14          19          18
          15          16          21          20
          16          17          22          21
          17          18          23          22
          18          19          24          23
          25          26          31          30
          26          27          32          31
          27          28          33          32
          28          29          34          33
          30          31          36          35
          31          32          37          36
          32          33          38          37
          33          34          39          38
          35          36          41          40
          36          37          42          41
          37          38          43          42
          38          39          44          43
          40          41          46          45
          41          42          47          46
          42          43          48          47
          43          44          49          48
          50          51          56          55
          51          52          57          56
          52          53          58          57
          53          54          59          58
          55          56          61          60
          56          57          62          61
          57          58          63          62
          58          59          64          63
          60          61          66          65
          61          62          67          66
          62          63          68          67
          63          64          69          68
          65          66          71          70
          66          67          72          71
          67          68          73          72
          68          69          74          73
          75          76          81          80
          76          77          82          81
          77          78          83          82
          78          79          84          83
          80          81          86          85
          81          82          87          86
          82          83          88          87
          83          84          89          88
          85          86          91          90
          86          87          92          91
          87          88          93          92
          88          89          94          93
          90          91          96          95
          91          92          97          96
          92          93          98          97
          93          94          99          98
         100         101         106         105
         101         102         107         106
         102         103         108         107
         103         104         109         108
         105         106         111         110
         106         107         112         111
         107         108         113         112
         108         109         114         113
         110         111         116         115
         111         112         117         116
         112         113         118         117
         113         114         119         118
         115         116         121         120
         116         117         122         121
         117         118         123         122
         118         119         124         123
         125         126         131         130
         126         127         132         131
         127         128         133         132
         128         129         134         133
         130         131         136         135
         131         132         137         136
         132         133         138         137
         133         134         139         138
         135         136         141         140
         136         137         142         141
         137         138         143         142
         138         139         144         143
         140         141         146         145
         141         142         147         146
         142         143         148         147
         143         144         149         148
         150         151         156         155
         151         152         157         156
         152         153         158         157
         153         154         159         158
         155         156         161         160
         156         157         162         161
         157         158         163         162
         158         159         164         163
         160         161         166         165
         161         162         167         166
         162         163         168         167
         163         164         169         168
         165         166         171         170
         166         167         172         171
         167         168         173         172
         168         169         174         173
         175         176         181         180
         176         177         182         181
         177         178         183         182
         178         179         184         183
         180         181         186         185
         181         182         187         186
         182         183         188         187
         183         184         189         188
         185         186         191         190
         186         187         192         191
         187         188         193         192
         188         189         194         193
         190         191         196         195
         191         192         197         196
         192         193         198         197
         193         194         199         198
         200         201         206         205
         201         202         207         206
         202         203         208         207
         203         204         209         208
         205         206         211         210
         206         207         212         211
         207         208         213         212
         208         209         214         213
         210         211         216         215
         211         212         217         216
         212         213         218         217
         213         214         219         218
         215         216         221         220
         216         217         222         221
         217         218         223         222
         218         219         224         223
         225         226         231         230
         226         227         232         231
         227         228         233         232
         228         229         234         233
         230         231         236         235
         231         232         237         236
         232         233         238         237
         233         234         239         238
         235         236         241         240
         236         237         242         241
         237         238         243         242
         238         239         244         243
         240         241         246         245
         241         242         247         246
         242         243         248         247
         243         244         249         248
         250         251         256         255
         251         252         257         256
         252         253         258         257
         253         254         259         258
         255         256         261         260
         256         257         262         261
         257         258         263         262
         258         259         264         263
         260         261         266         265
         261         262         267         266
         262         263         268         267
         263         264         269         268
         265         266         271         270
         266         267         272         271
         267         268         273         272
         268         269         274         273
         275         276         281         280
         276         277         282         281
         277         278         283         282
         278         279         284         283
         280         281         286         285
         281         282         287         286
         282         283         288         287
         283         284         289         288
         285         286         291         290
         286         287         292         291
         287         288         293         292
         288         289         294         293
         290         291         296         295
         291         292         297         296
         292         293         298         297
         293         294         299         298
         300         301         306         305
         301         302         307         306
         302         303         308         307
         303         304         309         308
         305         306         311         310
         306         307         312         311
         307         308         313         312
         308         309         314         313
         310         311         316         315
         311         312         317         316
         312         313         318         317
         313         314         319         318
         315         316         321         320
         316         317         322         321
         317         318         323         322
         318         319         324         323
         325         326         331         330
         326         327         332         331
         327         328         333         332
         328         329         334         333
         330         331         336         335
         331         332         337         336
         332         333         338         337
         333         334         339         338
         335         336         341         340
         336         337         342         341
         337         338         343         342
         338         339         344         343
         340         341         346         345
         341         342         347         346
         342         343         348         347
         343         344         349         348
         350         351         356         355
         351         352         357         356
         352         353         358         357
         353         354         359         358
         355         356         361         360
         356         357         362         361
         357         358         363         362
         358         359         364         363
         360         361         366         365
         361         362         367         366
         362         363         368         367
         363         364         369         368
         365         366         371         370
         366         367         372         371
         367         368         373         372
         368         369         374         373
         375         376         381         380
         376         377         382         381
         377         378         383         382
         378         379         384         383
         380         381         386         385
         381         382         387         386
         382         383         388         387
         383         384         389         388
         385         386         391         390
         386         387         392         391
         387         388         393         392
         388         389         394         393
         390         391         396         395
         391         392         397         396
         392         393         398         397
         393         394         399         398
         400         401         406         405
         401         402         407         406
         402         403         408         407
         403         404         409         408
         405         406         411         410
         406         407         412         411
         407         408         413         412
         408         409         414         413
         410         411         416         415
         411         412         417         416
         412         413         418         417
         413         414         419         418
         415         416         421         420
         416         417         422         421
         417         418         423         422
         418         419         424         423
         425         426         431         430
         426         427         432         431
         427         428         433         432
         428         429         434         433
         430         431         436         435
         431         432         437         436
         432         433         438         437
         433         434         439         438
         435         436         441         440
         436         437         442         441
         437         438         443         442
         438         439         444         443
         440         441         446         445
         441         442         447         446
         442         443         448         447
         443         444         449         448
         450         451         456         455
         451         452         457         456
         452         453         458         457
         453         454         459         458
         455         456         461         460
         456         457         462         461
         457         458         463         462
         458         459         464         463
         460         461         466         465
         461         462         467         466
         462         463         468         467
         463         464         469         468
         465         466         471         470
         466         467         472         471
         467         468         473         472
         468         469         474         473
         475         476         481         480
         476         477         482         481
         477         478         483         482
         478         479         484         483
         480         481         486         485
         481         482         487         486
         482         483         488         487
         483         484         489         488
         485         486         491         490
         486         487         492         491
         487         488         493         492
         488         489         494         493
         490         491         496         495
         491         492         497         496
         492         493         498         497
         493         494         499         498
         500         501         506         505
         501         502         507         506
         502         503         508         507
         503         504         509         508
         505         506         511         510
         506         507         512         511
         507         508         513         512
         508         509         514         513
         510         511         516         515
         511         512         517         516
         512         513         518         517
         513         514         519         518
         515         516         521         520
         516         517         522         521
         517         518         523         522
         518         519         524         523
         525         526         531         530
         526         527         532         531
         527         528         533         532
         528         529         534         533
         530         531         536         535
         531         532         537         536
         532         533         538         537
         533         534         539         538
         535         536         541         540
         536         537         542         541
         537         538         543         542
         538         539         544         543
         540         541         546         545
         541         542         547         546
         542         543         548         547
         543         544         549         548
         550         551         556         555
         551         552         557         556
         552         553         558         557
         553         554         559         558
         555         556         561         560
         556         557         562         561
         557         558         563         562
         558         559         564         563
         560         561         566         565
         561         562         567         566
         562         563         568         567
         563         564         569         568
         565         566         571         570
         566         567         572         571
         567         568         573         572
         568         569         574         573
         575         576         581         580
         576         577         582         581
         577         578         583         582
         578         579         584         583
         580         581         586         585
         581         582         587         586
         582         583         588         587
         583         584         589         588
         585         586         591         590
         586         587         592         591
         587         588         593         592
         588         589         594         593
         590         591         596         595
         591         592         597         596
         592         593         598         597
         593         594         599         598
         600         601         606         605
         601         602         607         606
         602         603         608         607
         603         604         609         608
         605         606         611         610
         606         607         612         611
         607         608         613         612
         608         609         614         613
         610         611         616         615
         611         612         617         616
         612         613         618         617
         613         614         619         618
         615         616         621         620
         616         617         622         621
         617         618         623         622
         618         619         624         623
         625         626         631         630
         626         627         632         631
         627         628         633         632
         628         629         634         633
         630         631         636         635
         631         632         637         636
         632         633         638         637
         633         634         639         638
         635         636         641         640
         636         637         642         641
         637         638         643         642
         638         639         644         643
         640         641         646         645
         641         642         647         646
         642         643         648         647
         643         644         649         648
         650         651         656         655
         651         652         657         656
         652         653         658         657
         653         654         659         658
         655         656         661         660
         656         657         662         661
         657         658         663         662
         658         659         664         663
         660         661         666         665
         661         662         667         666
         662         663         668         667
         663         664         669         668
         665         666         671         670
         666         667         672         671
         667         668         673         672
         668         669         674         673
         675         676         681         680
         676         677         682         681
         677         678         683         682
         678         679         684         683
         680         681         686         685
         681         682         687         686
         682         683         688         687
         683         684         689         688
         685         686         691         690
         686         687         692         691
         687         688         693         692
         688         689         694         693
         690         691         696         695
         691         692         697         696
         692         693         698         697
         693         694         699         698
         700         701         706         705
         701         702         707         706
         702         703         708         707
         703         704         709         708
         705         706         711         710
         706         707         712         711
         707         708         713         712
         708         709         714         713
         710         711         716         715
         711         712         717         716
         712         713         718         717
         713         714         719         718
         715         716         721         720
         716         717         722         721
         717         718         723         722
         718         719         724         723
         725         726         731         730
         726         727         732         731
         727         728         733         732
         728         729         734         733
         730         731         736         735
         731         732         737         736
         732         733         738         737
         733         734         739         738
         735         736         741         740
         736         737         742         741
         737         738         743         742
         738         739         744         743
         740         741         746         745
         741         742         747         746
         742         743         748         747
         743         744         749         748
         750         751         756         755
         751         752         757         756
         752         753         758         757
         753         754         759         758
         755         756         761         760
         756         757         762         761
         757         758         763         762
         758         759         764         763
         760         761         766         765
         761         762         767         766
         762         763         768         767
         763         764         769         768
         765         766         771         770
         766         767         772         771
         767         768         773         772
         768         769         774         773
         775         776         781         780
         776         777         782         781
         777         778         783         782
         778         779         784         783
         780         781         786         785
         781         782         787         786
         782         783         788         787
         783         784         789         788
         785         786         791         790
         786         787         792         791
         787         788         793         792
         788         789         794         793
         790         791         796         795
         791         792         797         796
         792         793         798         797
         793         794         799         798
         800         801         806         805
         801         802         807         806
         802         803         808         807
         803         804         809         808
         805         806         811         810
         806         807         812         811
         807         808         813         812
         808         809         814         813
         810         811         816         815
         811         812         817         816
         812         813         818         817
         813         814         819         818
         815         816         821         820
         816         817         822         821
         817         818         823         822
         818         819         824         823
         825         826         831         830
         826         827         832         831
         827         828         833         832
         828         829         834         833
         830         831         836         835
         831         832         837         836
         832         833         838         837
         833         834         839         838
         835         836         841         840
         836         837         842         841
         837         838         843         842
         838         839         844         843
         840         841         846         845
         841         842         847         846
         842         843         848         847
         843         844         849         848
         850         851         856         855
         851         852         857         856
         852         853         858         857
         853         854         859         858
         855         856         861         860
         856         857         862         861
         857         858         863         862
         858         859         864         863
         860         861         866         865
         861         862         867         866
         862         863         868         867
         863         864         869         868
         865         866         871         870
         866         867         872         871
         867         868         873         872
         868         869         874         873
         875         876         881         880
         876         877         882         881
         877         878         883         882
         878         879         884         883
         880         881         886         885
         881         882         887         886
         882         883         888         887
         883         884         889         888
         885         886         891         890
         886         887         892         891
         887         888         893         892
         888         889         894         893
         890         891         896         895
         891         892         897         896
         892         893         898         897
         893         894         899         898
         900         901         906         905
         901         902         907         906
         902         903         908         907
         903         904         909         908
         905         906         911         910
         906         907         912         911
         907         908         913         912
         908         909         914         913
         910         911         916         915
         911         912         917         916
         912         913         918         917
         913         914         919         918
         915         916         921         920
         916         917         922         921
         917         918         923         922
         918         919         924         923
         925         926         931         930
         926         927         932         931
         927         928         933         932
         928         929         934         933
         930         931         936         935
         931         932         937         936
         932         933         938         937
         933         934         939         938
         935         936         941         940
         936         937         942         941
         937         938         943         942
         938         939         944         943
         940         941         946         945
         941         942         947         946
         942         943         948         947
         943         944         949         948
         950         951         956         955
         951         952         957         956
         952         953         958         957
         953         954         959         958
         955         956         961         960
         956         957         962         961
         957         958         963         962
         958         959         964         963
         960         961         966         965
         961         962         967         966
         962         963         968         967
         963         964         969         968
         965         966         971         970
         966         967         972         971
         967         968         973         972
         968         969         974         973
         975         976         981         980
         976         977         982         981
         977         978         983         982
         978         979         984         983
         980         981         986         985
         981         982         987         986
         982         983         988         987
         983         984         989         988
         985         986         991         990
         986         987         992         991
         987         988         993         992
         988         989         994         993
         990         991         996         995
         991         992         997         996
         992         993         998         997
         993         994         999         998
        1000        1001        1006        1005
        1001        1002        1007        1006
        1002        1003        1008        1007
        1003        1004        1009        1008
        1005        1006        1011        1010
        1006        1007        1012        1011
        1007        1008        1013        1012
        1008        1009        1014        1013
        1010        1011        1016        1015
        1011        1012        1017        1016
        1012        1013        1018        1017
        1013        1014        1019        1018
        1015        1016        1021        1020
        1016        1017        1022        1021
        1017        1018        1023        1022
        1018        1019        1024        1023
        1025        1026        1031        1030
        1026        1027        1032        1031
        1027        1028        1033        1032
        1028        1029        1034        1033
        1030        1031        1036        1035
        1031        1032        1037        1036
        1032        1033        1038        1037
        1033        1034        1039        1038
        1035        1036        1041        1040
        1036        1037        1042        1041
        1037        1038        1043        1042
        1038        1039        1044        1043
        1040        1041        1046        1045
        1041        1042        1047        1046
        1042        1043        1048        1047
        1043        1044        1049        1048
        1050        1051        1056        1055
        1051        1052        1057        1056
        1052        1053        1058        1057
        1053        1054        1059        1058
        1055        1056        1061        1060
        1056        1057        1062        1061
        1057        1058        1063        1062
        1058        1059        1064        1063
        1060        1061        1066        1065
        1061        1062        1067        1066
        1062        1063        1068        1067
        1063        1064        1069        1068
        1065        1066        1071        1070
        1066        1067        1072        1071
        1067        1068        1073        1072
        1068        1069        1074        1073
        1075        1076        1081        1080
        1076        1077        1082        1081
        1077        1078        1083        1082
        1078        1079        1084        1083
        1080        1081        1086        1085
        1081        1082        1087        1086
        1082        1083        1088        1087
        1083        1084        1089        1088
        1085        1086        1091        1090
        1086        1087        1092        1091
        1087        1088        1093        1092
        1088        1089        1094        1093
        1090        1091        1096        1095
        1091        1092        1097        1096
        1092        1093        1098        1097
        1093        1094        1099        1098
        1100        1101        1106        1105
        1101        1102        1107        1106
        1102        1103        1108        1107
        1103        1104        1109        1108
        1105        1106        1111        1110
        1106        1107        1112        1111
        1107        1108        1113        1112
        1108        1109        1114        1113
        1110        1111        1116        1115
        1111        1112        1117        1116
        1112        1113        1118        1117
        1113        1114        1119        1118
        1115        1116        1121        1120
        1116        1117        1122        1121
        1117        1118        1123        1122
        1118        1119        1124        1123
        1125        1126        1131        1130
        1126        1127        1132        1131
        1127        1128        1133        1132
        1128        1129        1134        1133
        1130        1131        1136        1135
        1131        1132        1137        1136
        1132        1133        1138        1137
        1133        1134        1139        1138
        1135        1136        1141        1140
        1136        1137        1142        1141
        1137        1138        1143        1142
        1138        1139        1144        1143
        1140        1141        1146        1145
        1141        1142        1147        1146
        1142        1143        1148        1147
        1143        1144        1149        1148
        1150        1151        1156        1155
        1151        1152        1157        1156
        1152        1153        1158        1157
        1153        1154        1159        1158
        1155        1156        1161        1160
        1156        1157        1162        1161
        1157        1158        1163        1162
        1158        1159        1164        1163
        1160        1161        1166        1165
        1161        1162        1167        1166
        1162        1163        1168        1167
        1163        1164        1169        1168
        1165        1166        1171        1170
        1166        1167        1172        1171
        1167        1168        1173        1172
        1168        1169        1174        1173
        1175        1176        1181        1180
        1176        1177        1182        1181
        1177        1178        1183        1182
        1178        1179        1184        1183
        1180        1181        1186        1185
        1181        1182        1187        1186
        1182        1183        1188        1187
        1183        1184        1189        1188
        1185        1186        1191        1190
        1186        1187        1192        1191
        1187        1188        1193        1192
        1188        1189        1194        1193
        1190        1191        1196        1195
        1191        1192        1197        1196
        1192        1193        1198        1197
        1193        1194        1199        1198
        1200        1201        1206        1205
        1201        1202        1207        1206
        1202        1203        1208        1207
        1203        1204        1209        1208
        1205        1206        1211        1210
        1206        1207        1212        1211
        1207        1208        1213        1212
        1208        1209        1214        1213
        1210        1211        1216        1215
        1211        1212        1217        1216
        1212        1213        1218        1217
        1213        1214        1219        1218
        1215        1216        1221        1220
        1216        1217        1222        1221
        1217        1218        1223        1222
        1218        1219        1224        1223
        1225        1226        1231        1230
        1226        1227        1232        1231
        1227        1228        1233        1232
        1228        1229        1234        1233
        1230        1231        1236        1235
        1231        1232        1237        1236
        1232        1233        1238        1237
        1233        1234        1239        1238
        1235        1236        1241        1240
        1236        1237        1242        1241
        1237        1238        1243        1242
        1238        1239        1244        1243
        1240        1241        1246        1245
        1241        1242        1247        1246
        1242        1243        1248        1247
        1243        1244        1249        1248
        1250        1251        1256        1255
        1251        1252        1257        1256
        1252        1253        1258        1257
        1253        1254        1259        1258
        1255        1256        1261        1260
        1256        1257        1262        1261
        1257        1258        1263        1262
        1258        1259        1264        1263
        1260        1261        1266        1265
        1261        1262        1267        1266
        1262        1263        1268        1267
        1263        1264        1269        1268
        1265        1266        1271        1270
        1266        1267        1272        1271
        1267        1268        1273        1272
        1268        1269        1274        1273
        1275        1276        1281        1280
        1276        1277        1282        1281
        1277        1278        1283        1282
        1278        1279        1284        1283
        1280        1281        1286        1285
        1281        1282        1287        1286
        1282        1283        1288        1287
        1283        1284        1289        1288
        1285        1286        1291        1290
        1286        1287        1292        1291
        1287        1288        1293        1292
        1288        1289        1294        1293
        1290        1291        1296        1295
        1291        1292        1297        1296
        1292        1293        1298        1297
        1293        1294        1299        1298
        1300        1301        1306        1305
        1301        1302        1307        1306
        1302        1303        1308        1307
        1303        1304        1309        1308
        1305        1306        1311        1310
        1306        1307        1312        1311
        1307        1308        1313        1312
        1308        1309        1314        1313
        1310        1311        1316        1315
        1311        1312        1317        1316
        1312        1313        1318        1317
        1313        1314        1319        1318
        1315        1316        1321        1320
        1316        1317        1322        1321
        1317        1318        1323        1322
        1318        1319        1324        1323
        1325        1326        1331        1330
        1326        1327        1332        1331
        1327        1328        1333        1332
        1328        1329        1334        1333
        1330        1331        1336        1335
        1331        1332        1337        1336
        1332        1333        1338        1337
        1333        1334        1339        1338
        1335        1336        1341        1340
        1336        1337        1342        1341
        1337        1338        1343        1342
        1338        1339        1344        1343
        1340        1341        1346        1345
        1341        1342        1347        1346
        1342        1343        1348        1347
        1343        1344        1349        1348
        1350        1351        1356        1355
        1351        1352        1357        1356
        1352        1353        1358        1357
        1353        1354        1359        1358
        1355        1356        1361        1360
        1356        1357        1362        1361
        1357        1358        1363        1362
        1358        1359        1364        1363
        1360        1361        1366        1365
        1361        1362        1367        1366
        1362        1363        1368        1367
        1363        1364        1369        1368
        1365        1366        1371        1370
        1366        1367        1372        1371
        1367        1368        1373        1372
        1368        1369        1374        1373
        1375        1376        1381        1380
        1376        1377        1382        1381
        1377        1378        1383        1382
        1378        1379        1384        1383
        1380        1381        1386        1385
        1381        1382        1387        1386
        1382        1383        1388        1387
        1383        1384        1389        1388
        1385        1386        1391        1390
        1386        1387        1392        1391
        1387        1388        1393        1392
        1388        1389        1394        1393
        1390        1391        1396        1395
        1391        1392        1397        1396
        1392        1393        1398        1397
        1393        1394        1399        1398
        1400        1401        1406        1405
        1401        1402        1407        1406
        1402        1403        1408        1407
        1403        1404        1409        1408
        1405        1406        1411        1410
        1406        1407        1412        1411
        1407        1408        1413        1412
        1408        1409        1414        1413
        1410        1411        1416        1415
        1411        1412        1417        1416
        1412        1413        1418        1417
        1413        1414        1419        1418
        1415        1416        1421        1420
        1416        1417        1422        1421
        1417        1418        1423        1422
        1418        1419        1424        1423
        1425        1426        1431        1430
        1426        1427        1432        1431
        1427        1428        1433        1432
        1428        1429        1434        1433
        1430        1431        1436        1435
        1431        1432        1437        1436
        1432        1433        1438        1437
        1433        1434        1439        1438
        1435        1436        1441        1440
        1436        1437        1442        1441
        1437        1438        1443        1442
        1438        1439        1444        1443
        1440        1441        1446        1445
        1441        1442        1447        1446
        1442        1443        1448        1447
        1443        1444        1449        1448
        1450        1451        1456        1455
        1451        1452        1457        1456
        1452        1453        1458        1457
        1453        1454        1459        1458
        1455        1456        1461        1460
        1456        1457        1462        1461
        1457        1458        1463        1462
        1458        1459        1464        1463
        1460        1461        1466        1465
        1461        1462        1467        1466
        1462        1463        1468        1467
        1463        1464        1469        1468
        1465        1466        1471        1470
        1466        1467        1472        1471
        1467        1468        1473        1472
        1468        1469        1474        1473
        1475        1476        1481        1480
        1476        1477        1482        1481
        1477        1478        1483        1482
        1478        1479        1484        1483
        1480        1481        1486        1485
        1481        1482        1487        1486
        1482        1483        1488        1487
        1483        1484        1489        1488
        1485        1486        1491        1490
        1486        1487        1492        1491
        1487        1488        1493        1492
        1488        1489        1494        1493
        1490        1491        1496        1495
        1491        1492        1497        1496
        1492        1493        1498        1497
        1493        1494        1499        1498
        1500        1501        1506        1505
        1501        1502        1507        1506
        1502        1503        1508        1507
        1503        1504        1509        1508
        1505        1506        1511        1510
        1506        1507        1512        1511
        1507        1508        1513        1512
        1508        1509        1514        1513
        1510        1511        1516        1515
        1511        1512        1517        1516
        1512        1513        1518        1517
        1513        1514        1519        1518
        1515        1516        1521        1520
        1516        1517        1522        1521
        1517        1518        1523        1522
        1518        1519        1524        1523
        1525        1526        1531        1530
        1526        1527        1532        1531
        1527        1528        1533        1532
        1528        1529        1534        1533
        1530        1531        1536        1535
        1531        1532        1537        1536
        1532        1533        1538        1537
        1533        1534        1539        1538
        1535        1536        1541        1540
        1536        1537        1542        1541
        1537        1538        1543        1542
        1538        1539        1544        1543
        1540        1541        1546        1545
        1541        1542        1547        1546
        1542        1543        1548        1547
        1543        1544        1549        1548
        1550        1551        1556        1555
        1551        1552        1557        1556
        1552        1553        1558        1557
        1553        1554        1559        1558
        1555        1556        1561        1560
        1556        1557        1562        1561
        1557        1558        1563        1562
        1558        1559        1564        1563
        1560        1561        1566        1565
        1561        1562        1567        1566
        1562        1563        1568        1567
        1563        1564        1569        1568
        1565        1566        1571        1570
        1566        1567        1572        1571
        1567        1568        1573        1572
        1568        1569        1574        1573
        1575        1576        1581        1580
        1576        1577        1582        1581
        1577        1578        1583        1582
        1578        1579        1584        1583
        1580        1581        1586        1585
        1581        1582        1587        1586
        1582        1583        1588        1587
        1583        1584        1589        1588
        1585        1586        1591        1590
        1586        1587        1592        1591
        1587        1588        1593        1592
        1588        1589        1594        1593
        1590        1591        1596        1595
        1591        1592        1597        1596
        1592        1593        1598        1597
        1593        1594        1599        1598
 </DataArray>
 <DataArray  type="Int32"  Name="offsets"  format="ascii"> 
           4
           8
          12
          16
          20
          24
          28
          32
          36
          40
          44
          48
          52
          56
          60
          64
          68
          72
          76
          80
          84
          88
          92
          96
         100
         104
         108
         112
         116
         120
         124
         128
         132
         136
         140
         144
         148
         152
         156
         160
         164
         168
         172
         176
         180
         184
         188
         192
         196
         200
         204
         208
         212
         216
         220
         224
         228
         232
         236
         240
         244
         248
         252
         256
         260
         264
         268
         272
         276
         280
         284
         288
         292
         296
         300
         304
         308
         312
         316
         320
         324
         328
         332
         336
         340
         344
         348
         352
         356
         360
         364
         368
         372
         376
         380
         384
         388
         392
         396
         400
         404
         408
         412
         416
         420
         424
         428
         432
         436
         440
         444
         448
         452
         456
         460
         464
         468
         472
         476
         480
         484
         488
         492
         496
         500
         504
         508
         512
         516
         520
         524
         528
         532
         536
         540
         544
         548
         552
         556
         560
         564
         568
         572
         576
         580
         584
         588
         592
         596
         600
         604
         608
         612
         616
         620
         624
         628
         632
         636
         640
         644
         648
         652
         656
         660
         664
         668
         672
         676
         680
         684
         688
         692
         696
         700
         704
         708
         712
         716
         720
         724
         728
         732
         736
         740
         744
         748
         752
         756
         760
         764
         768
         772
         776
         780
         784
         788
         792
         796
         800
         804
         808
         812
         816
         820
         824
         828
         832
         836
         840
         844
         848
         852
         856
         860
         864
         868
         872
         876
         880
         884
         888
         892
         896
         900
         904
         908
         912
         916
         920
         924
         928
         932
         936
         940
         944
         948
         952
         956
         960
         964
         968
         972
         976
         980
         984
         988
         992
         996
        1000
        1004
        1008
        1012
        1016
        1020
        1024
        1028
        1032
        1036
        1040
        1044
        1048
        1052
        1056
        1060
        1064
        1068
        1072
        1076
        1080
        1084
        1088
        1092
        1096
        1100
        1104
        1108
        1112
        1116
        1120
        1124
        1128
        1132
        1136
        1140
        1144
        1148
        1152
        1156
        1160
        1164
        1168
        1172
        1176
        1180
        1184
        1188
        1192
        1196
        1200
        1204
        1208
        1212
        1216
        1220
        1224
        1228
        1232
        1236
        1240
        1244
        1248
        1252
        1256
        1260
        1264
        1268
        1272
        1276
        1280
        1284
        1288
        1292
        1296
        1300
        1304
        1308
        1312
        1316
        1320
        1324
        1328
        1332
        1336
        1340
        1344
        1348
        1352
        1356
        1360
        1364
        1368
        1372
        1376
        1380
        1384
        1388
        1392
        1396
        1400
        1404
        1408
        1412
        1416
        1420
        1424
        1428
        1432
        1436
        1440
        1444
        1448
        1452
        1456
        1460
        1464
        1468
        1472
        1476
        1480
        1484
        1488
        1492
        1496
        1500
        1504
        1508
        1512
        1516
        1520
        1524
        1528
        1532
        1536
        1540
        1544
        1548
        1552
        1556
        1560
        1564
        1568
        1572
        1576
        1580
        1584
        1588
        1592
        1596
        1600
        1604
        1608
        1612
        1616
        1620
        1624
        1628
        1632
        1636
        1640
        1644
        1648
        1652
        1656
        1660
        1664
        1668
        1672
        1676
        1680
        1684
        1688
        1692
        1696
        1700
        1704
        1708
        1712
        1716
        1720
        1724
        1728
        1732
        1736
        1740
        1744
        1748
        1752
        1756
        1760
        1764
        1768
        1772
        1776
        1780
        1784
        1788
        1792
        1796
        1800
        1804
        1808
        1812
        1816
        1820
        1824
        1828
        1832
        1836
        1840
        1844
        1848
        1852
        1856
        1860
        1864
        1868
        1872
        1876
        1880
        1884
        1888
        1892
        1896
        1900
        1904
        1908
        1912
        1916
        1920
        1924
        1928
        1932
        1936
        1940
        1944
        1948
        1952
        1956
        1960
        1964
        1968
        1972
        1976
        1980
        1984
        1988
        1992
        1996
        2000
        2004
        2008
        2012
        2016
        2020
        2024
        2028
        2032
        2036
        2040
        2044
        2048
        2052
        2056
        2060
        2064
        2068
        2072
        2076
        2080
        2084
        2088
        2092
        2096
        2100
        2104
        2108
        2112
        2116
        2120
        2124
        2128
        2132
        2136
        2140
        2144
        2148
        2152
        2156
        2160
        2164
        2168
        2172
        2176
        2180
        2184
        2188
        2192
        2196
        2200
        2204
        2208
        2212
        2216
        2220
        2224
        2228
        2232
        2236
        2240
        2244
        2248
        2252
        2256
        2260
        2264
        2268
        2272
        2276
        2280
        2284
        2288
        2292
        2296
        2300
        2304
        2308
        2312
        2316
        2320
        2324
        2328
        2332
        2336
        2340
        2344
        2348
        2352
        2356
        2360
        2364
        2368
        2372
        2376
        2380
        2384
        2388
        2392
        2396
        2400
        2404
        2408
        2412
        2416
        2420
        2424
        2428
        2432
        2436
        2440
        2444
        2448
        2452
        2456
        2460
        2464
        2468
        2472
        2476
        2480
        2484
        2488
        2492
        2496
        2500
        2504
        2508
        2512
        2516
        2520
        2524
        2528
        2532
        2536
        2540
        2544
        2548
        2552
        2556
        2560
        2564
        2568
        2572
        2576
        2580
        2584
        2588
        2592
        2596
        2600
        2604
        2608
        2612
        2616
        2620
        2624
        2628
        2632
        2636
        2640
        2644
        2648
        2652
        2656
        2660
        2664
        2668
        2672
        2676
        2680
        2684
        2688
        2692
        2696
        2700
        2704
        2708
        2712
        2716
        2720
        2724
        2728
        2732
        2736
        2740
        2744
        2748
        2752
        2756
        2760
        2764
        2768
        2772
        2776
        2780
        2784
        2788
        2792
        2796
        2800
        2804
        2808
        2812
        2816
        2820
        2824
        2828
        2832
        2836
        2840
        2844
        2848
        2852
        2856
        2860
        2864
        2868
        2872
        2876
        2880
        2884
        2888
        2892
        2896
        2900
        2904
        2908
        2912
        2916
        2920
        2924
        2928
        2932
        2936
        2940
        2944
        2948
        2952
        2956
        2960
        2964
        2968
        2972
        2976
        2980
        2984
        2988
        2992
        2996
        3000
        3004
        3008
        3012
        3016
        3020
        3024
        3028
        3032
        3036
        3040
        3044
        3048
        3052
        3056
        3060
        3064
        3068
        3072
        3076
        3080
        3084
        3088
        3092
        3096
        3100
        3104
        3108
        3112
        3116
        3120
        3124
        3128
        3132
        3136
        3140
        3144
        3148
        3152
        3156
        3160
        3164
        3168
        3172
        3176
        3180
        3184
        3188
        3192
        3196
        3200
        3204
        3208
        3212
        3216
        3220
        3224
        3228
        3232
        3236
        3240
        3244
        3248
        3252
        3256
        3260
        3264
        3268
        3272
        3276
        3280
        3284
        3288
        3292
        3296
        3300
        3304
        3308
        3312
        3316
        3320
        3324
        3328
        3332
        3336
        3340
        3344
        3348
        3352
        3356
        3360
        3364
        3368
        3372
        3376
        3380
        3384
        3388
        3392
        3396
        3400
        3404
        3408
        3412
        3416
        3420
        3424
        3428
        3432
        3436
        3440
        3444
        3448
        3452
        3456
        3460
        3464
        3468
        3472
        3476
        3480
        3484
        3488
        3492
        3496
        3500
        3504
        3508
        3512
        3516
        3520
        3524
        3528
        3532
        3536
        3540
        3544
        3548
        3552
        3556
        3560
        3564
        3568
        3572
        3576
        3580
        3584
        3588
        3592
        3596
        3600
        3604
        3608
        3612
        3616
        3620
        3624
        3628
        3632
        3636
        3640
        3644
        3648
        3652
        3656
        3660
        3664
        3668
        3672
        3676
        3680
        3684
        3688
        3692
        3696
        3700
        3704
        3708
        3712
        3716
        3720
        3724
        3728
        3732
        3736
        3740
        3744
        3748
        3752
        3756
        3760
        3764
        3768
        3772
        3776
        3780
        3784
        3788
        3792
        3796
        3800
        3804
        3808
        3812
        3816
        3820
        3824
        3828
        3832
        3836
        3840
        3844
        3848
        3852
        3856
        3860
        3864
        3868
        3872
        3876
        3880
        3884
        3888
        3892
        3896
        3900
        3904
        3908
        3912
        3916
        3920
        3924
        3928
        3932
        3936
        3940
        3944
        3948
        3952
        3956
        3960
        3964
        3968
        3972
        3976
        3980
        3984
        3988
        3992
        3996
        4000
        4004
        4008
        4012
        4016
        4020
        4024
        4028
        4032
        4036
        4040
        4044
        4048
        4052
        4056
        4060
        4064
        4068
        4072
        4076
        4080
        4084
        4088
        4092
        4096
 </DataArray>
 <DataArray  type="UInt8"  Name="types"  format="ascii">
 9
 9
 9
 9
 9
 9
 9
 9
 9
 9
 9
 9
 9
 9
 9
 9
 9
 9
 9
 9
 9
 9
 9
 9
 9
 9
 9
 9
 9
 9
 9
 9
 9
 9
 9
 9
 9
 9
 9
 9
 9
 9
 9
 9
 9
 9
 9
 9
 9
 9
 9
 9
 9
 9
 9
 9
 9
 9
 9
 9
 9
 9
 9
 9
 9
 9
 9
 9
 9
 9
 9
 9
 9
 9
 9
 9
 9
 9
 9
 9
 9
 9
 9
 9
 9
 9
 9
 9
 9
 9
 9
 9
 9
 9
 9
 9
 9
 9
 9
 9
 9
 9
 9
 9
 9
 9
 9
 9
 9
 9
 9
 9
 9
 9
 9
 9
 9
 9
 9
 9
 9
 9
 9
 9
 9
 9
 9
 9
 9
 9
 9
 9
 9
 9
 9
 9
 9
 9
 9
 9
 9
 9
 9
 9
 9
 9
 9
 9
 9
 9
 9
 9
 9
 9
 9
 9
 9
 9
 9
 9
 9
 9
 9
 9
 9
 9
 9
 9
 9
 9
 9
 9
 9
 9
 9
 9
 9
 9
 9
 9
 9
 9
 9
 9
 9
 9
 9
 9
 9
 9
 9
 9
 9
 9
 9
 9
 9
 9
 9
 9
 9
 9
 9
 9
 9
 9
 9
 9
 9
 9
 9
 9
 9
 9
 9
 9
 9
 9
 9
 9
 9
 9
 9
 9
 9
 9
 9
 9
 9
 9
 9
 9
 9
 9
 9
 9
 9
 9
 9
 9
 9
 9
 9
 9
 9
 9
 9
 9
 9
 9
 9
 9
 9
 9
 9
 9
 9
 9
 9
 9
 9
 9
 9
 9
 9
 9
 9
 9
 9
 9
 9
 9
 9
 9
 9
 9
 9
 9
 9
 9
 9
 9
 9
 9
 9
 9
 9
 9
 9
 9
 9
 9
 9
 9
 9
 9
 9
 9
 9
 9
 9
 9
 9
 9
 9
 9
 9
 9
 9
 9
 9
 9
 9
 9
 9
 9
 9
 9
 9
 9
 9
 9
 9
 9
 9
 9
 9
 9
 9
 9
 9
 9
 9
 9
 9
 9
 9
 9
 9
 9
 9
 9
 9
 9
 9
 9
 9
 9
 9
 9
 9
 9
 9
 9
 9
 9
 9
 9
 9
 9
 9
 9
 9
 9
 9
 9
 9
 9
 9
 9
 9
 9
 9
 9
 9
 9
 9
 9
 9
 9
 9
 9
 9
 9
 9
 9
 9
 9
 9
 9
 9
 9
 9
 9
 9
 9
 9
 9
 9
 9
 9
 9
 9
 9
 9
 9
 9
 9
 9
 9
 9
 9
 9
 9
 9
 9
 9
 9
 9
 9
 9
 9
 9
 9
 9
 9
 9
 9
 9
 9
 9
 9
 9
 9
 9
 9
 9
 9
 9
 9
 9
 9
 9
 9
 9
 9
 9
 9
 9
 9
 9
 9
 9
 9
 9
 9
 9
 9
 9
 9
 9
 9
 9
 9
 9
 9
 9
 9
 9
 9
 9
 9
 9
 9
 9
 9
 9
 9
 9
 9
 9
 9
 9
 9
 9
 9
 9
 9
 9
 9
 9
 9
 9
 9
 9
 9
 9
 9
 9
 9
 9
 9
 9
 9
 9
 9
 9
 9
 9
 9
 9
 9
 9
 9
 9
 9
 9
 9
 9
 9
 9
 9
 9
 9
 9
 9
 9
 9
 9
 9
 9
 9
 9
 9
 9
 9
 9
 9
 9
 9
 9
 9
 9
 9
 9
 9
 9
 9
 9
 9
 9
 9
 9
 9
 9
 9
 9
 9
 9
 9
 9
 9
 9
 9
 9
 9
 9
 9
 9
 9
 9
 9
 9
 9
 9
 9
 9
 9
 9
 9
 9
 9
 9
 9
 9
 9
 9
 9
 9
 9
 9
 9
 9
 9
 9
 9
 9
 9
 9
 9
 9
 9
 9
 9
 9
 9
 9
 9
 9
 9
 9
 9
 9
 9
 9
 9
 9
 9
 9
 9
 9
 9
 9
 9
 9
 9
 9
 9
 9
 9
 9
 9
 9
 9
 9
 9
 9
 9
 9
 9
 9
 9
 9
 9
 9
 9
 9
 9
 9
 9
 9
 9
 9
 9
 9
 9
 9
 9
 9
 9
 9
 9
 9
 9
 9
 9
 9
 9
 9
 9
 9
 9
 9
 9
 9
 9
 9
 9
 9
 9
 9
 9
 9
 9
 9
 9
 9
 9
 9
 9
 9
 9
 9
 9
 9
 9
 9
 9
 9
 9
 9
 9
 9
 9
 9
 9
 9
 9
 9
 9
 9
 9
 9
 9
 9
 9
 9
 9
 9
 9
 9
 9
 9
 9
 9
 9
 9
 9
 9
 9
 9
 9
 9
 9
 9
 9
 9
 9
 9
 9
 9
 9
 9
 9
 9
 9
 9
 9
 9
 9
 9
 9
 9
 9
 9
 9
 9
 9
 9
 9
 9
 9
 9
 9
 9
 9
 9
 9
 9
 9
 9
 9
 9
 9
 9
 9
 9
 9
 9
 9
 9
 9
 9
 9
 9
 9
 9
 9
 9
 9
 9
 9
 9
 9
 9
 9
 9
 9
 9
 9
 9
 9
 9
 9
 9
 9
 9
 9
 9
 9
 9
 9
 9
 9
 9
 9
 9
 9
 9
 9
 9
 9
 9
 9
 9
 9
 9
 9
 9
 9
 9
 9
 9
 9
 9
 9
 9
 9
 9
 9
 9
 9
 9
 9
 9
 9
 9
 9
 9
 9
 9
 9
 9
 9
 9
 9
 9
 9
 9
 9
 9
 9
 9
 9
 9
 9
 9
 9
 9
 9
 9
 9
 9
 9
 9
 9
 9
 9
 9
 9
 9
 9
 9
 9
 9
 9
 9
 9
 9
 9
 9
 9
 9
 9
 9
 9
 9
 9
 9
 9
 9
 9
 9
 9
 9
 9
 9
 9
 9
 9
 9
 9
 9
 9
 9
 9
 9
 9
 9
 9
 9
 9
 9
 9
 9
 9
 9
 9
 9
 9
 9
 9
 9
 9
 9
 9
 9
 9
 9
 9
 9
 9
 9
 9
 9
 9
 9
 9
 9
 9
 9
 9
 9
 9
 9
 9
 9
 9
 9
 9
 9
 9
 9
 9
 9
 9
 9
 9
 9
 9
 9
 9
 9
 9
 9
 9
 9
 9
 9
 9
 9
 9
 9
 9
 9
 9
 9
 9
 9
 9
 9
 9
 9
 9
 9
 9
 9
 9
 9
 9
 9
 9
 9
 9
 9
 9
 9
 9
 9
 9
 9
 9
 9
 9
 9
 9
 9
 9
 9
 9
 9
 9
 9
 9
 </DataArray>
 </Cells> 
 <PointData>
 <DataArray  type="Float64" Name="disp" NumberOfComponents="3" format="ascii">
   6.5402540988738878E-002   6.3063757577082463E-002   0.0000000000000000     
   6.8420873990787112E-002   6.8214784771582992E-002   0.0000000000000000     
   7.1353699235667645E-002   7.3634144452293618E-002   0.0000000000000000     
   7.4201016723380447E-002   7.9321836619214339E-002   0.0000000000000000     
   7.6962826453925520E-002   8.5277861272345157E-002   0.0000000000000000     
   6.0108538117742027E-002   6.1911353597935800E-002   0.0000000000000000     
   6.2970676913990067E-002   6.7256345548953489E-002   0.0000000000000000     
   6.5742521305609411E-002   7.2808871789549381E-002   0.0000000000000000     
   6.8424071292600072E-002   7.8568932319723450E-002   0.0000000000000000     
   7.1015326874962037E-002   8.4536527139475681E-002   0.0000000000000000     
   5.5071243671081307E-002   6.0927839966642187E-002   0.0000000000000000     
   5.7765837348743687E-002   6.6404831586804103E-002   0.0000000000000000     
   6.0368428994263458E-002   7.2049195939115490E-002   0.0000000000000000     
   6.2879018607640585E-002   7.7860933023576342E-002   0.0000000000000000     
   6.5297606188875090E-002   8.3840042840186660E-002   0.0000000000000000     
   5.0290657648756704E-002   6.0113216683201631E-002   0.0000000000000000     
   5.2806355295048006E-002   6.5660242885134792E-002   0.0000000000000000     
   5.5231422301629772E-002   7.1355116900991930E-002   0.0000000000000000     
   5.7565858668501980E-002   7.7197838730773016E-002   0.0000000000000000     
   5.9809664395664652E-002   8.3188408374478065E-002   0.0000000000000000     
   4.5766780050768237E-002   5.9467483747614111E-002   0.0000000000000000     
   4.8092230752903010E-002   6.5022579443945572E-002   0.0000000000000000     
   5.0331501227708367E-002   7.0726634675178687E-002   0.0000000000000000     
   5.2484591475184264E-002   7.6579649441313472E-002   0.0000000000000000     
   5.4551501495330744E-002   8.2581623742349924E-002   0.0000000000000000     
   7.6962826453925520E-002   8.5277861272345157E-002   0.0000000000000000     
   7.9643660558349483E-002   9.1440161365427056E-002   0.0000000000000000     
   8.2248051167698955E-002   9.7746679852200966E-002   0.0000000000000000     
   8.4775998281973949E-002  0.10419741673266689        0.0000000000000000     
   8.7227501901174453E-002  0.11079237200682485        0.0000000000000000     
   7.1015326874962037E-002   8.4536527139475681E-002   0.0000000000000000     
   7.3528133154154851E-002   9.0687519650760773E-002   0.0000000000000000     
   7.5974335231638004E-002   9.6997773255533298E-002   0.0000000000000000     
   7.8353933107411525E-002  0.10346728795379333        0.0000000000000000     
   8.0666926781475412E-002  0.11009606374554080        0.0000000000000000     
   6.5297606188875090E-002   8.3840042840186660E-002   0.0000000000000000     
   6.7640789637323437E-002   8.9987936312300995E-002   0.0000000000000000     
   6.9925166852342097E-002   9.6306024363273887E-002   0.0000000000000000     
   7.2150737833931097E-002  0.10279430699310539        0.0000000000000000     
   7.4317502582090383E-002  0.10945278420179543        0.0000000000000000     
   5.9809664395664652E-002   8.3188408374478065E-002   0.0000000000000000     
   6.1981630007855247E-002   8.9341411350047778E-002   0.0000000000000000     
   6.4100546029811231E-002   9.5671433175422760E-002   0.0000000000000000     
   6.6166412461532612E-002  0.10217847385060309        0.0000000000000000     
   6.8179229303019381E-002  0.10886253337558867        0.0000000000000000     
   5.4551501495330744E-002   8.2581623742349924E-002   0.0000000000000000     
   5.6550654265750296E-002   8.8747944764001066E-002   0.0000000000000000     
   5.8500472764045415E-002   9.5093999691979875E-002   0.0000000000000000     
   6.0400956990216102E-002  0.10161978852628639        0.0000000000000000     
   6.2252106944262378E-002  0.10832531126692058        0.0000000000000000     
   8.7227501901174453E-002  0.11079237200682485        0.0000000000000000     
   8.9574428719800536E-002  0.11751962769740769        0.0000000000000000     
   9.1788645432352323E-002  0.12436726582714829        0.0000000000000000     
   9.3870152038829785E-002  0.13133528639604664        0.0000000000000000     
   9.5818948539232909E-002  0.13842368940410274        0.0000000000000000     
   8.0666926781475412E-002  0.11009606374554080        0.0000000000000000     
   8.2882148819325041E-002  0.11686319128643266        0.0000000000000000     
   8.4968431786455773E-002  0.12374776123212577        0.0000000000000000     
   8.6925775682867662E-002  0.13074977358262013        0.0000000000000000     
   8.8754180508560626E-002  0.13786922833791582        0.0000000000000000     
   7.4317502582090383E-002  0.10945278420179543        0.0000000000000000     
   7.6393398675135893E-002  0.11625411776481961        0.0000000000000000     
   7.8346363691383453E-002  0.12317096945765352        0.0000000000000000     
   8.0176397630833104E-002  0.13020333928029720        0.0000000000000000     
   8.1883500493484765E-002  0.13735122723275062        0.0000000000000000     
   6.8179229303019381E-002  0.10886253337558867        0.0000000000000000     
   7.0108178287233106E-002  0.11569240713256852        0.0000000000000000     
   7.1922441147135335E-002  0.12263689050373155        0.0000000000000000     
   7.3622017882726098E-002  0.12969598348907777        0.0000000000000000     
   7.5206908494005367E-002  0.13686968608860717        0.0000000000000000     
   6.2252106944262378E-002  0.10832531126692058        0.0000000000000000     
   6.4026487655616679E-002  0.11517805938967940        0.0000000000000000     
   6.5696664153711448E-002  0.12214552437035983        0.0000000000000000     
   6.7262636438546700E-002  0.12922770620896182        0.0000000000000000     
   6.8724404510122419E-002  0.13642460490548541        0.0000000000000000     
   9.5818948539232909E-002  0.13842368940410274        0.0000000000000000     
   9.7667647582976691E-002  0.14563417754433772        0.0000000000000000     
   9.9448861819476028E-002  0.15296845350977267        0.0000000000000000     
  0.10116259124873099       0.16042651730040761        0.0000000000000000     
  0.10280883587074152       0.16800836891624249        0.0000000000000000     
   8.8754180508560626E-002  0.13786922833791582        0.0000000000000000     
   9.0486352417617211E-002  0.14510777466333263        0.0000000000000000     
   9.2154997564119864E-002  0.15246706172419058        0.0000000000000000     
   9.3760115948068601E-002  0.15994708952048969        0.0000000000000000     
   9.5301707569463434E-002  0.16754785805222988        0.0000000000000000     
   8.1883500493484765E-002  0.13735122723275062        0.0000000000000000     
   8.3498982770566013E-002  0.14461615609145981        0.0000000000000000     
   8.5054154953304276E-002  0.15199964863287094        0.0000000000000000     
   8.6549017041699594E-002  0.15950170485698389        0.0000000000000000     
   8.7983569035751927E-002  0.16712232476379874        0.0000000000000000     
   7.5206908494005367E-002  0.13686968608860717        0.0000000000000000     
   7.6705538641823126E-002  0.14415932182871924        0.0000000000000000     
   7.8146333987029318E-002  0.15156621423581357        0.0000000000000000     
   7.9529294529623956E-002  0.15909036330989018        0.0000000000000000     
   8.0854420269607014E-002  0.16673176905094905        0.0000000000000000     
   6.8724404510122419E-002  0.13642460490548541        0.0000000000000000     
   7.0106020031388536E-002  0.14373727187511093        0.0000000000000000     
   7.1431534665294963E-002  0.15116675853301861        0.0000000000000000     
   7.2700948411841687E-002  0.15871306487920858        0.0000000000000000     
   7.3914261271028708E-002  0.16637619091368075        0.0000000000000000     
  0.10280883587074152       0.16800836891624249        0.0000000000000000     
  0.10437465445300606       0.17569297669556255        0.0000000000000000     
  0.10584710576302302       0.18345930897665300        0.0000000000000000     
  0.10722618980079233       0.19130736575951379        0.0000000000000000     
  0.10851190656631408       0.19923714704414491        0.0000000000000000     
   9.5301707569463434E-002  0.16754785805222988        0.0000000000000000     
   9.6766534296250026E-002  0.17525166731396485        0.0000000000000000     
   9.8141357996374079E-002  0.18304081730024810        0.0000000000000000     
   9.9426178669835566E-002  0.19091530801107975        0.0000000000000000     
  0.10062099631663450       0.19887513944645974        0.0000000000000000     
   8.7983569035751927E-002  0.16712232476379874        0.0000000000000000     
   8.9344835619329058E-002  0.17484615612685198        0.0000000000000000     
   9.0619841476298757E-002  0.18265784671968016        0.0000000000000000     
   9.1808586606661052E-002  0.19055739654228326        0.0000000000000000     
   9.2911071010415860E-002  0.19854480559466131        0.0000000000000000     
   8.0854420269607014E-002  0.16673176905094905        0.0000000000000000     
   8.2109558422243184E-002  0.17447644313422400        0.0000000000000000     
   8.3282556202797106E-002  0.18231039723494916        0.0000000000000000     
   8.4373413611268766E-002  0.19023363135312435        0.0000000000000000     
   8.5382130647658164E-002  0.19824614548874975        0.0000000000000000     
   7.3914261271028708E-002  0.16637619091368075        0.0000000000000000     
   7.5060702704992391E-002  0.17414252833608096        0.0000000000000000     
   7.6129502175869071E-002  0.18199846884605508        0.0000000000000000     
   7.7120659683658735E-002  0.18994401244360309        0.0000000000000000     
   7.8034175228361424E-002  0.19797915912872499        0.0000000000000000     
  0.10851190656631408       0.19923714704414491        0.0000000000000000     
  0.10971444079959962       0.20725011687540462        0.0000000000000000     
  0.11084397724066035       0.21534773929815107        0.0000000000000000     
  0.11190051588949625       0.22353001431238423        0.0000000000000000     
  0.11288405674610735       0.23179694191810415        0.0000000000000000     
  0.10062099631663450       0.19887513944645974        0.0000000000000000     
  0.10173487942589218       0.20691712150777453        0.0000000000000000     
  0.10277689648672994       0.21503806409641071        0.0000000000000000     
  0.10374704749914776       0.22323796721236833        0.0000000000000000     
  0.10464533246314564       0.23151683085564728        0.0000000000000000     
   9.2911071010415860E-002  0.19854480559466131        0.0000000000000000     
   9.3934703514748419E-002  0.20661387259573522        0.0000000000000000     
   9.4886892946843965E-002  0.21475839626442600        0.0000000000000000     
   9.5767639306702429E-002  0.22297837660073358        0.0000000000000000     
   9.6576942594323867E-002  0.23127381360465807        0.0000000000000000     
   8.5382130647658164E-002  0.19824614548874975        0.0000000000000000     
   8.6313913066168368E-002  0.20634037013928674        0.0000000000000000     
   8.7173966621002380E-002  0.21450873580219681        0.0000000000000000     
   8.7962291312160268E-002  0.22275124247748013        0.0000000000000000     
   8.8678887139641963E-002  0.23106789016513657        0.0000000000000000     
   7.8034175228361424E-002  0.19797915912872499        0.0000000000000000     
   7.8872508080151962E-002  0.20609661413842897        0.0000000000000000     
   7.9638117509205256E-002  0.21428908270972327        0.0000000000000000     
   8.0331003515521249E-002  0.22255656484260791        0.0000000000000000     
   8.0951166099099997E-002  0.23089906053708276        0.0000000000000000     
  0.11288405674610735       0.23179694191810415        0.0000000000000000     
  0.11382113592707147       0.24016311589444811        0.0000000000000000     
  0.11473828954896637       0.24864313002055338        0.0000000000000000     
  0.11563551761179211       0.25723698429641995        0.0000000000000000     
  0.11651282011554867       0.26594467872204786        0.0000000000000000     
  0.10464533246314564       0.23151683085564728        0.0000000000000000     
  0.10547592056042050       0.23989724891822539        0.0000000000000000     
  0.10624298097266922       0.24840181529208044        0.0000000000000000     
  0.10694651369989182       0.25703052997721254        0.0000000000000000     
  0.10758651874208830       0.26578339297362152        0.0000000000000000     
   9.6576942594323867E-002  0.23127381360465807        0.0000000000000000     
   9.7305278777410825E-002  0.23967101649207415        0.0000000000000000     
   9.7943123823665976E-002  0.24819629447885672        0.0000000000000000     
   9.8490477733089263E-002  0.25684964756500572        0.0000000000000000     
   9.8947340505680770E-002  0.26563107575052114        0.0000000000000000     
   8.8678887139641963E-002  0.23106789016513657        0.0000000000000000     
   8.9309210578042447E-002  0.23948441861599443        0.0000000000000000     
   8.9838718101956608E-002  0.24802656758088215        0.0000000000000000     
   9.0267409711384528E-002  0.25669433705979960        0.0000000000000000     
   9.0595285406326123E-002  0.26548772705274681        0.0000000000000000     
   8.0951166099099997E-002  0.23089906053708276        0.0000000000000000     
   8.1487715962315341E-002  0.23933745528998629        0.0000000000000000     
   8.1929763807541175E-002  0.24789263459815675        0.0000000000000000     
   8.2277309634777487E-002  0.25656459846159413        0.0000000000000000     
   8.2530353444024318E-002  0.26535334688029844        0.0000000000000000     
  0.11651282011554867       0.26594467872204786        0.0000000000000000     
  0.11731116448238582       0.27493158926985473        0.0000000000000000     
  0.11797151813445339       0.28436309191225811        0.0000000000000000     
  0.11849388107175134       0.29423918664925808        0.0000000000000000     
  0.11887825329427967       0.30455987348085450        0.0000000000000000     
  0.10758651874208830       0.26578339297362152        0.0000000000000000     
  0.10814425088835991       0.27479276178381040        0.0000000000000000     
  0.10860096492780795       0.28419099391028230        0.0000000000000000     
  0.10895666086043239       0.29397808935303710        0.0000000000000000     
  0.10921133868623327       0.30415404811207480        0.0000000000000000     
   9.8947340505680770E-002  0.26563107575052114        0.0000000000000000     
   9.9324732518582121E-002  0.27463872925734623        0.0000000000000000     
   9.9633674148935050E-002  0.28397075830742435        0.0000000000000000     
   9.9874165396739531E-002  0.29362716290075525        0.0000000000000000     
  0.10004620626199562       0.30360794303733918        0.0000000000000000     
   9.0595285406326123E-002  0.26548772705274681        0.0000000000000000     
   9.0852609373052493E-002  0.27446949169046220        0.0000000000000000     
   9.1069645797834678E-002  0.28370238510368417        0.0000000000000000     
   9.1246394680672777E-002  0.29318640729241263        0.0000000000000000     
   9.1382856021566664E-002  0.30292155825664768        0.0000000000000000     
   8.2530353444024318E-002  0.26535334688029844        0.0000000000000000     
   8.2727881451770985E-002  0.27428504908315821        0.0000000000000000     
   8.2908879874506902E-002  0.28338587429906176        0.0000000000000000     
   8.3073348712232056E-002  0.29265582252800915        0.0000000000000000     
   8.3221287964946433E-002  0.30209489377000032        0.0000000000000000     
   4.5766780050768237E-002   5.9467483747614111E-002   0.0000000000000000     
   4.8092230752903010E-002   6.5022579443945572E-002   0.0000000000000000     
   5.0331501227708367E-002   7.0726634675178687E-002   0.0000000000000000     
   5.2484591475184264E-002   7.6579649441313472E-002   0.0000000000000000     
   5.4551501495330744E-002   8.2581623742349924E-002   0.0000000000000000     
   4.1422210840010493E-002   5.8904643394894443E-002   0.0000000000000000     
   4.3551498077021043E-002   6.4442844753815801E-002   0.0000000000000000     
   4.5601341307563957E-002   7.0140328574549479E-002   0.0000000000000000     
   4.7571740531639220E-002   7.5997094857095465E-002   0.0000000000000000     
   4.9462695749246839E-002   8.2013143601453731E-002   0.0000000000000000     
   3.7179549979378043E-002   5.8338697860057395E-002   0.0000000000000000     
   3.9112191622114441E-002   6.3872042305324894E-002   0.0000000000000000     
   4.0973618076261299E-002   6.9572777911977968E-002   0.0000000000000000     
   4.2763829341818632E-002   7.5440904680016671E-002   0.0000000000000000     
   4.4482825418786433E-002   8.1476422609440963E-002   0.0000000000000000     
   3.3038797468870916E-002   5.7769647143102988E-002   0.0000000000000000     
   3.4774311388183203E-002   6.3310172098472797E-002   0.0000000000000000     
   3.6448331533800393E-002   6.9023982687464180E-002   0.0000000000000000     
   3.8060857905722494E-002   7.4911078910077131E-002   0.0000000000000000     
   3.9611890503949497E-002   8.0971460766311634E-002   0.0000000000000000     
   2.8999953308489094E-002   5.7197491244031215E-002   0.0000000000000000     
   3.0537857375227333E-002   6.2757234133259551E-002   0.0000000000000000     
   3.2025481680181246E-002   6.8493942901008076E-002   0.0000000000000000     
   3.3462826223350818E-002   7.4407617547276816E-002   0.0000000000000000     
   3.4849891004736060E-002   8.0498258072065759E-002   0.0000000000000000     
   5.4551501495330744E-002   8.2581623742349924E-002   0.0000000000000000     
   5.6550654265750296E-002   8.8747944764001066E-002   0.0000000000000000     
   5.8500472764045415E-002   9.5093999691979875E-002   0.0000000000000000     
   6.0400956990216102E-002  0.10161978852628639        0.0000000000000000     
   6.2252106944262378E-002  0.10832531126692058        0.0000000000000000     
   4.9462695749246839E-002   8.2013143601453731E-002   0.0000000000000000     
   5.1290609466282312E-002   8.8198671842314127E-002   0.0000000000000000     
   5.3071884188641137E-002   9.4563876614366493E-002   0.0000000000000000     
   5.4806519916323314E-002  0.10110875791761080        0.0000000000000000     
   5.6494516649328842E-002  0.10783331575204703        0.0000000000000000     
   4.4482825418786433E-002   8.1476422609440963E-002   0.0000000000000000     
   4.6144242664725055E-002   8.7684727873140231E-002   0.0000000000000000     
   4.7761717437194900E-002   9.4071216644003822E-002   0.0000000000000000     
   4.9335249736195956E-002  0.10063588892203174        0.0000000000000000     
   5.0864839561728235E-002  0.10737874470722397        0.0000000000000000     
   3.9611890503949497E-002   8.0971460766311634E-002   0.0000000000000000     
   4.1111553861078530E-002   8.7206112856479334E-002   0.0000000000000000     
   4.2569972509706712E-002   9.3616019780891874E-002   0.0000000000000000     
   4.3987146449834064E-002  0.10020118153954924        0.0000000000000000     
   4.5363075681460564E-002  0.10696159813245139        0.0000000000000000     
   3.4849891004736060E-002   8.0498258072065759E-002   0.0000000000000000     
   3.6192543055342724E-002   8.6762826792331493E-002   0.0000000000000000     
   3.7496649406176571E-002   9.3198286025030677E-002   0.0000000000000000     
   3.8762210057237602E-002   9.9804635770163283E-002   0.0000000000000000     
   3.9989225008525815E-002  0.10658187602772931        0.0000000000000000     
   6.2252106944262378E-002  0.10832531126692058        0.0000000000000000     
   6.4026487655616679E-002  0.11517805938967940        0.0000000000000000     
   6.5696664153711448E-002  0.12214552437035983        0.0000000000000000     
   6.7262636438546700E-002  0.12922770620896182        0.0000000000000000     
   6.8724404510122419E-002  0.13642460490548541        0.0000000000000000     
   5.6494516649328842E-002  0.10783331575204703        0.0000000000000000     
   5.8112549289871973E-002  0.11470540375837518        0.0000000000000000     
   5.9637292740166943E-002  0.12169287557729519        0.0000000000000000     
   6.1068747000213766E-002  0.12879573120880697        0.0000000000000000     
   6.2406912070012421E-002  0.13601397065291065        0.0000000000000000     
   5.0864839561728235E-002  0.10737874470722397        0.0000000000000000     
   5.2330585699584375E-002  0.11426876946087881        0.0000000000000000     
   5.3712586935557034E-002  0.12127494864429443        0.0000000000000000     
   5.5010843269646212E-002  0.12839728225747085        0.0000000000000000     
   5.6225354701851915E-002  0.13563577030040808        0.0000000000000000     
   4.5363075681460564E-002  0.10696159813245139        0.0000000000000000     
   4.6680596884753879E-002  0.11386815649719025        0.0000000000000000     
   4.7922546739881722E-002  0.12089174357135757        0.0000000000000000     
   4.9088925246844058E-002  0.12803235935495338        0.0000000000000000     
   5.0179732405640887E-002  0.13529000384797771        0.0000000000000000     
   3.9989225008525815E-002  0.10658187602772931        0.0000000000000000     
   4.1162582845380512E-002  0.11350356486730950        0.0000000000000000     
   4.2267172153141006E-002  0.12054326035848459        0.0000000000000000     
   4.3302992931807283E-002  0.12770096250125462        0.0000000000000000     
   4.4270045181379336E-002  0.13497667129561952        0.0000000000000000     
   6.8724404510122419E-002  0.13642460490548541        0.0000000000000000     
   7.0106020031388536E-002  0.14373727187511093        0.0000000000000000     
   7.1431534665294963E-002  0.15116675853301861        0.0000000000000000     
   7.2700948411841687E-002  0.15871306487920858        0.0000000000000000     
   7.3914261271028708E-002  0.16637619091368075        0.0000000000000000     
   6.2406912070012421E-002  0.13601397065291065        0.0000000000000000     
   6.3671330522097530E-002  0.14334838896330510        0.0000000000000000     
   6.4881544929003665E-002  0.15079978119368925        0.0000000000000000     
   6.6037555290730826E-002  0.15836814734406315        0.0000000000000000     
   6.7139361607279013E-002  0.16605348741442674        0.0000000000000000     
   5.6225354701851915E-002  0.13563577030040808        0.0000000000000000     
   5.7372373696785391E-002  0.14299105582597205        0.0000000000000000     
   5.8468152719057878E-002  0.15046378188702869        0.0000000000000000     
   5.9512691768669419E-002  0.15805394848357798        0.0000000000000000     
   6.0505990845619965E-002  0.16576155561561995        0.0000000000000000     
   5.0179732405640887E-002  0.13529000384797771        0.0000000000000000     
   5.1209149555452117E-002  0.14266527246311178        0.0000000000000000     
   5.2191358035457637E-002  0.15015876061303696        0.0000000000000000     
   5.3126357845657460E-002  0.15777046829775312        0.0000000000000000     
   5.4014148986051565E-002  0.16550039551726037        0.0000000000000000     
   4.4270045181379336E-002  0.13497667129561952        0.0000000000000000     
   4.5181658098097710E-002  0.14237103887472433        0.0000000000000000     
   4.6051160878202914E-002  0.14988471737171399        0.0000000000000000     
   4.6878553521694948E-002  0.15751770678658850        0.0000000000000000     
   4.7663836028573804E-002  0.16527000711934792        0.0000000000000000     
   7.3914261271028708E-002  0.16637619091368075        0.0000000000000000     
   7.5060702704992391E-002  0.17414252833608096        0.0000000000000000     
   7.6129502175869071E-002  0.18199846884605508        0.0000000000000000     
   7.7120659683658735E-002  0.18994401244360309        0.0000000000000000     
   7.8034175228361424E-002  0.19797915912872499        0.0000000000000000     
   6.7139361607279013E-002  0.16605348741442674        0.0000000000000000     
   6.8177594663028057E-002  0.17384194839402065        0.0000000000000000     
   6.9142885242357774E-002  0.18171967727208549        0.0000000000000000     
   7.0035233345268191E-002  0.18968667404862116        0.0000000000000000     
   7.0854638971759296E-002  0.19774293872362778        0.0000000000000000     
   6.0505990845619965E-002  0.16576155561561995        0.0000000000000000     
   6.1439560491801604E-002  0.17357223996964111        0.0000000000000000     
   6.2304911249106400E-002  0.18147163823212800        0.0000000000000000     
   6.3102043117534340E-002  0.18945975040308055        0.0000000000000000     
   6.3830956097085459E-002  0.19753657648249887        0.0000000000000000     
   5.4014148986051565E-002  0.16550039551726037        0.0000000000000000     
   5.4846600191313023E-002  0.17333340306294226        0.0000000000000000     
   5.5615580196114893E-002  0.18125435172618257        0.0000000000000000     
   5.6321089000457195E-002  0.18926324150698121        0.0000000000000000     
   5.6963126604339900E-002  0.19736007240533820        0.0000000000000000     
   4.7663836028573804E-002  0.16527000711934792        0.0000000000000000     
   4.8398713761562316E-002  0.17312543767392416        0.0000000000000000     
   4.9074892083383295E-002  0.18106781775424918        0.0000000000000000     
   4.9692370994036734E-002  0.18909714736032310        0.0000000000000000     
   5.0251150493522641E-002  0.19721342649214582        0.0000000000000000     
   7.8034175228361424E-002  0.19797915912872499        0.0000000000000000     
   7.8872508080151962E-002  0.20609661413842897        0.0000000000000000     
   7.9638117509205256E-002  0.21428908270972327        0.0000000000000000     
   8.0331003515521249E-002  0.22255656484260791        0.0000000000000000     
   8.0951166099099997E-002  0.23089906053708276        0.0000000000000000     
   7.0854638971759296E-002  0.19774293872362778        0.0000000000000000     
   7.1601116229936188E-002  0.20588199019262104        0.0000000000000000     
   7.2274679227903996E-002  0.21409734735111668        0.0000000000000000     
   7.2875327965662706E-002  0.22238901019911478        0.0000000000000000     
   7.3403062443212347E-002  0.23075697873661527        0.0000000000000000     
   6.3830956097085459E-002  0.19753657648249887        0.0000000000000000     
   6.4490365188757962E-002  0.20569588390132182        0.0000000000000000     
   6.5078985393550129E-002  0.21393144009048845        0.0000000000000000     
   6.5596816711461975E-002  0.22224324504999876        0.0000000000000000     
   6.6043859142493458E-002  0.23063129877985272        0.0000000000000000     
   5.6963126604339900E-002  0.19736007240533820        0.0000000000000000     
   5.7540254956617305E-002  0.20553829526453135        0.0000000000000000     
   5.8051036006143669E-002  0.21379136092783860        0.0000000000000000     
   5.8495469752919006E-002  0.22211926939525978        0.0000000000000000     
   5.8873556196943309E-002  0.23052202066679506        0.0000000000000000     
   5.0251150493522641E-002  0.19721342649214582        0.0000000000000000     
   5.0750785533514198E-002  0.20540922428224970        0.0000000000000000     
   5.1190831065684596E-002  0.21367710986316704        0.0000000000000000     
   5.1571287090033842E-002  0.22201708323489794        0.0000000000000000     
   5.1892153606561922E-002  0.23042914439744233        0.0000000000000000     
   8.0951166099099997E-002  0.23089906053708276        0.0000000000000000     
   8.1487715962315341E-002  0.23933745528998629        0.0000000000000000     
   8.1929763807541175E-002  0.24789263459815675        0.0000000000000000     
   8.2277309634777487E-002  0.25656459846159413        0.0000000000000000     
   8.2530353444024318E-002  0.26535334688029844        0.0000000000000000     
   7.3403062443212347E-002  0.23075697873661527        0.0000000000000000     
   7.3854131922690983E-002  0.23921504518089493        0.0000000000000000     
   7.4224785666236762E-002  0.24777700174923037        0.0000000000000000     
   7.4515023673849698E-002  0.25644284844162168        0.0000000000000000     
   7.4724845945529764E-002  0.26521258525806879        0.0000000000000000     
   6.6043859142493458E-002  0.23063129877985272        0.0000000000000000     
   6.6421795451630891E-002  0.23910210695556564        0.0000000000000000     
   6.6732308403860616E-002  0.24766217525265297        0.0000000000000000     
   6.6975397999182604E-002  0.25631150367111449        0.0000000000000000     
   6.7151064237596869E-002  0.26505009221095044        0.0000000000000000     
   5.8873556196943309E-002  0.23052202066679506        0.0000000000000000     
   5.9190706549135046E-002  0.23899864061399856        0.0000000000000000     
   5.9452332020412668E-002  0.24754815510842443        0.0000000000000000     
   5.9658432610776198E-002  0.25617056415007267        0.0000000000000000     
   5.9809008320225607E-002  0.26486586773894333        0.0000000000000000     
   5.1892153606561922E-002  0.23042914439744233        0.0000000000000000     
   5.2160865215203439E-002  0.23890464615619356        0.0000000000000000     
   5.2384856515892961E-002  0.24743494131654478        0.0000000000000000     
   5.2564127508630473E-002  0.25602002987849615        0.0000000000000000     
   5.2698678193415997E-002  0.26465991184204751        0.0000000000000000     
   8.2530353444024318E-002  0.26535334688029844        0.0000000000000000     
   8.2727881451770985E-002  0.27428504908315821        0.0000000000000000     
   8.2908879874506902E-002  0.28338587429906176        0.0000000000000000     
   8.3073348712232056E-002  0.29265582252800915        0.0000000000000000     
   8.3221287964946433E-002  0.30209489377000032        0.0000000000000000     
   7.4724845945529764E-002  0.26521258525806879        0.0000000000000000     
   7.4895338541156015E-002  0.27407979028131602        0.0000000000000000     
   7.5067587520607520E-002  0.28303804159410728        0.0000000000000000     
   7.5241592883884253E-002  0.29208733919644281        0.0000000000000000     
   7.5417354630986241E-002  0.30122768308832243        0.0000000000000000     
   6.7151064237596869E-002  0.26505009221095044        0.0000000000000000     
   6.7299770427625943E-002  0.27384810413081706        0.0000000000000000     
   6.7461979877792386E-002  0.28267570268937076        0.0000000000000000     
   6.7637692588096168E-002  0.29153288788661158        0.0000000000000000     
   6.7826908558537333E-002  0.30041965972253937        0.0000000000000000     
   5.9809008320225607E-002  0.26486586773894333        0.0000000000000000     
   5.9941177111180764E-002  0.27358999063166145        0.0000000000000000     
   6.0092056946061505E-002  0.28229885758485213        0.0000000000000000     
   6.0261647824867821E-002  0.29099246859851541        0.0000000000000000     
   6.0449949747599728E-002  0.29967082367265119        0.0000000000000000     
   5.2698678193415997E-002  0.26465991184204751        0.0000000000000000     
   5.2819558591820491E-002  0.27330544978384919        0.0000000000000000     
   5.2957818725414878E-002  0.28190750628055150        0.0000000000000000     
   5.3113458594199192E-002  0.29046608133215440        0.0000000000000000     
   5.3286478198173427E-002  0.29898117493865783        0.0000000000000000     
   2.8999953308489094E-002   5.7197491244031215E-002   0.0000000000000000     
   3.0537857375227333E-002   6.2757234133259551E-002   0.0000000000000000     
   3.2025481680181246E-002   6.8493942901008076E-002   0.0000000000000000     
   3.3462826223350818E-002   7.4407617547276816E-002   0.0000000000000000     
   3.4849891004736060E-002   8.0498258072065759E-002   0.0000000000000000     
   2.5069712123125674E-002   5.6676404220313600E-002   0.0000000000000000     
   2.6412032706339208E-002   6.2256336498258243E-002   0.0000000000000000     
   2.7714465230566331E-002   6.8016017367703199E-002   0.0000000000000000     
   2.8977009695807049E-002   7.3955446828648491E-002   0.0000000000000000     
   3.0199666102061352E-002   8.0074624881094111E-002   0.0000000000000000     
   2.1254768537673753E-002   5.6260560129421697E-002   0.0000000000000000     
   2.2406040504611181E-002   6.1850587282041992E-002   0.0000000000000000     
   2.3524678900118140E-002   6.7623564902643069E-002   0.0000000000000000     
   2.4610683724194622E-002   7.3579492991224918E-002   0.0000000000000000     
   2.5664054976840631E-002   7.9718371547787548E-002   0.0000000000000000     
   1.7555122552133321E-002   5.5949958971355476E-002   0.0000000000000000     
   1.8519880770043271E-002   6.1539986484610794E-002   0.0000000000000000     
   1.9456122688836681E-002   6.7316585505827656E-002   0.0000000000000000     
   2.0363848308513555E-002   7.3279756035006069E-002   0.0000000000000000     
   2.1243057629073882E-002   7.9429498072146054E-002   0.0000000000000000     
   1.3970774166504387E-002   5.5744600746114953E-002   0.0000000000000000     
   1.4753553502635467E-002   6.1324534105964647E-002   0.0000000000000000     
   1.5508796596721951E-002   6.7095079177256989E-002   0.0000000000000000     
   1.6236503448763834E-002   7.3056235959991972E-002   0.0000000000000000     
   1.6936674058761113E-002   7.9208004454169617E-002   0.0000000000000000     
   3.4849891004736060E-002   8.0498258072065759E-002   0.0000000000000000     
   3.6192543055342724E-002   8.6762826792331493E-002   0.0000000000000000     
   3.7496649406176571E-002   9.3198286025030677E-002   0.0000000000000000     
   3.8762210057237602E-002   9.9804635770163283E-002   0.0000000000000000     
   3.9989225008525815E-002  0.10658187602772931        0.0000000000000000     
   3.0199666102061352E-002   8.0074624881094111E-002   0.0000000000000000     
   3.1384676600063562E-002   8.6367073916982701E-002   0.0000000000000000     
   3.2534283340547976E-002   9.2826316328256941E-002   0.0000000000000000     
   3.3648486323514581E-002   9.9452352114916806E-002   0.0000000000000000     
   3.4727285548963413E-002  0.10624518127696234        0.0000000000000000     
   2.5664054976840631E-002   7.9718371547787548E-002   0.0000000000000000     
   2.6685420847786964E-002   8.6031058466719032E-002   0.0000000000000000     
   2.7675409526764429E-002   9.2508411642407473E-002   0.0000000000000000     
   2.8634021013773027E-002   9.9150431074852829E-002   0.0000000000000000     
   2.9561255308812751E-002  0.10595711676405514        0.0000000000000000     
   2.1243057629073882E-002   7.9429498072146054E-002   0.0000000000000000     
   2.2094775798512923E-002   8.5754780441540460E-002   0.0000000000000000     
   2.2920027964825937E-002   9.2244571967482217E-002   0.0000000000000000     
   2.3718814128012907E-002   9.8898872649971298E-002   0.0000000000000000     
   2.4491134288073847E-002  0.10571768248900774        0.0000000000000000     
   1.6936674058761113E-002   7.9208004454169617E-002   0.0000000000000000     
   1.7612741452241447E-002   8.5538239841446997E-002   0.0000000000000000     
   1.8268138654732490E-002   9.2034797303481214E-002   0.0000000000000000     
   1.8902865666234239E-002   9.8697676840272239E-002   0.0000000000000000     
   1.9516922486746691E-002  0.10552687845182011        0.0000000000000000     
   3.9989225008525815E-002  0.10658187602772931        0.0000000000000000     
   4.1162582845380512E-002  0.11350356486730950        0.0000000000000000     
   4.2267172153141006E-002  0.12054326035848459        0.0000000000000000     
   4.3302992931807283E-002  0.12770096250125462        0.0000000000000000     
   4.4270045181379336E-002  0.13497667129561952        0.0000000000000000     
   3.4727285548963413E-002  0.10624518127696234        0.0000000000000000     
   3.5757335971231902E-002  0.11318081323875263        0.0000000000000000     
   3.6725292544657541E-002  0.12023525742464693        0.0000000000000000     
   3.7631155269240317E-002  0.12740851383464516        0.0000000000000000     
   3.8474924144980230E-002  0.13470058246874736        0.0000000000000000     
   2.9561255308812751E-002  0.10595711676405514        0.0000000000000000     
   3.0445648652075712E-002  0.11290572027903570        0.0000000000000000     
   3.1275737283753990E-002  0.11997349318881591        0.0000000000000000     
   3.2051521203847605E-002  0.12716043549339567        0.0000000000000000     
   3.2773000412356541E-002  0.13446654719277504        0.0000000000000000     
   2.4491134288073847E-002  0.10571768248900774        0.0000000000000000     
   2.5227520887911942E-002  0.11267828598815872        0.0000000000000000     
   2.5918506370430375E-002  0.11975796765099155        0.0000000000000000     
   2.6564090735629139E-002  0.12695672747750616        0.0000000000000000     
   2.7164273983508246E-002  0.13427456546770258        0.0000000000000000     
   1.9516922486746691E-002  0.10552687845182011        0.0000000000000000     
   2.0102952678740588E-002  0.11249851036612171        0.0000000000000000     
   2.0653599804686666E-002  0.11958868081117387        0.0000000000000000     
   2.1168863864584924E-002  0.12679738978697661        0.0000000000000000     
   2.1648744858435362E-002  0.13412463729352997        0.0000000000000000     
   4.4270045181379336E-002  0.13497667129561952        0.0000000000000000     
   4.5181658098097710E-002  0.14237103887472433        0.0000000000000000     
   4.6051160878202914E-002  0.14988471737171399        0.0000000000000000     
   4.6878553521694948E-002  0.15751770678658850        0.0000000000000000     
   4.7663836028573804E-002  0.16527000711934792        0.0000000000000000     
   3.8474924144980230E-002  0.13470058246874736        0.0000000000000000     
   3.9269321713437680E-002  0.14211227508252150        0.0000000000000000     
   4.0027070516173040E-002  0.14964440343153551        0.0000000000000000     
   4.0748170553186296E-002  0.15729696751578948        0.0000000000000000     
   4.1432621824477468E-002  0.16506996733528329        0.0000000000000000     
   3.2773000412356541E-002  0.13446654719277504        0.0000000000000000     
   3.3451562790187531E-002  0.14189290110821517        0.0000000000000000     
   3.4098596218247332E-002  0.14944057006097719        0.0000000000000000     
   3.4714100696535931E-002  0.15710955405106117        0.0000000000000000     
   3.5298076225053328E-002  0.16489985307846700        0.0000000000000000     
   2.7164273983508246E-002  0.13427456546770258        0.0000000000000000     
   2.7728381328347269E-002  0.14171291695180535        0.0000000000000000     
   2.8265737984425804E-002  0.14927321726003906        0.0000000000000000     
   2.8776343951743832E-002  0.15695546639240363        0.0000000000000000     
   2.9260199230301372E-002  0.16475966434889919        0.0000000000000000     
   2.1648744858435362E-002  0.13412463729352997        0.0000000000000000     
   2.2099777327916903E-002  0.14157232261329203        0.0000000000000000     
   2.2528495814708453E-002  0.14914234502872104        0.0000000000000000     
   2.2934900318810025E-002  0.15683470453981693        0.0000000000000000     
   2.3318990840221605E-002  0.16464940114657975        0.0000000000000000     
   4.7663836028573804E-002  0.16527000711934792        0.0000000000000000     
   4.8398713761562316E-002  0.17312543767392416        0.0000000000000000     
   4.9074892083383295E-002  0.18106781775424918        0.0000000000000000     
   4.9692370994036734E-002  0.18909714736032310        0.0000000000000000     
   5.0251150493522641E-002  0.19721342649214582        0.0000000000000000     
   4.1432621824477468E-002  0.16506996733528329        0.0000000000000000     
   4.2072032623751879E-002  0.17294617607668941        0.0000000000000000     
   4.2658011244714820E-002  0.18090836692668033        0.0000000000000000     
   4.3190557687366314E-002  0.18895653988525607        0.0000000000000000     
   4.3669671951706360E-002  0.19709069495241652        0.0000000000000000     
   3.5298076225053328E-002  0.16489985307846700        0.0000000000000000     
   3.5842688199084066E-002  0.17279345054534079        0.0000000000000000     
   3.6340102013912738E-002  0.18077232985382841        0.0000000000000000     
   3.6790317669539281E-002  0.18883649100392991        0.0000000000000000     
   3.7193335165963744E-002  0.19698593399564523        0.0000000000000000     
   2.9260199230301372E-002  0.16475966434889919        0.0000000000000000     
   2.9710680487558924E-002  0.17266726107987823        0.0000000000000000     
   3.0121164390977017E-002  0.18065970653569333        0.0000000000000000     
   3.0491650940555642E-002  0.18873700071634458        0.0000000000000000     
   3.0822140136294807E-002  0.19689914362183189        0.0000000000000000     
   2.3318990840221605E-002  0.16464940114657975        0.0000000000000000     
   2.3676009489176419E-002  0.17256760768030177        0.0000000000000000     
   2.4001198375907685E-002  0.18057049697227520        0.0000000000000000     
   2.4294557500415391E-002  0.18865806902250015        0.0000000000000000     
   2.4556086862699542E-002  0.19683032383097657        0.0000000000000000     
   5.0251150493522641E-002  0.19721342649214582        0.0000000000000000     
   5.0750785533514198E-002  0.20540922428224970        0.0000000000000000     
   5.1190831065684596E-002  0.21367710986316704        0.0000000000000000     
   5.1571287090033842E-002  0.22201708323489794        0.0000000000000000     
   5.1892153606561922E-002  0.23042914439744233        0.0000000000000000     
   4.3669671951706360E-002  0.19709069495241652        0.0000000000000000     
   4.4096203863960147E-002  0.20530216031974055        0.0000000000000000     
   4.4471003250352900E-002  0.21358226417880682        0.0000000000000000     
   4.4794070110884633E-002  0.22193100652961542        0.0000000000000000     
   4.5065404445555311E-002  0.23034838737216629        0.0000000000000000     
   3.7193335165963744E-002  0.19698593399564523        0.0000000000000000     
   3.7550756892466654E-002  0.20521059274226777        0.0000000000000000     
   3.7864185238328588E-002  0.21350040115709085        0.0000000000000000     
   3.8133620203549524E-002  0.22185535924011451        0.0000000000000000     
   3.8359061788129478E-002  0.23027546699133875        0.0000000000000000     
   3.0822140136294807E-002  0.19689914362183189        0.0000000000000000     
   3.1114444619033725E-002  0.20513452154983142        0.0000000000000000     
   3.1370377029611637E-002  0.21343152079801922        0.0000000000000000     
   3.1589937368028530E-002  0.22179014136639527        0.0000000000000000     
   3.1773125634284416E-002  0.23021038325495957        0.0000000000000000     
   2.4556086862699542E-002  0.19683032383097657        0.0000000000000000     
   2.4787267043661361E-002  0.20507394674243146        0.0000000000000000     
   2.4989578624202070E-002  0.21337562310159180        0.0000000000000000     
   2.5163021604321659E-002  0.22173535290845767        0.0000000000000000     
   2.5307595984020131E-002  0.23015313616302893        0.0000000000000000     
   5.1892153606561922E-002  0.23042914439744233        0.0000000000000000     
   5.2160865215203439E-002  0.23890464615619356        0.0000000000000000     
   5.2384856515892961E-002  0.24743494131654478        0.0000000000000000     
   5.2564127508630473E-002  0.25602002987849615        0.0000000000000000     
   5.2698678193415997E-002  0.26465991184204751        0.0000000000000000     
   4.5065404445555311E-002  0.23034838737216629        0.0000000000000000     
   4.5293236308582688E-002  0.23881873205665252        0.0000000000000000     
   4.5485795754184488E-002  0.24732636593326709        0.0000000000000000     
   4.5643082782360705E-002  0.25587128900200995        0.0000000000000000     
   4.5765097393111347E-002  0.26445350126288125        0.0000000000000000     
   3.8359061788129478E-002  0.23027546699133875        0.0000000000000000     
   3.8548784688019408E-002  0.23873950678987738        0.0000000000000000     
   3.8711063599170301E-002  0.24722626101484427        0.0000000000000000     
   3.8845898521582149E-002  0.25573572966623942        0.0000000000000000     
   3.8953289455254954E-002  0.26426791274406297        0.0000000000000000     
   3.1773125634284416E-002  0.23021038325495957        0.0000000000000000     
   3.1927510353513593E-002  0.23866697035586801        0.0000000000000000     
   3.2060660050850384E-002  0.24713462656127633        0.0000000000000000     
   3.2172574726294804E-002  0.25561335187118450        0.0000000000000000     
   3.2263254379846819E-002  0.26410314628559262        0.0000000000000000     
   2.5307595984020131E-002  0.23015313616302893        0.0000000000000000     
   2.5429413305065249E-002  0.23860112275462456        0.0000000000000000     
   2.5534585109224756E-002  0.24705146257256330        0.0000000000000000     
   2.5623111396498657E-002  0.25550415561684514        0.0000000000000000     
   2.5694992166886952E-002  0.26395920188747013        0.0000000000000000     
   5.2698678193415997E-002  0.26465991184204751        0.0000000000000000     
   5.2819558591820491E-002  0.27330544978384919        0.0000000000000000     
   5.2957818725414878E-002  0.28190750628055150        0.0000000000000000     
   5.3113458594199192E-002  0.29046608133215440        0.0000000000000000     
   5.3286478198173427E-002  0.29898117493865783        0.0000000000000000     
   4.5765097393111347E-002  0.26445350126288125        0.0000000000000000     
   4.5876141628641703E-002  0.27302313716014415        0.0000000000000000     
   4.6000517531157054E-002  0.28153033113806175        0.0000000000000000     
   4.6138225100657425E-002  0.28997508319663429        0.0000000000000000     
   4.6289264337142783E-002  0.29835739333586159        0.0000000000000000     
   3.8953289455254954E-002  0.26426791274406297        0.0000000000000000     
   3.9052152980740988E-002  0.27277170833331010        0.0000000000000000     
   3.9161405678592540E-002  0.28119601451897608        0.0000000000000000     
   3.9281047548809601E-002  0.28954083130106101        0.0000000000000000     
   3.9411078591392160E-002  0.29780615867956484        0.0000000000000000     
   3.2263254379846819E-002  0.26410314628559262        0.0000000000000000     
   3.2347592648118366E-002  0.27255116330334705        0.0000000000000000     
   3.2440483167721343E-002  0.28090455642329432        0.0000000000000000     
   3.2541925938655729E-002  0.28916332564543445        0.0000000000000000     
   3.2651920960921552E-002  0.29732747096976753        0.0000000000000000     
   2.5694992166886952E-002  0.26395920188747013        0.0000000000000000     
   2.5762460630773823E-002  0.27236150207025500        0.0000000000000000     
   2.5837749998543446E-002  0.28065595685101657        0.0000000000000000     
   2.5920860270195828E-002  0.28884256622975479        0.0000000000000000     
   2.6011791445730962E-002  0.29692133020646971        0.0000000000000000     
   1.3970774166504387E-002   5.5744600746114953E-002   0.0000000000000000     
   1.4753553502635467E-002   6.1324534105964647E-002   0.0000000000000000     
   1.5508796596721951E-002   6.7095079177256989E-002   0.0000000000000000     
   1.6236503448763834E-002   7.3056235959991972E-002   0.0000000000000000     
   1.6936674058761113E-002   7.9208004454169617E-002   0.0000000000000000     
   1.0454085047968270E-002   5.5605105003987389E-002   0.0000000000000000     
   1.1053076562695451E-002   6.1175264178174725E-002   0.0000000000000000     
   1.1625846673901524E-002   6.6938568168429705E-002   0.0000000000000000     
   1.2172395381586478E-002   7.2895016974752327E-002   0.0000000000000000     
   1.2692722685750321E-002   7.9044610597142573E-002   0.0000000000000000     
   6.9574168637062967E-003   5.5492091295260074E-002   0.0000000000000000     
   7.3644678105308998E-003   6.1063210733312202E-002   0.0000000000000000     
   7.7504189705029673E-003   6.6826574730844426E-002   0.0000000000000000     
   8.1152703436224993E-003   7.2782183287856780E-002   0.0000000000000000     
   8.4590219298894959E-003   7.8930036404349216E-002   0.0000000000000000     
   3.4807696137184674E-003   5.5405559619932994E-002   0.0000000000000000     
   3.6877272461418105E-003   6.0988373771377093E-002   0.0000000000000000     
   3.8825134865262882E-003   6.6759098864501210E-002   0.0000000000000000     
   4.0651283348718979E-003   7.2717734899305358E-002   0.0000000000000000     
   4.2355717911786396E-003   7.8864281875789533E-002   0.0000000000000000     
   2.4143298004780048E-005   5.5345509978006149E-002   0.0000000000000000     
   2.2854869528184151E-005   6.0950753292369361E-002   0.0000000000000000     
   2.2130221971480130E-005   6.6736140569399999E-002   0.0000000000000000     
   2.1969355334670561E-005   7.2701671809098062E-002   0.0000000000000000     
   2.2372269617751406E-005   7.8847347011463537E-002   0.0000000000000000     
   1.6936674058761113E-002   7.9208004454169617E-002   0.0000000000000000     
   1.7612741452241447E-002   8.5538239841446997E-002   0.0000000000000000     
   1.8268138654732490E-002   9.2034797303481214E-002   0.0000000000000000     
   1.8902865666234239E-002   9.8697676840272239E-002   0.0000000000000000     
   1.9516922486746691E-002  0.10552687845182011        0.0000000000000000     
   1.2692722685750321E-002   7.9044610597142573E-002   0.0000000000000000     
   1.3192529673015010E-002   8.5375272234856095E-002   0.0000000000000000     
   1.3677517430002504E-002   9.1874925087148493E-002   0.0000000000000000     
   1.4147685956712805E-002   9.8543569154019739E-002   0.0000000000000000     
   1.4603035253145913E-002  0.10538120443546990        0.0000000000000000     
   8.4590219298894959E-003   7.8930036404349216E-002   0.0000000000000000     
   8.7873523248760826E-003   8.5259713190185160E-002   0.0000000000000000     
   9.1059401241543846E-003   9.1760792755228041E-002   0.0000000000000000     
   9.4147853277244051E-003   9.8433275099477857E-002   0.0000000000000000     
   9.7138879355861425E-003  0.10527716022293460        0.0000000000000000     
   4.2355717911786396E-003   7.8864281875789533E-002   0.0000000000000000     
   4.3972094078246681E-003   8.5191562707434235E-002   0.0000000000000000     
   4.5534067371881337E-003   9.1692400307719912E-002   0.0000000000000000     
   4.7041637792690381E-003   9.8366794676646566E-002   0.0000000000000000     
   4.8494805340673804E-003  0.10521474581421424        0.0000000000000000     
   2.2372269617751406E-005   7.8847347011463537E-002   0.0000000000000000     
   2.2100921860763664E-005   8.5170820786603277E-002   0.0000000000000000     
   1.9917269103747687E-005   9.1669747744624067E-002   0.0000000000000000     
   1.5821311346702878E-005   9.8344127885525934E-002   0.0000000000000000     
   9.8130485896271227E-006  0.10519396120930886        0.0000000000000000     
   1.9516922486746691E-002  0.10552687845182011        0.0000000000000000     
   2.0102952678740588E-002  0.11249851036612171        0.0000000000000000     
   2.0653599804686666E-002  0.11958868081117387        0.0000000000000000     
   2.1168863864584924E-002  0.12679738978697661        0.0000000000000000     
   2.1648744858435362E-002  0.13412463729352997        0.0000000000000000     
   1.4603035253145913E-002  0.10538120443546990        0.0000000000000000     
   1.5038427514793930E-002  0.11236223247751659        0.0000000000000000     
   1.5448724937148956E-002  0.11946105482617760        0.0000000000000000     
   1.5833927520210993E-002  0.12667767148145292        0.0000000000000000     
   1.6194035263980042E-002  0.13401208244334251        0.0000000000000000     
   9.7138879355861425E-003  0.10527716022293460        0.0000000000000000     
   1.0000428886304234E-002  0.11226529138693542        0.0000000000000000     
   1.0271589118443312E-002  0.11937051185281752        0.0000000000000000     
   1.0527368632003379E-002  0.12659282162058091        0.0000000000000000     
   1.0767767426984437E-002  0.13393222069022559        0.0000000000000000     
   4.8494805340673804E-003  0.10521474581421424        0.0000000000000000     
   4.9889567932715007E-003  0.11220768709437819        0.0000000000000000     
   5.1221923485697323E-003  0.11931705189109365        0.0000000000000000     
   5.2491871999620823E-003  0.12654284020436066        0.0000000000000000     
   5.3699413474485435E-003  0.13388505203417916        0.0000000000000000     
   9.8130485896271227E-006  0.10519396120930886        0.0000000000000000     
   4.0112356957300224E-006  0.11218941959984487        0.0000000000000000     
   5.3462752822226213E-007  0.11930067494100594        0.0000000000000000     
  -6.1677591289848897E-007  0.12652772723279210        0.0000000000000000     
   5.5702537236825694E-007  0.13387057647520328        0.0000000000000000     
   2.1648744858435362E-002  0.13412463729352997        0.0000000000000000     
   2.2099777327916903E-002  0.14157232261329203        0.0000000000000000     
   2.2528495814708453E-002  0.14914234502872104        0.0000000000000000     
   2.2934900318810025E-002  0.15683470453981693        0.0000000000000000     
   2.3318990840221605E-002  0.16464940114657975        0.0000000000000000     
   1.6194035263980042E-002  0.13401208244334251        0.0000000000000000     
   1.6532706264052583E-002  0.14146668572162605        0.0000000000000000     
   1.6853598616025100E-002  0.14904387932608323        0.0000000000000000     
   1.7156712319897592E-002  0.15674366325671402        0.0000000000000000     
   1.7442047375670060E-002  0.16456603751351845        0.0000000000000000     
   1.0767767426984437E-002  0.13393222069022559        0.0000000000000000     
   1.0994123611910494E-002  0.14139157390575827        0.0000000000000000     
   1.1207775295305568E-002  0.14897374611118572        0.0000000000000000     
   1.1408722477169654E-002  0.15667873730650797        0.0000000000000000     
   1.1596965157502758E-002  0.16450654749172497        0.0000000000000000     
   5.3699413474485435E-003  0.13388505203417916        0.0000000000000000     
   5.4840293714906313E-003  0.14134698716568866        0.0000000000000000     
   5.5910258525498540E-003  0.14893194538402857        0.0000000000000000     
   5.6909307906262106E-003  0.15663992668919877        0.0000000000000000     
   5.7837441857196996E-003  0.16447093108119937        0.0000000000000000     
   5.5702537236825694E-007  0.13387057647520328        0.0000000000000000     
   2.4235427929964089E-006  0.14133292550141727        0.0000000000000000     
   3.3502877579585748E-006  0.14891847714461165        0.0000000000000000     
   3.3372602672568146E-006  0.15662723140478643        0.0000000000000000     
   2.3844603208888517E-006  0.16445918828194164        0.0000000000000000     
   2.3318990840221605E-002  0.16464940114657975        0.0000000000000000     
   2.3676009489176419E-002  0.17256760768030177        0.0000000000000000     
   2.4001198375907685E-002  0.18057049697227520        0.0000000000000000     
   2.4294557500415391E-002  0.18865806902250015        0.0000000000000000     
   2.4556086862699542E-002  0.19683032383097657        0.0000000000000000     
   1.7442047375670060E-002  0.16456603751351845        0.0000000000000000     
   1.7706833441191012E-002  0.17249203417110875        0.0000000000000000     
   1.7948300174308953E-002  0.18050268530409738        0.0000000000000000     
   1.8166447575023895E-002  0.18859799091248422        0.0000000000000000     
   1.8361275643335829E-002  0.19677795099626932        0.0000000000000000     
   1.1596965157502758E-002  0.16450654749172497        0.0000000000000000     
   1.1771310580857139E-002  0.17243808437679672        0.0000000000000000     
   1.1930565991785061E-002  0.18045425567168322        0.0000000000000000     
   1.2074731390286527E-002  0.18855506137638442        0.0000000000000000     
   1.2203806776361537E-002  0.19674050149090033        0.0000000000000000     
   5.7837441857196996E-003  0.16447093108119937        0.0000000000000000     
   5.8694409081748045E-003  0.17240575829736560        0.0000000000000000     
   5.9479958283360007E-003  0.18042520807503273        0.0000000000000000     
   6.0194089462032889E-003  0.18852928041420070        0.0000000000000000     
   6.0836802617766691E-003  0.19671797531486962        0.0000000000000000     
   2.3844603208888517E-006  0.16445918828194164        0.0000000000000000     
   1.2244231440083041E-006  0.17239505593281546        0.0000000000000000     
   5.8968396177182594E-007  0.18041554251414596        0.0000000000000000     
   4.8024277417583940E-007  0.18852064802593319        0.0000000000000000     
   8.9609958122153707E-007  0.19671037246817716        0.0000000000000000     
   2.4556086862699542E-002  0.19683032383097657        0.0000000000000000     
   2.4787267043661361E-002  0.20507394674243146        0.0000000000000000     
   2.4989578624202070E-002  0.21337562310159180        0.0000000000000000     
   2.5163021604321659E-002  0.22173535290845767        0.0000000000000000     
   2.5307595984020131E-002  0.23015313616302893        0.0000000000000000     
   1.8361275643335829E-002  0.19677795099626932        0.0000000000000000     
   1.8533697311054555E-002  0.20502769856615491        0.0000000000000000     
   1.8684625509989866E-002  0.21333236663284325        0.0000000000000000     
   1.8814060240141772E-002  0.22169195519633433        0.0000000000000000     
   1.8922001501510261E-002  0.23010646425662815        0.0000000000000000     
   1.2203806776361537E-002  0.19674050149090033        0.0000000000000000     
   1.2318208565918304E-002  0.20499460726708893        0.0000000000000000     
   1.2418353174865041E-002  0.21330140995680821        0.0000000000000000     
   1.2504240603201747E-002  0.22166090956005810        0.0000000000000000     
   1.2575870850928426E-002  0.23007310607683856        0.0000000000000000     
   6.0836802617766691E-003  0.19671797531486962        0.0000000000000000     
   6.1408008082526108E-003  0.20497467284523352        0.0000000000000000     
   6.1907616188275850E-003  0.21328275307348663        0.0000000000000000     
   6.2335626935015936E-003  0.22164221599962886        0.0000000000000000     
   6.2692040322746322E-003  0.23005306162366027        0.0000000000000000     
   8.9609958122153707E-007  0.19671037246817716        0.0000000000000000     
   1.4740380574760140E-006  0.20496789530058865        0.0000000000000000     
   1.8508418775017030E-006  0.21327639598287851        0.0000000000000000     
   2.0265110413031850E-006  0.22163587451504668        0.0000000000000000     
   2.0010455488760417E-006  0.23004633089709323        0.0000000000000000     
   2.5307595984020131E-002  0.23015313616302893        0.0000000000000000     
   2.5429413305065249E-002  0.23860112275462456        0.0000000000000000     
   2.5534585109224756E-002  0.24705146257256330        0.0000000000000000     
   2.5623111396498657E-002  0.25550415561684514        0.0000000000000000     
   2.5694992166886952E-002  0.26395920188747013        0.0000000000000000     
   1.8922001501510261E-002  0.23010646425662815        0.0000000000000000     
   1.9012812165544044E-002  0.23854643524447422        0.0000000000000000     
   1.9090855103691819E-002  0.24698240959062212        0.0000000000000000     
   1.9156130315953594E-002  0.25541438729507171        0.0000000000000000     
   1.9208637802329367E-002  0.26384236835782315        0.0000000000000000     
   1.2575870850928426E-002  0.23007310607683856        0.0000000000000000     
   1.2636025557819654E-002  0.23850737908374425        0.0000000000000000     
   1.2687486363650007E-002  0.24693310815736963        0.0000000000000000     
   1.2730253268419483E-002  0.25535029329771464        0.0000000000000000     
   1.2764326272128090E-002  0.26375893450477933        0.0000000000000000     
   6.2692040322746322E-003  0.23005306162366027        0.0000000000000000     
   6.2990534818920790E-003  0.23848395427243468        0.0000000000000000     
   6.3244788890993095E-003  0.24690355827280583        0.0000000000000000     
   6.3454802538963212E-003  0.25531187362477376        0.0000000000000000     
   6.3620575762831184E-003  0.26370890032833844        0.0000000000000000     
   2.0010455488760417E-006  0.23004633089709323        0.0000000000000000     
   1.8959377613204410E-006  0.23847616081054548        0.0000000000000000     
   1.8326800397311296E-006  0.24689375993693083        0.0000000000000000     
   1.8112723841091373E-006  0.25529912827624929        0.0000000000000000     
   1.8317147944557112E-006  0.26369226582850075        0.0000000000000000     
   2.5694992166886952E-002  0.26395920188747013        0.0000000000000000     
   2.5762460630773823E-002  0.27236150207025500        0.0000000000000000     
   2.5837749998543446E-002  0.28065595685101657        0.0000000000000000     
   2.5920860270195828E-002  0.28884256622975479        0.0000000000000000     
   2.6011791445730962E-002  0.29692133020646971        0.0000000000000000     
   1.9208637802329367E-002  0.26384236835782315        0.0000000000000000     
   1.9258359836300268E-002  0.27220906428357994        0.0000000000000000     
   1.9315278691347436E-002  0.28045718657704544        0.0000000000000000     
   1.9379394367470874E-002  0.28858673523821965        0.0000000000000000     
   1.9450706864670576E-002  0.29659771026710280        0.0000000000000000     
   1.2764326272128090E-002  0.26375893450477933        0.0000000000000000     
   1.2796893172290621E-002  0.27210018959286769        0.0000000000000000     
   1.2835141766421882E-002  0.28031521637628354        0.0000000000000000     
   1.2879072054521873E-002  0.28840401485502715        0.0000000000000000     
   1.2928684036590596E-002  0.29636658502909824        0.0000000000000000     
   6.3620575762831184E-003  0.26370890032833844        0.0000000000000000     
   6.3780606387448787E-003  0.27203487799811810        0.0000000000000000     
   6.3973392237667796E-003  0.28023004624873105        0.0000000000000000     
   6.4198933313488280E-003  0.28829440508017695        0.0000000000000000     
   6.4457229614910162E-003  0.29622795449245604        0.0000000000000000     
   1.8317147944557112E-006  0.26369226582850075        0.0000000000000000     
   1.8622356630407753E-006  0.27201312949933149        0.0000000000000000     
   1.8710633821312182E-006  0.28020167619438763        0.0000000000000000     
   1.8581979517304009E-006  0.28825790591366923        0.0000000000000000     
   1.8236393718364802E-006  0.29618181865717624        0.0000000000000000     
   2.4143298004780048E-005   5.5345509978006149E-002   0.0000000000000000     
   2.2854869528184151E-005   6.0950753292369361E-002   0.0000000000000000     
   2.2130221971480130E-005   6.6736140569399999E-002   0.0000000000000000     
   2.1969355334670561E-005   7.2701671809098062E-002   0.0000000000000000     
   2.2372269617751406E-005   7.8847347011463537E-002   0.0000000000000000     
  -3.4377788575679778E-003   5.5336775668595004E-002   0.0000000000000000     
  -3.6470616671587207E-003   6.0962995617121291E-002   0.0000000000000000     
  -3.8430751481674484E-003   6.6761970298458928E-002   0.0000000000000000     
  -4.0258193005941632E-003   7.2733699712607916E-002   0.0000000000000000     
  -4.1952941244388607E-003   7.8878183859568268E-002   0.0000000000000000     
  -6.9303136271330187E-003   5.5404189990815006E-002   0.0000000000000000     
  -7.3389347117676458E-003   6.1037747066465101E-002   0.0000000000000000     
  -7.7254469488964974E-003   6.6840858504596090E-002   0.0000000000000000     
  -8.0898503385195795E-003   7.2813524305207974E-002   0.0000000000000000     
  -8.4321448806368889E-003   7.8955744468300740E-002   0.0000000000000000     
  -1.0453461010690345E-002   5.5547752944666157E-002   0.0000000000000000     
  -1.1052764264298593E-002   6.1175007640400819E-002   0.0000000000000000     
  -1.1624985180215671E-002   6.6972805187811513E-002   0.0000000000000000     
  -1.2170123758441587E-002   7.2941145586898209E-002   0.0000000000000000     
  -1.2688179998976335E-002   7.9080028837660937E-002   0.0000000000000000     
  -1.4007221008239954E-002   5.5767464530148456E-002   0.0000000000000000     
  -1.4788550324751555E-002   6.1374777338928425E-002   0.0000000000000000     
  -1.5541689842124963E-002   6.7157810348105154E-002   0.0000000000000000     
  -1.6266639560360181E-002   7.3116563557678621E-002   0.0000000000000000     
  -1.6963399479457200E-002   7.9251036967648875E-002   0.0000000000000000     
   2.2372269617751406E-005   7.8847347011463537E-002   0.0000000000000000     
   2.2100921860763664E-005   8.5170820786603277E-002   0.0000000000000000     
   1.9917269103747687E-005   9.1669747744624067E-002   0.0000000000000000     
   1.5821311346702878E-005   9.8344127885525934E-002   0.0000000000000000     
   9.8130485896271227E-006  0.10519396120930886        0.0000000000000000     
  -4.1952941244388607E-003   7.8878183859568268E-002   0.0000000000000000     
  -4.3572004611220358E-003   8.5197386884677401E-002   0.0000000000000000     
  -4.5172391520641782E-003   9.1693272933272729E-002   0.0000000000000000     
  -4.6754101972652905E-003   9.8365842005354295E-002   0.0000000000000000     
  -4.8317135967253684E-003  0.10521509410092206        0.0000000000000000     
  -8.4321448806368889E-003   7.8955744468300740E-002   0.0000000000000000     
  -8.7599220692301423E-003   8.5271160458641665E-002   0.0000000000000000     
  -9.0807733982810543E-003   9.1763413740998098E-002   0.0000000000000000     
  -9.3946988677896248E-003   9.8432504315370026E-002   0.0000000000000000     
  -9.7016984777558574E-003  0.10527843218175742        0.0000000000000000     
  -1.2688179998976335E-002   7.9080028837660937E-002   0.0000000000000000     
  -1.3186063902463557E-002   8.5392141508496125E-002   0.0000000000000000     
  -1.3670685469546879E-002   9.1880170167800174E-002   0.0000000000000000     
  -1.4142044700226307E-002   9.8544114815573153E-002   0.0000000000000000     
  -1.4600141594501839E-002  0.10538397545181497        0.0000000000000000     
  -1.6963399479457200E-002   7.9251036967648875E-002   0.0000000000000000     
  -1.7635625960822278E-002   8.5560330034240711E-002   0.0000000000000000     
  -1.8286975365861650E-002   9.2043542213678955E-002   0.0000000000000000     
  -1.8917447694575332E-002   9.8700673505963635E-002   0.0000000000000000     
  -1.9527042946963315E-002  0.10553172391109471        0.0000000000000000     
   9.8130485896271227E-006  0.10519396120930886        0.0000000000000000     
   4.0112356957300224E-006  0.11218941959984487        0.0000000000000000     
   5.3462752822226213E-007  0.11930067494100594        0.0000000000000000     
  -6.1677591289848897E-007  0.12652772723279210        0.0000000000000000     
   5.5702537236825694E-007  0.13387057647520328        0.0000000000000000     
  -4.8317135967253684E-003  0.10521509410092206        0.0000000000000000     
  -4.9818197106336771E-003  0.11221039286964787        0.0000000000000000     
  -5.1213988991794775E-003  0.11932110196120357        0.0000000000000000     
  -5.2504511623627653E-003  0.12654722137558921        0.0000000000000000     
  -5.3689765001835466E-003  0.13388875111280474        0.0000000000000000     
  -9.7016984777558574E-003  0.10527843218175742        0.0000000000000000     
  -9.9959479699273275E-003  0.11227051087009957        0.0000000000000000     
  -1.0271623086051618E-002  0.11937805391033575        0.0000000000000000     
  -1.0528723826128728E-002  0.12660106130246596        0.0000000000000000     
  -1.0767250190158653E-002  0.13393953304649023        0.0000000000000000     
  -1.4600141594501839E-002  0.10538397545181497        0.0000000000000000     
  -1.5038373542185225E-002  0.11236977360119998        0.0000000000000000     
  -1.5450137933088207E-002  0.11947153078840245        0.0000000000000000     
  -1.5835434767210783E-002  0.12668924701342241        0.0000000000000000     
  -1.6194264044552958E-002  0.13402292227625981        0.0000000000000000     
  -1.9527042946963315E-002  0.10553172391109471        0.0000000000000000     
  -2.0109096427407359E-002  0.11250818106294910        0.0000000000000000     
  -2.0656943440289229E-002  0.11960153259540368        0.0000000000000000     
  -2.1170583985608931E-002  0.12681177850845848        0.0000000000000000     
  -2.1650018063366454E-002  0.13413891880211345        0.0000000000000000     
   5.5702537236825694E-007  0.13387057647520328        0.0000000000000000     
   2.4235427929964089E-006  0.14133292550141727        0.0000000000000000     
   3.3502877579585748E-006  0.14891847714461165        0.0000000000000000     
   3.3372602672568146E-006  0.15662723140478643        0.0000000000000000     
   2.3844603208888517E-006  0.16445918828194164        0.0000000000000000     
  -5.3689765001835466E-003  0.13388875111280474        0.0000000000000000     
  -5.4795602697631342E-003  0.14134959955762888        0.0000000000000000     
  -5.5847878282228426E-003  0.14893367509484040        0.0000000000000000     
  -5.6846591755626797E-003  0.15664097772443930        0.0000000000000000     
  -5.7791743117826342E-003  0.16447150744642555        0.0000000000000000     
  -1.0767250190158653E-002  0.13393953304649023        0.0000000000000000     
  -1.0990788461758482E-002  0.14139721997900834        0.0000000000000000     
  -1.1202924924545285E-002  0.14897787293662015        0.0000000000000000     
  -1.1403659578519068E-002  0.15668149191932565        0.0000000000000000     
  -1.1592992423679825E-002  0.16450807692712485        0.0000000000000000     
  -1.6194264044552958E-002  0.13402292227625981        0.0000000000000000     
  -1.6531261033193047E-002  0.14147578676555564        0.0000000000000000     
  -1.6851061001209363E-002  0.14905107066995088        0.0000000000000000     
  -1.7153663948601912E-002  0.15674877398944553        0.0000000000000000     
  -1.7439069875370684E-002  0.16456889672403957        0.0000000000000000     
  -2.1650018063366454E-002  0.13413891880211345        0.0000000000000000     
  -2.2100977984066825E-002  0.14158529991727078        0.0000000000000000     
  -2.2529196058215076E-002  0.14915326829483261        0.0000000000000000     
  -2.2934672285811204E-002  0.15684282393479890        0.0000000000000000     
  -2.3317406666855212E-002  0.16465396683716968        0.0000000000000000     
   2.3844603208888517E-006  0.16445918828194164        0.0000000000000000     
   1.2244231440083041E-006  0.17239505593281546        0.0000000000000000     
   5.8968396177182594E-007  0.18041554251414596        0.0000000000000000     
   4.8024277417583940E-007  0.18852064802593319        0.0000000000000000     
   8.9609958122153707E-007  0.19671037246817716        0.0000000000000000     
  -5.7791743117826342E-003  0.16447150744642555        0.0000000000000000     
  -5.8669623192498764E-003  0.17240599952488184        0.0000000000000000     
  -5.9466522803315689E-003  0.18042518922389089        0.0000000000000000     
  -6.0182441950277091E-003  0.18852907654345263        0.0000000000000000     
  -6.0817380633382979E-003  0.19671766148356712        0.0000000000000000     
  -1.1592992423679825E-002  0.16450807692712485        0.0000000000000000     
  -1.1768742764021485E-002  0.17243861131530058        0.0000000000000000     
  -1.1928729903537966E-002  0.18045407843913566        0.0000000000000000     
  -1.2072953842229268E-002  0.18855447829863003        0.0000000000000000     
  -1.2201414580095391E-002  0.19673981089378376        0.0000000000000000     
  -1.7439069875370684E-002  0.16456889672403957        0.0000000000000000     
  -1.7704116911170815E-002  0.17249289130407164        0.0000000000000000     
  -1.7945643185657421E-002  0.18050221015988022        0.0000000000000000     
  -1.8163648698830498E-002  0.18859685329146536        0.0000000000000000     
  -1.8358133450690053E-002  0.19677682069882704        0.0000000000000000     
  -2.3317406666855212E-002  0.16465396683716968        0.0000000000000000     
  -2.3673084760697856E-002  0.17256883949119492        0.0000000000000000     
  -2.3997392126689925E-002  0.18056958438612458        0.0000000000000000     
  -2.4290328764831396E-002  0.18865620152195858        0.0000000000000000     
  -2.4551894675122286E-002  0.19682869089869698        0.0000000000000000     
   8.9609958122153707E-007  0.19671037246817716        0.0000000000000000     
   1.4740380574760140E-006  0.20496789530058865        0.0000000000000000     
   1.8508418775017030E-006  0.21327639598287851        0.0000000000000000     
   2.0265110413031850E-006  0.22163587451504668        0.0000000000000000     
   2.0010455488760417E-006  0.23004633089709323        0.0000000000000000     
  -6.0817380633382979E-003  0.19671766148356712        0.0000000000000000     
  -6.1377892350395445E-003  0.20497431781787476        0.0000000000000000     
  -6.1870530599076549E-003  0.21328241932001601        0.0000000000000000     
  -6.2295295379426272E-003  0.22164196598999089        0.0000000000000000     
  -6.2652186691444633E-003  0.23005295782779930        0.0000000000000000     
  -1.2201414580095391E-002  0.19673981089378376        0.0000000000000000     
  -1.2315006501410894E-002  0.20499398358181234        0.0000000000000000     
  -1.2414623990450331E-002  0.21330090371993135        0.0000000000000000     
  -1.2500267047213702E-002  0.22166057130814068        0.0000000000000000     
  -1.2571935671701012E-002  0.23007298634644047        0.0000000000000000     
  -1.8358133450690053E-002  0.19677682069882704        0.0000000000000000     
  -1.8530177761056570E-002  0.20502689259240139        0.0000000000000000     
  -1.8680861949750528E-002  0.21333184918262438        0.0000000000000000     
  -1.8810186016771924E-002  0.22169169046949616        0.0000000000000000     
  -1.8918149962120767E-002  0.23010641645301658        0.0000000000000000     
  -2.4551894675122286E-002  0.19682869089869698        0.0000000000000000     
  -2.4783303013976573E-002  0.20507304484964187        0.0000000000000000     
  -2.4985766937808240E-002  0.21337525570809526        0.0000000000000000     
  -2.5159286446617288E-002  0.22173532347405725        0.0000000000000000     
  -2.5303861540403729E-002  0.23015324814752772        0.0000000000000000     
   2.0010455488760417E-006  0.23004633089709323        0.0000000000000000     
   1.8959377613204410E-006  0.23847616081054548        0.0000000000000000     
   1.8326800397311296E-006  0.24689375993693083        0.0000000000000000     
   1.8112723841091373E-006  0.25529912827624929        0.0000000000000000     
   1.8317147944557112E-006  0.26369226582850075        0.0000000000000000     
  -6.2652186691444633E-003  0.23005295782779930        0.0000000000000000     
  -6.2952636279483883E-003  0.23848399751754953        0.0000000000000000     
  -6.3208075887896259E-003  0.24690368774334950        0.0000000000000000     
  -6.3418505516681803E-003  0.25531202850519941        0.0000000000000000     
  -6.3583925165840403E-003  0.26370901980309908        0.0000000000000000     
  -1.2571935671701012E-002  0.23007298634644047        0.0000000000000000     
  -1.2632241768612813E-002  0.23850746321291957        0.0000000000000000     
  -1.2683797242649668E-002  0.24693331628566698        0.0000000000000000     
  -1.2726602093811564E-002  0.25535054556468262        0.0000000000000000     
  -1.2760656322098518E-002  0.26375915104996661        0.0000000000000000     
  -1.8918149962120767E-002  0.23010641645301658        0.0000000000000000     
  -1.9009038484231952E-002  0.23854655789665558        0.0000000000000000     
  -1.9087136281540382E-002  0.24698264556388300        0.0000000000000000     
  -1.9152443354046058E-002  0.25541467945469892        0.0000000000000000     
  -1.9204959701748976E-002  0.26384265956910324        0.0000000000000000     
  -2.5303861540403729E-002  0.23015324814752772        0.0000000000000000     
  -2.5425653774805806E-002  0.23860128156875762        0.0000000000000000     
  -2.5530824705461776E-002  0.24705167557799781        0.0000000000000000     
  -2.5619374332371644E-002  0.25550443017524826        0.0000000000000000     
  -2.5691302655535413E-002  0.26395954536050903        0.0000000000000000     
   1.8317147944557112E-006  0.26369226582850075        0.0000000000000000     
   1.8622356630407753E-006  0.27201312949933149        0.0000000000000000     
   1.8710633821312182E-006  0.28020167619438763        0.0000000000000000     
   1.8581979517304009E-006  0.28825790591366923        0.0000000000000000     
   1.8236393718364802E-006  0.29618181865717624        0.0000000000000000     
  -6.3583925165840403E-003  0.26370901980309908        0.0000000000000000     
  -6.3743420491581375E-003  0.27203495402806016        0.0000000000000000     
  -6.3936077150113782E-003  0.28023012357109423        0.0000000000000000     
  -6.4161895141437667E-003  0.28829452843220127        0.0000000000000000     
  -6.4420874465553014E-003  0.29622816861138124        0.0000000000000000     
  -1.2760656322098518E-002  0.26375915104996661        0.0000000000000000     
  -1.2793192227921893E-002  0.27210036151585681        0.0000000000000000     
  -1.2831442111693058E-002  0.28031540573669145        0.0000000000000000     
  -1.2875405973412014E-002  0.28840428371247034        0.0000000000000000     
  -1.2925083813078758E-002  0.29636699544319350        0.0000000000000000     
  -1.9204959701748976E-002  0.26384265956910324        0.0000000000000000     
  -1.9254688300628230E-002  0.27220935196272150        0.0000000000000000     
  -1.9311632126662912E-002  0.28045752269117918        0.0000000000000000     
  -1.9375791179853011E-002  0.28858717175447640        0.0000000000000000     
  -1.9447165460198531E-002  0.29659829915261310        0.0000000000000000     
  -2.5691302655535413E-002  0.26395954536050903        0.0000000000000000     
  -2.5758830267277148E-002  0.27236192536865411        0.0000000000000000     
  -2.5834177759920932E-002  0.28065647443455760        0.0000000000000000     
  -2.5917345133466760E-002  0.28884319255821955        0.0000000000000000     
  -2.6008332387914626E-002  0.29692207973963991        0.0000000000000000     
  -1.4007221008239954E-002   5.5767464530148456E-002   0.0000000000000000     
  -1.4788550324751555E-002   6.1374777338928425E-002   0.0000000000000000     
  -1.5541689842124963E-002   6.7157810348105154E-002   0.0000000000000000     
  -1.6266639560360181E-002   7.3116563557678621E-002   0.0000000000000000     
  -1.6963399479457200E-002   7.9251036967648875E-002   0.0000000000000000     
  -1.7619436689530588E-002   5.6048834299845744E-002   0.0000000000000000     
  -1.8581422571406395E-002   6.1632167527524179E-002   0.0000000000000000     
  -1.9514511543112994E-002   6.7397302559292327E-002   0.0000000000000000     
  -2.0418703604650385E-002   7.3344239395150168E-002   0.0000000000000000     
  -2.1293998756018569E-002   7.9472978035097744E-002   0.0000000000000000     
  -2.1317951124310987E-002   5.6377371806341822E-002   0.0000000000000000     
  -2.2466510682542962E-002   6.1942289571664345E-002   0.0000000000000000     
  -2.3582400891668374E-002   6.7692710395188316E-002   0.0000000000000000     
  -2.4665621751687232E-002   7.3628634276913768E-002   0.0000000000000000     
  -2.5716173262599527E-002   7.9750061216840681E-002   0.0000000000000000     
  -2.5102764312581152E-002   5.6753077049636717E-002   0.0000000000000000     
  -2.6443814658161251E-002   6.2305143471348912E-002   0.0000000000000000     
  -2.7745357887791110E-002   6.8044033855793148E-002   0.0000000000000000     
  -2.9007394001470722E-002   7.3969748202969421E-002   0.0000000000000000     
  -3.0229922999200087E-002   8.0082286512877701E-002   0.0000000000000000     
  -2.8973876254341079E-002   5.7175950029730416E-002   0.0000000000000000     
  -3.0513334498261269E-002   6.2720729226577898E-002   0.0000000000000000     
  -3.2003382531481196E-002   6.8451272941106783E-002   0.0000000000000000     
  -3.3444020354000854E-002   7.4367581173317099E-002   0.0000000000000000     
  -3.4835247965820243E-002   8.0469653923208831E-002   0.0000000000000000     
  -1.6963399479457200E-002   7.9251036967648875E-002   0.0000000000000000     
  -1.7635625960822278E-002   8.5560330034240711E-002   0.0000000000000000     
  -1.8286975365861650E-002   9.2043542213678955E-002   0.0000000000000000     
  -1.8917447694575332E-002   9.8700673505963635E-002   0.0000000000000000     
  -1.9527042946963315E-002  0.10553172391109471        0.0000000000000000     
  -2.1293998756018569E-002   7.9472978035097744E-002   0.0000000000000000     
  -2.2140701093037188E-002   8.5778360451123387E-002   0.0000000000000000     
  -2.2959114711525893E-002   9.2255228615215595E-002   0.0000000000000000     
  -2.3749239611484677E-002   9.8903582527374301E-002   0.0000000000000000     
  -2.4511075792913544E-002  0.10572342218759956        0.0000000000000000     
  -2.5716173262599527E-002   7.9750061216840681E-002   0.0000000000000000     
  -2.6733382147839189E-002   8.6048867174392155E-002   0.0000000000000000     
  -2.7716575130840110E-002   9.2516928108991231E-002   0.0000000000000000     
  -2.8665752211602318E-002   9.9154244020638008E-002   0.0000000000000000     
  -2.9580913390125786E-002  0.10596081490933239        0.0000000000000000     
  -3.0229922999200087E-002   8.0082286512877701E-002   0.0000000000000000     
  -3.1413669125228270E-002   8.6371850204046918E-002   0.0000000000000000     
  -3.2559356623804318E-002   9.2828640695005904E-002   0.0000000000000000     
  -3.3666985494928248E-002   9.9452657985754686E-002   0.0000000000000000     
  -3.4736555738600045E-002  0.10624390207629325        0.0000000000000000     
  -3.4835247965820243E-002   8.0469653923208831E-002   0.0000000000000000     
  -3.6181562025204436E-002   8.6747309540087733E-002   0.0000000000000000     
  -3.7487459190418515E-002   9.3190366373259587E-002   0.0000000000000000     
  -3.8752939461462479E-002   9.9798824422724378E-002   0.0000000000000000     
  -3.9978002838336316E-002  0.10657268368848213        0.0000000000000000     
  -1.9527042946963315E-002  0.10553172391109471        0.0000000000000000     
  -2.0109096427407359E-002  0.11250818106294910        0.0000000000000000     
  -2.0656943440289229E-002  0.11960153259540368        0.0000000000000000     
  -2.1170583985608931E-002  0.12681177850845848        0.0000000000000000     
  -2.1650018063366454E-002  0.13413891880211345        0.0000000000000000     
  -2.4511075792913544E-002  0.10572342218759956        0.0000000000000000     
  -2.5237750628227015E-002  0.11268799537025262        0.0000000000000000     
  -2.5922391489839613E-002  0.11977054984969485        0.0000000000000000     
  -2.6564998377751337E-002  0.12697108562592621        0.0000000000000000     
  -2.7165571291962193E-002  0.13428960269894674        0.0000000000000000     
  -2.9580913390125786E-002  0.10596081490933239        0.0000000000000000     
  -3.0453970147277458E-002  0.11291147863801623        0.0000000000000000     
  -3.1276833963924257E-002  0.11998107306963131        0.0000000000000000     
  -3.2049504840066183E-002  0.12716959820417761        0.0000000000000000     
  -3.2771982775703236E-002  0.13447705404165516        0.0000000000000000     
  -3.4736555738600045E-002  0.10624390207629325        0.0000000000000000     
  -3.5757754984558694E-002  0.11317863086623993        0.0000000000000000     
  -3.6720270862543161E-002  0.12023310225521308        0.0000000000000000     
  -3.7624103372553466E-002  0.12740731624321269        0.0000000000000000     
  -3.8469252514589582E-002  0.13470127283023875        0.0000000000000000     
  -3.9978002838336316E-002  0.10657268368848213        0.0000000000000000     
  -4.1149105140070724E-002  0.11348945205492375        0.0000000000000000     
  -4.2252702185696336E-002  0.12052663740644019        0.0000000000000000     
  -4.3288793975213173E-002  0.12768423974303142        0.0000000000000000     
  -4.4257380508621227E-002  0.13496225906469750        0.0000000000000000     
  -2.1650018063366454E-002  0.13413891880211345        0.0000000000000000     
  -2.2100977984066825E-002  0.14158529991727078        0.0000000000000000     
  -2.2529196058215076E-002  0.14915326829483261        0.0000000000000000     
  -2.2934672285811204E-002  0.15684282393479890        0.0000000000000000     
  -2.3317406666855212E-002  0.16465396683716968        0.0000000000000000     
  -2.7165571291962193E-002  0.13428960269894674        0.0000000000000000     
  -2.7731103051228726E-002  0.14172745386915475        0.0000000000000000     
  -2.8268586474307501E-002  0.14928599193694861        0.0000000000000000     
  -2.8778021561198498E-002  0.15696521690232831        0.0000000000000000     
  -2.9259408311901734E-002  0.16476512876529384        0.0000000000000000     
  -3.2771982775703236E-002  0.13447705404165516        0.0000000000000000     
  -3.3452799971527655E-002  0.14190394305620851        0.0000000000000000     
  -3.4100488628231694E-002  0.14945076772198218        0.0000000000000000     
  -3.4715048745815331E-002  0.15711752803897625        0.0000000000000000     
  -3.5296480324278595E-002  0.16490422400719063        0.0000000000000000     
  -3.8469252514589582E-002  0.13470127283023875        0.0000000000000000     
  -3.9266068744963613E-002  0.14211476747843205        0.0000000000000000     
  -4.0024902519987658E-002  0.14964759564993338        0.0000000000000000     
  -4.0745753839661718E-002  0.15729975734474266        0.0000000000000000     
  -4.1428622703985785E-002  0.16507125256286004        0.0000000000000000     
  -4.4257380508621227E-002  0.13496225906469750        0.0000000000000000     
  -4.5170909371536602E-002  0.14235992713582538        0.0000000000000000     
  -4.6041828149575401E-002  0.14987647572080209        0.0000000000000000     
  -4.6870136842737643E-002  0.15751190481962768        0.0000000000000000     
  -4.7655835451023303E-002  0.16526621443230208        0.0000000000000000     
  -2.3317406666855212E-002  0.16465396683716968        0.0000000000000000     
  -2.3673084760697856E-002  0.17256883949119492        0.0000000000000000     
  -2.3997392126689925E-002  0.18056958438612458        0.0000000000000000     
  -2.4290328764831396E-002  0.18865620152195858        0.0000000000000000     
  -2.4551894675122286E-002  0.19682869089869698        0.0000000000000000     
  -2.9259408311901734E-002  0.16476512876529384        0.0000000000000000     
  -2.9707277468690653E-002  0.17266857542339095        0.0000000000000000     
  -3.0116159773838694E-002  0.18065840477416537        0.0000000000000000     
  -3.0486055227345862E-002  0.18873461681761716        0.0000000000000000     
  -3.0816963829212153E-002  0.19689721155374623        0.0000000000000000     
  -3.5296480324278595E-002  0.16490422400719063        0.0000000000000000     
  -3.5838326191237203E-002  0.17279421864738007        0.0000000000000000     
  -3.6334129174306937E-002  0.18077087498029934        0.0000000000000000     
  -3.6783889273487767E-002  0.18883419300594848        0.0000000000000000     
  -3.7187606488779709E-002  0.19698417272432736        0.0000000000000000     
  -4.1428622703985785E-002  0.16507125256286004        0.0000000000000000     
  -4.2066230928337535E-002  0.17294576916316234        0.0000000000000000     
  -4.2651300328094645E-002  0.18090699500452651        0.0000000000000000     
  -4.3183830903257114E-002  0.18895493008695255        0.0000000000000000     
  -4.3663822653824957E-002  0.19708957441044048        0.0000000000000000     
  -4.7655835451023303E-002  0.16526621443230208        0.0000000000000000     
  -4.8390991679991627E-002  0.17312322697073765        0.0000000000000000     
  -4.9067673235201829E-002  0.18106676484684675        0.0000000000000000     
  -4.9685880116653924E-002  0.18909682806062936        0.0000000000000000     
  -5.0245612324347905E-002  0.19721341661208552        0.0000000000000000     
  -2.4551894675122286E-002  0.19682869089869698        0.0000000000000000     
  -2.4783303013976573E-002  0.20507304484964187        0.0000000000000000     
  -2.4985766937808240E-002  0.21337525570809526        0.0000000000000000     
  -2.5159286446617288E-002  0.22173532347405725        0.0000000000000000     
  -2.5303861540403729E-002  0.23015324814752772        0.0000000000000000     
  -3.0816963829212153E-002  0.19689721155374623        0.0000000000000000     
  -3.1110059255798826E-002  0.20513364192518388        0.0000000000000000     
  -3.1366515183467121E-002  0.21343136087456141        0.0000000000000000     
  -3.1586331612217064E-002  0.22179036840187880        0.0000000000000000     
  -3.1769508542048630E-002  0.23021066450713609        0.0000000000000000     
  -3.7187606488779709E-002  0.19698417272432736        0.0000000000000000     
  -3.7546123482151236E-002  0.20520988539067753        0.0000000000000000     
  -3.7860282915570823E-002  0.21350040226024034        0.0000000000000000     
  -3.8130084789038468E-002  0.22185572333301573        0.0000000000000000     
  -3.8355529102554180E-002  0.23027584860900374        0.0000000000000000     
  -4.3663822653824957E-002  0.19708957441044048        0.0000000000000000     
  -4.4091495693033812E-002  0.20530177524612275        0.0000000000000000     
  -4.4467070134119331E-002  0.21358237986513195        0.0000000000000000     
  -4.4790545977081528E-002  0.22193138826746794        0.0000000000000000     
  -4.5061923221920396E-002  0.23034880045313078        0.0000000000000000     
  -5.0245612324347905E-002  0.19721341661208552        0.0000000000000000     
  -5.0746175888446550E-002  0.20540931149151964        0.0000000000000000     
  -5.1186876839112667E-002  0.21367729368923635        0.0000000000000000     
  -5.1567715176346236E-002  0.22201736320523555        0.0000000000000000     
  -5.1888690900147263E-002  0.23042952003951722        0.0000000000000000     
  -2.5303861540403729E-002  0.23015324814752772        0.0000000000000000     
  -2.5425653774805806E-002  0.23860128156875762        0.0000000000000000     
  -2.5530824705461776E-002  0.24705167557799781        0.0000000000000000     
  -2.5619374332371644E-002  0.25550443017524826        0.0000000000000000     
  -2.5691302655535413E-002  0.26395954536050903        0.0000000000000000     
  -3.1769508542048630E-002  0.23021066450713609        0.0000000000000000     
  -3.1923781250945277E-002  0.23866717533547116        0.0000000000000000     
  -3.2056885016890475E-002  0.24713482703202203        0.0000000000000000     
  -3.2168819839884212E-002  0.25561361959678869        0.0000000000000000     
  -3.2259585719926501E-002  0.26410355302977118        0.0000000000000000     
  -3.8355529102554180E-002  0.23027584860900374        0.0000000000000000     
  -3.8545114523261280E-002  0.23873978030304158        0.0000000000000000     
  -3.8707339718303098E-002  0.24722652062996642        0.0000000000000000     
  -3.8842204687679641E-002  0.25573606958977818        0.0000000000000000     
  -3.8949709431390908E-002  0.26426842718247701        0.0000000000000000     
  -4.5061923221920396E-002  0.23034880045313078        0.0000000000000000     
  -4.5289653591753805E-002  0.23881909647146898        0.0000000000000000     
  -4.5482188809699661E-002  0.24732675637183102        0.0000000000000000     
  -4.5639528875757937E-002  0.25587178015421680        0.0000000000000000     
  -4.5761673789928653E-002  0.26445416781862641        0.0000000000000000     
  -5.1888690900147263E-002  0.23042952003951722        0.0000000000000000     
  -5.2157398456422865E-002  0.23890512384075330        0.0000000000000000     
  -5.2381432291080145E-002  0.24743553425761575        0.0000000000000000     
  -5.2560792404119094E-002  0.25602075129010449        0.0000000000000000     
  -5.2695478795539714E-002  0.26466077493821949        0.0000000000000000     
  -2.5691302655535413E-002  0.26395954536050903        0.0000000000000000     
  -2.5758830267277148E-002  0.27236192536865411        0.0000000000000000     
  -2.5834177759920932E-002  0.28065647443455760        0.0000000000000000     
  -2.5917345133466760E-002  0.28884319255821955        0.0000000000000000     
  -2.6008332387914626E-002  0.29692207973963991        0.0000000000000000     
  -3.2259585719926501E-002  0.26410355302977118        0.0000000000000000     
  -3.2344033114185954E-002  0.27255173235212254        0.0000000000000000     
  -3.2437012479831225E-002  0.28090526258499604        0.0000000000000000     
  -3.2538523816862286E-002  0.28916414372839155        0.0000000000000000     
  -3.2648567125279158E-002  0.29732837578230903        0.0000000000000000     
  -3.8949709431390908E-002  0.26426842718247701        0.0000000000000000     
  -3.9048711827671959E-002  0.27277242353159481        0.0000000000000000     
  -3.9158069754757871E-002  0.28119688876066390        0.0000000000000000     
  -3.9277783212648625E-002  0.28954182286968416        0.0000000000000000     
  -3.9407852201344233E-002  0.29780722585865560        0.0000000000000000     
  -4.5761673789928653E-002  0.26445416781862641        0.0000000000000000     
  -4.5872866407735170E-002  0.27302399890707091        0.0000000000000000     
  -4.5997349584700885E-002  0.28153135296156123        0.0000000000000000     
  -4.6135123320825769E-002  0.28997622998209738        0.0000000000000000     
  -4.6286187616109857E-002  0.29835862996867951        0.0000000000000000     
  -5.2695478795539714E-002  0.26466077493821949        0.0000000000000000     
  -5.2816496854375582E-002  0.27330645847855073        0.0000000000000000     
  -5.2954851969660259E-002  0.28190865518768804        0.0000000000000000     
  -5.3110544141393740E-002  0.29046736506563142        0.0000000000000000     
  -5.3283573369576037E-002  0.29898258811238088        0.0000000000000000     
  -2.8973876254341079E-002   5.7175950029730416E-002   0.0000000000000000     
  -3.0513334498261269E-002   6.2720729226577898E-002   0.0000000000000000     
  -3.2003382531481196E-002   6.8451272941106783E-002   0.0000000000000000     
  -3.3444020354000854E-002   7.4367581173317099E-002   0.0000000000000000     
  -3.4835247965820243E-002   8.0469653923208831E-002   0.0000000000000000     
  -3.2959427110660092E-002   5.7654888621796047E-002   0.0000000000000000     
  -3.4698168364141802E-002   6.3194757555329703E-002   0.0000000000000000     
  -3.6377002030645471E-002   6.8917400885806543E-002   0.0000000000000000     
  -3.7995928110171093E-002   7.4822818613226580E-002   0.0000000000000000     
  -3.9554946602718653E-002   8.0911010737589800E-002   0.0000000000000000     
  -3.7087557042607508E-002   5.8198790701006739E-002   0.0000000000000000     
  -3.9021414417101649E-002   6.3732939175582745E-002   0.0000000000000000     
  -4.0886743593190784E-002   6.9445390924569694E-002   0.0000000000000000     
  -4.2683544570874900E-002   7.5336145947967573E-002   0.0000000000000000     
  -4.4411817350154002E-002   8.1405204245776408E-002   0.0000000000000000     
  -4.1358266050183320E-002   5.8807656267362486E-002   0.0000000000000000     
  -4.3483072657140805E-002   6.4335274087337038E-002   0.0000000000000000     
  -4.5532607219117116E-002   7.0035243057396251E-002   0.0000000000000000     
  -4.7506869736112289E-002   7.5907563177540119E-002   0.0000000000000000     
  -4.9405860208126297E-002   8.1952234447768640E-002   0.0000000000000000     
  -4.5771554133387543E-002   5.9481485320863295E-002   0.0000000000000000     
  -4.8083143084259261E-002   6.5001762290592568E-002   0.0000000000000000     
  -5.0314592908424494E-002   7.0686957284286200E-002   0.0000000000000000     
  -5.2465903605883234E-002   7.6537070301944163E-002   0.0000000000000000     
  -5.4537075176635516E-002   8.2552101343566497E-002   0.0000000000000000     
  -3.4835247965820243E-002   8.0469653923208831E-002   0.0000000000000000     
  -3.6181562025204436E-002   8.6747309540087733E-002   0.0000000000000000     
  -3.7487459190418515E-002   9.3190366373259587E-002   0.0000000000000000     
  -3.8752939461462479E-002   9.9798824422724378E-002   0.0000000000000000     
  -3.9978002838336316E-002  0.10657268368848213        0.0000000000000000     
  -3.9554946602718653E-002   8.0911010737589800E-002   0.0000000000000000     
  -4.1062890899973746E-002   8.7172864831024682E-002   0.0000000000000000     
  -4.2528594393621909E-002   9.3599268465659691E-002   0.0000000000000000     
  -4.3952057083663169E-002  0.10019022164149484        0.0000000000000000     
  -4.5333278970097500E-002  0.10694572435853013        0.0000000000000000     
  -4.4411817350154002E-002   8.1405204245776408E-002   0.0000000000000000     
  -4.6083485801742236E-002   8.7646135725367863E-002   0.0000000000000000     
  -4.7710473796353722E-002   9.4052510294113698E-002   0.0000000000000000     
  -4.9292781333988456E-002  0.10062432795201386        0.0000000000000000     
  -5.0830408414646450E-002  0.10736158869906839        0.0000000000000000     
  -4.9405860208126297E-002   8.1952234447768640E-002   0.0000000000000000     
  -5.1243346730509932E-002   8.8167122223117289E-002   0.0000000000000000     
  -5.3033097398613942E-002   9.4550091858621552E-002   0.0000000000000000     
  -5.4775112212438352E-002  0.10110114335428141        0.0000000000000000     
  -5.6469391171983165E-002  0.10782027671009690        0.0000000000000000     
  -5.4537075176635516E-002   8.2552101343566497E-002   0.0000000000000000     
  -5.6542473686276795E-002   8.8735824324272947E-002   0.0000000000000000     
  -5.8496465200402574E-002   9.5092013159183281E-002   0.0000000000000000     
  -6.0399049719012866E-002  0.10162066784829754        0.0000000000000000     
  -6.2250227242107659E-002  0.10832178839161569        0.0000000000000000     
  -3.9978002838336316E-002  0.10657268368848213        0.0000000000000000     
  -4.1149105140070724E-002  0.11348945205492375        0.0000000000000000     
  -4.2252702185696336E-002  0.12052663740644019        0.0000000000000000     
  -4.3288793975213173E-002  0.12768423974303142        0.0000000000000000     
  -4.4257380508621227E-002  0.13496225906469750        0.0000000000000000     
  -4.5333278970097500E-002  0.10694572435853013        0.0000000000000000     
  -4.6655116327668444E-002  0.11384384239980673        0.0000000000000000     
  -4.7900425431119539E-002  0.12086264154836586        0.0000000000000000     
  -4.9069206280450785E-002  0.12800212180420747        0.0000000000000000     
  -5.0161458875662181E-002  0.13526228316733163        0.0000000000000000     
  -5.0830408414646450E-002  0.10736158869906839        0.0000000000000000     
  -5.2302884261206779E-002  0.11424170209662798        0.0000000000000000     
  -5.3689738096548555E-002  0.12124207770604337        0.0000000000000000     
  -5.4990969920671776E-002  0.12836271552731449        0.0000000000000000     
  -5.6206579733576435E-002  0.13560361556044143        0.0000000000000000     
  -5.6469391171983165E-002  0.10782027671009690        0.0000000000000000     
  -5.8092408940685715E-002  0.11468303114538748        0.0000000000000000     
  -5.9620640181983382E-002  0.12166494587947270        0.0000000000000000     
  -6.1054084895876146E-002  0.12876602091235251        0.0000000000000000     
  -6.2392743082364012E-002  0.13598625624402688        0.0000000000000000     
  -6.2250227242107659E-002  0.10832178839161569        0.0000000000000000     
  -6.4023690366105279E-002  0.11516782954608526        0.0000000000000000     
  -6.5693131687424022E-002  0.12213124606865385        0.0000000000000000     
  -6.7258551206063888E-002  0.12921203795932140        0.0000000000000000     
  -6.8719948922024904E-002  0.13641020521808797        0.0000000000000000     
  -4.4257380508621227E-002  0.13496225906469750        0.0000000000000000     
  -4.5170909371536602E-002  0.14235992713582538        0.0000000000000000     
  -4.6041828149575401E-002  0.14987647572080209        0.0000000000000000     
  -4.6870136842737643E-002  0.15751190481962768        0.0000000000000000     
  -4.7655835451023303E-002  0.16526621443230208        0.0000000000000000     
  -5.0161458875662181E-002  0.13526228316733163        0.0000000000000000     
  -5.1192039931201860E-002  0.14264202082399352        0.0000000000000000     
  -5.2175806161517999E-002  0.15014022996044832        0.0000000000000000     
  -5.3112757566610588E-002  0.15775691057669602        0.0000000000000000     
  -5.4002894146479630E-002  0.16549206267273667        0.0000000000000000     
  -5.6206579733576435E-002  0.13560361556044143        0.0000000000000000     
  -5.7354178503914652E-002  0.14296364733854144        0.0000000000000000     
  -5.8451377200338515E-002  0.15044168039473185        0.0000000000000000     
  -5.9498175822848033E-002  0.15803771472901260        0.0000000000000000     
  -6.0494574371443212E-002  0.16575175034138373        0.0000000000000000     
  -6.2392743082364012E-002  0.13598625624402688        0.0000000000000000     
  -6.3657325089674949E-002  0.14332480667946920        0.0000000000000000     
  -6.4868541266036930E-002  0.15078082702365267        0.0000000000000000     
  -6.6026391611449978E-002  0.15835431727657739        0.0000000000000000     
  -6.7130876125914077E-002  0.16604527743824327        0.0000000000000000     
  -6.8719948922024904E-002  0.13641020521808797        0.0000000000000000     
  -7.0101479688482807E-002  0.14372549884677668        0.0000000000000000     
  -7.1427298358613320E-002  0.15115766984721082        0.0000000000000000     
  -7.2697404932416457E-002  0.15870671821939034        0.0000000000000000     
  -7.3911799409892204E-002  0.16637264396331525        0.0000000000000000     
  -4.7655835451023303E-002  0.16526621443230208        0.0000000000000000     
  -4.8390991679991627E-002  0.17312322697073765        0.0000000000000000     
  -4.9067673235201829E-002  0.18106676484684675        0.0000000000000000     
  -4.9685880116653924E-002  0.18909682806062936        0.0000000000000000     
  -5.0245612324347905E-002  0.19721341661208552        0.0000000000000000     
  -5.4002894146479630E-002  0.16549206267273667        0.0000000000000000     
  -5.4837650396624249E-002  0.17332967097988916        0.0000000000000000     
  -5.5608460812543600E-002  0.18125372022947253        0.0000000000000000     
  -5.6315325394237691E-002  0.18926421042148669        0.0000000000000000     
  -5.6958244141706506E-002  0.19736114155593162        0.0000000000000000     
  -6.0494574371443212E-002  0.16575175034138373        0.0000000000000000     
  -6.1431249028660193E-002  0.17356818010039998        0.0000000000000000     
  -6.2298875977035095E-002  0.18147139687461614        0.0000000000000000     
  -6.3097455216567941E-002  0.18946140066403219        0.0000000000000000     
  -6.3826986747258743E-002  0.19753819146864807        0.0000000000000000     
  -6.7130876125914077E-002  0.16604527743824327        0.0000000000000000     
  -6.8171787576099430E-002  0.17383875433227008        0.0000000000000000     
  -6.9138918728676307E-002  0.18171979478227762        0.0000000000000000     
  -7.0032269583644696E-002  0.18968839878826591        0.0000000000000000     
  -7.0851840141004582E-002  0.19774456635023480        0.0000000000000000     
  -7.3911799409892204E-002  0.16637264396331525        0.0000000000000000     
  -7.5059266038941988E-002  0.17414139367549944        0.0000000000000000     
  -7.6128589067467223E-002  0.18199891395245699        0.0000000000000000     
  -7.7119768495467922E-002  0.18994520479418775        0.0000000000000000     
  -7.8032804322944072E-002  0.19798026620069178        0.0000000000000000     
  -5.0245612324347905E-002  0.19721341661208552        0.0000000000000000     
  -5.0746175888446550E-002  0.20540931149151964        0.0000000000000000     
  -5.1186876839112667E-002  0.21367729368923635        0.0000000000000000     
  -5.1567715176346236E-002  0.22201736320523555        0.0000000000000000     
  -5.1888690900147263E-002  0.23042952003951722        0.0000000000000000     
  -5.6958244141706506E-002  0.19736114155593162        0.0000000000000000     
  -5.7535948896957408E-002  0.20553883185001154        0.0000000000000000     
  -5.8047171501997792E-002  0.21379159952093044        0.0000000000000000     
  -5.8491911956827639E-002  0.22211944456868837        0.0000000000000000     
  -5.8870170261446961E-002  0.23052236699328532        0.0000000000000000     
  -6.3826986747258743E-002  0.19753819146864807        0.0000000000000000     
  -6.4486599547134357E-002  0.20569667404474179        0.0000000000000000     
  -6.5075422594221707E-002  0.21393175314859128        0.0000000000000000     
  -6.5593455888520794E-002  0.22224342878019646        0.0000000000000000     
  -6.6040699430031630E-002  0.23063170093955743        0.0000000000000000     
  -7.0851840141004582E-002  0.19774456635023480        0.0000000000000000     
  -7.1598127838977371E-002  0.20588283807571039        0.0000000000000000     
  -7.2271630115784413E-002  0.21409775457221875        0.0000000000000000     
  -7.2872346971425722E-002  0.22238931583975982        0.0000000000000000     
  -7.3400278405901284E-002  0.23075752187833357        0.0000000000000000     
  -7.8032804322944072E-002  0.19798026620069178        0.0000000000000000     
  -7.8870533772486456E-002  0.20609732394291741        0.0000000000000000     
  -7.9635794066685903E-002  0.21428960379181294        0.0000000000000000     
  -8.0328585205542383E-002  0.22255710574737839        0.0000000000000000     
  -8.0948907189055924E-002  0.23089982980961371        0.0000000000000000     
  -5.1888690900147263E-002  0.23042952003951722        0.0000000000000000     
  -5.2157398456422865E-002  0.23890512384075330        0.0000000000000000     
  -5.2381432291080145E-002  0.24743553425761575        0.0000000000000000     
  -5.2560792404119094E-002  0.25602075129010449        0.0000000000000000     
  -5.2695478795539714E-002  0.26466077493821949        0.0000000000000000     
  -5.8870170261446961E-002  0.23052236699328532        0.0000000000000000     
  -5.9187427841270186E-002  0.23899924775926984        0.0000000000000000     
  -5.9449166121711743E-002  0.24754896783119051        0.0000000000000000     
  -5.9655385102771644E-002  0.25617152720904729        0.0000000000000000     
  -5.9806084784449896E-002  0.26486692589284028        0.0000000000000000     
  -6.6040699430031630E-002  0.23063170093955743        0.0000000000000000     
  -6.6418820470297485E-002  0.23910285357539379        0.0000000000000000     
  -6.6729486260861656E-002  0.24766317063642512        0.0000000000000000     
  -6.6972696801724158E-002  0.25631265212265142        0.0000000000000000     
  -6.7148452092884975E-002  0.26505129803407285        0.0000000000000000     
  -7.3400278405901284E-002  0.23075752187833357        0.0000000000000000     
  -7.3851576343504796E-002  0.23921594128912513        0.0000000000000000     
  -7.4222392708529913E-002  0.24777814267331957        0.0000000000000000     
  -7.4512727500976622E-002  0.25644412603091693        0.0000000000000000     
  -7.4722580720844936E-002  0.26521389136191720        0.0000000000000000     
  -8.0948907189055924E-002  0.23089982980961371        0.0000000000000000     
  -8.1485695460892099E-002  0.23933851090046387        0.0000000000000000     
  -8.1927885464716466E-002  0.24789388394187392        0.0000000000000000     
  -8.2275477200529051E-002  0.25656594893384366        0.0000000000000000     
  -8.2528470668329829E-002  0.26535470587637328        0.0000000000000000     
  -5.2695478795539714E-002  0.26466077493821949        0.0000000000000000     
  -5.2816496854375582E-002  0.27330645847855073        0.0000000000000000     
  -5.2954851969660259E-002  0.28190865518768804        0.0000000000000000     
  -5.3110544141393740E-002  0.29046736506563142        0.0000000000000000     
  -5.3283573369576037E-002  0.29898258811238088        0.0000000000000000     
  -5.9806084784449896E-002  0.26486692589284028        0.0000000000000000     
  -5.9938362140746743E-002  0.27359113196169188        0.0000000000000000     
  -6.0089314145662466E-002  0.28230011349472461        0.0000000000000000     
  -6.0258940799197060E-002  0.29099387049193853        0.0000000000000000     
  -6.0447242101350537E-002  0.29967240295333353        0.0000000000000000     
  -6.7148452092884975E-002  0.26505129803407285        0.0000000000000000     
  -6.7297221240002217E-002  0.27384934907215192        0.0000000000000000     
  -6.7459473348733992E-002  0.28267704593835136        0.0000000000000000     
  -6.7635208419080300E-002  0.29153438863267117        0.0000000000000000     
  -6.7824426451041142E-002  0.30042137715511136        0.0000000000000000     
  -7.4722580720844936E-002  0.26521389136191720        0.0000000000000000     
  -7.4893074152141983E-002  0.27408110980993072        0.0000000000000000     
  -7.5065329578874809E-002  0.28303945251856816        0.0000000000000000     
  -7.5239347001043413E-002  0.29208891948782939        0.0000000000000000     
  -7.5415126418647865E-002  0.30122951071771442        0.0000000000000000     
  -8.2528470668329829E-002  0.26535470587637328        0.0000000000000000     
  -8.2725920877166056E-002  0.27428641417502853        0.0000000000000000     
  -8.2906882836084925E-002  0.28338733323537513        0.0000000000000000     
  -8.3071356545086475E-002  0.29265746305741314        0.0000000000000000     
  -8.3219342004170679E-002  0.30209680364114261        0.0000000000000000     
  -4.5771554133387543E-002   5.9481485320863295E-002   0.0000000000000000     
  -4.8083143084259261E-002   6.5001762290592568E-002   0.0000000000000000     
  -5.0314592908424494E-002   7.0686957284286200E-002   0.0000000000000000     
  -5.2465903605883234E-002   7.6537070301944163E-002   0.0000000000000000     
  -5.4537075176635516E-002   8.2552101343566497E-002   0.0000000000000000     
  -5.0356124155167853E-002   6.0223335533009820E-002   0.0000000000000000     
  -5.2853497652571552E-002   6.5723249418533816E-002   0.0000000000000000     
  -5.5266281826582178E-002   7.1385289810259114E-002   0.0000000000000000     
  -5.7594476677199746E-002   7.7209456708185673E-002   0.0000000000000000     
  -5.9838082204424242E-002   8.3195750112313505E-002   0.0000000000000000     
  -5.5140678978471941E-002   6.1036264575302659E-002   0.0000000000000000     
  -5.7826008316192189E-002   6.6490581104345262E-002   0.0000000000000000     
  -6.0421255139059465E-002   7.2114996840334566E-002   0.0000000000000000     
  -6.2926419447073750E-002   7.7909511783270546E-002   0.0000000000000000     
  -6.5341501240235064E-002   8.3874125933153229E-002   0.0000000000000000     
  -6.0125218603299793E-002   6.1920272447741863E-002   0.0000000000000000     
  -6.3000675075121193E-002   6.7303757348026891E-002   0.0000000000000000     
  -6.5779512845856355E-002   7.2876078374512543E-002   0.0000000000000000     
  -6.8461731915505294E-002   7.8637235527198798E-002   0.0000000000000000     
  -7.1047332284067996E-002   8.4587228806085671E-002   0.0000000000000000     
  -6.5309743029651424E-002   6.2875359150327395E-002   0.0000000000000000     
  -6.8377497929358544E-002   6.8162778149578732E-002   0.0000000000000000     
  -7.1341054946972862E-002   7.3668534412793071E-002   0.0000000000000000     
  -7.4200414082494351E-002   7.9392627939970428E-002   0.0000000000000000     
  -7.6955575335923010E-002   8.5335058731110774E-002   0.0000000000000000     
  -5.4537075176635516E-002   8.2552101343566497E-002   0.0000000000000000     
  -5.6542473686276795E-002   8.8735824324272947E-002   0.0000000000000000     
  -5.8496465200402574E-002   9.5092013159183281E-002   0.0000000000000000     
  -6.0399049719012866E-002  0.10162066784829754        0.0000000000000000     
  -6.2250227242107659E-002  0.10832178839161569        0.0000000000000000     
  -5.9838082204424242E-002   8.3195750112313505E-002   0.0000000000000000     
  -6.2011607918310153E-002   8.9350789146518950E-002   0.0000000000000000     
  -6.4129563328911912E-002   9.5681192934678236E-002   0.0000000000000000     
  -6.6191948436229539E-002  0.10218696147679143        0.0000000000000000     
  -6.8198763240263041E-002  0.10886809477285850        0.0000000000000000     
  -6.5341501240235064E-002   8.3874125933153229E-002   0.0000000000000000     
  -6.7681490675877268E-002   9.0010563807539370E-002   0.0000000000000000     
  -6.9961377911334235E-002   9.6320549923985713E-002   0.0000000000000000     
  -7.2181162946605940E-002  0.10280408428249233        0.0000000000000000     
  -7.4340845781692436E-002  0.10946116688305911        0.0000000000000000     
  -7.1047332284067996E-002   8.4587228806085671E-002   0.0000000000000000     
  -7.3552121958978187E-002   9.0715148307334278E-002   0.0000000000000000     
  -7.5991908947669537E-002   9.7010084127105781E-002   0.0000000000000000     
  -7.8366693250142103E-002  0.10347203626540021        0.0000000000000000     
  -8.0676474866395842E-002  0.11010100472221754        0.0000000000000000     
  -7.6955575335923010E-002   8.5335058731110774E-002   0.0000000000000000     
  -7.9623501767612848E-002   9.1464542645903618E-002   0.0000000000000000     
  -8.2221156437917831E-002   9.7749795544038384E-002   0.0000000000000000     
  -8.4748539346837987E-002  0.10419081742551511        0.0000000000000000     
  -8.7205650494373260E-002  0.11078760829033379        0.0000000000000000     
  -6.2250227242107659E-002  0.10832178839161569        0.0000000000000000     
  -6.4023690366105279E-002  0.11516782954608526        0.0000000000000000     
  -6.5693131687424022E-002  0.12213124606865385        0.0000000000000000     
  -6.7258551206063888E-002  0.12921203795932140        0.0000000000000000     
  -6.8719948922024904E-002  0.13641020521808797        0.0000000000000000     
  -6.8198763240263041E-002  0.10886809477285850        0.0000000000000000     
  -7.0121363623195238E-002  0.11569482925780175        0.0000000000000000     
  -7.1931105467208961E-002  0.12263740136654351        0.0000000000000000     
  -7.3627988772304212E-002  0.12969581109908379        0.0000000000000000     
  -7.5212013538481018E-002  0.13687005845542255        0.0000000000000000     
  -7.4340845781692436E-002  0.10946116688305911        0.0000000000000000     
  -7.6410063797685460E-002  0.11626276223961737        0.0000000000000000     
  -7.8358454375676748E-002  0.12317983486609836        0.0000000000000000     
  -8.0186017515666355E-002  0.13021238476250205        0.0000000000000000     
  -8.1892753217654254E-002  0.13736041192882850        0.0000000000000000     
  -8.0676474866395842E-002  0.11010100472221754        0.0000000000000000     
  -8.2889790889575890E-002  0.11687162849153214        0.0000000000000000     
  -8.4975178412827396E-002  0.12375854656731840        0.0000000000000000     
  -8.6932637436150276E-002  0.13076175894957628        0.0000000000000000     
  -8.8762167959544613E-002  0.13788126563830577        0.0000000000000000     
  -8.7205650494373260E-002  0.11078760829033379        0.0000000000000000     
  -8.9560544898866584E-002  0.11752142801354606        0.0000000000000000     
  -9.1781277578660836E-002  0.12437353647020359        0.0000000000000000     
  -9.3867848533755988E-002  0.13134393366030639        0.0000000000000000     
  -9.5820257764152081E-002  0.13843261958385444        0.0000000000000000     
  -6.8719948922024904E-002  0.13641020521808797        0.0000000000000000     
  -7.0101479688482807E-002  0.14372549884677668        0.0000000000000000     
  -7.1427298358613320E-002  0.15115766984721082        0.0000000000000000     
  -7.2697404932416457E-002  0.15870671821939034        0.0000000000000000     
  -7.3911799409892204E-002  0.16637264396331525        0.0000000000000000     
  -7.5212013538481018E-002  0.13687005845542255        0.0000000000000000     
  -7.6710583666853946E-002  0.14416062764067819        0.0000000000000000     
  -7.8151103058537605E-002  0.15156800285996910        0.0000000000000000     
  -7.9533571713532009E-002  0.15909218411329529        0.0000000000000000     
  -8.0857989631837129E-002  0.16673317140065680        0.0000000000000000     
  -8.1892753217654254E-002  0.13736041192882850        0.0000000000000000     
  -8.3508578391304183E-002  0.14462509686138786        0.0000000000000000     
  -8.5063409946279839E-002  0.15200762005649041        0.0000000000000000     
  -8.6557247882581248E-002  0.15950798151413614        0.0000000000000000     
  -8.7990092200208397E-002  0.16712618123432507        0.0000000000000000     
  -8.8762167959544613E-002  0.13788126563830577        0.0000000000000000     
  -9.0495463861833478E-002  0.14511890650890569        0.0000000000000000     
  -9.2164219021839980E-002  0.15247652143677470        0.0000000000000000     
  -9.3768433439564161E-002  0.15995411042191279        0.0000000000000000     
  -9.5308107115005980E-002  0.16755167346432004        0.0000000000000000     
  -9.5820257764152081E-002  0.13843261958385444        0.0000000000000000     
  -9.7671240078441843E-002  0.14564205658323165        0.0000000000000000     
  -9.9453530285218070E-002  0.15297470700082194        0.0000000000000000     
 -0.10116712838448076       0.16043057083662529        0.0000000000000000     
 -0.10281203437622990       0.16800964809064173        0.0000000000000000     
  -7.3911799409892204E-002  0.16637264396331525        0.0000000000000000     
  -7.5059266038941988E-002  0.17414139367549944        0.0000000000000000     
  -7.6128589067467223E-002  0.18199891395245699        0.0000000000000000     
  -7.7119768495467922E-002  0.18994520479418775        0.0000000000000000     
  -7.8032804322944072E-002  0.19798026620069178        0.0000000000000000     
  -8.0857989631837129E-002  0.16673317140065680        0.0000000000000000     
  -8.2112287374280474E-002  0.17447729668743217        0.0000000000000000     
  -8.3284395501689479E-002  0.18231089193900007        0.0000000000000000     
  -8.4374314014064145E-002  0.19023395715536043        0.0000000000000000     
  -8.5382042911404513E-002  0.19824649233651331        0.0000000000000000     
  -8.7990092200208397E-002  0.16712618123432507        0.0000000000000000     
  -8.9349454539207465E-002  0.17484766192541223        0.0000000000000000     
  -9.0622846539624644E-002  0.18265786629575270        0.0000000000000000     
  -9.1810268201459891E-002  0.19055679434534650        0.0000000000000000     
  -9.2911719524713263E-002  0.19854444607419364        0.0000000000000000     
  -9.5308107115005980E-002  0.16755167346432004        0.0000000000000000     
  -9.6770767533723004E-002  0.17525248938943966        0.0000000000000000     
  -9.8143942181272717E-002  0.18303983702271501        0.0000000000000000     
  -9.9427631057655133E-002  0.19091371636414600        0.0000000000000000     
 -0.10062183416287028       0.19887412741373273        0.0000000000000000     
 -0.10281203437622990       0.16800964809064173        0.0000000000000000     
 -0.10437622635782703       0.17569177907951450        0.0000000000000000     
 -0.10584768242663371       0.18345680411988688        0.0000000000000000     
 -0.10722640258264990       0.19130472321175890        0.0000000000000000     
 -0.10851238682587561       0.19923553635513058        0.0000000000000000     
  -7.8032804322944072E-002  0.19798026620069178        0.0000000000000000     
  -7.8870533772486456E-002  0.20609732394291741        0.0000000000000000     
  -7.9635794066685903E-002  0.21428960379181294        0.0000000000000000     
  -8.0328585205542383E-002  0.22255710574737839        0.0000000000000000     
  -8.0948907189055924E-002  0.23089982980961371        0.0000000000000000     
  -8.5382042911404513E-002  0.19824649233651331        0.0000000000000000     
  -8.6312967425803203E-002  0.20634084507850142        0.0000000000000000     
  -8.7172472789352862E-002  0.21450936297736742        0.0000000000000000     
  -8.7960559002053504E-002  0.22275204603311136        0.0000000000000000     
  -8.8677226063905115E-002  0.23106889424573318        0.0000000000000000     
  -9.2911719524713263E-002  0.19854444607419364        0.0000000000000000     
  -9.3934578877069144E-002  0.20661411491460105        0.0000000000000000     
  -9.4886224626211962E-002  0.21475909429887582        0.0000000000000000     
  -9.5766656772141703E-002  0.22297938422701788        0.0000000000000000     
  -9.6575875314858423E-002  0.23127498469902735        0.0000000000000000     
 -0.10062183416287028       0.19887412741373273        0.0000000000000000     
 -0.10173536812628425       0.20691713345121632        0.0000000000000000     
 -0.10277704957726319       0.21503879775633808        0.0000000000000000     
 -0.10374687851580704       0.22323912032909801        0.0000000000000000     
 -0.10464485494191583       0.23151810116949609        0.0000000000000000     
 -0.10851238682587561       0.19923553635513058        0.0000000000000000     
 -0.10971533517344859       0.20724990068834725        0.0000000000000000     
 -0.11084494764250655       0.21534847334975432        0.0000000000000000     
 -0.11190122423304946       0.22353125433935173        0.0000000000000000     
 -0.11288416494507739       0.23179824365713952        0.0000000000000000     
  -8.0948907189055924E-002  0.23089982980961371        0.0000000000000000     
  -8.1485695460892099E-002  0.23933851090046387        0.0000000000000000     
  -8.1927885464716466E-002  0.24789388394187392        0.0000000000000000     
  -8.2275477200529051E-002  0.25656594893384366        0.0000000000000000     
  -8.2528470668329829E-002  0.26535470587637328        0.0000000000000000     
  -8.8677226063905115E-002  0.23106889424573318        0.0000000000000000     
  -8.9307726871344639E-002  0.23948560531506657        0.0000000000000000     
  -8.9837314320809020E-002  0.24802787694094530        0.0000000000000000     
  -9.0265988412298298E-002  0.25669570912336925        0.0000000000000000     
  -9.0593749145812405E-002  0.26548910186233848        0.0000000000000000     
  -9.6575875314858423E-002  0.23127498469902735        0.0000000000000000     
  -9.7304219623747745E-002  0.23967226743858977        0.0000000000000000     
  -9.7942029068195366E-002  0.24819760416939102        0.0000000000000000     
  -9.8489303648201243E-002  0.25685099489143115        0.0000000000000000     
  -9.8946043363765432E-002  0.26563243960471006        0.0000000000000000     
 -0.10464485494191583       0.23151810116949609        0.0000000000000000     
 -0.10547517371810138       0.23989849727103338        0.0000000000000000     
 -0.10624202970687541       0.24840306562721121        0.0000000000000000     
 -0.10694542290823794       0.25703180623802935        0.0000000000000000     
 -0.10758535332218898       0.26578471910348794        0.0000000000000000     
 -0.11288416494507739       0.23179824365713952        0.0000000000000000     
 -0.11382058915440556       0.24016429481239754        0.0000000000000000     
 -0.11473731623684920       0.24864426131440567        0.0000000000000000     
 -0.11563434619240835       0.25723814316316390        0.0000000000000000     
 -0.11651167902108300       0.26594594035867225        0.0000000000000000     
  -8.2528470668329829E-002  0.26535470587637328        0.0000000000000000     
  -8.2725920877166056E-002  0.27428641417502853        0.0000000000000000     
  -8.2906882836084925E-002  0.28338733323537513        0.0000000000000000     
  -8.3071356545086475E-002  0.29265746305741314        0.0000000000000000     
  -8.3219342004170679E-002  0.30209680364114261        0.0000000000000000     
  -9.0593749145812405E-002  0.26548910186233848        0.0000000000000000     
  -9.0850942164238419E-002  0.27447088287671234        0.0000000000000000     
  -9.1067913110463375E-002  0.28370387988535023        0.0000000000000000     
  -9.1244661984487316E-002  0.29318809288825215        0.0000000000000000     
  -9.1381188786310213E-002  0.30292352188541805        0.0000000000000000     
  -9.8946043363765432E-002  0.26563243960471006        0.0000000000000000     
  -9.9323318762523038E-002  0.27464013662424952        0.0000000000000000     
  -9.9632200392109196E-002  0.28397228426507148        0.0000000000000000     
  -9.9872688252523892E-002  0.29362888252717595        0.0000000000000000     
 -0.10004478234376711       0.30360993141056269        0.0000000000000000     
 -0.10758535332218898       0.26578471910348794        0.0000000000000000     
 -0.10814305067201999       0.27479417541764012        0.0000000000000000     
 -0.10859974468102238       0.28419254637453895        0.0000000000000000     
 -0.10895543534919616       0.29397983197418442        0.0000000000000000     
 -0.10921012267654134       0.30415603221657661        0.0000000000000000     
 -0.11651167902108300       0.26594594035867225        0.0000000000000000     
 -0.11731013789272918       0.27493299925688397        0.0000000000000000     
 -0.11797054597720288       0.28436466621375250        0.0000000000000000     
 -0.11849290327450414       0.29424094122927780        0.0000000000000000     
 -0.11887720978463291       0.30456182430345985        0.0000000000000000     
 </DataArray>
 <DataArray  type="Float64" Name="stress" NumberOfComponents="3" format="ascii">
   5675672196.3115253       -672048715.00706291       -299443297.30666912     
   5637644450.3283148       -251558222.41100502       -212442383.97550082     
   5554602294.0698166        18884235.934093237       -130113094.59595592     
   5426545727.5360317        139278660.02826047       -52455429.168028004     
   5253474750.7269659        109625049.87146711        20530612.308291905     
   5458071258.7175598       -413059528.40739679        55810078.079873919     
   5370722355.0949097       -126338350.85926104        89531649.072056323     
   5251421353.4838476        53875833.394143343        120855333.91966547     
   5100168253.8843718        127583024.35283589        149781132.62269115     
   4916963056.2964678        94783222.016780138        176309045.18113717     
   5213272945.6321688       -162229554.45515823        357684937.54671544     
   5083099278.1044827       -7328773.8346171379        353366530.53461415     
   4934035824.8752365        84606054.447404385        348923975.18495899     
   4766082585.9444408        113574930.39091635        344357271.49776185     
   4579239561.3120861        79577853.995910883        339666419.47301275     
   4941277257.0553741        80441206.849658728        606181281.09389460     
   4774775219.3570194        105470508.66291261        579062260.41216481     
   4602445708.2439775        111074899.09387255        554092829.19992363     
   4424288723.7162485        97254378.142528772        531272987.45717072     
   4240304265.7738295        64008945.808887720        510602735.18390483     
   4642084192.9871454        314952755.50704265        801299108.72139275     
   4445750178.8525248        212059496.63334298        766618838.70471394     
   4256651003.5900655        133282367.33354092        736361895.96456158     
   4074786667.1997900        78621367.607664108        710528280.50093365     
   3900157169.6816878        48076497.455695868        689117992.31383049     
   5253474750.7269659        109625049.87146711        20530612.308291905     
   5082432181.5684071        28721521.152990818        3537187.9766005627     
   4922211644.0981798       -16108568.604363203       -5436576.6081617605     
   4772813138.3162994       -24865219.400558949       -6390681.4459976284     
   4634236664.2227592        2451568.7643616199        674873.46309039823     
   4916963056.2964678        94783222.016780138        176309045.18113717     
   4771876051.7677202        37426764.529301405        169246225.85780707     
   4635010081.6653061        7473755.1296157837        168695626.21872249     
   4506365145.9892349        4924193.8177268505        174657246.26386395     
   4385941244.7394896        29778080.593602419        187131085.99325290     
   4579239561.3120861        79577853.995910883        339666419.47301275     
   4455801149.8054838        44476376.257171869        339499708.35236377     
   4337982775.4631996        28108355.732837915        344337776.85326952     
   4225784438.2852454        30473792.422935247        354180624.97572231     
   4119206138.2716117        51572686.327433825        369028252.71972728     
   4240304265.7738295        64008945.808887720        510602735.18390483     
   4134207475.6816826        49870356.336560249        514297635.46026421     
   4031129725.4918547        45795233.205285311        521489875.29548895     
   3931071015.2043438        51783576.415069580        532179454.68957275     
   3834031344.8191433        67835385.965895176        546366373.64251757     
   3900157169.6816878        48076497.455695868        689117992.31383049     
   3807095029.3963237        53608704.767481804        693640007.18151248     
   3714450931.7512693        60534387.546952963        700151921.54537749     
   3622224876.7465224        68853545.794123173        708653735.40541339     
   3530416864.3820810        78566179.508988142        719145448.76162195     
   4634236664.2227592        2451568.7643616199        674873.46309039823     
   4381263631.9482279        8552806.7249114513       -4872272.0912932958     
   4126108183.7545295        7379324.9548912048       -8460607.0073788539     
   3868770319.6416502       -1068876.5457198620       -10090131.285189336     
   3609250039.6096048       -16791797.776898623       -9760844.9247016814     
   4385941244.7394896        29778080.593602419        187131085.99325290     
   4137338400.2151518        26311984.779997826        173784901.63211972     
   3887196081.9630885        17714309.873962879        164049435.77304080     
   3635514289.9833026        3985055.8755393028        157924688.41600913     
   3382293024.2757955       -14875777.215312958        155410659.56102145     
   4119206138.2716117        51572686.327433825        369028252.71972728     
   3879693218.2510672        39955177.765741348        348633128.77520406     
   3639283766.6942472        25349230.749814034        333500631.19648963     
   3397977783.6011515        7754845.2796306610        323630759.98358518     
   3155775268.9717879       -12827978.644783497        319023515.13648659     
   3834031344.8191433        67835385.965895176        546366373.64251757     
   3608328086.0559893        49482385.682210207        519672409.33796424     
   3382371237.9480076        30284087.582439184        499892979.26297355     
   3156160800.4952073        10240491.666597486        487028083.41755140     
   2929696773.6975799       -10648402.065322518        481077721.80170053     
   3530416864.3820810        78566179.508988142        719145448.76162195     
   3323243003.6299152        54893608.529371858        686902743.32039452     
   3116458495.7243776        32518880.371853948        663226479.97248709     
   2910063340.6654668        11441995.036423922        648116658.71790934     
   2704057538.4531841       -8337047.4769011736        641573279.55666327     
   3609250039.6096048       -16791797.776898623       -9760844.9247016814     
   3485154734.6641703        1459952.1025433540       -4339105.2396351676     
   3358855369.9794636        12364836.184420347        4279237.2247037515     
   3230351945.5554686        15922854.468654037        16094182.468321480     
   3099644461.3921895        12134006.955296755        31105730.491201364     
   3382293024.2757955       -14875777.215312958        155410659.56102145     
   3265488126.2725611        2345843.1189751625        158462242.65752894     
   3147029873.2809343        14056280.158610940        164162950.51764810     
   3026918265.3008842        20255533.903508186        172512783.14137512     
   2905153302.3324265        20943604.353723645        183511740.52871385     
   3155775268.9717879       -12827978.644783497        319023515.13648659     
   3044696555.0088701        2894245.2737987041        320347430.52045894     
   2932515190.8084064        14940968.400575995        323772992.65237361     
   2819231176.3704209        23312190.735598564        329300201.53224456     
   2704844511.6948977        28007912.278833866        336929057.16006207     
   2929696773.6975799       -10648402.065322518        481077721.80170053     
   2822780020.8730679        3105158.5669541359        481316458.34915769     
   2715311322.5619016        15018900.910367608        483109363.62890404     
   2607290678.7640662        25092824.964894772        486456437.64093220     
   2498718089.4795790        33326930.730573893        491357680.38524401     
   2704057538.4531841       -8337047.4769011736        641573279.55666327     
   2599738523.8651848        2978582.9984986782        641369326.14363062     
   2495418268.5414042        14290077.687950611        642172063.44721675     
   2391096772.4818387        25597436.591450095        643981491.46742702     
   2286774035.6864829        36900659.709000707        646797610.20425022     
   3099644461.3921895        12134006.955296755        31105730.491201364     
   2914543970.0860267       -7317088.3472946882        17825821.684926454     
   2732079838.0929508       -17980319.272919416        6890689.5063584140     
   2552252065.4129758       -19855685.821546674       -1699666.0445091669     
   2375060652.0461044       -12943187.993162155       -7945244.9676724430     
   2905153302.3324265        20943604.353723645        183511740.52871385     
   2727670424.2259016        5353381.3056300879        171005691.44906908     
   2552129086.4109225       -3765040.7706311941        161123597.68270567     
   2378529288.8874950       -6411661.8750487566        153865459.22964475     
   2206871031.6556363       -2586482.0075938702        149231276.08986390     
   2704844511.6948977        28007912.278833866        336929057.16006207     
   2535776900.1754041        16517857.501463294        324386245.61523628     
   2367956009.9259210        9183540.2907782793        314746568.06928045     
   2201381840.9464483        6004960.6468060017        308010024.52221823     
   2036054393.2369852        6982118.5695260763        304176614.97402084     
   2498718089.4795790        33326930.730573893        491357680.38524401     
   2338863397.9345264        26176340.240165472        477967484.18342549     
   2179560608.6379333        20865423.911278725        467759600.66608548     
   2020809721.5898094        17394181.743956566        460734029.83320594     
   1862610736.7901480        15762613.738173604        456890771.68480873     
   2286774035.6864829        36900659.709000707        646797610.20425022     
   2136929917.5032730        34328829.521771789        631749407.15365720     
   1986942882.5469694        31280610.090881348        620162695.47311008     
   1836812930.8175993        27756001.416447759        612037475.16263759     
   1686540062.3151412        23755003.498376846        607373746.22221470     
   2375060652.0461044       -12943187.993162155       -7945244.9676724430     
   2240017072.9750862        4097418.6755958796       -10307429.897507334     
   2100678074.2952914        6819959.9817417860       -11572166.741760435     
   1957043656.0067744       -4775564.0745081902       -11739455.500458647     
   1809113818.1094689       -30689153.493387103       -10809296.173572505     
   2206871031.6556363       -2586482.0075938702        149231276.08986390     
   2072995396.4250968        11104110.444891810        141484565.57532787     
   1936209402.8709118        15093508.485199332        134311905.51781392     
   1796513050.9930613        9381712.1133005619        127713295.91731055     
   1653906340.7915528       -6031278.6707901955        121688736.77382414     
   2036054393.2369852        6982118.5695260763        304176614.97402084     
   1901851280.0510874        16874070.267018557        292661283.70739436     
   1766122869.8266304        21681698.502646208        281196605.26922446     
   1628869162.5636301        21405003.276460528        269782579.65953368     
   1490090158.2620487        16043984.588343441        258419206.87831095     
   1862610736.7901480        15762613.738173604        456890771.68480873     
   1726584723.8530359        21407298.141927600        443222724.49869573     
   1590418475.1624649        26584530.034148037        429081932.51249850     
   1454111990.7184315        31294309.414830327        414468395.72622859     
   1317665270.5209463        35536636.284004509        399382114.13987225     
   1686540062.3151412        23755003.498376846        607373746.22221470     
   1547195727.8309441        24703794.069598019        593168887.94923925     
   1409096218.8784080        29802003.079665720        577967887.24763238     
   1272241535.4575026        39049630.528513551        561770744.11740625     
   1136631677.5682456        52446676.416179240        544577458.55852950     
   1809113818.1094689       -30689153.493387103       -10809296.173572505     
   1775285013.2085297       -15928258.453763843       -6947525.3516347269     
   1750000534.2194190        27313722.958621502       -41427757.999879822     
   1733260381.1421039        99036790.743658006       -114249994.11834493     
   1725064553.9765978        199240944.90139252       -225414233.70700061     
   1653906340.7915528       -6031278.6707901955        121688736.77382414     
   1529690045.3394904       -13508412.677130997        136293152.03910965     
   1409978876.7954180       -5968456.9901608825        124842584.74586220     
   1294772835.1593437        16588588.390119135        87337034.894101009     
   1184071920.4312575        54162723.463716269        23776502.483832460     
   1490090158.2620487        16043984.588343441        258419206.87831095     
   1310592146.2922294       -3139446.2540113330        279053867.74914056     
   1131560062.2266021       -20769784.082399428        285920566.97314531     
   952993906.06515205       -36847028.896862030        279019304.55032533     
   774893677.80788946       -51371180.697361767        258350080.48065880     
   1317665270.5209463        35536636.284004509        399382114.13987225     
   1117991316.0667584        15178640.815628707        421334621.77849311     
   914744090.51296794       -17090258.318077385        441806188.68196619     
   707923593.85953951       -61270061.117249727        460796814.85029435     
   497529826.10649115       -117360767.58179885        478306500.28348452     
   1136631677.5682456        52446676.416179240        544577458.55852950     
   951887554.66309381        41445848.531863987        563135414.12715662     
   759530961.65451157        5070120.3027861714        592499449.87231433     
   559561898.54249430       -56680508.271083415        632669565.79402661     
   351980365.32705331       -143806037.18968773        683645761.89227343     
   1725064553.9765978        199240944.90139252       -225414233.70700061     
   1455785184.4263225        184783620.92597288       -97037251.233139232     
   1154003412.8647177        61984956.912788868        60268998.771645807     
   819719239.29172230       -169155047.13834196        246504516.30736092     
   452932663.70741725       -508636391.22721624        461669301.37401253     
   1184071920.4312575        54162723.463716269        23776502.483832460     
   977499620.53673351        12104274.152886569        155508543.82415998     
   732880763.73347628       -156776031.52039772        312917015.52306461     
   450215350.02147192       -452478193.55617839        496001917.58055145     
   129503379.40068310       -875002211.95450735        704763249.99665129     
   774893677.80788946       -51371180.697361767        258350080.48065880     
   621734627.07671690       -123818901.49130803        386968999.97381181     
   424984864.53938985       -341568994.97243619        538011512.65320230     
   184644390.19591951       -704621461.14069152        711477618.51885128     
  -99286795.953691840       -1212976299.9961174        907367317.57073712     
   497529826.10649115       -117360767.58179885        478306500.28348452     
   388490204.04625797       -222985906.00663200        597344117.21582294     
   230315715.28247520       -492393933.44329727        735552490.16207683     
   23006359.815158486       -925584849.89172435        892931619.12223506     
  -233437862.35571086       -1522558655.3520072        1069481504.0963124     
   351980365.32705331       -143806037.18968773        683645761.89227343     
   277766351.44535178       -285396739.39313012        786633895.55018854     
   148873315.96272707       -609250846.93298841        905539948.04966915     
  -34698741.120857656       -1115368359.8093719        1040363919.3907269     
  -272949819.80537277       -1803749278.0221901        1191105809.5733323     
   4642084192.9871454        314952755.50704265        801299108.72139275     
   4445750178.8525248        212059496.63334298        766618838.70471394     
   4256651003.5900655        133282367.33354092        736361895.96456158     
   4074786667.1997900        78621367.607664108        710528280.50093365     
   3900157169.6816878        48076497.455695868        689117992.31383049     
   4219129017.2009659        182104253.10584593        860267145.09793925     
   4044626981.2401915        108872441.29620361        832853925.73531199     
   3875958251.2435679        55084982.700388908        810966259.13818967     
   3713122827.2110853        20741877.318390369        794604145.30656695     
   3556120709.1427536        5843125.1502161026        783767584.24044406     
   3793581994.0482373        48478196.494682789        928941916.80361879     
   3644061151.9441161        5852596.4539458752        907160626.36900973     
   3498972082.8961043       -22000426.733060837        892007114.18888259     
   3358314786.9042177       -35080873.066330910        883481380.26323628     
   3222089263.9684477       -33388742.545873284        881583424.59206903     
   3365443123.5289564       -85925414.326443672        1007323423.8384382     
   3244052690.9642735       -97000037.893441677        989538940.60581470     
   3125692498.5476809       -97973860.966796398        979484461.11665273     
   3010362546.2791820       -88846883.546506643        977159985.37095082     
   2898062834.1587772       -69619105.632579684        982565513.36869991     
   2934712405.6431260       -221106579.35753822        1095411666.2023880     
   2844601598.3006797       -199685461.74595475        1079988868.4457204     
   2756119498.1982985       -172835320.00081766        1073398299.9214926     
   2669266105.3359838       -140556154.12212670        1075639960.6296968     
   2584041419.7137337       -102847964.10988796        1086713850.5703435     
   3900157169.6816878        48076497.455695868        689117992.31383049     
   3807095029.3963237        53608704.767481804        693640007.18151248     
   3714450931.7512693        60534387.546952963        700151921.54537749     
   3622224876.7465224        68853545.794123173        708653735.40541339     
   3530416864.3820810        78566179.508988142        719145448.76162195     
   3556120709.1427536        5843125.1502161026        783767584.24044406     
   3471004876.0995646        20613247.603467464        791749444.38923812     
   3385398367.2772007        33747784.126136780        801722122.50319183     
   3299301182.6756692        45246734.718244672        813685618.58231008     
   3212713322.2949591        55110099.379760742        827639932.62657881     
   3222089263.9684477       -33388742.545873284        881583424.59206903     
   3144922362.3645287       -9379917.6920362711        891964958.53257895     
   3066356066.5619588        9964259.8329658508        904338228.90723360     
   2986390376.5607347        24643790.029125571        918703235.71603203     
   2905025292.3608589        34658672.896445155        935059978.95897007     
   2898062834.1587772       -69619105.632579684        982565513.36869991     
   2828847488.1912241       -36370791.119019151        994286549.61153269     
   2757324029.6055417       -10816185.332558036        1008000240.7574953     
   2683492458.4017248        7044711.7267886400        1023706586.8065841     
   2607352774.5797825        17211900.059037447        1041405587.7588006     
   2584041419.7137337       -102847964.10988796        1086713850.5703435     
   2522780253.5796485       -60359372.677477956        1098714217.6261048     
   2458302256.4079533       -28593551.370431662        1112708158.0539813     
   2390607428.1986456       -7550500.1887646914        1128695671.8539674     
   2319695768.9517250        2769780.8675322533        1146676759.0260675     
   3530416864.3820810        78566179.508988142        719145448.76162195     
   3323243003.6299152        54893608.529371858        686902743.32039452     
   3116458495.7243776        32518880.371853948        663226479.97248709     
   2910063340.6654668        11441995.036423922        648116658.71790934     
   2704057538.4531841       -8337047.4769011736        641573279.55666327     
   3212713322.2949591        55110099.379760742        827639932.62657881     
   3027680821.6593442        35385914.849222779        798889059.40276754     
   2843103288.8146019        17178289.621604204        777692393.45626760     
   2658980723.7607288        487223.69688320160        764049934.78707421     
   2475313126.4977345       -14687282.924923539        757961683.39518845     
   2905025292.3608589        34658672.896445155        935059978.95897007     
   2739242052.3674541        18015244.972685456        909877488.72087026     
   2573979395.1091580        3107092.8326374292        891236970.94405675     
   2409237320.5859876       -10065783.523664951        879138425.62853372     
   2245015828.7979355       -21503384.096246123        873581852.77429807     
   2607352774.5797825        17211900.059037447        1041405587.7588006     
   2457926695.7542362        2781598.8997358084        1019868031.2746977     
   2309086814.6080513       -9694709.9950165749        1003860212.4358584     
   2160833131.1412306       -20217026.625221372        993382131.24228883     
   2013165645.3537765       -28785350.990882158        988433787.69398820     
   2319695768.9517250        2769780.8675322533        1146676759.0260675     
   2183734751.8197012       -10315023.369593620        1128860687.0642443     
   2048425547.3112772       -21227118.861376524        1115562117.9316666     
   1913768155.4264717       -29966505.607771397        1106781051.6283381     
   1779762576.1652718       -36533183.608815312        1102517488.1542609     
   2704057538.4531841       -8337047.4769011736        641573279.55666327     
   2599738523.8651848        2978582.9984986782        641369326.14363062     
   2495418268.5414042        14290077.687950611        642172063.44721675     
   2391096772.4818387        25597436.591450095        643981491.46742702     
   2286774035.6864829        36900659.709000707        646797610.20425022     
   2475313126.4977345       -14687282.924923539        757961683.39518845     
   2374436618.1094441       -4036421.7404762506        757722168.43401372     
   2273756597.6295099        7269399.1385027170        759277452.74620807     
   2173273065.0579386        19230179.712018609        762627536.33178282     
   2072986020.3947291        31845919.980070233        767772419.19072604     
   2245015828.7979355       -21503384.096246123        873581852.77429807     
   2149833565.3429322       -10841770.582682610        873537459.68314528     
   2055045518.4404354        1133898.1059076786        876075974.42212045     
   1960651688.0904436        14423621.969508886        881197396.99122512     
   1866652074.2929592        29027401.008138180        888901727.39046073     
   2013165645.3537765       -28785350.990882158        988433787.69398820     
   1925929365.5656464       -17437463.528120995        988815199.89102674     
   1839285030.9741673       -4116425.4098525047        992567628.47495639     
   1753232641.5793400        11177763.363913298        999691073.44576609     
   1667772197.3811622        28445102.793189764        1010185534.8034586     
   1779762576.1652718       -36533183.608815312        1102517488.1542609     
   1702724018.7775927       -23823500.576789975        1103555389.0576692     
   1626475135.2307141       -8481571.4087712765        1108752414.9047122     
   1551015925.5246332        9492603.8952440619        1118108565.6953893     
   1476346389.6593478        30099025.335249543        1131623841.4297066     
   2286774035.6864829        36900659.709000707        646797610.20425022     
   2136929917.5032730        34328829.521771789        631749407.15365720     
   1986942882.5469694        31280610.090881348        620162695.47311008     
   1836812930.8175993        27756001.416447759        612037475.16263759     
   1686540062.3151412        23755003.498376846        607373746.22221470     
   2072986020.3947291        31845919.980070233        767772419.19072604     
   1933120483.6713691        32459313.319151998        755094514.88047600     
   1792973536.4170721        32134671.555113077        745895899.50935566     
   1652545178.6318269        30871994.687929332        740176573.07738268     
   1511835410.3156486        28671282.717607796        737936535.58452606     
   1866652074.2929592        29027401.008138180        888901727.39046073     
   1736815969.2268138        32841272.932781875        878432545.76972246     
   1606559959.8718588        35255463.894736111        871460450.65719497     
   1475884046.2281096        36269973.894040763        867985442.05287290     
   1344788228.2955563        35884802.930662215        868007519.95676625     
   1667772197.3811622        28445102.793189764        1010185534.8034586     
   1548016374.1695864        35474708.362597585        1001763499.8213924     
   1427702152.9113381        40642987.109777212        996856348.91661143     
   1306829533.6064334        43949939.034767747        995464082.08911252     
   1185398516.2548628        45395564.137527943        997586699.33889985     
   1476346389.6593478        30099025.335249543        1131623841.4297066     
   1366721698.4996848        40359619.608594358        1125087377.0354829     
   1256400115.5355046        48297241.200217783        1122083594.2876151     
   1145381640.7667994        53911890.110090911        1122612493.1861010     
   1033666274.1935718        57203566.338227689        1126674073.7309513     
   1686540062.3151412        23755003.498376846        607373746.22221470     
   1547195727.8309441        24703794.069598019        593168887.94923925     
   1409096218.8784080        29802003.079665720        577967887.24763238     
   1272241535.4575026        39049630.528513551        561770744.11740625     
   1136631677.5682456        52446676.416179240        544577458.55852950     
   1511835410.3156486        28671282.717607796        737936535.58452606     
   1371239931.4418206        26670951.809683740        728221194.86580968     
   1231035375.7778349        25973698.267911851        719220144.30965090     
   1091221743.3237143        26579522.092353165        710933383.91604519     
   951799034.07945335        28488423.282990098        703360913.68500364     
   1344788228.2955563        35884802.930662215        868007519.95676625     
   1207828555.2926116        32401435.621717334        861785477.41688251     
   1070405903.1777359        27374804.606335282        857988157.63074851     
   932520271.95092750        20804909.884513617        856615560.59835708     
   794171661.61219263        12691751.456257105        857667686.31970644     
   1185398516.2548628        45395564.137527943        997586699.33889985     
   1056961599.3833458        41895245.505750358        993861735.60243952     
   927207801.07809675        34005322.094865769        994271927.21091175     
   796137121.33913779        21725793.904959708        998817274.16431797     
   663749560.16646767        5056660.9359931648        1007497776.4626499     
   1033666274.1935718        57203566.338227689        1126674073.7309513     
   918639063.71400440        55152381.461747497        1124449969.4224944     
   801441069.47892618        45865250.733556896        1128071453.0501583     
   682072291.48835170        29342174.153718501        1137538524.6139319     
   560532729.74226665        5583151.7221731544        1152851184.1138327     
   1136631677.5682456        52446676.416179240        544577458.55852950     
   951887554.66309381        41445848.531863987        563135414.12715662     
   759530961.65451157        5070120.3027861714        592499449.87231433     
   559561898.54249430       -56680508.271083415        632669565.79402661     
   351980365.32705331       -143806037.18968773        683645761.89227343     
   951799034.07945335        28488423.282990098        703360913.68500364     
   792388982.18717372        11782293.612374067        721514769.94362807     
   624267900.66732478       -33960601.483453631        749666901.06321478     
   447435789.51992428       -108740262.00447151        787817307.04377639     
   261892648.74497199       -212556687.95064500        835965987.88529503     
   794171661.61219263        12691751.456257105        857667686.31970644     
   657787665.54540884       -10412084.556889236        874135790.49019217     
   511594080.32694191       -66214551.075653136        899794364.20605826     
   355590905.95679379       -154715648.10001457        934643407.46732128     
   189778142.43496770       -275915375.62998581        978682920.27396631     
   663749560.16646767        5056660.9359931648        1007497776.4626499     
   548083604.73781931       -25137285.975889981        1020998475.7668414     
   421509500.63336658       -91691728.473783255        1042881839.3008523     
   284027247.85309178       -194606666.55775565        1073147867.0646614     
   135636846.39701542       -333882100.22772759        1111796559.0582860     
   560532729.74226665        5583151.7221731544        1152851184.1138327     
   463276799.76439112       -32393310.644642293        1162102825.7735887     
   354014161.58657384       -110392133.67793527        1178929326.3475780     
   232744815.20883062       -228413317.37764531        1203330685.8358068     
   99468760.631148905       -386456861.74381703        1235306904.2382536     
   351980365.32705331       -143806037.18968773        683645761.89227343     
   277766351.44535178       -285396739.39313012        786633895.55018854     
   148873315.96272707       -609250846.93298841        905539948.04966915     
  -34698741.120857656       -1115368359.8093719        1040363919.3907269     
  -272949819.80537277       -1803749278.0221901        1191105809.5733323     
   261892648.74497199       -212556687.95064500        835965987.88529503     
   223287654.72569099       -352480857.82981861        885173653.62218308     
   140521698.27262402       -639608235.82160926        945470369.87529790     
   13594779.385777652       -1073938821.9259853        1016856136.6446586     
  -157493101.93483299       -1655472616.1429482        1099330953.9302254     
   189778142.43496770       -275915375.62998581        978682920.27396631     
   172985401.63427752       -418312043.17805284        986381187.11817145     
   122549757.56696716       -672851721.61484969        1000339636.1532816     
   38471210.233036220       -1039534410.9403856        1020558267.3792828     
  -79250240.367509961       -1518360111.1546578        1047037080.7961725     
   135636846.39701542       -333882100.22772759        1111796559.0582860     
   126859592.17112154       -482890295.43778652        1090256496.0381694     
   94957493.845748782       -708981304.31276846        1070147746.8836080     
   39930551.420915782       -1012155126.8526125        1051470311.5946041     
  -38221235.103371978       -1392411763.0573232        1034224190.1711645     
   99468760.631148905       -386456861.74381703        1235306904.2382536     
   84910226.336207986       -546215614.60907412        1196799580.3821566     
   57744907.108954698       -747996983.91536665        1154894702.0662823     
   17972802.949404001       -991800969.66266191        1109592269.2906425     
  -34406086.142454922       -1277627571.8509679        1060892282.0552027     
   2934712405.6431260       -221106579.35753822        1095411666.2023880     
   2844601598.3006797       -199685461.74595475        1079988868.4457204     
   2756119498.1982985       -172835320.00081766        1073398299.9214926     
   2669266105.3359838       -140556154.12212670        1075639960.6296968     
   2584041419.7137337       -102847964.10988796        1086713850.5703435     
   2577705379.5487771       -126142256.16051114        1194436133.0117900     
   2503130428.5630445       -119441848.59993982        1184417086.8086529     
   2430449501.4945064       -106428027.98206174        1180913557.0438700     
   2359662598.3431635       -87100794.306869388        1183925543.7174280     
   2290769719.1090126       -61460147.574367762        1193453046.8293397     
   2233576014.7177830       -27314634.584472656        1285851421.3910596     
   2167917740.6770864       -37320690.898426652        1281545662.8647761     
   2104418807.2307067       -40128945.231310487        1281438707.9827473     
   2043079214.3786509       -35739397.583124399        1285530556.7449784     
   1983898962.1209166       -24152047.953864932        1293821209.1514680     
   1902324311.1501532        75376285.370573640        1369657531.3402059     
   1838963534.6428037        46678011.358591676        1371374596.6140811     
   1778027415.4068990        26061928.251437783        1374973752.7381282     
   1719515953.4424469        13528036.049117088        1380454999.7123439     
   1663429148.7494450        9076334.7516310215        1387818337.5367277     
   1583950268.8458827        181930503.70462573        1445854462.8592162     
   1516267810.4601941        132554258.17111194        1453903888.0565701     
   1451275326.0230851        92144592.466185868        1461518691.3100076     
   1388972815.5345519        60701506.589850843        1468698872.6195242     
   1329360278.9945970        38225000.542110682        1475444431.9851217     
   2584041419.7137337       -102847964.10988796        1086713850.5703435     
   2522780253.5796485       -60359372.677477956        1098714217.6261048     
   2458302256.4079533       -28593551.370431662        1112708158.0539813     
   2390607428.1986456       -7550500.1887646914        1128695671.8539674     
   2319695768.9517250        2769780.8675322533        1146676759.0260675     
   2290769719.1090126       -61460147.574367762        1193453046.8293397     
   2231300297.9898510       -33107503.191013217        1197994796.1626120     
   2169861002.5467057       -11321106.554270506        1205183379.1465719     
   2106451832.7795713        3899042.3358395100        1215018795.7812235     
   2041072788.6884515        12552943.479340434        1227501046.0665629     
   1983898962.1209166       -24152047.953864932        1293821209.1514680     
   1928087743.9554744       -9375413.2379115820        1292359123.5948091     
   1871553608.1796696        2991496.1101644039        1294197131.9674182     
   1814296554.7935016        12948680.090361476        1299335234.2692921     
   1756316583.7969704        20496138.702684760        1307773430.5004311     
   1663429148.7494450        9076334.7516310215        1387818337.5367277     
   1613142591.4765134        10836897.181809545        1381807199.9227014     
   1563380073.3068397        14344256.622852564        1379749416.5165203     
   1514141594.2404301        19598413.074769795        1381644987.3181801     
   1465427154.2772834        26599366.537571430        1387493912.3276834     
   1329360278.9945970        38225000.542110682        1475444431.9851217     
   1286464840.5529678        27529428.068156898        1466339025.1462901     
   1245340397.9282229        22737174.983818948        1461840232.7938764     
   1205986951.1203618        23848241.289095879        1461948054.9278824     
   1168404500.1293874        30862626.983988702        1466662491.5483139     
   2319695768.9517250        2769780.8675322533        1146676759.0260675     
   2183734751.8197012       -10315023.369593620        1128860687.0642443     
   2048425547.3112772       -21227118.861376524        1115562117.9316666     
   1913768155.4264717       -29966505.607771397        1106781051.6283381     
   1779762576.1652718       -36533183.608815312        1102517488.1542609     
   2041072788.6884515        12552943.479340434        1227501046.0665629     
   1918579642.2456207        1643087.9308618307        1208544721.6171553     
   1796454484.8609748       -8040137.4236668348        1194928883.6328042     
   1674697316.5345206       -16496732.584227562        1186653532.1135149     
   1553308137.2662542       -23726697.550817907        1183718667.0592859     
   1756316583.7969704        20496138.702684760        1307773430.5004311     
   1649642689.8599427        12466646.387840629        1287345726.0704443     
   1543052961.4156806        4717705.7155515552        1273081491.7413361     
   1436547398.4641857       -2750683.3141822815        1264980727.5130985     
   1330126001.0054584       -9938520.7013542056        1263043433.3857303     
   1465427154.2772834        26599366.537571430        1387493912.3276834     
   1376923894.6626647        22155652.001344860        1365263700.4241314     
   1288220976.9753914        17046410.556268394        1350019942.2572641     
   1199318401.2154641        11271642.202341974        1341762637.8270798     
   1110216167.3828790        4831346.9395645261        1340491787.1335838     
   1168404500.1293874        30862626.983988702        1466662491.5483139     
   1100423256.6537840        30710104.771358192        1442298644.6781979     
   1031958531.5401071        28945977.098483324        1425744235.1805849     
   963010324.78835285        25570243.965346813        1416999263.0554736     
   893578636.39852679        20582905.371971369        1416063728.3028522     
   1779762576.1652718       -36533183.608815312        1102517488.1542609     
   1702724018.7775927       -23823500.576789975        1103555389.0576692     
   1626475135.2307141       -8481571.4087712765        1108752414.9047122     
   1551015925.5246332        9492603.8952440619        1118108565.6953893     
   1476346389.6593478        30099025.335249543        1131623841.4297066     
   1553308137.2662542       -23726697.550817907        1183718667.0592859     
   1486106417.1323664       -13180330.709066927        1186606395.6472557     
   1419538967.7653663       -519727.97769206762        1193401023.9922624     
   1353605789.1652579        14255110.643319309        1204102552.0943034     
   1288306881.3320408        31144185.153974473        1218710979.9533737     
   1330126001.0054584       -9938520.7013542056        1263043433.3857303     
   1272040474.7350669       -1771663.0669826269        1267599686.0720358     
   1214433816.1576631        7991420.2106804848        1275810613.3287737     
   1157306025.2732418        19350729.131615818        1287676215.1559479     
   1100657102.0817983        32306263.695818961        1303196491.5535581     
   1110216167.3828790        4831346.9395645261        1340491787.1335838     
   1060526191.5857012        10402502.349490106        1346535260.3320010     
   1011159680.4075984        17051873.156331360        1355981182.9142504     
   962116633.84857476        24779459.360100329        1368829554.8803360     
   913397051.90862453        33585260.960787237        1385080376.2302542     
   893578636.39852679        20582905.371971369        1416063728.3028522     
   851563567.68426788        23342165.540339351        1423413118.4271560     
   809716560.51518357        26661630.859292120        1433912732.7486920     
   768037614.89126921        30541301.328806967        1447562571.2674584     
   726526730.81251943        34981176.948876172        1464362633.9834609     
   1476346389.6593478        30099025.335249543        1131623841.4297066     
   1366721698.4996848        40359619.608594358        1125087377.0354829     
   1256400115.5355046        48297241.200217783        1122083594.2876151     
   1145381640.7667994        53911890.110090911        1122612493.1861010     
   1033666274.1935718        57203566.338227689        1126674073.7309513     
   1288306881.3320408        31144185.153974473        1218710979.9533737     
   1187650055.3800511        37587373.173988283        1211953487.6008000     
   1086465434.8886540        42271246.062633932        1209442611.3585455     
   984753019.85783529        45195803.819876671        1211178351.2266095     
   882512810.28760219        46361046.445737630        1217160707.2049818     
   1100657102.0817983        32306263.695818961        1303196491.5535581     
   1011007954.0916480        35543989.288742959        1296415251.3852668     
   921000108.82719183        37586057.300639927        1294594561.7912462     
   830633566.28843176        38432467.731523901        1297734422.7715044     
   739908326.47535992        38083220.581372440        1305834834.3260341     
   913397051.90862453        33585260.960787237        1385080376.2302542     
   836795394.63447809        34229467.952865124        1378472668.3888731     
   760004137.35113227        34241674.914280057        1377539445.5857165     
   683023280.05859005        33621881.845036417        1382280707.8207946     
   605852822.75684667        32370088.745122671        1392696455.0941019     
   726526730.81251943        34981176.948876172        1464362633.9834609     
   665012377.00854218        33643809.166364133        1458125738.6116128     
   603477520.46046972        32238098.903534263        1458277262.7419569     
   541922161.16831613        30764046.160434633        1464817206.3744850     
   480346299.13206160        29221650.936997995        1477745569.5092018     
   1033666274.1935718        57203566.338227689        1126674073.7309513     
   918639063.71400440        55152381.461747497        1124449969.4224944     
   801441069.47892618        45865250.733556896        1128071453.0501583     
   682072291.48835170        29342174.153718501        1137538524.6139319     
   560532729.74226665        5583151.7221731544        1152851184.1138327     
   882512810.28760219        46361046.445737630        1217160707.2049818     
   782496882.62187707        44062786.403958499        1215338062.2804060     
   680285153.51380265        34445188.221008420        1219273987.3915887     
   575877622.96339595        17508251.896951348        1228968482.5385191     
   469274290.97063351       -6748022.5682859421        1244421547.7212117     
   739908326.47535992        38083220.581372440        1305834834.3260341     
   654655059.05101526        35463298.602559119        1304384461.4840226     
   567180972.49748528        25440646.193115145        1308605640.7774093     
   477486066.81477851        8015263.3530857265        1318498372.2061875     
   385570342.00288272       -16812849.917573646        1334062655.7703555     
   605852822.75684667        32370088.745122671        1392696455.0941019     
   535113593.00141853        29353918.057527572        1391589167.0333545     
   462128526.42997122        18851624.649862900        1396066413.2076271     
   386897623.04249948        863208.52212162316        1406128193.6169412     
   309420882.83900517       -24611330.325699389        1421774508.2612722     
   480346299.13206160        29221650.936997995        1477745569.5092018     
   423872484.47309071        25734644.768893361        1476952178.9283941     
   365127815.31125844        14678123.591251001        1481656304.6822464     
   304112291.64656174       -3947912.5959367603        1491857946.7707720     
   240825913.47900337       -30143463.792669043        1507557105.1939626     
   560532729.74226665        5583151.7221731544        1152851184.1138327     
   463276799.76439112       -32393310.644642293        1162102825.7735887     
   354014161.58657384       -110392133.67793527        1178929326.3475780     
   232744815.20883062       -228413317.37764531        1203330685.8358068     
   99468760.631148905       -386456861.74381703        1235306904.2382536     
   469274290.97063351       -6748022.5682859421        1244421547.7212117     
   391225844.81862766       -41166038.217934906        1242793120.2154117     
   303024931.79905599       -109425610.09280047        1247543641.3420885     
   204671551.91195181       -211526738.19277856        1258673111.1012416     
   96165705.157286957       -347469422.51795340        1276181529.4928601     
   385570342.00288272       -16812849.917573646        1334062655.7703555     
   323312493.15742850       -48697484.805878252        1323717440.6534524     
   252756418.77680790       -108242871.47807646        1318555263.8872707     
   173902118.86102045       -195449009.93416047        1318576125.4718032     
   86749593.410076454       -310315900.17410100        1323780025.4070563     
   309420882.83900517       -24611330.325699389        1421774508.2612722     
   259536744.78080550       -54987650.408432081        1404875787.0877178     
   203208622.51982301       -106843917.83377762        1391964193.9831197     
   140436516.05606288       -180180132.60171378        1383039728.9474807     
   71220425.389523178       -274996294.71224803        1378102391.9808090     
   240825913.47900337       -30143463.792669043        1507557105.1939626     
   199898599.68874830       -60036535.025632843        1486268159.5182028     
   154381543.02810252       -105228749.15990445        1467770431.6296422     
   104274743.49705362       -165720106.19551718        1452063921.5282845     
   49578201.095626161       -241510606.13239163        1439148629.2141323     
   99468760.631148905       -386456861.74381703        1235306904.2382536     
   84910226.336207986       -546215614.60907412        1196799580.3821566     
   57744907.108954698       -747996983.91536665        1154894702.0662823     
   17972802.949404001       -991800969.66266191        1109592269.2906425     
  -34406086.142454922       -1277627571.8509679        1060892282.0552027     
   96165705.157286957       -347469422.51795340        1276181529.4928601     
   79434939.306166321       -488561310.72571594        1221941266.7449973     
   51308248.133372605       -667639616.67238867        1165119873.1081178     
   11785631.638913989       -884704340.35795975        1105717348.5822244     
  -39132910.177222311       -1139755481.7824314        1043733693.1673206     
   86749593.410076454       -310315900.17410100        1323780025.4070563     
   70179234.776396781       -432041132.09228945        1255219493.3131475     
   43423810.431684434       -587716583.04724920        1184894253.9010024     
   6483320.3759350479       -777342253.03900754        1112804307.1706154     
  -40642235.390852869       -1000918142.0675538        1038949653.1219660     
   71220425.389523178       -274996294.71224803        1378102391.9808090     
   57143112.746896446       -376655078.70879543        1296634260.0866127     
   34091594.003888577       -508227883.03993875        1214217844.4449377     
   2065869.1604661047       -669714707.70581388        1130853145.0557702     
  -38934061.783358932       -861115552.70633888        1046540161.9191600     
   49578201.095626161       -241510606.13239163        1439148629.2141323     
   40326573.217677027       -322403150.57519054        1346185567.0653875     
   23311598.849986225       -429173516.65046173        1253090644.7399306     
  -1466722.0074899197       -561821704.35835361        1159863862.2377646     
  -34008389.354729056       -720347713.69878316        1066505219.5588698     
   1583950268.8458827        181930503.70462573        1445854462.8592162     
   1516267810.4601941        132554258.17111194        1453903888.0565701     
   1451275326.0230851        92144592.466185868        1461518691.3100076     
   1388972815.5345519        60701506.589850843        1468698872.6195242     
   1329360278.9945970        38225000.542110682        1475444431.9851217     
   1211553333.8574235        121056927.33654299        1452485992.4340711     
   1153439592.9362845        95161440.134540379        1456385528.2477806     
   1095842621.5039246        70988517.895132422        1462661601.3631792     
   1038762419.5603373        48538160.618301094        1471314211.7802608     
   982198987.10552931        27810368.304066956        1482343359.4990313     
   817939057.88352251        53818148.672832757        1468312202.7228413     
   777425917.98580623        53812984.870008141        1465526443.9498062     
   735256343.11706460        48286371.163763314        1467928381.7240622     
   691430333.27729928        37238307.554107726        1475518016.0456088     
   645947888.46650970        20668794.041035920        1488295346.9144473     
   403107440.92417759       -19785832.286514074        1493333093.7255311     
   388226785.60875803        8508892.3775016218        1481326635.1626453     
   369516490.86251050        24038152.272092223        1477319032.3926618     
   346976556.68543911        26801947.397269294        1481310285.4155681     
   320606983.07754129        16800277.753026143        1493300394.2313757     
  -32941517.020607833       -99755015.541491345        1527548665.4421308     
  -14157804.194861183       -40750837.342977881        1503786101.8862998     
  -1376935.2597414651       -1756138.7798923883        1490833553.3689699     
   5401089.7847534660        17229080.147778887        1488691019.8901427     
   6176270.9386192188        16204819.440020261        1497358501.4498158     
   1329360278.9945970        38225000.542110682        1475444431.9851217     
   1286464840.5529678        27529428.068156898        1466339025.1462901     
   1245340397.9282229        22737174.983818948        1461840232.7938764     
   1205986951.1203618        23848241.289095879        1461948054.9278824     
   1168404500.1293874        30862626.983988702        1466662491.5483139     
   982198987.10552931        27810368.304066956        1482343359.4990313     
   950755251.55899727        17840990.256335378        1478741672.3595853     
   920919475.22304583        13231476.243874848        1479174789.6315887     
   892691658.09767520        13981826.266678095        1483642711.3150406     
   866071800.18288398        20092040.324751556        1492145437.4099436     
   645947888.46650970        20668794.041035920        1488295346.9144473     
   624322112.74373460        10935487.498131990        1490007170.1003649     
   604141259.62523329        6018589.6361430287        1495181987.6227624     
   585405329.11100793        5918100.4550727606        1503819799.4816401     
   568114321.20105553        10634019.954913706        1515920605.6769979     
   320606983.07754129        16800277.753026143        1493300394.2313757     
   307165424.10717678        6812919.7935404778        1500135518.3686352     
   295005751.13478267        1098515.1606233418        1509861826.7674043     
   284127964.16035831       -342936.14572723210        1522479319.4276810     
   274532063.18390071        2488565.8744779229        1537987996.3494689     
   6176270.9386192188        16204819.440020261        1497358501.4498158     
  -714814.35067679896        5473287.1425552089        1509126717.1643922     
  -6487050.2483063769       -1528747.1826887245        1523214307.0655086     
  -11140436.754275966       -4801283.5357320001        1539621271.1531634     
  -14674973.868579298       -4344321.9165554596        1558347609.4273574     
   1168404500.1293874        30862626.983988702        1466662491.5483139     
   1100423256.6537840        30710104.771358192        1442298644.6781979     
   1031958531.5401071        28945977.098483324        1425744235.1805849     
   963010324.78835285        25570243.965346813        1416999263.0554736     
   893578636.39852679        20582905.371971369        1416063728.3028522     
   866071800.18288398        20092040.324751556        1492145437.4099436     
   818346187.51348376        21613636.235212088        1468551359.3617365     
   770161917.79533887        21606375.316524476        1452342763.4558609     
   721518991.02844322        20070257.568667650        1443519649.6923118     
   672417407.21279931        17005282.991648853        1442082018.0710917     
   568114321.20105553        10634019.954913706        1515920605.6769979     
   539433038.68023717        13466343.791186988        1493125258.4715765     
   510317923.69999838        14852559.429393977        1477291438.1783171     
   480768976.26033753        14792666.869526356        1468419144.7972169     
   450786196.36125523        13286666.111587957        1466508378.3282814     
   274532063.18390071        2488565.8744779229        1537987996.3494689     
   263683810.15403798        6268227.4392669648        1516020342.0077143     
   252426549.25408402        8684529.4370863289        1500590259.3479536     
   240760280.48403481        9737471.8679209054        1491697748.3701878     
   228685003.84389439        9427054.7317853943        1489342809.0744143     
  -14674973.868579298       -4344321.9165554596        1558347609.4273574     
  -8901498.0651061311        19287.179475113284        1537236609.9701529     
  -3512205.5423990861        3102285.3396172309        1522239226.9647744     
   1492903.6995389340        4904672.5638639843        1513355460.4112213     
   6113829.6607131669        5426448.8522300590        1510585310.3094895     
   893578636.39852679        20582905.371971369        1416063728.3028522     
   851563567.68426788        23342165.540339351        1423413118.4271560     
   809716560.51518357        26661630.859292120        1433912732.7486920     
   768037614.89126921        30541301.328806967        1447562571.2674584     
   726526730.81251943        34981176.948876172        1464362633.9834609     
   672417407.21279931        17005282.991648853        1442082018.0710917     
   638599110.10278153        18060973.798416138        1449652861.5634377     
   604933324.57257771        19625036.537896812        1460771821.1760261     
   571420050.62217426        21697471.210045546        1475438896.9088626     
   538059288.25157809        24278277.814884752        1493654088.7619483     
   450786196.36125523        13286666.111587957        1466508378.3282814     
   426301504.92123139        12979837.776482135        1474282533.5624092     
   401953775.09565455        13129548.156198815        1486002696.8397949     
   377743006.88451815        13735797.250718817        1501668868.1604404     
   353669200.28782928        14798585.060061112        1521281047.5243454     
   228685003.84389439        9427054.7317853943        1489342809.0744143     
   214670752.13961491        8098757.4745273441        1497302134.4240682     
   200777912.08441594        7175165.7142032757        1509605359.7399964     
   187006483.67830357        6656279.4508329928        1526252485.0221930     
   173356466.92126879        6542098.6843922734        1547243510.2706714     
   6113829.6607131669        5426448.8522300590        1510585310.3094895     
   3706851.7579330117        3417732.8925529681        1518711664.1484182     
   1405735.5388670731        1761889.2119246530        1531579809.8766320     
  -789518.99647632218        458917.81037009467        1549189747.4941287     
  -2878911.8481027554       -491181.31212653691        1571541477.0009091     
   726526730.81251943        34981176.948876172        1464362633.9834609     
   665012377.00854218        33643809.166364133        1458125738.6116128     
   603477520.46046972        32238098.903534263        1458277262.7419569     
   541922161.16831613        30764046.160434633        1464817206.3744850     
   480346299.13206160        29221650.936997995        1477745569.5092018     
   538059288.25157809        24278277.814884752        1493654088.7619483     
   493076895.91636968        23580697.410095841        1488719587.2958751     
   448079202.09787732        22832112.061024383        1489965916.5241237     
   403066206.79611391        22032521.767720953        1497393076.4466820     
   358037910.01107240        21181926.530150071        1511001067.0635481     
   353669200.28782928        14798585.060061112        1521281047.5243454     
   324625658.54174054        14562858.769093886        1517655008.1016755     
   295572016.57318753        14293465.069911093        1520002210.5654378     
   266508274.38216901        13990403.962507546        1528322654.9156396     
   237434431.96868405        13653675.446885735        1542616341.1522779     
   173356466.92126879        6542098.6843922734        1547243510.2706714     
   159658664.88465393        6590293.2433530316        1544932001.0290086     
   145955963.88639081        6622157.9301528037        1548386144.8659072     
   132248363.92646602        6637692.7447485402        1557605941.7813637     
   118535865.00490120        6636897.6872080415        1572591391.7753870     
  -2878911.8481027554       -491181.31212653691        1571541477.0009091     
  -1824085.0548887379       -336999.16712131083        1570550566.0778756     
  -768955.96251154586       -181809.35823883704        1575117719.4255223     
   286475.42901802348       -25611.885514412264        1585242937.0438550     
   1342209.1197136950        131593.25109563273        1600926218.9328666     
   480346299.13206160        29221650.936997995        1477745569.5092018     
   423872484.47309071        25734644.768893361        1476952178.9283941     
   365127815.31125844        14678123.591251001        1481656304.6822464     
   304112291.64656174       -3947912.5959367603        1491857946.7707720     
   240825913.47900337       -30143463.792669043        1507557105.1939626     
   358037910.01107240        21181926.530150071        1511001067.0635481     
   316006706.69147283        18636115.678652614        1508439566.3375506     
   272280248.60004985        10439455.587743878        1511273051.3879550     
   226858535.73681748       -3408053.7425294966        1519501522.2147563     
   179741568.10176098       -22906412.312219381        1533124978.8179598     
   237434431.96868405        13653675.446885735        1542616341.1522779     
   209552895.53626207        11961176.576332331        1538958263.3006413     
   180551704.06307000        6536494.2365453541        1540592640.6671391     
   150430857.54909405       -2620371.5725226551        1547519473.2517722     
   119190355.99434471       -15509420.850835219        1559738761.0545309     
   118535865.00490120        6636897.6872080415        1572591391.7753870     
   104511051.00746316        5709827.4619430937        1568508269.8176594     
   89942181.700294882        2969239.5375749394        1569615072.5198007     
   74829257.083395660       -1584866.0858949721        1575911799.8818102     
   59172277.156758375       -7952489.4084920883        1587398451.9036818     
   1342209.1197136950        131593.25109563273        1600926218.9328666     
   881173.10506774636       -117931.66453841730        1597089585.8886037     
   451681.51174398593       -262308.50909989397        1598340346.9459393     
   53734.339716816059       -301537.28267100040        1604678502.1048748     
  -312668.41100138746       -235617.98521430080        1616104051.3654037     
   240825913.47900337       -30143463.792669043        1507557105.1939626     
   199898599.68874830       -60036535.025632843        1486268159.5182028     
   154381543.02810252       -105228749.15990445        1467770431.6296422     
   104274743.49705362       -165720106.19551718        1452063921.5282845     
   49578201.095626161       -241510606.13239163        1439148629.2141323     
   179741568.10176098       -22906412.312219381        1533124978.8179598     
   148462946.02282298       -45455040.238253988        1507405878.1840081     
   113735552.54657421       -79499572.821989685        1484622758.7776408     
   75559387.673012793       -125040010.06343618        1464775620.5988688     
   33934451.402148433       -182076351.96255648        1447864463.6476958     
   119190355.99434471       -15509420.850835219        1559738761.0545309     
   97974035.456405729       -30589522.521034360        1530920638.8476458     
   74449914.994247884       -53362290.605301797        1505183261.3087416     
   48617994.607857034       -83827725.103676558        1482526628.4378202     
   20478274.297239341       -121985826.01614074        1462950740.2348809     
   59172277.156758375       -7952489.4084920883        1587398451.9036818     
   48431867.989503704       -15439981.873954341        1556812441.5091255     
   36524630.371117026       -26816902.509854868        1529451939.2229500     
   23450564.301572606       -42083251.316282064        1505316945.0451462     
   9209669.7808925733       -61239028.293161318        1484407458.9757099     
  -312668.41100138746       -235617.98521430080        1616104051.3654037     
  -163556.37788436483       -6418.2970168031898        1585081286.1684523     
  -40301.322821310190        136591.46433482826        1557428792.5202644     
   57096.754175469396        193411.29879818234        1533146570.4208341     
   128637.85311416339        164041.20640194498        1512234619.8701684     
   49578201.095626161       -241510606.13239163        1439148629.2141323     
   40326573.217677027       -322403150.57519054        1346185567.0653875     
   23311598.849986225       -429173516.65046173        1253090644.7399306     
  -1466722.0074899197       -561821704.35835361        1159863862.2377646     
  -34008389.354729056       -720347713.69878316        1066505219.5588698     
   33934451.402148433       -182076351.96255648        1447864463.6476958     
   29799186.779979765       -241920222.25789684        1347415665.5036433     
   19846036.484260187       -321157044.79840553        1246177005.2375007     
   4075000.5149858296       -419786819.58409745        1144148482.8492453     
  -17513921.127842873       -537809546.61496782        1041330098.3389038     
   20478274.297239341       -121985826.01614074        1462950740.2348809     
   19579367.372586623       -161345023.83151853        1357285910.3811219     
   14808035.590591863       -213612304.50470451        1250173216.4598694     
   6164278.9512558579       -278787668.03569949        1141612658.4711077     
  -6351902.5454175621       -356871114.42447758        1031604236.4148805     
   9209669.7808925733       -61239028.293161318        1484407458.9757099     
   9667114.9954933673       -80677555.296073571        1375796301.6978085     
   8197596.1689763293       -106539295.76938142        1265079278.4070308     
   4801113.3013219163       -138824249.71314451        1152256389.1033638     
  -522333.60745880753       -177532417.12733391        1037327633.7868209     
   128637.85311416339        164041.20640194498        1512234619.8701684     
   62429.648718100594        82183.348500100590        1402946839.4537132     
   14718.219400890874        61981.407527072552        1290895191.0789812     
  -14496.434826256787        103435.38351953025        1176079674.7459867     
  -25214.313967139737        206545.27646967315        1058500290.4547080     
  -32941517.020607833       -99755015.541491345        1527548665.4421308     
  -14157804.194861183       -40750837.342977881        1503786101.8862998     
  -1376935.2597414651       -1756138.7798923883        1490833553.3689699     
   5401089.7847534660        17229080.147778887        1488691019.8901427     
   6176270.9386192188        16204819.440020261        1497358501.4498158     
  -436990885.89451766       -74764453.471856296        1523161195.9766457     
  -400033222.01749277       -36495943.473334685        1500334171.7789907     
  -366426992.04565817       -9398879.8254463822        1485462249.0899646     
  -336172195.97901314        6526737.4718080312        1478545427.9095724     
  -309268833.81755811        11280908.418430924        1479583708.2378128     
  -818698374.28080571       -43071327.255933046        1507154819.3342612     
  -771723655.15212798       -27985554.197289228        1488356646.1444507     
  -725448959.94320476       -15233194.204488903        1474658660.9334064     
  -679874288.65403533       -4814247.2775343657        1466060863.7011242     
  -634999641.28461957        3271286.5835730135        1462563254.4476061     
  -1178063982.1794703       -4675636.8937253356        1479529535.5149679     
  -1129229103.5987685       -15219669.514849544        1467853524.9826853     
  -1078442838.9523842       -19259081.917026520        1458422788.8992953     
  -1025705188.2403157       -16793874.100258410        1451237327.2648010     
  -971016151.46256566       -7824046.0645519495        1446297140.0792012     
  -1515087709.5905106        40422617.614773214        1440285344.5187688     
  -1472549567.3574116        1801710.5739943385        1438824808.2936888     
  -1425408629.0731912       -21476542.963044882        1436754632.9876320     
  -1373664894.7378523       -29412142.996355891        1434074818.6006005     
  -1317318364.3513947       -22005089.525938392        1430785365.1325941     
   6176270.9386192188        16204819.440020261        1497358501.4498158     
  -714814.35067679896        5473287.1425552089        1509126717.1643922     
  -6487050.2483063769       -1528747.1826887245        1523214307.0655086     
  -11140436.754275966       -4801283.5357320001        1539621271.1531634     
  -14674973.868579298       -4344321.9165554596        1558347609.4273574     
  -309268833.81755811        11280908.418430924        1479583708.2378128     
  -307878462.60796148        3962546.3744791299        1489132092.0419319     
  -306050043.67230910       -1895656.5826173872        1501943798.1386166     
  -303783577.01059896       -6293700.4528567940        1518018826.5278707     
  -301079062.62283128       -9231585.2362361997        1537357177.2096932     
  -634999641.28461957        3271286.5835730135        1462563254.4476061     
  -622630818.98748124        175193.16972169280        1469097537.7313924     
  -610504750.62989140       -3730080.0426228344        1479839091.4137757     
  -598621436.21185005       -8444533.0534632504        1494787915.4947546     
  -586980875.73335791       -13968165.862801015        1513944009.9743276     
  -971016151.46256566       -7824046.0645519495        1446297140.0792012     
  -944971883.48923028       -5888772.4716990590        1449023054.2327814     
  -919851171.12105095       -7032017.5627000332        1456900186.8909869     
  -895654014.35802686       -11253781.337550759        1469928538.0538175     
  -872380413.20015740       -18554063.796250194        1488108107.7212689     
  -1317318364.3513947       -22005089.525938392        1430785365.1325941     
  -1274901656.1132112       -14229350.549792767        1428908641.5460942     
  -1234089305.1457913       -11801469.142854750        1433127084.5702491     
  -1194881311.4491284       -14721445.305108190        1443440694.2050552     
  -1157277675.0232284       -22989279.036574125        1459849470.4505150     
  -14674973.868579298       -4344321.9165554596        1558347609.4273574     
  -8901498.0651061311        19287.179475113284        1537236609.9701529     
  -3512205.5423990861        3102285.3396172309        1522239226.9647744     
   1492903.6995389340        4904672.5638639843        1513355460.4112213     
   6113829.6607131669        5426448.8522300590        1510585310.3094895     
  -301079062.62283128       -9231585.2362361997        1537357177.2096932     
  -279938026.94789809       -6133788.6398500800        1516079503.2585135     
  -258902253.28894162       -3386865.4300554097        1500801523.3334742     
  -237971741.64596412       -990815.60685555637        1491523237.4345760     
  -217146492.01896152        1054360.8297604769        1488244645.5618148     
  -586980875.73335791       -13968165.862801015        1513944009.9743276     
  -550797772.83178067       -12233829.559501648        1492825069.6714320     
  -514441010.68139184       -9920629.0934965909        1477591900.9689867     
  -477910589.28219205       -7028564.4647891223        1468244503.8669944     
  -441206508.63418084       -3557635.6733758152        1464782878.3654568     
  -872380413.20015740       -18554063.796250194        1488108107.7212689     
  -821480735.71675277       -18280835.579477102        1467473309.2089074     
  -770128477.71974814       -16499005.650704831        1452610359.8713114     
  -718323639.20914710       -13208574.009945840        1443519259.7084830     
  -666066220.18494415       -8409540.6571770012        1440200008.7204177     
  -1157277675.0232284       -22989279.036574125        1459849470.4505150     
  -1091986915.6028183       -24274806.699788988        1440024221.8709400     
  -1025964654.4040167       -23121995.101700902        1425856900.0404458     
  -959210891.42682600       -19530844.242313325        1417347504.9590325     
  -891725626.67124605       -13501354.121629715        1414496036.6266997     
   6113829.6607131669        5426448.8522300590        1510585310.3094895     
   3706851.7579330117        3417732.8925529681        1518711664.1484182     
   1405735.5388670731        1761889.2119246530        1531579809.8766320     
  -789518.99647632218        458917.81037009467        1549189747.4941287     
  -2878911.8481027554       -491181.31212653691        1571541477.0009091     
  -217146492.01896152        1054360.8297604769        1488244645.5618148     
  -207320950.95769012       -473586.79987952113        1496016730.1480126     
  -197570287.32869694       -2251125.8704475462        1508345706.2795722     
  -187894501.13198382       -4278256.3819489181        1525231573.9564912     
  -178293592.36755005       -6554978.3343840390        1546674333.1787772     
  -441206508.63418084       -3557635.6733758152        1464782878.3654568     
  -419676735.30577749       -4763300.9820412993        1471989831.3969290     
  -398402578.52565330       -6821021.4516374469        1483568775.6298358     
  -377384038.29380679       -9730797.0821592510        1499519711.0641818     
  -356621114.61024040       -13492627.873614475        1519842637.6999655     
  -666066220.18494415       -8409540.6571770012        1440200008.7204177     
  -633360501.28633428       -9451409.6539455652        1446630967.8951628     
  -601091138.05200315       -11947797.531645417        1457249017.9274201     
  -569258130.48194742       -15898704.290259838        1472054158.8171935     
  -537861478.57617354       -21304129.929817736        1491046390.5644765     
  -891725626.67124605       -13501354.121629715        1414496036.6266997     
  -848372248.89935732       -14537912.815589726        1419940139.6427186     
  -805635965.90774536       -17631454.110470235        1429386433.1723247     
  -763516777.69640994       -22781978.006273508        1442834917.2155266     
  -722014684.26535201       -29989484.503001243        1460285591.7723162     
  -2878911.8481027554       -491181.31212653691        1571541477.0009091     
  -1824085.0548887379       -336999.16712131083        1570550566.0778756     
  -768955.96251154586       -181809.35823883704        1575117719.4255223     
   286475.42901802348       -25611.885514412264        1585242937.0438550     
   1342209.1197136950        131593.25109563273        1600926218.9328666     
  -178293592.36755005       -6554978.3343840390        1546674333.1787772     
  -162895494.12225425       -7055481.0509238243        1544756156.4184058     
  -147398081.70295084       -7224936.5207728520        1548464282.2416184     
  -131801355.10962903       -7063344.7438950017        1557798710.6484110     
  -116105314.34230550       -6570705.7203439958        1572759441.6387901     
  -356621114.61024040       -13492627.873614475        1519842637.6999655     
  -326684778.30458009       -14589325.469222754        1517112708.9562519     
  -296550115.95005447       -15024936.235278681        1520077321.1090238     
  -266217127.54667503       -14799460.171821713        1528736474.1582747     
  -235685813.09442580       -13912897.278800629        1543090168.1040075     
  -537861478.57617354       -21304129.929817736        1491046390.5644765     
  -493191937.60186410       -22938532.422001630        1487620223.6914120     
  -448225058.70383847       -23581808.501805723        1489956836.0277312     
  -402960841.88210160       -23233958.169236034        1498056227.5734358     
  -357399287.13665330       -21894981.424292758        1511918398.3285120     
  -722014684.26535201       -29989484.503001243        1460285591.7723162     
  -662416972.01410306       -32103101.909263730        1456278700.6238921     
  -602422909.96429503       -32895553.320327848        1458102826.9977515     
  -542032498.11592901       -32366838.736200601        1465757970.8938890     
  -481245736.46898848       -30516958.156823874        1479244132.3123140     
   1342209.1197136950        131593.25109563273        1600926218.9328666     
   881173.10506774636       -117931.66453841730        1597089585.8886037     
   451681.51174398593       -262308.50909989397        1598340346.9459393     
   53734.339716816059       -301537.28267100040        1604678502.1048748     
  -312668.41100138746       -235617.98521430080        1616104051.3654037     
  -116105314.34230550       -6570705.7203439958        1572759441.6387901     
  -102845023.86171179       -5808757.1837704927        1568594694.2697272     
  -89024684.083240747       -3179977.6542718560        1569664002.3833616     
  -74644295.006882384        1315632.8681844696        1575967365.9796815     
  -59703856.632659338        7678074.3835196756        1587504785.0586998     
  -235685813.09442580       -13912897.278800629        1543090168.1040075     
  -208285163.60118535       -12013765.534810781        1539213895.4328117     
  -179795959.93349808       -6486119.8759998009        1540718339.6254039     
  -150218202.09135926        2670039.6976497769        1547603500.6817853     
  -119551890.07477479        15454713.186119735        1559869378.6019487     
  -357399287.13665330       -21894981.424292758        1511918398.3285120     
  -315439246.11334860       -18732956.717651308        1508947189.3778503     
  -271862146.03903741       -10180735.174318567        1511503358.6720669     
  -226667986.91369769        3761683.2057767212        1519586906.2111692     
  -179856768.73734477        23094298.422578432        1533197831.9951463     
  -481245736.46898848       -30516958.156823874        1479244132.3123140     
  -424307271.39821315       -25966330.732322216        1477794576.1048448     
  -365223242.39986157       -14263823.549231112        1482019059.5233543     
  -303993649.47390997        4590563.3925261050        1491917582.5678391     
  -240618492.62037328        30596830.092899591        1507490145.2382951     
  -312668.41100138746       -235617.98521430080        1616104051.3654037     
  -163556.37788436483       -6418.2970168031898        1585081286.1684523     
  -40301.322821310190        136591.46433482826        1557428792.5202644     
   57096.754175469396        193411.29879818234        1533146570.4208341     
   128637.85311416339        164041.20640194498        1512234619.8701684     
  -59703856.632659338        7678074.3835196756        1587504785.0586998     
  -48736561.511682421        15429337.825581051        1556895584.9265492     
  -36627712.456041321        26985781.049853958        1529501931.6777196     
  -23377309.465748295        42347404.056300998        1505323825.3122060     
  -8985352.5407818370        61514206.844993144        1484361265.8300014     
  -119551890.07477479        15454713.186119735        1559869378.6019487     
  -98208482.338640556        30595419.240222566        1531035722.9327755     
  -74556109.755121231        53432674.785609290        1505262889.4814701     
  -48594772.324223056        83966479.822258696        1482550878.2480333     
  -20324470.045941807        122196834.35018517        1462899689.2324741     
  -179856768.73734477        23094298.422578432        1533197831.9951463     
  -148579318.85875258        45491825.946925402        1507501700.1871204     
  -113825493.22006051        79477272.671599746        1484711665.9315255     
  -75595291.821257785        125050638.59664498        1464827729.2283514     
  -33888714.662357420        182211923.72201711        1447849890.0776086     
  -240618492.62037328        30596830.092899591        1507490145.2382951     
  -199849071.07202536        60118557.945666686        1486293516.6895962     
  -154435862.85084951        105119574.70786025        1467848261.0278800     
  -104378867.95685126        165599880.37946153        1452154378.2531388     
  -49678086.390034884        241559474.96045724        1439211868.3653839     
   128637.85311416339        164041.20640194498        1512234619.8701684     
   62429.648718100594        82183.348500100590        1402946839.4537132     
   14718.219400890874        61981.407527072552        1290895191.0789812     
  -14496.434826256787        103435.38351953025        1176079674.7459867     
  -25214.313967139737        206545.27646967315        1058500290.4547080     
  -8985352.5407818370        61514206.844993144        1484361265.8300014     
  -9542604.0999173485        80879954.634414196        1375772050.8591573     
  -8153250.7722090855        106734385.37998432        1265081069.1935558     
  -4817292.5576388687        139077499.08176059        1152288320.8332119     
   465270.54379470646        177909295.73974836        1037393805.7780888     
  -20324470.045941807        122196834.35018517        1462899689.2324741     
  -19481047.064066418        161577703.15563092        1357258499.1709850     
  -14762911.083559752        213874281.95651269        1250177643.6782572     
  -6170062.1044265330        279086570.75281906        1141657122.7542870     
   6297499.8733325303        357214569.54454648        1031696936.3990744     
  -33888714.662357420        182211923.72201711        1447849890.0776086     
  -29752899.243710920        242175428.91221398        1347406184.3891988     
  -19814262.714648798        321481671.13712955        1246184914.5330646     
  -4072805.0751953423        420130650.39668489        1144186080.5092170     
   17471473.674649984        538122366.69087851        1041409682.3176141     
  -49678086.390034884        241559474.96045724        1439211868.3653839     
  -40358160.638844848        322673131.90417683        1346215106.5137904     
  -23307305.665480703        429556552.92181021        1253102881.7579896     
   1474478.5300508738        562209738.01333189        1159875194.0979757     
   33987191.947752297        720632687.17875934        1066532043.5337676     
  -1515087709.5905106        40422617.614773214        1440285344.5187688     
  -1472549567.3574116        1801710.5739943385        1438824808.2936888     
  -1425408629.0731912       -21476542.963044882        1436754632.9876320     
  -1373664894.7378523       -29412142.996355891        1434074818.6006005     
  -1317318364.3513947       -22005089.525938392        1430785365.1325941     
  -1867143551.0113196        25367919.842236042        1356603520.6878049     
  -1819591578.4738057       -1065730.1156568527        1355264455.9957597     
  -1768943492.6970043       -17179002.609248638        1355579378.9843400     
  -1715199293.6809156       -22971897.638548374        1357548289.6535473     
  -1658358981.4255319       -18444415.203531682        1361171188.0033793     
  -2234917598.9097624        5597760.1264088154        1277909482.8528063     
  -2175884291.0346923       -6708381.2386598587        1274934093.0799890     
  -2115261552.7321596       -13716421.178860545        1275876317.7494073     
  -2053049384.0021636       -15426359.694182992        1280736156.8610518     
  -1989247784.8447082       -11838196.784635067        1289513610.4149253     
  -2618409853.2858453       -18887861.532709599        1204203231.0137596     
  -2541427705.0400624       -15126242.795009375        1197833719.5463834     
  -2464362809.1786494       -11088798.671865106        1197645449.2828331     
  -2387215165.7016039       -6775529.1632802486        1203638420.2231188     
  -2309984774.6089272       -2186434.2692537308        1215812632.3672318     
  -3017620314.1395612       -48088945.135119677        1135484765.1706812     
  -2916221820.4899220       -26319314.784702182        1123963335.3949354     
  -2816247262.0364814       -9296135.0882804394        1120886773.5846202     
  -2717696638.7792344        2980593.9541659355        1126255079.7397413     
  -2620569950.7181845        10510872.342619538        1140068253.8602943     
  -1317318364.3513947       -22005089.525938392        1430785365.1325941     
  -1274901656.1132112       -14229350.549792767        1428908641.5460942     
  -1234089305.1457913       -11801469.142854750        1433127084.5702491     
  -1194881311.4491284       -14721445.305108190        1443440694.2050552     
  -1157277675.0232284       -22989279.036574125        1459849470.4505150     
  -1658358981.4255319       -18444415.203531682        1361171188.0033793     
  -1601991891.1246359       -11601912.792018652        1360428698.9911191     
  -1547100922.9226911       -9679817.3770103455        1364537468.7775185     
  -1493686076.8196990       -12678128.958513618        1373497497.3625727     
  -1441747352.8156588       -20596847.536518157        1387308784.7462859     
  -1989247784.8447082       -11838196.784635067        1289513610.4149253     
  -1922484334.8010855       -6995137.6337536573        1290054963.6773491     
  -1857068771.6846092       -6645034.9066882133        1294203667.9264345     
  -1793001095.4952705       -10787888.603419185        1301959723.1621821     
  -1730281306.2330768       -19423698.723965168        1313323129.3845930     
  -2309984774.6089272       -2186434.2692537308        1215812632.3672318     
  -2236378987.1425662       -409025.07500207424        1217787435.6047809     
  -2163992851.4315376       -2697121.7318572998        1222125682.0169990     
  -2092826367.4758453       -9050724.2398307323        1228827371.6038816     
  -2022879535.2754831       -19469832.598906875        1237892504.3654332     
  -2620569950.7181845        10510872.342619538        1140068253.8602943     
  -2543675848.1490684        8156424.8842530251        1143626114.7734165     
  -2467873162.1634822        2163922.1474611759        1148303511.0492105     
  -2393161892.7614150       -7466635.8677294254        1154100442.6876762     
  -2319542039.9428730       -20735249.161340237        1161016909.6888125     
  -1157277675.0232284       -22989279.036574125        1459849470.4505150     
  -1091986915.6028183       -24274806.699788988        1440024221.8709400     
  -1025964654.4040167       -23121995.101700902        1425856900.0404458     
  -959210891.42682600       -19530844.242313325        1417347504.9590325     
  -891725626.67124605       -13501354.121629715        1414496036.6266997     
  -1441747352.8156588       -20596847.536518157        1387308784.7462859     
  -1361223480.6919715       -21201372.143145263        1366986070.9754565     
  -1280055146.1162643       -19657688.576371491        1352566054.9065478     
  -1198242349.0885291       -15965796.836170495        1344048736.5395570     
  -1115785089.6087794       -10125696.922589660        1341434115.8744888     
  -1730281306.2330768       -19423698.723965168        1313323129.3845930     
  -1633824975.8265753       -19137416.600142598        1292401404.5417478     
  -1536811222.2944183       -16993057.390806973        1277627148.3536615     
  -1439240045.6366086       -12990621.095960319        1269000360.8203335     
  -1341111445.8531442       -7130107.7156006694        1266521041.9417648     
  -2022879535.2754831       -19469832.598906875        1237892504.3654332     
  -1909791401.0066223       -18082940.070766568        1216270222.5698113     
  -1796232882.9384804       -15128101.545018435        1201040180.3817871     
  -1682203981.0710559       -10605317.021660566        1192202377.8013570     
  -1567704695.4043386       -4514586.5006663799        1189756814.8285277     
  -2319542039.9428730       -20735249.161340237        1161016909.6888125     
  -2189122756.2321210       -18037942.555034399        1138592525.0596502     
  -2058320128.0484529       -14062821.039005280        1122805150.9909232     
  -1927134155.3918643       -8809884.6132465601        1113654787.4826329     
  -1795564838.2623603       -2279133.2777637243        1111141434.5347745     
  -891725626.67124605       -13501354.121629715        1414496036.6266997     
  -848372248.89935732       -14537912.815589726        1419940139.6427186     
  -805635965.90774536       -17631454.110470235        1429386433.1723247     
  -763516777.69640994       -22781978.006273508        1442834917.2155266     
  -722014684.26535201       -29989484.503001243        1460285591.7723162     
  -1115785089.6087794       -10125696.922589660        1341434115.8744888     
  -1062775111.0301408       -12935119.928829968        1345686369.4305360     
  -1010287840.1669185       -17486901.986461997        1353773709.4733291     
  -958323277.01911688       -23781043.095496714        1365696136.0028629     
  -906881421.58674181       -31817543.255948186        1381453649.0191426     
  -1341111445.8531442       -7130107.7156006694        1266521041.9417648     
  -1278922306.5444572       -11855627.057130098        1269691564.2801759     
  -1217161487.8863339       -18008881.900540054        1276530069.0784824     
  -1155828989.8787730       -25589872.245824695        1287036556.3366876     
  -1094924812.5217755       -34598598.092991590        1301211026.0547919     
  -1567704695.4043386       -4514586.5006663799        1189756814.8285277     
  -1496813835.4423044       -11299434.200482845        1191955724.1916292     
  -1426256909.0659785       -19197393.852673531        1197655511.9877856     
  -1356033916.2753634       -28208465.457226336        1206856178.2169931     
  -1286144857.0704513       -38332649.014122665        1219557722.8792508     
  -1795564838.2623603       -2279133.2777637243        1111141434.5347745     
  -1716449697.7236874       -11266541.358909726        1112478849.1649044     
  -1637574103.7058651       -21052437.842888594        1117150038.2012413     
  -1558938056.2088933       -31636822.729705393        1125155001.6437798     
  -1480541555.2327743       -43019696.019361138        1136493739.4925261     
  -722014684.26535201       -29989484.503001243        1460285591.7723162     
  -662416972.01410306       -32103101.909263730        1456278700.6238921     
  -602422909.96429503       -32895553.320327848        1458102826.9977515     
  -542032498.11592901       -32366838.736200601        1465757970.8938890     
  -481245736.46898848       -30516958.156823874        1479244132.3123140     
  -906881421.58674181       -31817543.255948186        1381453649.0191426     
  -832496930.19577682       -33385089.120989621        1376505075.0765045     
  -757862590.31500709       -34119806.686691344        1376973912.5941586     
  -682978401.94443166       -34021695.953037173        1382860161.5721147     
  -607844365.08405256       -33090756.920035243        1394163822.0103610     
  -1094924812.5217755       -34598598.092991590        1301211026.0547919     
  -1006935273.5967618       -35974591.898520648        1295149851.1243806     
  -918842387.49070477       -37006095.100563794        1294092481.5922811     
  -830646154.20359385       -37693107.699101537        1298038917.4584961     
  -742346573.73543179       -38035629.694134533        1306989158.7230246     
  -1286144857.0704513       -38332649.014122665        1219557722.8792508     
  -1185732002.2170646       -39871610.241844356        1212213028.7675254     
  -1085362301.4913812       -41554418.561920047        1209458533.9921246     
  -985035754.89340162       -43381073.974337995        1211294238.5530531     
  -884752362.42313945       -45351576.479145676        1217720142.4503071     
  -1480541555.2327743       -43019696.019361138        1136493739.4925261     
  -1368887116.0566735       -45076144.150956690        1127694608.0059307     
  -1257422332.3170407       -47764777.070777655        1123072069.7936804     
  -1146147204.0138652       -51085594.778787792        1122626124.8557723     
  -1035061731.1471558       -55038597.275022745        1126356773.1922104     
  -481245736.46898848       -30516958.156823874        1479244132.3123140     
  -424307271.39821315       -25966330.732322216        1477794576.1048448     
  -365223242.39986157       -14263823.549231112        1482019059.5233543     
  -303993649.47390997        4590563.3925261050        1491917582.5678391     
  -240618492.62037328        30596830.092899591        1507490145.2382951     
  -607844365.08405256       -33090756.920035243        1394163822.0103610     
  -536438707.98517090       -29564693.001321107        1392490653.2826605     
  -462834346.31180269       -18709613.834318027        1396508491.9134760     
  -387031280.06395519       -525519.41904985905        1406217337.9028187     
  -309029509.24162364        24987590.244496465        1421617191.2506697     
  -742346573.73543179       -38035629.694134533        1306989158.7230246     
  -656425245.37259960       -35519585.510437965        1305154374.8964684     
  -568252071.78838944       -25497390.588811100        1309027566.1609731     
  -477827052.98279852       -7969044.9292583764        1318608732.5165434     
  -385150188.95583677        17065451.468207881        1333897873.9631774     
  -884752362.42313945       -45351576.479145676        1217720142.4503071     
  -784266883.56051421       -43831008.259702206        1215785740.9462714     
  -681476418.82961571       -34627153.812686443        1219576282.2658410     
  -576380968.23045230       -17740013.138120145        1229091766.4090216     
  -468980531.76301515        6830413.7640280128        1244332193.3757994     
  -1035061731.1471558       -55038597.275022745        1126356773.1922104     
  -919963622.54891026       -54498961.249124289        1124384751.4320683     
  -802507387.43548441       -46098903.505962878        1128154640.2280812     
  -682693025.80690312       -29838424.045611441        1137666439.5802479     
  -560520537.66315413       -5717522.8680400252        1152920149.4885514     
  -240618492.62037328        30596830.092899591        1507490145.2382951     
  -199849071.07202536        60118557.945666686        1486293516.6895962     
  -154435862.85084951        105119574.70786025        1467848261.0278800     
  -104378867.95685126        165599880.37946153        1452154378.2531388     
  -49678086.390034884        241559474.96045724        1439211868.3653839     
  -309029509.24162364        24987590.244496465        1421617191.2506697     
  -259333824.58724201        55158637.536449775        1404812963.6051002     
  -203166670.78508586        106901248.65431304        1391973876.3604531     
  -140528047.83512071        180215423.59820822        1383099929.5167322     
  -71417955.737371206        275101162.36804634        1378191123.0739377     
  -385150188.95583677        17065451.468207881        1333897873.9631774     
  -323060334.01272976        48926190.354121536        1323618343.4415245     
  -252671327.44686657        108450767.98254997        1318517720.8347452     
  -173983169.25824565        195639184.35350510        1318596006.1428330     
  -86995859.446871921        310491439.46697277        1323853199.3657987     
  -468980531.76301515        6830413.7640280128        1244332193.3757994     
  -391028599.34847391        41421216.398734704        1242709656.1988611     
  -302949832.83621764        109768132.69248542        1247479794.4507444     
  -204744232.22623751        211871162.64531851        1258642608.1314440     
  -96411797.518520385        347730306.25727487        1276198097.2409556     
  -560520537.66315413       -5717522.8680400252        1152920149.4885514     
  -463238620.59447896        32643715.670259625        1162086901.8771284     
  -354002186.95312345        110853342.78417107        1178860097.2084553     
  -232811236.73907340        228911358.47372282        1203239735.4825530     
  -99665769.952337474        386817762.73889977        1235225816.6994112     
  -49678086.390034884        241559474.96045724        1439211868.3653839     
  -40358160.638844848        322673131.90417683        1346215106.5137904     
  -23307305.665480703        429556552.92181021        1253102881.7579896     
   1474478.5300508738        562209738.01333189        1159875194.0979757     
   33987191.947752297        720632687.17875934        1066532043.5337676     
  -71417955.737371206        275101162.36804634        1378191123.0739377     
  -57259580.858897492        376900362.16544068        1296674951.9372430     
  -34144778.736995518        508554319.44093043        1214222540.8364298     
  -2073549.3716630638        670063034.19451892        1130833889.7714951     
   38954107.237091988        861426506.42618954        1046508998.7424638     
  -86995859.446871921        310491439.46697277        1323853199.3657987     
  -70344112.755130112        432272658.92383045        1255247366.6354530     
  -43510440.798692167        587993629.26300275        1184884516.8810940     
  -6494843.5775798857        777654350.48443174        1112764650.1027157     
   40702678.908226728        1001254822.5881581        1038887766.3003116     
  -96411797.518520385        347730306.25727487        1276198097.2409556     
  -79611756.327528387        488790022.17938060        1221932350.6084397     
  -51404291.850581497        667874482.38799417        1165088809.8920021     
  -11789404.087688804        884983686.88309360        1105667475.0916522     
   39232906.961141646        1140117635.6646609        1043668346.2073588     
  -99665769.952337474        386817762.73889977        1235225816.6994112     
  -85062511.576100796        546452451.93206501        1196729903.8561897     
  -57826331.892642111        748196878.81597054        1154835419.8691440     
  -17957230.901994705        992051043.39050210        1109542364.7382689     
   34544791.395851493        1278014945.6557019        1060850738.4635693     
  -3017620314.1395612       -48088945.135119677        1135484765.1706812     
  -2916221820.4899220       -26319314.784702182        1123963335.3949354     
  -2816247262.0364814       -9296135.0882804394        1120886773.5846202     
  -2717696638.7792344        2980593.9541659355        1126255079.7397413     
  -2620569950.7181845        10510872.342619538        1140068253.8602943     
  -3408039974.5672994       -40484947.944919348        1027673605.6089957     
  -3285005997.6621652       -13780248.253989816        1017021173.6012779     
  -3164333381.2646098        5053249.7450098991        1013427690.8999226     
  -3046022125.3746352        16015546.052069664        1016893157.5049381     
  -2930072229.9922414        19106640.667204976        1027417573.4163198     
  -3787688074.2576165       -29649482.533499718        919810979.15736413     
  -3646978381.6943178        802356.21874809265        908933882.05438840     
  -3509567474.9499855        20258242.241118670        903729815.59871602     
  -3375455354.0246177        28718175.533604145        904198779.79034328     
  -3244642018.9182091        26182156.096217036        910340774.62926948     
  -4156564613.2105179       -15582548.900851727        811896885.81578088     
  -4002138972.5863886        17428498.633512974        799701460.75427198     
  -3851949543.0926085        36318842.400052786        791793147.68099737     
  -3705996324.7291765        41088482.398766279        788171946.59595525     
  -3564279317.4960928        31737418.629649639        788837857.49914944     
  -4514669591.4260006        1715852.9530215263        703931325.58425140     
  -4350487770.3383751        36098178.990303278        689323909.70092595     
  -4191479585.6924787        53235050.221817017        677617687.14676666     
  -4037645037.4883175        53126466.647547007        668812657.92177510     
  -3888984125.7258825        35772428.267523766        662908822.02595425     
  -2620569950.7181845        10510872.342619538        1140068253.8602943     
  -2543675848.1490684        8156424.8842530251        1143626114.7734165     
  -2467873162.1634822        2163922.1474611759        1148303511.0492105     
  -2393161892.7614150       -7466635.8677294254        1154100442.6876762     
  -2319542039.9428730       -20735249.161340237        1161016909.6888125     
  -2930072229.9922414        19106640.667204976        1027417573.4163198     
  -2852571360.3367529        7101729.7679023743        1028800228.2580042     
  -2775057238.6108360       -4859007.5633101463        1031757121.6744468     
  -2697529864.8144989       -16775571.326449275        1036288253.6656462     
  -2619989238.9477358       -28647961.521504045        1042393624.2315983     
  -3244642018.9182091        26182156.096217036        910340774.62926948     
  -3165235230.1418152        4916527.3663579226        910837003.49579346     
  -3084710520.6410508       -12622698.948935866        913362174.14915442     
  -3003067890.4159117       -26435522.849657655        917916286.58935571     
  -2920307339.4664059       -36521944.335813046        924499340.81640017     
  -3564279317.4960928        31737418.629649639        788837857.49914944     
  -3481667457.5642681        1600817.6795847416        789736440.48677719     
  -3396833008.2541251       -21127152.009421349        793118668.47333169     
  -3309775969.5656657       -36446490.437380075        798984541.45880914     
  -3220496341.4988861       -44357197.604263663        807334059.44320774     
  -3888984125.7258825        35772428.267523766        662908822.02595425     
  -3801868042.6041040       -2845399.2923982143        665498539.23096395     
  -3711424701.4500599       -30372366.744765759        671026604.64698029     
  -3617654102.2637510       -46808474.089585543        679493018.27400517     
  -3520556245.0451760       -52153721.326857090        690897780.11203539     
  -2319542039.9428730       -20735249.161340237        1161016909.6888125     
  -2189122756.2321210       -18037942.555034399        1138592525.0596502     
  -2058320128.0484529       -14062821.039005280        1122805150.9909232     
  -1927134155.3918643       -8809884.6132465601        1113654787.4826329     
  -1795564838.2623603       -2279133.2777637243        1111141434.5347745     
  -2619989238.9477358       -28647961.521504045        1042393624.2315983     
  -2470123725.9014764       -18877077.734373927        1020235594.5968009     
  -2320307196.0278378       -9269471.1893099546        1004766828.3871511     
  -2170539649.3268108        174858.11370956898        995987325.60265255     
  -2020821085.7984068        9455910.1746618748        993897086.24330175     
  -2920307339.4664059       -36521944.335813046        924499340.81640017     
  -2750846303.1854625       -19632695.198108554        902103283.92283940     
  -2581866577.7226706       -4347815.4542459249        886448743.31914604     
  -2413368163.0780315        9332694.8957769871        877535719.00531030     
  -2245351059.2515440        21408835.851958513        875364210.98133743     
  -3220496341.4988861       -44357197.604263663        807334059.44320774     
  -3031290488.0840755       -20304794.946218252        784195593.03777015     
  -2842998273.1329546        702146.16618287563        767850895.78690338     
  -2655619696.6455145        18663625.732978940        758299967.69061136     
  -2469154758.6217742        33579643.754131556        755542808.74889529     
  -3520556245.0451760       -52153721.326857090        690897780.11203539     
  -3311456280.5973201       -20893376.978735924        666512521.94158816     
  -3103702282.2586908        5880413.6719677448        648973285.79042602     
  -2897294250.0292773        28167650.625282407        638280071.65854990     
  -2692232183.9090896        45968333.881179094        634432879.54596269     
  -1795564838.2623603       -2279133.2777637243        1111141434.5347745     
  -1716449697.7236874       -11266541.358909726        1112478849.1649044     
  -1637574103.7058651       -21052437.842888594        1117150038.2012413     
  -1558938056.2088933       -31636822.729705393        1125155001.6437798     
  -1480541555.2327743       -43019696.019361138        1136493739.4925261     
  -2020821085.7984068        9455910.1746618748        993897086.24330175     
  -1933958215.4278774       -616070.02094948292        994957905.50348961     
  -1847373608.6820002       -11615595.632078171        998895028.40839744     
  -1761067265.5607738       -23542666.658710480        1005708454.9580157     
  -1675039186.0642052       -36397283.100868523        1015398185.1523527     
  -2245351059.2515440        21408835.851958513        875364210.98133743     
  -2152047518.3676987        9860165.7463179827        876103264.91715300     
  -2059060958.2123058       -2745106.7875125408        879261151.73619425     
  -1966391378.7853730       -16406981.749531388        884837871.43846130     
  -1874038780.0869009       -31125459.139752030        892833424.02395368     
  -2469154758.6217742        33579643.754131556        755542808.74889529     
  -2370717606.5431523        20162165.942894220        755914927.40589535     
  -2272636152.2967892        5559028.6907931566        758248408.18463373     
  -2174910395.8826866       -10229768.002176523        762543251.08510852     
  -2077540337.3008451       -27204224.136005163        768799456.10732341     
  -2692232183.9090896        45968333.881179094        634432879.54596269     
  -2589968479.9542384        30289930.568780661        634392892.96971643     
  -2488099190.9354482        13296810.802844763        635856797.75371528     
  -2386624316.8527155       -5011025.4166198969        638824593.89796436     
  -2285543857.7060556       -24633578.089651108        643296281.40245867     
  -1480541555.2327743       -43019696.019361138        1136493739.4925261     
  -1368887116.0566735       -45076144.150956690        1127694608.0059307     
  -1257422332.3170407       -47764777.070777655        1123072069.7936804     
  -1146147204.0138652       -51085594.778787792        1122626124.8557723     
  -1035061731.1471558       -55038597.275022745        1126356773.1922104     
  -1675039186.0642052       -36397283.100868523        1015398185.1523527     
  -1552964283.6029315       -38734280.605021834        1004824692.2094576     
  -1430806564.5179262       -40795222.696750641        998155089.14371109     
  -1308566028.8091991       -42580109.376067102        995389375.95511687     
  -1186242676.4767423       -44088940.642961383        996527552.64367187     
  -1874038780.0869009       -31125459.139752030        892833424.02395368     
  -1742322566.9038570       -33976751.785485506        880803453.69497693     
  -1610251065.0369003       -35643748.818163455        872404669.84595871     
  -1477824274.4860239       -36126450.237787127        867637072.47689509     
  -1345042195.2512360       -35424856.044362247        866500661.58778942     
  -2077540337.3008451       -27204224.136005163        768799456.10732341     
  -1936961965.9594538       -30803557.692354918        755630892.46248770     
  -1795755833.8739450       -32310355.434997439        745820811.90041757     
  -1653921941.0443316       -31724617.363951921        739369214.42111003     
  -1511460287.4706204       -29046343.479241908        736276100.02456963     
  -2285543857.7060556       -24633578.089651108        643296281.40245867     
  -2136882480.7697096       -29214698.325605154        629307008.51199055     
  -1987320871.0290701       -30795042.547245622        618403515.30709422     
  -1836859028.4841349       -29374610.754569650        610585801.78776014     
  -1685496953.1349046       -24953402.947571456        605853867.95400417     
  -1035061731.1471558       -55038597.275022745        1126356773.1922104     
  -919963622.54891026       -54498961.249124289        1124384751.4320683     
  -802507387.43548441       -46098903.505962878        1128154640.2280812     
  -682693025.80690312       -29838424.045611441        1137666439.5802479     
  -560520537.66315413       -5717522.8680400252        1152920149.4885514     
  -1186242676.4767423       -44088940.642961383        996527552.64367187     
  -1057813022.5842491       -41475855.682039320        993243436.17637110     
  -927956278.22110939       -34105802.485633969        993993955.77887678     
  -796672443.38730574       -21978781.053681344        998779111.45118511     
  -663961518.08285511       -5094791.3862461150        1007598903.1933062     
  -1345042195.2512360       -35424856.044362247        866500661.58778942     
  -1208158923.1683369       -32201700.279582322        860818241.69473147     
  -1070779596.6592995       -27325029.761020362        857463183.38513041     
  -932904215.72413015       -20794844.488670886        856435486.65899062     
  -794532780.36282253       -12611144.462532163        857735151.51631320     
  -1511460287.4706204       -29046343.479241908        736276100.02456963     
  -1371001324.3011618       -26676495.041758180        727109167.98714375     
  -1230977342.7500789       -25756585.332210660        718562323.04684103     
  -1091388342.8173797       -26286614.350598097        710635565.20365119     
  -952234324.50305104       -28266582.096893251        703328894.45757937     
  -1685496953.1349046       -24953402.947571456        605853867.95400417     
  -1546340225.9827223       -24900239.968531430        592116215.05361831     
  -1408549516.4934421       -29400469.199176133        577291374.76401246     
  -1272124824.6670499       -38454090.639441490        561379347.08516800     
  -1137066150.5035479       -52061104.289341450        544380132.01709962     
  -560520537.66315413       -5717522.8680400252        1152920149.4885514     
  -463238620.59447896        32643715.670259625        1162086901.8771284     
  -354002186.95312345        110853342.78417107        1178860097.2084553     
  -232811236.73907340        228911358.47372282        1203239735.4825530     
  -99665769.952337474        386817762.73889977        1235225816.6994112     
  -663961518.08285511       -5094791.3862461150        1007598903.1933062     
  -548230617.88763475        25351359.888541400        1020989104.2574359     
  -421626037.30143380        92043112.466584176        1042790946.4600407     
  -284147776.32426548        194980466.34785491        1073004429.8011119     
  -135795834.95612186        334163421.53237265        1111629554.2806628     
  -794532780.36282253       -12611144.462532163        857735151.51631320     
  -658052330.76759315        10610089.430797398        874087825.71067536     
  -511779036.96310437        66474137.354980886        899657339.23921502     
  -355712898.94936776        154980999.31000686        934443692.10193336     
  -189853916.72636101        276130675.29592240        978446884.29882812     
  -952234324.50305104       -28266582.096893251        703328894.45757937     
  -792703759.23436761       -11580095.702992260        721383066.23683536     
  -624461185.93814802        34146417.449363172        749459275.54597950     
  -447506604.61438000        108912957.36021596        787557522.38500047     
  -261840015.26307395        212719524.02952337        835677806.75391698     
  -1137066150.5035479       -52061104.289341450        544380132.01709962     
  -952184903.28796327       -41219195.512844920        562874825.83591366     
  -759672484.22654617       -4940047.2502459288        592196755.38032234     
  -559528893.31931794        56776340.498387873        632345920.65032363     
  -351754130.56624103        143929967.73319471        683322321.64591575     
  -99665769.952337474        386817762.73889977        1235225816.6994112     
  -85062511.576100796        546452451.93206501        1196729903.8561897     
  -57826331.892642111        748196878.81597054        1154835419.8691440     
  -17957230.901994705        992051043.39050210        1109542364.7382689     
   34544791.395851493        1278014945.6557019        1060850738.4635693     
  -135795834.95612186        334163421.53237265        1111629554.2806628     
  -126975489.89772832        483082322.88782036        1090140264.4643886     
  -95009863.649756402        709152161.54184735        1070074025.0484602     
  -39898956.212190986        1012372937.4945122        1051430836.0328912     
   38357232.414951444        1392744650.7457745        1034210697.4176513     
  -189853916.72636101        276130675.29592240        978446884.29882812     
  -173040423.43104434        418466607.28002238        986228637.37228405     
  -122569289.06375813        672994676.17068613        1000255062.3902555     
  -38440513.624503970        1039714881.9678880        1020526159.3527542     
   79345902.886694312        1518627224.6716266        1047041928.2597594     
  -261840015.26307395        212719524.02952337        835677806.75391698     
  -223257312.17604044        352605305.10874379        884995022.57987797     
  -140504608.13465953        639724422.70246100        945378531.89452624     
  -13581903.138937414        1074076876.8106403        1016828334.6978664     
   157510802.81112248        1655662667.4332907        1099344430.9899046     
  -351754130.56624103        143929967.73319471        683322321.64591575     
  -277626156.13271952        285498416.37395364        786439420.08716023     
  -148815820.86246338        609341401.13715017        905444433.56126475     
   34676875.244509637        1115458922.0227332        1040337362.0682377     
   272851932.18820477        1803850979.0307512        1191118205.6080849     
  -4514669591.4260006        1715852.9530215263        703931325.58425140     
  -4350487770.3383751        36098178.990303278        689323909.70092595     
  -4191479585.6924787        53235050.221817017        677617687.14676666     
  -4037645037.4883175        53126466.647547007        668812657.92177510     
  -3888984125.7258825        35772428.267523766        662908822.02595425     
  -4866358725.4877882        32680466.615456820        542243601.14302123     
  -4708759940.8757915        16638078.939851046        523971339.80911762     
  -4549521397.2539968        6061554.6302313805        509370483.32930416     
  -4388643094.6224051        950893.68660497665        498441031.70358503     
  -4226125032.9810166        1306096.1089673042        491182984.93196255     
  -5223729353.0098095        61940632.239823818        357946856.49473059     
  -5070513000.5165091       -3866287.8415994644        343958711.07036573     
  -4908843493.5618858       -41496026.385266304        334412182.02502090     
  -4738720832.1459312       -50948583.391172171        329307269.35868818     
  -4560145016.2686577       -32223958.859342575        328643973.07137662     
  -5586781473.9920349        89496349.826135159        151041091.63938126     
  -5435746949.2605104       -25414921.354019642        149286023.48467362     
  -5269445874.6161394       -89437692.824673176        152742783.23390967     
  -5087878250.0589066       -102571964.58578873        161411370.88708150     
  -4891044075.5888214       -64817736.637412071        175291786.44420007     
  -5955515088.4344921        115347619.37436342       -78473693.423026100     
  -5804461787.1078129       -48007821.597439766       -60046722.947959110     
  -5631328540.4167557       -137763444.68798232       -35637713.044026077     
  -5436115348.3613138       -153919249.89723015       -5246663.7112383628     
  -5218822210.9414949       -96475237.225221157        31126425.050426602     
  -3888984125.7258825        35772428.267523766        662908822.02595425     
  -3801868042.6041040       -2845399.2923982143        665498539.23096395     
  -3711424701.4500599       -30372366.744765759        671026604.64698029     
  -3617654102.2637510       -46808474.089585543        679493018.27400517     
  -3520556245.0451760       -52153721.326857090        690897780.11203539     
  -4226125032.9810166        1306096.1089673042        491182984.93196255     
  -4123842756.4037681       -13402922.985349417        497141845.94372016     
  -4021217921.9115620       -26970082.363127947        506311244.06430805     
  -3918250529.5043774       -39395382.024324894        518691179.29372078     
  -3814940579.1822357       -50678821.968983889        534281651.63196689     
  -4560145016.2686577       -32223958.859342575        328643973.07137662     
  -4441918863.6707478       -22790864.718504429        334489827.75303584     
  -4326334853.2751627       -22164911.252099752        343818408.44134933     
  -4213392985.0819125       -30346098.460137129        356629715.13630074     
  -4103093259.0909944       -47334426.342606544        372923747.83791137     
  -4891044075.5888214       -64817736.637412071        175291786.44420007     
  -4756096364.4050426       -31009224.491851091        177542484.65891433     
  -4626775495.5408821       -15956853.411709785        183548097.77809760     
  -4503081468.9963570       -19660623.397013903        193308625.80175522     
  -4385014284.7714624       -42120534.447755814        206824068.72987539     
  -5218822210.9414949       -96475237.225221157        31126425.050426602     
  -5066375258.6066380       -38058002.305378199        26299816.661350224     
  -4922539848.7087126       -8345908.8419740200        25500312.074566070     
  -4787315981.2477055       -7338956.8349766731        28727911.290065017     
  -4660703656.2236300       -35037146.284394264        35982614.307860352     
  -3520556245.0451760       -52153721.326857090        690897780.11203539     
  -3311456280.5973201       -20893376.978735924        666512521.94158816     
  -3103702282.2586908        5880413.6719677448        648973285.79042602     
  -2897294250.0292773        28167650.625282407        638280071.65854990     
  -2692232183.9090896        45968333.881179094        634432879.54596269     
  -3814940579.1822357       -50678821.968983889        534281651.63196689     
  -3590887826.5174046       -26130962.164398909        510621475.23871249     
  -3367435790.6380320       -3585491.6446774006        493166456.50312155     
  -3144584471.5441146        16957589.590193272        481916595.42519391     
  -2922333869.2356544        35498281.540210009        476871892.00492811     
  -4103093259.0909944       -47334426.342606544        372923747.83791137     
  -3865918759.2424059       -30048363.391547918        350858110.76624954     
  -3628599726.8555040       -12280525.312782526        334356766.99062365     
  -3391136161.9302897        5969087.8937029839        323419716.51104254     
  -3153528064.4667621        24700476.227888346        318046959.32749802     
  -4385014284.7714624       -42120534.447755814        206824068.72987539     
  -4136549078.7723126       -32645580.660143375        187222428.52419296     
  -3887194090.9110961       -20204687.332309723        172544217.25293314     
  -3636949321.1877847       -4797854.4641704559        162789434.91609272     
  -3385814769.6024103        13574917.944202662        157958081.51366284     
  -4660703656.2236300       -35037146.284394264        35982614.307860352     
  -4402778785.1071453       -33922613.970242977        19714428.512567472     
  -4143218882.8048124       -27357977.703272820        7728807.2900568200     
  -3882023949.3166347       -15343237.483480692        25750.640350330050     
  -3619193984.6426058        2121606.6891462803       -3394741.4365729745     
  -2692232183.9090896        45968333.881179094        634432879.54596269     
  -2589968479.9542384        30289930.568780661        634392892.96971643     
  -2488099190.9354482        13296810.802844763        635856797.75371528     
  -2386624316.8527155       -5011025.4166198969        638824593.89796436     
  -2285543857.7060556       -24633578.089651108        643296281.40245867     
  -2922333869.2356544        35498281.540210009        476871892.00492811     
  -2815870012.1388044        18853090.385074854        476619951.40623128     
  -2709102048.9433107        3221586.2254136801        478318111.36638129     
  -2602029979.6491766       -11396230.938773870        481966371.88537174     
  -2494653804.2563925       -25000361.107469916        487564732.96321291     
  -3153528064.4667621        24700476.227888346        318046959.32749802     
  -3041589170.8033457        7470962.2573831081        318398005.91350394     
  -2928647650.0065804       -6416461.2686351538        321145362.25694978     
  -2814703502.0764685       -16961794.350157261        326289028.35784817     
  -2699756727.0130048       -24165036.987184405        333829004.21618748     
  -3385814769.6024103        13574917.944202662        157958081.51366284     
  -3267125955.9478555       -3856453.8143023252        159727056.49152216     
  -3146735994.1252518       -15617331.679303527        164338550.42543313     
  -3024644884.1346002       -21707715.650815606        171792563.31538478     
  -2900852625.9758887       -22127605.728793740        182089095.16138285     
  -3619193984.6426058        2121606.6891462803       -3394741.4365729745     
  -3492480367.5723515       -15129157.829983711        607103.14030731050     
  -3363367081.2993383       -24381025.006609678        7897675.8718267530     
  -3231854125.8235645       -25633994.840685487        18476976.757989518     
  -3097941501.1450338       -18888067.332241297        32345005.798798483     
  -2285543857.7060556       -24633578.089651108        643296281.40245867     
  -2136882480.7697096       -29214698.325605154        629307008.51199055     
  -1987320871.0290701       -30795042.547245622        618403515.30709422     
  -1836859028.4841349       -29374610.754569650        610585801.78776014     
  -1685496953.1349046       -24953402.947571456        605853867.95400417     
  -2494653804.2563925       -25000361.107469916        487564732.96321291     
  -2336202614.3773289       -22843264.396942377        475396444.82871544     
  -2177766262.9924912       -20735629.333832979        466118029.20770180     
  -2019344750.1018887       -18677455.918153286        459729486.10017234     
  -1860938075.7054977       -16668744.149877906        456230815.50613248     
  -2699756727.0130048       -24165036.987184405        333829004.21618748     
  -2532075458.9685955       -15437643.763352036        322414117.65604562     
  -2365324100.7169523       -9809949.8487321138        313693196.43730992     
  -2199502652.2580514       -7281955.2432563305        307666240.55996853     
  -2034611113.5919032       -7853659.9469579458        304333250.02403975     
  -2900852625.9758887       -22127605.728793740        182089095.16138285     
  -2724501014.5435257       -6997836.4248849154        170360026.99398881     
  -2549994384.2024436        1981995.9080692530        161129016.99591610     
  -2377332734.9526286        4811891.2701412439        154396065.16715601     
  -2206516066.7941051        1491849.6612446308        150161171.50771645     
  -3097941501.1450338       -18888067.332241297        32345005.798798483     
  -2913479281.1020985        2476157.6185024977        19234172.842536461     
  -2731777113.4489751        14640207.936549067        8425490.8835175335     
  -2552834998.1856418        17604083.621963978       -81040.078276233951     
  -2376652935.3121066        11367784.674707413       -6285420.0428269077     
  -1685496953.1349046       -24953402.947571456        605853867.95400417     
  -1546340225.9827223       -24900239.968531430        592116215.05361831     
  -1408549516.4934421       -29400469.199176133        577291374.76401246     
  -1272124824.6670499       -38454090.639441490        561379347.08516800     
  -1137066150.5035479       -52061104.289341450        544380132.01709962     
  -1860938075.7054977       -16668744.149877906        456230815.50613248     
  -1725249321.9621129       -21455463.772340059        442643274.93099362     
  -1589532579.3034968       -26148887.010700166        428592145.87712842     
  -1453787847.7296460       -30749013.864959717        414077428.34452951     
  -1318015127.2405775       -35255844.335116386        399099122.33319592     
  -2034611113.5919032       -7853659.9469579458        304333250.02403975     
  -1900608622.0844462       -16945748.818996429        292522162.78195947     
  -1765184135.0836439       -21297852.713225245        280871085.97163755     
  -1628337652.5894966       -20909971.629627764        269380019.59308940     
  -1490069174.6019974       -15782105.568201780        258048963.64630595     
  -2206516066.7941051        1491849.6612446308        150161171.50771645     
  -2072418126.3497458       -11371095.108580232        141752878.60650304     
  -1935504183.8339186       -14847366.306841969        134128195.04754485     
  -1795774239.2466102       -8936963.9335079193        127287120.83084908     
  -1653228292.5878422        6360112.0113719702        121229655.95642309     
  -2376652935.3121066        11367784.674707413       -6285420.0428269077     
  -2240677834.7579961       -4731502.6410427094       -9664577.5953730661     
  -2100492725.5542705       -6797427.7913985252       -11636526.895167792     
  -1956097607.7009857        5170009.2234343290       -12201267.942190109     
  -1807492481.1980901        31170808.403644919       -11358800.736450424     
  -1137066150.5035479       -52061104.289341450        544380132.01709962     
  -952184903.28796327       -41219195.512844920        562874825.83591366     
  -759672484.22654617       -4940047.2502459288        592196755.38032234     
  -559528893.31931794        56776340.498387873        632345920.65032363     
  -351754130.56624103        143929967.73319471        683322321.64591575     
  -1318015127.2405775       -35255844.335116386        399099122.33319592     
  -1118200927.0851817       -15054001.524711430        421092381.17776650     
  -914790828.34126616        17134169.914107084        441585306.39646256     
  -707784831.00883245        61308669.981312394        460577897.98928118     
  -497182935.08788741        117469498.67691118        478070155.95622706     
  -1490069174.6019974       -15782105.568201780        258048963.64630595     
  -1310543648.2252889        3213183.2605637312        278832968.71644086     
  -1131457496.5173585        20743889.860060811        285789070.80923164     
  -952810719.47822082        36810014.230247915        278917269.92467082     
  -774603317.10787296        51411556.371135920        258217566.06277069     
  -1653228292.5878422        6360112.0113719702        121229655.95642309     
  -1529213066.7082789        13582358.843003273        136096588.45192876     
  -1409672488.7548327        5889112.5875937939        124808048.61861901     
  -1294606558.7274714       -16719626.754788458        87364036.456490174     
  -1184015276.6262128       -54243859.184150636        23764551.965551253     
  -1807492481.1980901        31170808.403644919       -11358800.736450424     
  -1774209182.5341942        16053525.222485185       -7116759.6157730203     
  -1749435805.0536883       -27430161.903307676       -41357760.175364949     
  -1733172348.7565887       -99280252.973783195       -114081802.41525087     
  -1725418813.6428854       -199496747.98892379       -225288886.33541828     
  -351754130.56624103        143929967.73319471        683322321.64591575     
  -277626156.13271952        285498416.37395364        786439420.08716023     
  -148815820.86246338        609341401.13715017        905444433.56126475     
   34676875.244509637        1115458922.0227332        1040337362.0682377     
   272851932.18820477        1803850979.0307512        1191118205.6080849     
  -497182935.08788741        117469498.67691118        478070155.95622706     
  -388269605.15308404        223092669.70625949        597186512.36482835     
  -230225418.55647856        492485362.94158721        735467983.57495594     
  -23050375.298132777        925647578.38275456        892914569.58660305     
   233255524.62201771        1522579316.0298882        1069526270.3997703     
  -774603317.10787296        51411556.371135920        258217566.06277069     
  -621541203.76133049        123898478.16225070        386856425.56796199     
  -424899737.92797506        341649908.24274743        537937599.64332986     
  -184678919.60778844        704665846.61268866        711461088.28886950     
   99121251.199228644        1212946293.2720442        907426891.50459754     
  -1184015276.6262128       -54243859.184150636        23764551.965551253     
  -977440951.95750380       -12084158.258174479        155449159.69655862     
  -732838778.97691965        156835037.04070270        312853281.76639742     
  -450208757.68445933        452513726.71250987        495976918.17506903     
  -129550888.08012015        874951910.75724602        704820068.92256486     
  -1725418813.6428854       -199496747.98892379       -225288886.33541828     
  -1455968849.7415853       -184855239.55499870       -97035285.249373704     
  -1154042541.7033405       -61959250.664614797        60215029.944156773     
  -819639889.52816629        169191218.68220598        246462059.24518147     
  -452760893.21607161        508596168.48544014        461705802.65368313     
 </DataArray>
 <DataArray  type="Float64" Name="VM" NumberOfComponents="1" format="ascii">
   6062031955.2576170     
   5779265316.9427748     
   5549761895.0336256     
   5359034407.1309280     
   5199650631.9812880     
   5676707908.0953703     
   5437204791.8242321     
   5228883453.5240698     
   5044264259.3903923     
   4879827721.6911030     
   5332363052.6123648     
   5123456702.4311409     
   4929468756.7052488     
   4747934369.1989155     
   4577934181.1632414     
   5012741430.5509224     
   4828244376.2456522     
   4648083963.0998726     
   4472165095.1108255     
   4300581991.4348850     
   4702376470.4688101     
   4542027484.4352798     
   4381345907.2094202     
   4219508705.3262239     
   4055944060.7057195     
   5199650631.9812880     
   5068136162.1117010     
   4930294657.3534517     
   4785307001.7179308     
   4633011513.7700453     
   4879827721.6911030     
   4762303937.1386442     
   4640485753.3125858     
   4514053203.3081379     
   4383128626.2852488     
   4577934181.1632414     
   4472554561.1094532     
   4364934889.6136494     
   4255083881.4771428     
   4143262721.5008411     
   4300581991.4348850     
   4204936417.8263130     
   4108935702.9985051     
   4012739820.2522697     
   3916613797.5686998     
   4055944060.7057195     
   3966883209.9416156     
   3878994233.5569201     
   3792416273.5878882     
   3707311026.2279186     
   4633011513.7700453     
   4377001631.1610060     
   4122449520.7350607     
   3869344337.0603151     
   3617714669.7835131     
   4383128626.2852488     
   4135215030.6275043     
   3888763920.9135728     
   3643804732.3361201     
   3400426303.8086972     
   4143262721.5008411     
   3906819323.5931215     
   3672389397.5289793     
   3440083279.5034943     
   3210123413.9326010     
   3916613797.5686998     
   3695146768.4210434     
   3476866299.2127743     
   3262012306.8419485     
   3051022859.0913744     
   3707311026.2279186     
   3504288616.1511545     
   3306302373.2497711     
   3113754686.1560717     
   2927351935.2527051     
   3617714669.7835131     
   3484433093.1347361     
   3352698245.4152455     
   3222540593.0204806     
   3094064416.4462318     
   3400426303.8086972     
   3275834051.0471640     
   3152872894.9540825     
   3031602646.6147289     
   2912136610.8067460     
   3210123413.9326010     
   3093418953.0109367     
   2978345314.4946032     
   2864995863.4057531     
   2753502278.2741795     
   3051022859.0913744     
   2941823942.3729577     
   2834174328.7597604     
   2728202639.4618850     
   2624066554.1372581     
   2927351935.2527051     
   2825768844.9360971     
   2725584652.4342785     
   2626962036.3022623     
   2530089943.8858585     
   3094064416.4462318     
   2918372722.7384996     
   2741140209.1408601     
   2562239300.9643865     
   2381598384.3378119     
   2912136610.8067460     
   2741047460.6535120     
   2569215514.6054916     
   2396605255.7097816     
   2223241865.7799411     
   2753502278.2741795     
   2589252987.7592235     
   2425438102.5428758     
   2262191279.1574898     
   2099742962.4368129     
   2624066554.1372581     
   2468826251.2207098     
   2315564615.5198278     
   2164636619.7591166     
   2016545346.6166880     
   2530089943.8858585     
   2385709868.8516021     
   2245122049.2568626     
   2108895248.4972348     
   1977783233.7505395     
   2381598384.3378119     
   2238042385.1224284     
   2097372186.4292965     
   1959541300.7514803     
   1824748016.9379647     
   2223241865.7799411     
   2081938541.8217509     
   1942686165.2372596     
   1805443116.9440253     
   1670282064.9346733     
   2099742962.4368129     
   1960148702.1361706     
   1821697597.3627486     
   1684385613.2185602     
   1548244349.2896512     
   2016545346.6166880     
   1879875186.7189806     
   1743614363.9237998     
   1607876779.4700980     
   1472819556.3195632     
   1977783233.7505395     
   1847092656.5570207     
   1716562570.8545852     
   1586569236.7885196     
   1457656851.1248138     
   1824748016.9379647     
   1783343093.8507578     
   1737986667.6300178     
   1697498887.3499613     
   1680558213.2239943     
   1670282064.9346733     
   1554517695.7187076     
   1429422424.1522813     
   1295421435.4033425     
   1158673085.7279782     
   1548244349.2896512     
   1398352368.6707628     
   1244834739.3853326     
   1085460915.6788650     
   918226935.73532188     
   1472819556.3195632     
   1328809232.2992795     
   1199274850.0375686     
   1088708166.0036192     
   1003011108.8915945     
   1457656851.1248138     
   1348970115.1639981     
   1275236789.2981358     
   1244528340.2088025     
   1263844072.1362865     
   1680558213.2239943     
   1383003585.1253836     
   1129128963.6715884     
   1010695867.9443336     
   1154838795.4014707     
   1158673085.7279782     
   1008151188.9681226     
   985059516.69795382     
   1161549272.3335285     
   1544600095.5814378     
   918226935.73532188     
   963380810.60330534     
   1144907127.1135578     
   1476242039.5388808     
   1957213117.8783743     
   1003011108.8915945     
   1165218939.1519992     
   1425487836.7529066     
   1808455577.0938549     
   2334229491.6233687     
   1263844072.1362865     
   1447155041.0210087     
   1715825994.9865861     
   2110360148.6565995     
   2663058236.4051223     
   4702376470.4688101     
   4542027484.4352798     
   4381345907.2094202     
   4219508705.3262239     
   4055944060.7057195     
   4391590710.3413811     
   4243989773.4452643     
   4097020679.4531546     
   3950301439.1936908     
   3803698813.0070171     
   4098598263.0846562     
   3965691606.6078997     
   3835009597.1071906     
   3706607551.1397595     
   3580799288.6435890     
   3829734864.1854568     
   3712885945.9969363     
   3600549689.1300631     
   3493159410.9586396     
   3391412761.2791586     
   3593061285.3161321     
   3492676049.7113719     
   3399849005.8300052     
   3315256147.9261413     
   3239822856.3881650     
   4055944060.7057195     
   3966883209.9416156     
   3878994233.5569201     
   3792416273.5878882     
   3707311026.2279186     
   3803698813.0070171     
   3722546523.6866865     
   3643636426.6965199     
   3567128510.9037838     
   3493204064.7619181     
   3580799288.6435890     
   3508123176.6876855     
   3438832322.4049392     
   3373067702.5760875     
   3310996880.7372274     
   3391412761.2791586     
   3327522440.9774017     
   3268175328.5178757     
   3213440912.6488314     
   3163429158.3475633     
   3239822856.3881650     
   3184628030.2842026     
   3135078547.9621887     
   3091111923.9903231     
   3052732194.6562610     
   3707311026.2279186     
   3504288616.1511545     
   3306302373.2497711     
   3113754686.1560717     
   2927351935.2527051     
   3493204064.7619181     
   3312949932.1251402     
   3138328875.2618890     
   2969882172.2156396     
   2808427345.5430818     
   3310996880.7372274     
   3152468015.2762532     
   3000048666.7177734     
   2854370291.7593398     
   2716297050.2578306     
   3163429158.3475633     
   3025717570.5028415     
   2894402841.7196674     
   2770147711.9032006     
   2653793181.4167252     
   3052732194.6562610     
   2935014223.7147088     
   2823723871.5775084     
   2719494139.9228888     
   2623079169.4220986     
   2927351935.2527051     
   2825768844.9360971     
   2725584652.4342785     
   2626962036.3022623     
   2530089943.8858585     
   2808427345.5430818     
   2714770418.8964548     
   2623547181.9507837     
   2535053344.8091745     
   2449631098.6464877     
   2716297050.2578306     
   2633327360.0864587     
   2554096806.1616464     
   2479034074.2942729     
   2408627688.3407187     
   2653793181.4167252     
   2583864897.3889422     
   2519152464.8282924     
   2460182746.3188729     
   2407541841.5510087     
   2623079169.4220986     
   2567860000.0973535     
   2519381694.0377407     
   2478208551.5524573     
   2444951038.7074704     
   2530089943.8858585     
   2385709868.8516021     
   2245122049.2568626     
   2108895248.4972348     
   1977783233.7505395     
   2449631098.6464877     
   2320724849.5148158     
   2197100863.0517483     
   2079525272.6275671     
   1968952280.1522605     
   2408627688.3407187     
   2296845712.1217690     
   2191795562.2997403     
   2094329280.6855302     
   2005441797.1091311     
   2407541841.5510087     
   2313717365.8291945     
   2227807655.6914802     
   2150615299.1422920     
   2083016138.5123875     
   2444951038.7074704     
   2368936797.4001126     
   2301609869.6585007     
   2243620363.4577518     
   2195630256.2982011     
   1977783233.7505395     
   1847092656.5570207     
   1716562570.8545852     
   1586569236.7885196     
   1457656851.1248138     
   1968952280.1522605     
   1853471429.7974401     
   1742406679.2666383     
   1636687520.8058906     
   1537454865.1820464     
   2005441797.1091311     
   1910179813.5500574     
   1823635671.1086345     
   1746996438.9285476     
   1681538539.4902816     
   2083016138.5123875     
   2009458836.8400960     
   1948094110.6900928     
   1899978277.9241931     
   1866115752.2244904     
   2195630256.2982011     
   2142297267.8172779     
   2103637022.6426046     
   2080397023.4021399     
   2073233255.4630878     
   1457656851.1248138     
   1348970115.1639981     
   1275236789.2981358     
   1244528340.2088025     
   1263844072.1362865     
   1537454865.1820464     
   1476629151.6936381     
   1448470101.6242461     
   1456930280.8095579     
   1505308120.5448172     
   1681538539.4902816     
   1652870867.8812072     
   1651931456.1241589     
   1681092561.1060603     
   1742976913.3925281     
   1866115752.2244904     
   1855294725.3183973     
   1867494085.4274428     
   1904929358.7596059     
   1970643573.1247399     
   2073233255.4630878     
   2069330984.1773884     
   2084757995.0676820     
   2122149623.9258366     
   2185322120.0503898     
   1263844072.1362865     
   1447155041.0210087     
   1715825994.9865861     
   2110360148.6565995     
   2663058236.4051223     
   1505308120.5448172     
   1613506103.8528481     
   1788984778.9960263     
   2066426524.3458157     
   2475934930.7441673     
   1742976913.3925281     
   1787767974.4155672     
   1884739732.8809209     
   2060757507.2682238     
   2340988588.1090832     
   1970643573.1247399     
   1968886319.9678967     
   2003657431.7541707     
   2093618353.6127353     
   2257412392.5331674     
   2185322120.0503898     
   2156137343.1330342     
   2146479046.5270746     
   2166887777.5905018     
   2228460259.7298541     
   3593061285.3161321     
   3492676049.7113719     
   3399849005.8300052     
   3315256147.9261413     
   3239822856.3881650     
   3356436725.5126104     
   3284423591.7193146     
   3218811914.2999187     
   3160088874.0983567     
   3108888036.8518715     
   3163994129.1228628     
   3115966336.5041604     
   3072603528.3583641     
   3034177786.1683302     
   3001045417.8409367     
   3018114392.8809886     
   2990005252.5785894     
   2964351590.6972995     
   2941194394.5937428     
   2920633542.0558629     
   2919813979.5902567     
   2908119752.8146586     
   2896389852.8197298     
   2884414420.2909794     
   2872046991.3073330     
   3239822856.3881650     
   3184628030.2842026     
   3135078547.9621887     
   3091111923.9903231     
   3052732194.6562610     
   3108888036.8518715     
   3059288234.7387671     
   3015027545.0744796     
   2976197809.9215956     
   2942922134.2136021     
   3001045417.8409367     
   2957408186.0878549     
   2919239928.6763935     
   2886721854.3558183     
   2860049713.2887831     
   2920633542.0558629     
   2883234019.5772023     
   2851852528.3530054     
   2826687585.4488673     
   2807957070.0104780     
   2872046991.3073330     
   2840912604.0938735     
   2816736544.6453667     
   2799658719.0237322     
   2789867046.6094208     
   3052732194.6562610     
   2935014223.7147088     
   2823723871.5775084     
   2719494139.9228888     
   2623079169.4220986     
   2942922134.2136021     
   2838932753.8299975     
   2743232073.9850583     
   2656492065.4533706     
   2579487089.7300897     
   2860049713.2887831     
   2769961726.2148685     
   2689974810.7646823     
   2620716734.8247705     
   2562886962.2746429     
   2807957070.0104780     
   2730886038.0934062     
   2665615474.0413117     
   2612652735.8822141     
   2572546235.7102170     
   2789867046.6094208     
   2723739429.9265504     
   2670982048.7678437     
   2631934468.8990064     
   2606956738.9488683     
   2623079169.4220986     
   2567860000.0973535     
   2519381694.0377407     
   2478208551.5524573     
   2444951038.7074704     
   2579487089.7300897     
   2540153064.8327441     
   2507677598.3837805     
   2482487645.1312318     
   2465025490.8795133     
   2562886962.2746429     
   2537867338.4700003     
   2519580613.6990933     
   2508319572.2772779     
   2504375155.4531651     
   2572546235.7102170     
   2559934278.6186609     
   2553732054.1320734     
   2554119174.9109635     
   2561266954.3986297     
   2606956738.9488683     
   2604638697.7594085     
   2608271566.0590196     
   2617951465.1631422     
   2633766083.8840933     
   2444951038.7074704     
   2368936797.4001126     
   2301609869.6585007     
   2243620363.4577518     
   2195630256.2982011     
   2465025490.8795133     
   2402868824.3759599     
   2350430182.3760023     
   2308274997.0368671     
   2276950713.3562984     
   2504375155.4531651     
   2455512719.2896080     
   2417222039.3578324     
   2389947650.9802761     
   2374099916.7870259     
   2561266954.3986297     
   2524542695.2815599     
   2499119792.8312478     
   2485314179.2662611     
   2483405767.0754728     
   2633766083.8840933     
   2607564347.5798278     
   2593354424.2586451     
   2591336080.3246279     
   2601681353.4142609     
   2195630256.2982011     
   2142297267.8172779     
   2103637022.6426046     
   2080397023.4021399     
   2073233255.4630878     
   2276950713.3562984     
   2238504796.5864139     
   2213691256.6831651     
   2202941115.4746943     
   2206623106.6449308     
   2374099916.7870259     
   2347524469.3359323     
   2333507703.1834507     
   2332282976.9148974     
   2344056143.8264432     
   2483405767.0754728     
   2465980891.8103037     
   2460124097.5672855     
   2465957427.2831264     
   2483604339.8454671     
   2601681353.4142609     
   2591058695.5419478     
   2591156227.1002378     
   2602041675.4388218     
   2623804556.8369050     
   2073233255.4630878     
   2069330984.1773884     
   2084757995.0676820     
   2122149623.9258366     
   2185322120.0503898     
   2206623106.6449308     
   2191908242.0120907     
   2192271008.0258503     
   2209683577.5144701     
   2247068172.7812800     
   2344056143.8264432     
   2319338376.8979368     
   2306236188.8553615     
   2306157031.8124766     
   2321189758.5132031     
   2483604339.8454671     
   2450649344.7278438     
   2426337553.6815410     
   2411615193.3616614     
   2407857818.1731911     
   2623804556.8369050     
   2585061736.3943310     
   2552293526.8190684     
   2526081094.0876331     
   2507230616.2781715     
   2185322120.0503898     
   2156137343.1330342     
   2146479046.5270746     
   2166887777.5905018     
   2228460259.7298541     
   2247068172.7812800     
   2182483053.7964201     
   2134278231.4701371     
   2112131633.0411940     
   2126996018.0445886     
   2321189758.5132031     
   2224552294.2910328     
   2141200710.2496912     
   2079505481.8017387     
   2049648387.6136913     
   2407857818.1731911     
   2282638569.8511171     
   2167892764.3766351     
   2070360381.0789590     
   1998811662.3827667     
   2507230616.2781715     
   2356951034.9583097     
   2214824270.8387647     
   2085827001.2824211     
   1976830717.0059478     
   2919813979.5902567     
   2908119752.8146586     
   2896389852.8197298     
   2884414420.2909794     
   2872046991.3073330     
   2768572919.6081586     
   2755520285.1980944     
   2747044786.2271118     
   2743220776.6641550     
   2744120707.5545483     
   2663779815.1705160     
   2647405250.4070973     
   2640430230.9780602     
   2642948192.6341538     
   2655069496.0273795     
   2619349936.6741509     
   2594315874.8509493     
   2583728380.9484248     
   2587402541.7176695     
   2605287508.6638989     
   2647256107.9368682     
   2604880429.5911694     
   2582199956.1298432     
   2578533656.0280681     
   2593539685.9760079     
   2872046991.3073330     
   2840912604.0938735     
   2816736544.6453667     
   2799658719.0237322     
   2789867046.6094208     
   2744120707.5545483     
   2728978240.0817313     
   2720286161.8761201     
   2718124263.6686845     
   2722604804.7362590     
   2655069496.0273795     
   2653946969.9940124     
   2658588786.3702216     
   2669024522.8657885     
   2685306588.3533974     
   2605287508.6638989     
   2616013004.6807232     
   2631682682.1325307     
   2652292610.1067648     
   2677855874.8180218     
   2593539685.9760079     
   2613890725.6413803     
   2638291109.3312378     
   2666719829.4948320     
   2699168814.7658038     
   2789867046.6094208     
   2723739429.9265504     
   2670982048.7678437     
   2631934468.8990064     
   2606956738.9488683     
   2722604804.7362590     
   2668782396.5860133     
   2627712753.5775199     
   2599568874.7956638     
   2584531164.7194781     
   2685306588.3533974     
   2640487505.6211004     
   2607726104.1808672     
   2587085257.7063384     
   2578630596.9968987     
   2677855874.8180218     
   2638724814.0838871     
   2610922395.8923106     
   2594456099.4622874     
   2589335027.2070675     
   2699168814.7658038     
   2662586823.7152705     
   2636601913.0609775     
   2621212164.4460559     
   2616416936.9664254     
   2606956738.9488683     
   2604638697.7594085     
   2608271566.0590196     
   2617951465.1631422     
   2633766083.8840933     
   2584531164.7194781     
   2588644733.7401366     
   2599234612.5860953     
   2616362570.4301124     
   2640083652.1201859     
   2578630596.9968987     
   2587835986.1495571     
   2604049499.5193892     
   2627302422.4149761     
   2657622090.1924224     
   2589335027.2070675     
   2601951498.5085673     
   2622145622.3215785     
   2649926585.3394184     
   2685302327.2601118     
   2616416936.9664254     
   2630488188.3559699     
   2652774537.2837358     
   2683275576.1369157     
   2721990991.3751383     
   2633766083.8840933     
   2607564347.5798278     
   2593354424.2586451     
   2591336080.3246279     
   2601681353.4142609     
   2640083652.1201859     
   2623149215.4068470     
   2617453147.4985452     
   2623094605.6657510     
   2640156919.6381688     
   2657622090.1924224     
   2647772004.5859900     
   2648501941.1361141     
   2659850417.9529352     
   2681849214.1866608     
   2685302327.2601118     
   2680471374.0735683     
   2685680437.7595024     
   2700937739.8115435     
   2726250015.2688150     
   2721990991.3751383     
   2720273895.7616363     
   2728184006.7505164     
   2745721325.6999698     
   2772885846.4813323     
   2601681353.4142609     
   2591058695.5419478     
   2591156227.1002378     
   2602041675.4388218     
   2623804556.8369050     
   2640156919.6381688     
   2630682075.3976145     
   2631205382.7100563     
   2641761568.3834133     
   2662398462.1998243     
   2681849214.1866608     
   2673336229.3454800     
   2674273456.8209777     
   2684675036.9966965     
   2704561048.4323387     
   2726250015.2688150     
   2718641756.3375969     
   2720092972.7114949     
   2730606988.7276211     
   2750188484.9402032     
   2772885846.4813323     
   2766240468.6421647     
   2768406759.3703861     
   2779384715.2504191     
   2799174341.5025229     
   2623804556.8369050     
   2585061736.3943310     
   2552293526.8190684     
   2526081094.0876331     
   2507230616.2781715     
   2662398462.1998243     
   2616805923.4420304     
   2576938511.7762661     
   2543127017.6457191     
   2515833166.4350486     
   2704561048.4323387     
   2654182664.5550981     
   2609423900.4563470     
   2570432248.6431065     
   2537414543.5332251     
   2750188484.9402032     
   2697095986.4554162     
   2649660803.8604426     
   2607919692.0378084     
   2571924481.9045949     
   2799174341.5025229     
   2745441326.4585414     
   2697545802.5953197     
   2655487760.9968958     
   2619267198.8472128     
   2507230616.2781715     
   2356951034.9583097     
   2214824270.8387647     
   2085827001.2824211     
   1976830717.0059478     
   2515833166.4350486     
   2348022431.3862195     
   2183753830.4864273     
   2026123259.6884148     
   1879689286.2922285     
   2537414543.5332251     
   2357169855.8641405     
   2176651530.8203111     
   1997327582.8171313     
   1821469854.3219984     
   2571924481.9045949     
   2384497563.7524967     
   2193984487.2317104     
   2000761378.2352359     
   1805428248.4410412     
   2619267198.8472128     
   2429975207.3880043     
   2235896058.8986650     
   2037029753.4548550     
   1833376296.1221883     
   2647256107.9368682     
   2604880429.5911694     
   2582199956.1298432     
   2578533656.0280681     
   2593539685.9760079     
   2669070898.2506914     
   2626740722.6014428     
   2598212338.6268516     
   2583319221.1758800     
   2582008356.4746375     
   2729726486.2997799     
   2687072755.8731217     
   2653170148.6323509     
   2628113869.4194207     
   2612008103.2293401     
   2819462953.7651448     
   2778846060.0406747     
   2742923831.1860113     
   2711714760.7621193     
   2685267688.5560880     
   2929442641.1539989     
   2895118144.3070407     
   2862591444.5316935     
   2831453627.5402298     
   2801475409.7999139     
   2593539685.9760079     
   2613890725.6413803     
   2638291109.3312378     
   2666719829.4948320     
   2699168814.7658038     
   2582008356.4746375     
   2597800607.2146764     
   2619273864.1209254     
   2646423175.2631140     
   2679245352.3409972     
   2612008103.2293401     
   2619641382.7502670     
   2634430477.7089081     
   2656414235.8551097     
   2685632515.4263334     
   2685267688.5560880     
   2680754604.3803935     
   2684656715.5564518     
   2697093433.2264900     
   2718198458.0922060     
   2801475409.7999139     
   2780786831.5013371     
   2769496586.4722438     
   2767838651.8348899     
   2776093761.7068758     
   2699168814.7658038     
   2662586823.7152705     
   2636601913.0609775     
   2621212164.4460559     
   2616416936.9664254     
   2679245352.3409972     
   2640488027.2795687     
   2612160143.9889426     
   2594286115.4552565     
   2586889838.5046549     
   2685632515.4263334     
   2642417369.1879396     
   2609497628.1503844     
   2586950845.3173637     
   2574853943.4841895     
   2718198458.0922060     
   2668441712.6037250     
   2628857985.5315719     
   2599599747.1861782     
   2580821926.1393027     
   2776093761.7068758     
   2718000404.2527533     
   2669947461.5072556     
   2632176787.1922016     
   2604940400.3274717     
   2616416936.9664254     
   2630488188.3559699     
   2652774537.2837358     
   2683275576.1369157     
   2721990991.3751383     
   2586889838.5046549     
   2599438821.5868826     
   2619907372.2889242     
   2648303768.2195926     
   2684635420.4858446     
   2574853943.4841895     
   2583488803.1101699     
   2599804331.9539361     
   2623836741.2783394     
   2655619295.8543286     
   2580821926.1393027     
   2583306442.5262685     
   2593259665.2950683     
   2610763769.6102533     
   2635896087.0471439     
   2604940400.3274717     
   2599288991.6913185     
   2600882998.1732764     
   2609865946.9248400     
   2626376544.5770164     
   2721990991.3751383     
   2720273895.7616363     
   2728184006.7505164     
   2745721325.6999698     
   2772885846.4813323     
   2684635420.4858446     
   2680345157.6473937     
   2685877575.8675232     
   2701240640.5821028     
   2726440446.4669595     
   2655619295.8543286     
   2647085680.0010772     
   2648701051.4299479     
   2660499264.3317938     
   2682507054.8639345     
   2635896087.0471439     
   2621353305.8596406     
   2617404433.2352448     
   2624132668.9923801     
   2641605594.9965739     
   2626376544.5770164     
   2603997729.6606784     
   2592753364.1321316     
   2592805864.4110212     
   2604291112.0961461     
   2772885846.4813323     
   2766240468.6421647     
   2768406759.3703861     
   2779384715.2504191     
   2799174341.5025229     
   2726440446.4669595     
   2718727898.0242548     
   2720144784.9815645     
   2730694256.4215531     
   2750381108.4517117     
   2682507054.8639345     
   2673679673.8762789     
   2674442275.5004992     
   2684809772.0102987     
   2704802502.5225353     
   2641605594.9965739     
   2631484104.6271582     
   2631572177.8312888     
   2641908074.9142289     
   2662540562.2965937     
   2604291112.0961461     
   2592551568.5221262     
   2591818564.6254454     
   2602168890.3368201     
   2623694952.1829472     
   2799174341.5025229     
   2745441326.4585414     
   2697545802.5953197     
   2655487760.9968958     
   2619267198.8472128     
   2750381108.4517117     
   2697246165.4170694     
   2649752200.8944449     
   2607935817.2231884     
   2571848083.2911091     
   2704802502.5225353     
   2654391996.3073845     
   2609568258.5348678     
   2570479230.2959495     
   2537332307.4790030     
   2662540562.2965937     
   2616980816.3099947     
   2577096352.9521422     
   2543219687.4876900     
   2515816462.0282359     
   2623694952.1829472     
   2585106145.4876528     
   2552424405.3745227     
   2526234433.1721721     
   2507351493.2707982     
   2619267198.8472128     
   2429975207.3880043     
   2235896058.8986650     
   2037029753.4548550     
   1833376296.1221883     
   2571848083.2911091     
   2384460241.1273298     
   2193996187.6964025     
   2000835039.9384637     
   1805582145.1356785     
   2537332307.4790030     
   2357135224.9939041     
   2176683252.4031644     
   1997446450.5767829     
   1821699221.6660790     
   2515816462.0282359     
   2348031062.7648706     
   2183813983.7914872     
   2026258330.4905214     
   1879915296.6122165     
   2507351493.2707982     
   2357043606.7862716     
   2214920848.5509243     
   2085949279.1214554     
   1976979038.1379735     
   2929442641.1539989     
   2895118144.3070407     
   2862591444.5316935     
   2831453627.5402298     
   2801475409.7999139     
   3009211434.3136358     
   2969713907.3901625     
   2934596032.1297674     
   2903764284.2944903     
   2877197986.8039327     
   3147468265.2175188     
   3097788180.9587951     
   3054355397.2806530     
   3017355460.9842029     
   2987010853.6827092     
   3340252537.3248158     
   3274913462.9331608     
   3216977472.7587218     
   3166844462.4086857     
   3124993580.8923550     
   3582067515.4205041     
   3495449926.7609487     
   3416769866.6513209     
   3346540866.0976763     
   3285469325.9322324     
   2801475409.7999139     
   2780786831.5013371     
   2769496586.4722438     
   2767838651.8348899     
   2776093761.7068758     
   2877197986.8039327     
   2846089455.4653721     
   2822149326.5361190     
   2805674217.0318360     
   2797005756.4777966     
   2987010853.6827092     
   2945381526.2052412     
   2908830984.2041078     
   2877659460.9358115     
   2852208818.1795883     
   3124993580.8923550     
   3074003110.1646562     
   3026187259.7877674     
   2981796883.3048048     
   2941116985.0569677     
   3285469325.9322324     
   3227188051.5216818     
   3170417286.8791909     
   3115325700.8901129     
   3062105441.8866425     
   2776093761.7068758     
   2718000404.2527533     
   2669947461.5072556     
   2632176787.1922016     
   2604940400.3274717     
   2797005756.4777966     
   2725889178.1777425     
   2664970820.6755939     
   2614633771.3898873     
   2575289742.1414995     
   2852208818.1795883     
   2765752569.2872767     
   2689415506.4439545     
   2623732034.7908888     
   2569298567.4324713     
   2941116985.0569677     
   2837434634.9402356     
   2743537931.2903242     
   2660098105.1592269     
   2587895803.6060781     
   3062105441.8866425     
   2939774711.2775893     
   2826660210.5910249     
   2723532043.9551520     
   2631325106.0819826     
   2604940400.3274717     
   2599288991.6913185     
   2600882998.1732764     
   2609865946.9248400     
   2626376544.5770164     
   2575289742.1414995     
   2559008898.9777980     
   2549790241.7011957     
   2547849470.0073256     
   2553396577.7339787     
   2569298567.4324713     
   2541056945.7179027     
   2519617776.9090886     
   2505275887.2542806     
   2498324427.9947014     
   2587895803.6060781     
   2546751171.7952294     
   2512037633.3078513     
   2484125111.2671537     
   2463391922.5866356     
   2631325106.0819826     
   2576783968.0069900     
   2528179156.3880334     
   2485938502.4352398     
   2450513334.6063743     
   2626376544.5770164     
   2603997729.6606784     
   2592753364.1321316     
   2592805864.4110212     
   2604291112.0961461     
   2553396577.7339787     
   2520053845.4341788     
   2497565456.5647092     
   2486219533.5839534     
   2486269098.0735331     
   2498324427.9947014     
   2451780606.3231468     
   2415711917.4461398     
   2390564632.5965481     
   2376752302.6891575     
   2463391922.5866356     
   2401802315.6543293     
   2350107727.7802229     
   2308927596.1152711     
   2278869375.3395615     
   2450513334.6063743     
   2372607221.8310103     
   2303737077.0561666     
   2244678103.4855919     
   2196235968.7082486     
   2604291112.0961461     
   2592551568.5221262     
   2591818564.6254454     
   2602168890.3368201     
   2623694952.1829472     
   2486269098.0735331     
   2467766514.7294970     
   2461018921.8789649     
   2466157273.9224524     
   2483310660.2632427     
   2376752302.6891575     
   2349281511.0193291     
   2334465912.3446860     
   2332543963.4425607     
   2343726791.6791372     
   2278869375.3395615     
   2239871736.8073678     
   2214522631.4543695     
   2203248609.0813246     
   2206418035.4634538     
   2196235968.7082486     
   2142869419.6178899     
   2104126227.6729555     
   2080731697.8119731     
   2073327226.3460858     
   2623694952.1829472     
   2585106145.4876528     
   2552424405.3745227     
   2526234433.1721721     
   2507351493.2707982     
   2483310660.2632427     
   2450530431.6494637     
   2426354706.4028893     
   2411731182.7578621     
   2408040832.6551814     
   2343726791.6791372     
   2319151659.5939589     
   2306181629.6129632     
   2306223978.9777703     
   2321367390.9107285     
   2206418035.4634538     
   2191756791.1923442     
   2192190546.9892058     
   2209690619.4598956     
   2247171923.7016039     
   2073327226.3460858     
   2069327273.3292706     
   2084701830.9872677     
   2122086756.3774397     
   2185283091.9922743     
   2507351493.2707982     
   2357043606.7862716     
   2214920848.5509243     
   2085949279.1214554     
   1976979038.1379735     
   2408040832.6551814     
   2282764002.7624607     
   2167986847.8558412     
   2070442956.7007346     
   1998889742.1526110     
   2321367390.9107285     
   2224669332.0240650     
   2141277068.3734651     
   2079561183.2160504     
   2049701819.0904214     
   2247171923.7016039     
   2182549692.0022564     
   2134321003.2852614     
   2112171925.4881363     
   2127065623.2573125     
   2185283091.9922743     
   2156111295.7051625     
   2146472100.0093608     
   2166922934.0088558     
   2228582431.0824971     
   3582067515.4205041     
   3495449926.7609487     
   3416769866.6513209     
   3346540866.0976763     
   3285469325.9322324     
   3827105995.0425205     
   3721448952.2784901     
   3620791143.3854833     
   3525550464.1052589     
   3436340027.4726520     
   4095523624.6935649     
   3972638989.6320534     
   3852110416.9637809     
   3734191585.8864551     
   3619323146.3770952     
   4380642873.8110275     
   4243316940.9168401     
   4106037244.7625117     
   3968880930.3446097     
   3832102665.3725772     
   4677237315.6025276     
   4528862325.3610935     
   4378580352.5685549     
   4226326631.8187494     
   4072215603.5016918     
   3285469325.9322324     
   3227188051.5216818     
   3170417286.8791909     
   3115325700.8901129     
   3062105441.8866425     
   3436340027.4726520     
   3366416747.8663573     
   3298643742.1746058     
   3233168139.8843484     
   3170151474.3799233     
   3619323146.3770952     
   3538809452.4590883     
   3461120099.0337048     
   3386360708.6424246     
   3314659952.5100374     
   3832102665.3725772     
   3741475016.4604807     
   3654349066.8029408     
   3570776454.7259645     
   3490856185.0346236     
   4072215603.5016918     
   3971404763.3285780     
   3874751754.0417328     
   3782249020.6503854     
   3693974201.7976294     
   3062105441.8866425     
   2939774711.2775893     
   2826660210.5910249     
   2723532043.9551520     
   2631325106.0819826     
   3170151474.3799233     
   3029501749.9887142     
   2896734803.9840117     
   2772651113.0373578     
   2658272038.7198582     
   3314659952.5100374     
   3155139506.2747540     
   3002033073.2437735     
   2856074759.6798544     
   2718256348.3588228     
   3490856185.0346236     
   3312472303.3534050     
   3139015907.7115865     
   2971074606.8120170     
   2809501905.8943624     
   3693974201.7976294     
   3497100020.4175887     
   3303748245.0250258     
   3114309186.5801082     
   2929419717.9063044     
   2631325106.0819826     
   2576783968.0069900     
   2528179156.3880334     
   2485938502.4352398     
   2450513334.6063743     
   2658272038.7198582     
   2590140344.8571334     
   2526824026.4477978     
   2468764962.5893021     
   2416446685.7018814     
   2718256348.3588228     
   2637289533.1763744     
   2559958543.0023160     
   2486667624.0186672     
   2417873941.1233511     
   2809501905.8943624     
   2717117851.1653199     
   2627234587.6689968     
   2540178670.6495476     
   2456329347.0274253     
   2929419717.9063044     
   2827484252.9066243     
   2727056980.5305800     
   2628370577.0616593     
   2531700363.8997145     
   2450513334.6063743     
   2372607221.8310103     
   2303737077.0561666     
   2244678103.4855919     
   2196235968.7082486     
   2416446685.7018814     
   2319927464.9288492     
   2231466412.2001605     
   2151938489.3923907     
   2082310454.4626269     
   2417873941.1233511     
   2303277677.0379624     
   2195461980.6986041     
   2095295547.2112625     
   2003800312.1289032     
   2456329347.0274253     
   2325089102.3796606     
   2199206110.1872873     
   2079421723.3130779     
   1966662396.6526003     
   2531700363.8997145     
   2385953434.3890152     
   2244206245.3186812     
   2106988847.4651046     
   1975003922.6927412     
   2196235968.7082486     
   2142869419.6178899     
   2104126227.6729555     
   2080731697.8119731     
   2073327226.3460858     
   2082310454.4626269     
   2009082503.9336815     
   1947996231.7437034     
   1900089287.3963189     
   1866347973.4819262     
   2003800312.1289032     
   1909137055.6619105     
   1823125297.4247189     
   1746936842.4790919     
   1681829415.4885321     
   1966662396.6526003     
   1851984336.6254904     
   1741625184.5299201     
   1636502158.8907981     
   1537741005.5184650     
   1975003922.6927412     
   1845288245.8117735     
   1715593222.6080377     
   1586285660.6897628     
   1457903307.5483441     
   2073327226.3460858     
   2069327273.3292706     
   2084701830.9872677     
   2122086756.3774397     
   2185283091.9922743     
   1866347973.4819262     
   1855358225.9420543     
   1867427936.1491582     
   1904777185.4222455     
   1970442716.6936648     
   1681829415.4885321     
   1652941626.0935616     
   1651819193.4202147     
   1680843406.8347957     
   1742639396.4188924     
   1537741005.5184650     
   1476656475.9227204     
   1448277763.4174967     
   1456572694.5116134     
   1504852306.0480285     
   1457903307.5483441     
   1348922171.6298752     
   1274937198.7042811     
   1244045107.0417943     
   1263274693.1776955     
   2185283091.9922743     
   2156111295.7051625     
   2146472100.0093608     
   2166922934.0088558     
   2228582431.0824971     
   1970442716.6936648     
   1968768221.2364500     
   2003615574.3643737     
   2093658024.5264659     
   2257556734.4267302     
   1742639396.4188924     
   1787570894.8136048     
   1884665517.6156905     
   2060794217.9482527     
   2341136042.6362696     
   1504852306.0480285     
   1613240407.1563444     
   1788880883.9428637     
   2066454257.9573588     
   2476069122.4697771     
   1263274693.1776955     
   1446826990.5700648     
   1715695660.4467185     
   2110373413.2287540     
   2663161663.4432812     
   4677237315.6025276     
   4528862325.3610935     
   4378580352.5685549     
   4226326631.8187494     
   4072215603.5016918     
   4972286647.0908661     
   4803611102.1705933     
   4637254977.5560904     
   4473219493.3229418     
   4311546868.5609179     
   5291419842.5769510     
   5103472911.5169802     
   4922424543.6391249     
   4747838413.7033091     
   4579632693.8561335     
   5638135650.9099913     
   5429244946.0150690     
   5231994162.6885262     
   5045127681.2004042     
   4868435961.6560850     
   6015554329.4981222     
   5781542929.8583517     
   5564068549.0637226     
   5360820926.1123505     
   5171540601.5022602     
   4072215603.5016918     
   3971404763.3285780     
   3874751754.0417328     
   3782249020.6503854     
   3693974201.7976294     
   4311546868.5609179     
   4206237893.4132576     
   4102623747.0537333     
   4000874885.5769873     
   3901201599.6439576     
   4579632693.8561335     
   4468285776.1838512     
   4356191571.9850931     
   4243500389.4435163     
   4130449568.7721786     
   4868435961.6560850     
   4750631046.6314182     
   4629745893.8424492     
   4505740842.7550316     
   4378784518.3400230     
   5171540601.5022602     
   5047659417.2307482     
   4918570518.4757681     
   4783909503.5249786     
   4643702473.5185213     
   3693974201.7976294     
   3497100020.4175887     
   3303748245.0250258     
   3114309186.5801082     
   2929419717.9063044     
   3901201599.6439576     
   3685583770.4233608     
   3472348226.8327494     
   3261710355.9727459     
   3054055272.2358904     
   4130449568.7721786     
   3898637001.2039232     
   3668475026.6479201     
   3440041137.4947109     
   3213519039.4500713     
   4378784518.3400230     
   4133064321.0154004     
   3888632292.8916488     
   3645473224.5786729     
   3403636343.1884236     
   4643702473.5185213     
   4386048789.6601524     
   4129629557.6413631     
   3874375116.6636868     
   3620260029.1503325     
   2929419717.9063044     
   2827484252.9066243     
   2727056980.5305800     
   2628370577.0616593     
   2531700363.8997145     
   3054055272.2358904     
   2943478715.7998219     
   2834490526.1852741     
   2727253436.2248135     
   2621967482.9582324     
   3213519039.4500713     
   3094862835.0270805     
   2977856562.3189397     
   2862602779.8474507     
   2749246446.7682428     
   3403636343.1884236     
   3276898771.9543500     
   3151835842.0946603     
   3028502571.1368165     
   2907011520.6362085     
   3620260029.1503325     
   3484940577.4443989     
   3351271003.7962260     
   3219272752.7063355     
   3089048846.1886930     
   2531700363.8997145     
   2385953434.3890152     
   2244206245.3186812     
   2106988847.4651046     
   1975003922.6927412     
   2621967482.9582324     
   2466374528.6176777     
   2312949753.0219779     
   2162045199.7448707     
   2014147099.6507394     
   2749246446.7682428     
   2585422163.1351199     
   2422160376.6509008     
   2259607003.6694689     
   2097994542.6350324     
   2907011520.6362085     
   2736961225.8700886     
   2566206742.7549710     
   2394720858.1431327     
   2222532857.1628423     
   3089048846.1886930     
   2914908531.4810157     
   2739165435.8433928     
   2561682410.4883246     
   2382382043.2051921     
   1975003922.6927412     
   1845288245.8117735     
   1715593222.6080377     
   1586285660.6897628     
   1457903307.5483441     
   2014147099.6507394     
   1878224891.2352614     
   1742643612.3504360     
   1607520580.0756555     
   1473017122.2286716     
   2097994542.6350324     
   1958851884.0350378     
   1820823906.4679248     
   1683914792.5305016     
   1548162328.0052221     
   2222532857.1628423     
   2081288582.6783323     
   1942068708.4753678     
   1804838566.5885584     
   1669673274.6285651     
   2382382043.2051921     
   2238378427.6525788     
   2097199125.9241979     
   1958801734.5665264     
   1823383875.5920627     
   1457903307.5483441     
   1348922171.6298752     
   1274937198.7042811     
   1244045107.0417943     
   1263274693.1776955     
   1473017122.2286716     
   1328805071.5935261     
   1199084137.7319543     
   1088350801.4385126     
   1002520327.0984257     
   1548162328.0052221     
   1398209379.4180837     
   1244637852.5751832     
   1085200788.2551768     
   917881225.09174728     
   1669673274.6285651     
   1554031611.2123594     
   1429071052.8861699     
   1295197967.0925574     
   1158578126.5830164     
   1823383875.5920627     
   1782332796.0077453     
   1737360680.8587534     
   1697267551.9257960     
   1680749487.4635763     
   1263274693.1776955     
   1446826990.5700648     
   1715695660.4467185     
   2110373413.2287540     
   2663161663.4432812     
   1002520327.0984257     
   1164920134.5985899     
   1425365809.0009084     
   1808474652.5685282     
   2334344705.7911730     
   917881225.09174728     
   963143806.57035220     
   1144797793.0180867     
   1476254661.7756586     
   1957321043.8893743     
   1158578126.5830164     
   1008076690.5568362     
   984995548.00905788     
   1161534136.9003105     
   1544664709.4027009     
   1680749487.4635763     
   1383156108.4185169     
   1129170968.0905402     
   1010614530.2324027     
   1154751786.8208172     
 </DataArray>
 <DataArray  type="Float64" Name="strain" NumberOfComponents="3" format="ascii">
   9.7954780180227408E-002  -3.9579172898342008E-002  -1.2975876216622328E-002
   9.5218531950860275E-002  -3.2380859291824993E-002  -9.2058366389383695E-003
   9.2482283721493141E-002  -2.7458274204780864E-002  -5.6382340991580904E-003
   8.9746035492125897E-002  -2.4811417637209149E-002  -2.2730685972812137E-003
   8.7009787262758764E-002  -2.4440289589110376E-002   8.8965986669264918E-004
   9.3033151953996307E-002  -3.4174681767044413E-002   2.4184367167945364E-003
   9.0143731005878136E-002  -2.8959250956462235E-002   3.8797047931224404E-003
   8.7254310057760076E-002  -2.5359176210850182E-002   5.2370644698521707E-003
   8.4364889109642016E-002  -2.3374457530207927E-002   6.4905157469832830E-003
   8.1475468161523901E-002  -2.3005094914536006E-002   7.6400586245159441E-003
   8.7699030199478611E-002  -2.8770190635746817E-002   1.5499680627024337E-002
   8.4754965170914465E-002  -2.5537642621099366E-002   1.5312549656499946E-002
   8.1810900142350262E-002  -2.3260078216919444E-002   1.5120038924681556E-002
   7.8866835113786088E-002  -2.1937497423206928E-002   1.4922148431569679E-002
   7.5922770085221886E-002  -2.1569900239961914E-002   1.4718878177163885E-002
   8.1952414916674599E-002  -2.3365699504449222E-002   2.6267855514068766E-002
   7.9052234445969094E-002  -2.2116034285736552E-002   2.5092697951193808E-002
   7.6152053975263603E-002  -2.1160980222988679E-002   2.4010689265330024E-002
   7.3251873504558168E-002  -2.0500537316205762E-002   2.3021829456477398E-002
   7.0351693033852719E-002  -2.0134705565387684E-002   2.2126118524635877E-002
   7.5793306105583880E-002  -1.7961208373151683E-002   3.4722961377927020E-002
   7.3035538831042024E-002  -1.8694425950373572E-002   3.3220149677204269E-002
   7.0277771556500057E-002  -1.9061882229057983E-002   3.1909015491797671E-002
   6.7520004281958174E-002  -1.9063577209204544E-002   3.0789558821707128E-002
   6.4762237007416318E-002  -1.8699510890813509E-002   2.9861779666932653E-002
   8.7009787262758764E-002  -2.4440289589110376E-002   8.8965986669264918E-004
   8.4563595420375171E-002  -2.4933468888625521E-002   1.5327814565269104E-004
   8.2117403577991466E-002  -2.4879534363896949E-002  -2.3558498635367631E-004
   7.9671211735607789E-002  -2.4278486014924147E-002  -2.7692952932656389E-004
   7.7225019893224167E-002  -2.3130323841707767E-002   2.9244516733917258E-005
   8.1475468161523901E-002  -2.3005094914536006E-002   7.6400586245159441E-003
   7.9344133706815506E-002  -2.3235600850016913E-002   7.3340031205049727E-003
   7.7212799252107028E-002  -2.3050487822832935E-002   7.3101438028113086E-003
   7.5081464797398620E-002  -2.2449755832984062E-002   7.5684806714341052E-003
   7.2950130342690156E-002  -2.1433404880470741E-002   8.1090137263742923E-003
   7.5922770085221886E-002  -2.1569900239961914E-002   1.4718878177163885E-002
   7.4040970615472212E-002  -2.1537732811407889E-002   1.4711654028602431E-002
   7.2159171145722470E-002  -2.1221441281768699E-002   1.4921303663641680E-002
   7.0277371675972755E-002  -2.0621025651043977E-002   1.5347827082281301E-002
   6.8395572206223026E-002  -1.9736485919234159E-002   1.5991224284521516E-002
   7.0351693033852719E-002  -2.0134705565387684E-002   2.2126118524635877E-002
   6.8654106146345234E-002  -1.9839864772799073E-002   2.2286230869944784E-002
   6.6956519258837818E-002  -1.9392394740704519E-002   2.2597894596137855E-002
   6.5258932371330389E-002  -1.8792295469103892E-002   2.3061109703214819E-002
   6.3561345483822917E-002  -1.8039566957997466E-002   2.3675876191175761E-002
   6.4762237007416318E-002  -1.8699510890813509E-002   2.9861779666932653E-002
   6.3183540299434654E-002  -1.8141996734190258E-002   3.0057733644532209E-002
   6.1604843591453060E-002  -1.7563348199640463E-002   3.0339916600299693E-002
   6.0026146883471430E-002  -1.6963565287163893E-002   3.0708328534234580E-002
   5.8447450175489746E-002  -1.6342647996760606E-002   3.1162969446336952E-002
   7.7225019893224167E-002  -2.3130323841707767E-002   2.9244516733917258E-005
   7.2978296498845907E-002  -2.1763771380992614E-002  -2.1113179062270948E-004
   6.8731573104467703E-002  -2.0507552169524462E-002  -3.6662630365308368E-004
   6.4484849710089442E-002  -1.9361666207303584E-002  -4.3723902235820455E-004
   6.0238126315711238E-002  -1.8326113494329666E-002  -4.2296994673707289E-004
   7.2950130342690156E-002  -2.1433404880470741E-002   8.1090137263742923E-003
   6.8824080079685879E-002  -2.0248158921409132E-002   7.5306790707251881E-003
   6.4698029816681657E-002  -1.9140741911916059E-002   7.1088088834984353E-003
   6.0571979553677352E-002  -1.8111153851990858E-002   6.8434031646937288E-003
   5.6445929290673158E-002  -1.7159394741634193E-002   6.7344619143109297E-003
   6.8395572206223026E-002  -1.9736485919234159E-002   1.5991224284521516E-002
   6.4461777748689081E-002  -1.8732546461826316E-002   1.5107435580258843E-002
   6.0527983291155052E-002  -1.7773931654307670E-002   1.4451694018514552E-002
   5.6594188833621037E-002  -1.6860641496678579E-002   1.4023999599288690E-002
   5.2660394376087050E-002  -1.5992675988938665E-002   1.3824352322581085E-002
   6.3561345483822917E-002  -1.8039566957997466E-002   2.3675876191175761E-002
   5.9891389505855437E-002  -1.7216934002243112E-002   2.2519137737978451E-002
   5.6221433527887929E-002  -1.6407121396699385E-002   2.1662029101395520E-002
   5.2551477549920463E-002  -1.5610129141366077E-002   2.1104550281427228E-002
   4.8881521571952948E-002  -1.4825957236243276E-002   2.0846701278073691E-002
   5.8447450175489746E-002  -1.6342647996760606E-002   3.1162969446336952E-002
   5.5112915351185066E-002  -1.5701321542660046E-002   2.9765785543883760E-002
   5.1778380526880358E-002  -1.5040311139090989E-002   2.8739814132141106E-002
   4.8443845702575664E-002  -1.4359616786053603E-002   2.8085055211109405E-002
   4.5109310878270914E-002  -1.3659238483547609E-002   2.7801508780788742E-002
   6.0238126315711238E-002  -1.8326113494329666E-002  -4.2296994673707289E-004
   5.8078612483890124E-002  -1.7401441138278462E-002  -1.8802789371752393E-004
   5.5919098652068955E-002  -1.6588196246823644E-002   1.8543361307049588E-004
   5.3759584820247869E-002  -1.5886378819966442E-002   6.9741457362726411E-004
   5.1600070988426672E-002  -1.5295988857706000E-002   1.3479149879520591E-003
   5.6445929290673158E-002  -1.7159394741634193E-002   6.7344619143109297E-003
   5.4413072888947811E-002  -1.6288343246046555E-002   6.8666971818262534E-003
   5.2380216487222520E-002  -1.5500878030427823E-002   7.1137278557647510E-003
   5.0347360085497200E-002  -1.4796999094779287E-002   7.4755539361262557E-003
   4.8314503683771826E-002  -1.4176706439100073E-002   7.9521754229109343E-003
   5.2660394376087050E-002  -1.5992675988938665E-002   1.3824352322581085E-002
   5.0730471357112172E-002  -1.5175245353814371E-002   1.3881721989219886E-002
   4.8800548338137226E-002  -1.4413559814032431E-002   1.4030163014936189E-002
   4.6870625319162355E-002  -1.3707619369592128E-002   1.4269675399730598E-002
   4.4940702300187457E-002  -1.3057424020493924E-002   1.4600259143602690E-002
   4.8881521571952948E-002  -1.4825957236243276E-002   2.0846701278073691E-002
   4.7030807888383028E-002  -1.4062147461582769E-002   2.0857046528463499E-002
   4.5180094204813184E-002  -1.3326241597636714E-002   2.0934739090585842E-002
   4.3329380521243292E-002  -1.2618239644405416E-002   2.1079778964440396E-002
   4.1478666837673449E-002  -1.1938141601888330E-002   2.1292166150027242E-002
   4.5109310878270914E-002  -1.3659238483547609E-002   2.7801508780788742E-002
   4.3314082482760585E-002  -1.2949049569350946E-002   2.7792670799557329E-002
   4.1518854087250312E-002  -1.2238923381241176E-002   2.7827456082712726E-002
   3.9723625691740067E-002  -1.1528859919218360E-002   2.7905864630255170E-002
   3.7928397296229710E-002  -1.0818859183282403E-002   2.8027896442184175E-002
   5.1600070988426672E-002  -1.5295988857706000E-002   1.3479149879520591E-003
   4.8612318276503586E-002  -1.4694671322885045E-002   7.7245227301347974E-004
   4.5624565564580444E-002  -1.3960071178346745E-002   2.9859654527553126E-004
   4.2636812852657330E-002  -1.3092188424090656E-002  -7.3652195262063902E-005
   3.9649060140734216E-002  -1.2091023060116557E-002  -3.4429394859913920E-004
   4.8314503683771826E-002  -1.4176706439100073E-002   7.9521754229109343E-003
   4.5434406830570206E-002  -1.3549129099369006E-002   7.4102466294596603E-003
   4.2554309977368532E-002  -1.2823396111565133E-002   6.9820225662505786E-003
   3.9674213124166829E-002  -1.1999507475688287E-002   6.6675032332846051E-003
   3.6794116270965238E-002  -1.1077463191738079E-002   6.4666886305607685E-003
   4.4940702300187457E-002  -1.3057424020493924E-002   1.4600259143602690E-002
   4.2180359048749422E-002  -1.2403586875852635E-002   1.4056737309993572E-002
   3.9420015797311456E-002  -1.1686721044783299E-002   1.3639017949668819E-002
   3.6659672545873441E-002  -1.0906826527285474E-002   1.3347101062629457E-002
   3.3899329294435454E-002  -1.0063903323359491E-002   1.3180986648874238E-002
   4.1478666837673449E-002  -1.1938141601888330E-002   2.1292166150027242E-002
   3.8850174931041280E-002  -1.1258044652336541E-002   2.0711924314615104E-002
   3.6221683024409160E-002  -1.0550045978001688E-002   2.0269582695530371E-002
   3.3593191117777040E-002  -9.8141455788831045E-003   1.9965141292772257E-002
   3.0964699211144933E-002  -9.0503434549811801E-003   1.9798600106341713E-002
   3.7928397296229710E-002  -1.0818859183282403E-002   2.8027896442184175E-002
   3.5443854477445691E-002  -1.0112502428820169E-002   2.7375807643325145E-002
   3.2959311658661755E-002  -9.4133709112201591E-003   2.6873716803834768E-002
   3.0474768839877750E-002  -8.7214646304805341E-003   2.6521623923714294E-002
   2.7990226021093800E-002  -8.0367835866027582E-003   2.6319529002962638E-002
   3.9649060140734216E-002  -1.2091023060116557E-002  -3.4429394859913920E-004
   3.7313130789540128E-002  -1.1131795053615501E-002  -4.4665529555865113E-004
   3.4977201438346150E-002  -1.0389724371780762E-002  -5.0146055880961882E-004
   3.2641272087152118E-002  -9.8648110146090096E-003  -5.0870973835320799E-004
   3.0305342735958085E-002  -9.5570549821037964E-003  -4.6840283418814188E-004
   3.6794116270965238E-002  -1.1077463191738079E-002   6.4666886305607685E-003
   3.4494402721527151E-002  -1.0179908474710619E-002   6.1309978415975408E-003
   3.2194689172089203E-002  -9.4294885396012385E-003   5.8201825724386036E-003
   2.9894975622651185E-002  -8.8262033864102973E-003   5.5342428230834573E-003
   2.7595262073213167E-002  -8.3700530151376018E-003   5.2731785935323794E-003
   3.3899329294435454E-002  -1.0063903323359491E-002   1.3180986648874238E-002
   3.1613150982849697E-002  -9.2280218958051274E-003   1.2681988960653756E-002
   2.9326972671263940E-002  -8.4692527074223811E-003   1.2185186228333061E-002
   2.7040794359678197E-002  -7.7875957582104749E-003   1.1690578451913125E-002
   2.4754616048092426E-002  -7.1830510481711851E-003   1.1198165631393475E-002
   3.0964699211144933E-002  -9.0503434549811801E-003   1.9798600106341713E-002
   2.8669375573507627E-002  -8.2761353168997187E-003   1.9206318061610148E-002
   2.6374051935870342E-002  -7.5090168752431907E-003   1.8593550408874934E-002
   2.4078728298233040E-002  -6.7489881300116517E-003   1.7960297148136573E-002
   2.1783404660595751E-002  -5.9960490812046574E-003   1.7306558279394466E-002
   2.7990226021093800E-002  -8.0367835866027582E-003   2.6319529002962638E-002
   2.5663076493501080E-002  -7.3242487379947541E-003   2.5703985144467034E-002
   2.3335926965908471E-002  -6.5487810430642779E-003   2.5045275114064069E-002
   2.1008777438315807E-002  -5.7103805018122872E-003   2.4343398911754272E-002
   1.8681627910723198E-002  -4.8090471142382407E-003   2.3598356537536280E-002
   3.0305342735958085E-002  -9.5570549821037964E-003  -4.6840283418814188E-004
   2.9667724845744314E-002  -9.1418960402720462E-003  -3.0105943190417150E-004
   2.9030106955530544E-002  -8.2947739551200717E-003  -1.7952028466614589E-003
   2.8392489065316773E-002  -7.0156887266495521E-003  -4.9508330784616139E-003
   2.7754871175103002E-002  -5.3046403548597798E-003  -9.7679501273033598E-003
   2.7595262073213167E-002  -8.3700530151376018E-003   5.2731785935323794E-003
   2.5562376152377164E-002  -7.8735904379829691E-003   5.9060365883614185E-003
   2.3529490231541106E-002  -7.1493686671464385E-003   5.4098453389873624E-003
   2.1496604310705131E-002  -6.1973877026280655E-003   3.7846048454110437E-003
   1.9463718389869045E-002  -5.0176475444276836E-003   1.0303151076327399E-003
   2.4754616048092426E-002  -7.1830510481711851E-003   1.1198165631393475E-002
   2.1858899669473880E-002  -6.6052848356946692E-003   1.2092334269129423E-002
   1.8963183290855362E-002  -6.0039633791729996E-003   1.2389891235502964E-002
   1.6067466912236844E-002  -5.3790866786067940E-003   1.2090836530514099E-002
   1.3171750533618298E-002  -4.7306547339954763E-003   1.1195170154161882E-002
   2.1783404660595751E-002  -5.9960490812046574E-003   1.7306558279394466E-002
   1.8557295397034497E-002  -5.3369792334066468E-003   1.8257833610401369E-002
   1.5331186133473187E-002  -4.8585580911994636E-003   1.9144934842885201E-002
   1.2105076869911906E-002  -4.5607856545851928E-003   1.9967861976846090E-002
   8.8789676063505130E-003  -4.4436619235624364E-003   2.0726615012284330E-002
   1.8681627910723198E-002  -4.8090471142382407E-003   2.3598356537536280E-002
   1.5657563335058911E-002  -4.0686736311177363E-003   2.4402534612176785E-002
   1.2633498759394596E-002  -3.7131528032261218E-003   2.5674976161133622E-002
   9.6094341837303227E-003  -3.7424846305638623E-003   2.7415681184407820E-002
   6.5853696080659940E-003  -4.1566691131300626E-003   2.9624649681998516E-002
   2.7754871175103002E-002  -5.3046403548597798E-003  -9.7679501273033598E-003
   2.3339168302475510E-002  -4.1991989066987312E-003  -4.2049475534360337E-003
   1.8923465429848019E-002  -4.7369344491104415E-003   2.6116566134379848E-003
   1.4507762557220416E-002  -6.9178469820976446E-003   1.0681862373318973E-002
   1.0092059684593035E-002  -1.0741936505657357E-002   2.0005669726207209E-002
   1.9463718389869045E-002  -5.0176475444276836E-003   1.0303151076327399E-003
   1.6231138971514458E-002  -4.6857602001355581E-003   6.7387035657135996E-003
   1.2998559553159927E-002  -6.2773376773406775E-003   1.3559737339332800E-002
   9.7659801348054243E-003  -9.7923799760436664E-003   2.1493416428490564E-002
   6.5334007164505881E-003  -1.5230887096245205E-002   3.0539740833188223E-002
   1.3171750533618298E-002  -4.7306547339954763E-003   1.1195170154161882E-002
   1.0981338292068488E-002  -5.1723214935720518E-003   1.6768656665531845E-002
   8.7909260505186770E-003  -7.8177409055708857E-003   2.3313832214972102E-002
   6.6005138089687831E-003  -1.2666912969991125E-002   3.0830696802483556E-002
   4.4101015674190558E-003  -1.9719837686833497E-002   3.9319250428065278E-002
   8.8789676063505130E-003  -4.4436619235624364E-003   2.0726615012284330E-002
   7.5897662641374597E-003  -5.6588827870084901E-003   2.5884911746018993E-002
   6.3005649219244064E-003  -9.3581441338006638E-003   3.1873941240356661E-002
   5.0113635797112629E-003  -1.5541445963937865E-002   3.8693703495296855E-002
   3.7221622374981889E-003  -2.4208788277421567E-002   4.6344198510840207E-002
   6.5853696080659940E-003  -4.1566691131300626E-003   2.9624649681998516E-002
   6.0564228877215132E-003  -6.1454440804455945E-003   3.4087468807174837E-002
   5.5274761673770600E-003  -1.0898547362030109E-002   3.9240064415485665E-002
   4.9985294470325653E-003  -1.8415978957885243E-002   4.5082436506931500E-002
   4.4695827266880706E-003  -2.8697738868009637E-002   5.1614585081511066E-002
   7.5793306105583880E-002  -1.7961208373151683E-002   3.4722961377927020E-002
   7.3035538831042024E-002  -1.8694425950373572E-002   3.3220149677204269E-002
   7.0277771556500057E-002  -1.9061882229057983E-002   3.1909015491797671E-002
   6.7520004281958174E-002  -1.9063577209204544E-002   3.0789558821707128E-002
   6.4762237007416318E-002  -1.8699510890813509E-002   2.9861779666932653E-002
   6.9408295687820198E-002  -1.8060574200907398E-002   3.7278242954244034E-002
   6.6866087480855513E-002  -1.8408594217930896E-002   3.6090336781863519E-002
   6.4323879273890855E-002  -1.8461708211211361E-002   3.5141871229321553E-002
   6.1781671066926142E-002  -1.8219916180748922E-002   3.4432846296617900E-002
   5.9239462859961484E-002  -1.7683218126543498E-002   3.3963261983752574E-002
   6.2983975584997215E-002  -1.8159940028663141E-002   4.0254149728156816E-002
   6.0705089550132207E-002  -1.8122762485488150E-002   3.9310293809323757E-002
   5.8426203515267047E-002  -1.7861534193364871E-002   3.8653641614851582E-002
   5.6147317480401950E-002  -1.7376255152293268E-002   3.8284193144740242E-002
   5.3868431445536831E-002  -1.6666925362273460E-002   3.8201948398989660E-002
   5.6520345797114825E-002  -1.8259305856418842E-002   4.3650681699665655E-002
   5.4552545038871768E-002  -1.7836930753045398E-002   4.2880020759585302E-002
   5.2584744280628662E-002  -1.7261360175518343E-002   4.2444326648388285E-002
   5.0616943522385570E-002  -1.6532594123837688E-002   4.2343599366074534E-002
   4.8649142764142519E-002  -1.5650632598003547E-002   4.2577838912643662E-002
   5.0017406324173119E-002  -1.8358671684174599E-002   4.7467838868770151E-002
   4.8408453947074437E-002  -1.7551099020602645E-002   4.6799517632647891E-002
   4.6799501569975727E-002  -1.6661186157671787E-002   4.6513926329931343E-002
   4.5190549192877030E-002  -1.5688933095382031E-002   4.6611064960620202E-002
   4.3581596815778334E-002  -1.4634339833733467E-002   4.7090933524714884E-002
   6.4762237007416318E-002  -1.8699510890813509E-002   2.9861779666932653E-002
   6.3183540299434654E-002  -1.8141996734190258E-002   3.0057733644532209E-002
   6.1604843591453060E-002  -1.7563348199640463E-002   3.0339916600299693E-002
   6.0026146883471430E-002  -1.6963565287163893E-002   3.0708328534234580E-002
   5.8447450175489746E-002  -1.6342647996760606E-002   3.1162969446336952E-002
   5.9239462859961484E-002  -1.7683218126543498E-002   3.3963261983752574E-002
   5.7747015030308740E-002  -1.7011470253773364E-002   3.4309142590200320E-002
   5.6254567200655997E-002  -1.6364528767617056E-002   3.4741291975138311E-002
   5.4762119371003261E-002  -1.5742393668074266E-002   3.5259710138566769E-002
   5.3269671541350511E-002  -1.5145064955145449E-002   3.5864397080485083E-002
   5.3868431445536831E-002  -1.6666925362273460E-002   3.8201948398989660E-002
   5.2462272294535657E-002  -1.5880943773356582E-002   3.8651814869745088E-002
   5.1056113143534490E-002  -1.5165709335593698E-002   3.9187989919313458E-002
   4.9649953992533288E-002  -1.4521222048984915E-002   3.9810473547694722E-002
   4.8243794841532087E-002  -1.3947481913530207E-002   4.0519265754888706E-002
   4.8649142764142519E-002  -1.5650632598003547E-002   4.2577838912643662E-002
   4.7329312092115494E-002  -1.4750417292939771E-002   4.3085750483166416E-002
   4.6009481420088490E-002  -1.3966889903570343E-002   4.3680010432824795E-002
   4.4689650748061471E-002  -1.3300050429895481E-002   4.4360618761618648E-002
   4.3369820076034515E-002  -1.2749898871914953E-002   4.5127575469548029E-002
   4.3581596815778334E-002  -1.4634339833733467E-002   4.7090933524714884E-002
   4.2348134423048203E-002  -1.3619890812522878E-002   4.7610949430464539E-002
   4.1114672030318045E-002  -1.2768070471546961E-002   4.8217353515672523E-002
   3.9881209637587914E-002  -1.2078878810805972E-002   4.8910145780338588E-002
   3.8647747244857755E-002  -1.1552315830299753E-002   4.9689326224462926E-002
   5.8447450175489746E-002  -1.6342647996760606E-002   3.1162969446336952E-002
   5.5112915351185066E-002  -1.5701321542660046E-002   2.9765785543883760E-002
   5.1778380526880358E-002  -1.5040311139090989E-002   2.8739814132141106E-002
   4.8443845702575664E-002  -1.4359616786053603E-002   2.8085055211109405E-002
   4.5109310878270914E-002  -1.3659238483547609E-002   2.7801508780788742E-002
   5.3269671541350511E-002  -1.5145064955145449E-002   3.5864397080485083E-002
   5.0284417453409627E-002  -1.4548638860809676E-002   3.4618525907453263E-002
   4.7299163365468674E-002  -1.3929211617046272E-002   3.3700003716438262E-002
   4.4313909277527729E-002  -1.3286783223855590E-002   3.3108830507439881E-002
   4.1328655189586866E-002  -1.2621353681237402E-002   3.2845006280458167E-002
   4.8243794841532087E-002  -1.3947481913530207E-002   4.0519265754888706E-002
   4.5563957981260811E-002  -1.3395956178959181E-002   3.9428024511237711E-002
   4.2884121120989445E-002  -1.2818112095001832E-002   3.8620268740909125E-002
   4.0204284260718121E-002  -1.2213949661657689E-002   3.8095998443903129E-002
   3.7524447400446817E-002  -1.1583468878927111E-002   3.7855213620219583E-002
   4.3369820076034515E-002  -1.2749898871914953E-002   4.5127575469548029E-002
   4.0951536934738589E-002  -1.2243273497108915E-002   4.4194281355236897E-002
   3.8533253793442600E-002  -1.1707012572957198E-002   4.3500609205553861E-002
   3.6114970652146618E-002  -1.1141116099459843E-002   4.3046559020499184E-002
   3.3696687510850684E-002  -1.0545584076616918E-002   4.2832130800072823E-002
   3.8647747244857755E-002  -1.1552315830299753E-002   4.9689326224462926E-002
   3.6447154313842989E-002  -1.1090590815258400E-002   4.8917296439450586E-002
   3.4246561382828167E-002  -1.0595913050912661E-002   4.8341025110372221E-002
   3.2045968451813386E-002  -1.0068282537261882E-002   4.7960512237227984E-002
   2.9845375520798606E-002  -9.5076992743066135E-003   4.7775757820017972E-002
   4.5109310878270914E-002  -1.3659238483547609E-002   2.7801508780788742E-002
   4.3314082482760585E-002  -1.2949049569350946E-002   2.7792670799557329E-002
   4.1518854087250312E-002  -1.2238923381241176E-002   2.7827456082712726E-002
   3.9723625691740067E-002  -1.1528859919218360E-002   2.7905864630255170E-002
   3.7928397296229710E-002  -1.0818859183282403E-002   2.8027896442184175E-002
   4.1328655189586866E-002  -1.2621353681237402E-002   3.2845006280458167E-002
   3.9594125743859787E-002  -1.1939456786221825E-002   3.2834627298807262E-002
   3.7859596298132653E-002  -1.1247626335839173E-002   3.2902022952335686E-002
   3.6125066852405546E-002  -1.0545862330089383E-002   3.3047193241043923E-002
   3.4390537406678467E-002  -9.8341647689724754E-003   3.3270138164931462E-002
   3.7524447400446817E-002  -1.1583468878927111E-002   3.7855213620219583E-002
   3.5884768275295617E-002  -1.0929864003092704E-002   3.7853289919602962E-002
   3.4245089150144389E-002  -1.0256329290437051E-002   3.7963292224958554E-002
   3.2605410024993182E-002  -9.5628647409604032E-003   3.8185220536286424E-002
   3.0965730899841962E-002  -8.8494703546624920E-003   3.8519074853586632E-002
   3.3696687510850684E-002  -1.0545584076616918E-002   4.2832130800072823E-002
   3.2186010077068047E-002  -9.9202712199635834E-003   4.2848658661944490E-002
   3.0675332643285383E-002  -9.2650322450350438E-003   4.3011263900581444E-002
   2.9164655209502767E-002  -8.5798671518314794E-003   4.3319946515983199E-002
   2.7653977775720085E-002  -7.8647759403526474E-003   4.3774706508149873E-002
   2.9845375520798606E-002  -9.5076992743066135E-003   4.7775757820017972E-002
   2.8497851149177161E-002  -8.9106784368344627E-003   4.7820733525832326E-002
   2.7150326777555758E-002  -8.2737351996330921E-003   4.8045937979204201E-002
   2.5802802405934334E-002  -7.5968695627024324E-003   4.8451371180133540E-002
   2.4455278034312883E-002  -6.8800815260425807E-003   4.9037033128620622E-002
   3.7928397296229710E-002  -1.0818859183282403E-002   2.8027896442184175E-002
   3.5443854477445691E-002  -1.0112502428820169E-002   2.7375807643325145E-002
   3.2959311658661755E-002  -9.4133709112201591E-003   2.6873716803834768E-002
   3.0474768839877750E-002  -8.7214646304805341E-003   2.6521623923714294E-002
   2.7990226021093800E-002  -8.0367835866027582E-003   2.6319529002962638E-002
   3.4390537406678467E-002  -9.8341647689724754E-003   3.3270138164931462E-002
   3.2056378161260390E-002  -9.1246138630376450E-003   3.2720762311487295E-002
   2.9722218915842299E-002  -8.4292898228334745E-003   3.2322155645405415E-002
   2.7388059670424132E-002  -7.7481926483603109E-003   3.2074318166686586E-002
   2.5053900425006104E-002  -7.0813223396181124E-003   3.1977249875329461E-002
   3.0965730899841962E-002  -8.8494703546624920E-003   3.8519074853586632E-002
   2.8782726455782989E-002  -8.1367252972543713E-003   3.8065410316687975E-002
   2.6599722011723968E-002  -7.4452087344470258E-003   3.7763286195145115E-002
   2.4416717567664958E-002  -6.7749206662398691E-003   3.7612702488957823E-002
   2.2233713123605961E-002  -6.1258610926334112E-003   3.7613659198126537E-002
   2.7653977775720085E-002  -7.8647759403526474E-003   4.3774706508149873E-002
   2.5622899361013453E-002  -7.1488367314713058E-003   4.3409751658927007E-002
   2.3591820946306748E-002  -6.4611276460604036E-003   4.3197108453053162E-002
   2.1560742531600049E-002  -5.8016486841193701E-003   4.3136776890528208E-002
   1.9529664116893407E-002  -5.1703998456488487E-003   4.3228756971352325E-002
   2.4455278034312883E-002  -6.8800815260425807E-003   4.9037033128620622E-002
   2.2576896876951774E-002  -6.1609481656885179E-003   4.8753786338204264E-002
   2.0698515719590652E-002  -5.4770465576738925E-003   4.8623622419129986E-002
   1.8820134562229536E-002  -4.8283767019991486E-003   4.8646541371397706E-002
   1.6941753404868393E-002  -4.2149385986640642E-003   4.8822543195007895E-002
   2.7990226021093800E-002  -8.0367835866027582E-003   2.6319529002962638E-002
   2.5663076493501080E-002  -7.3242487379947541E-003   2.5703985144467034E-002
   2.3335926965908471E-002  -6.5487810430642779E-003   2.5045275114064069E-002
   2.1008777438315807E-002  -5.7103805018122872E-003   2.4343398911754272E-002
   1.8681627910723198E-002  -4.8090471142382407E-003   2.3598356537536280E-002
   2.5053900425006104E-002  -7.0813223396181124E-003   3.1977249875329461E-002
   2.2720644098315257E-002  -6.4116837937143734E-003   3.1556251777518418E-002
   2.0387387771624355E-002  -5.7222819077573095E-003   3.1166206253418205E-002
   1.8054131444933473E-002  -5.0131166817460188E-003   3.0807113303028627E-002
   1.5720875118242605E-002  -4.2841881156807649E-003   3.0478972926350156E-002
   2.2233713123605961E-002  -6.1258610926334112E-003   3.7613659198126537E-002
   1.9968468743434942E-002  -5.4991188494344367E-003   3.7344037354731574E-002
   1.7703224363263922E-002  -4.8957827724497582E-003   3.7179486830665770E-002
   1.5437979983092889E-002  -4.3158528616794103E-003   3.7120007625928805E-002
   1.3172735602921926E-002  -3.7593291171233445E-003   3.7165599740520611E-002
   1.9529664116893407E-002  -5.1703998456488487E-003   4.3228756971352325E-002
   1.7406550428860343E-002  -4.5865539051542226E-003   4.3067341876105711E-002
   1.5283436740827282E-002  -4.0692836371427205E-003   4.3085116845806175E-002
   1.3160323052794165E-002  -3.6185890416130274E-003   4.3282081880453779E-002
   1.1037209364761161E-002  -3.2344701185657854E-003   4.3658236980048164E-002
   1.6941753404868393E-002  -4.2149385986640642E-003   4.8822543195007895E-002
   1.5034889154591335E-002  -3.6739889608742304E-003   4.8726165341641425E-002
   1.3128024904314320E-002  -3.2427845018353496E-003   4.8883096298840190E-002
   1.1221160654037270E-002  -2.9213252215464502E-003   4.9293336066603716E-002
   9.3142964037602471E-003  -2.7096111200084483E-003   4.9956884644932753E-002
   1.8681627910723198E-002  -4.8090471142382407E-003   2.3598356537536280E-002
   1.5657563335058911E-002  -4.0686736311177363E-003   2.4402534612176785E-002
   1.2633498759394596E-002  -3.7131528032261218E-003   2.5674976161133622E-002
   9.6094341837303227E-003  -3.7424846305638623E-003   2.7415681184407820E-002
   6.5853696080659940E-003  -4.1566691131300626E-003   2.9624649681998516E-002
   1.5720875118242605E-002  -4.2841881156807649E-003   3.0478972926350156E-002
   1.3147571568391025E-002  -3.7655733507296341E-003   3.1265640030890551E-002
   1.0574268018539348E-002  -3.6873495280608515E-003   3.2485565712739306E-002
   8.0009644686877615E-003  -4.0495166476741465E-003   3.4138749971896976E-002
   5.4276609188360914E-003  -4.8520747095689432E-003   3.6225192808362783E-002
   1.3172735602921926E-002  -3.7593291171233445E-003   3.7165599740520611E-002
   1.1015188181874594E-002  -3.4624730703418649E-003   3.7879217587908326E-002
   8.8576407608272970E-003  -3.6615462528955950E-003   3.8991089115595859E-002
   6.7000933397799688E-003  -4.3565486647842121E-003   4.0501214323583924E-002
   4.5425459187327238E-003  -5.5474803060079347E-003   4.2409593211871877E-002
   1.1037209364761161E-002  -3.2344701185657854E-003   4.3658236980048164E-002
   9.2604131755097720E-003  -3.1593727899539292E-003   4.4243267283229797E-002
   7.4836169862583599E-003  -3.6357429777298875E-003   4.5191546369703600E-002
   5.7068207970069748E-003  -4.6635806818947200E-003   4.6503074239468659E-002
   3.9300246077555619E-003  -6.2428859024472039E-003   4.8177850892525728E-002
   9.3142964037602471E-003  -2.7096111200084483E-003   4.9956884644932753E-002
   7.8832465492963966E-003  -2.8562725095659935E-003   5.0357789116855511E-002
   6.4521966948325737E-003  -3.6099397025651236E-003   5.1086937475061711E-002
   5.0211468403687370E-003  -4.9706126990049088E-003   5.2144329719551630E-002
   3.5900969859049003E-003  -6.9382914988860289E-003   5.3529965850324324E-002
   6.5853696080659940E-003  -4.1566691131300626E-003   2.9624649681998516E-002
   6.0564228877215132E-003  -6.1454440804455945E-003   3.4087468807174837E-002
   5.5274761673770600E-003  -1.0898547362030109E-002   3.9240064415485665E-002
   4.9985294470325653E-003  -1.8415978957885243E-002   4.5082436506931500E-002
   4.4695827266880706E-003  -2.8697738868009637E-002   5.1614585081511066E-002
   5.4276609188360914E-003  -4.8520747095689432E-003   3.6225192808362783E-002
   5.4838652012439426E-003  -6.9911192374587650E-003   3.8357524990294600E-002
   5.5400694836517800E-003  -1.1362745755056608E-002   4.0970382694596241E-002
   5.5962737660595549E-003  -1.7966954262361980E-002   4.4063765921268538E-002
   5.6524780484675241E-003  -2.6803744759374970E-002   4.7637674670309771E-002
   4.5425459187327238E-003  -5.5474803060079347E-003   4.2409593211871877E-002
   4.9746502431282230E-003  -7.8367943944722684E-003   4.2743184775120763E-002
   5.4067545675237014E-003  -1.1826944148082330E-002   4.3348050899975538E-002
   5.8388588919191971E-003  -1.7517929566838272E-002   4.4224191586435591E-002
   6.2709632163147899E-003  -2.4909750650740081E-002   4.5371606834500811E-002
   3.9300246077555619E-003  -6.2428859024472039E-003   4.8177850892525728E-002
   4.5287780133742919E-003  -8.6824695514853834E-003   4.7244448161654011E-002
   5.1275314189929890E-003  -1.2291142541108219E-002   4.6373069031623013E-002
   5.7262848246116592E-003  -1.7068904871314787E-002   4.5563713502432844E-002
   6.3250382302304162E-003  -2.3015756542105192E-002   4.4816381574083797E-002
   3.5900969859049003E-003  -6.9382914988860289E-003   5.3529965850324324E-002
   4.1462485119821701E-003  -9.5281447084989424E-003   5.1861315149893450E-002
   4.7024000380594122E-003  -1.2755340934134218E-002   5.0045437089538902E-002
   5.2585515641367098E-003  -1.6619880175791385E-002   4.8082331669261180E-002
   5.8147030902139241E-003  -2.1121762433470526E-002   4.5971998889058785E-002
   5.0017406324173119E-002  -1.8358671684174599E-002   4.7467838868770151E-002
   4.8408453947074437E-002  -1.7551099020602645E-002   4.6799517632647891E-002
   4.6799501569975727E-002  -1.6661186157671787E-002   4.6513926329931343E-002
   4.5190549192877030E-002  -1.5688933095382031E-002   4.6611064960620202E-002
   4.3581596815778334E-002  -1.4634339833733467E-002   4.7090933524714884E-002
   4.3592467606615504E-002  -1.4990897833752403E-002   5.1758899097177569E-002
   4.2316049719050439E-002  -1.4506349619480885E-002   5.1324740428374954E-002
   4.1039631831485415E-002  -1.3926047973840228E-002   5.1172920805234362E-002
   3.9763213943920406E-002  -1.3249992896830307E-002   5.1303440227755209E-002
   3.8486796056355382E-002  -1.2478184388451191E-002   5.1716298695938051E-002
   3.7362840084885413E-002  -1.1623123983330125E-002   5.5720228260279253E-002
   3.6318565799110233E-002  -1.1461600218359208E-002   5.5533645390806963E-002
   3.5274291513334999E-002  -1.1190909790008710E-002   5.5529010679252380E-002
   3.4230017227559806E-002  -1.0811052698278662E-002   5.5706324125615735E-002
   3.3185742941784599E-002  -1.0322028943168998E-002   5.6065585729896950E-002
   3.1328523758983019E-002  -8.2553501329078738E-003   5.9351826358075586E-002
   3.0416002187253769E-002  -8.4168508172374895E-003   5.9426232519943514E-002
   2.9503480615524463E-002  -8.4557716061771995E-003   5.9582195951985550E-002
   2.8590959043795199E-002  -8.3721124997269501E-003   5.9819716654201570E-002
   2.7678437472065932E-002  -8.1658734978867081E-003   6.0138794626591531E-002
   2.5489518628908248E-002  -4.8875762824856506E-003   6.2653693390566034E-002
   2.4608358883481007E-002  -5.3721014161157710E-003   6.3002501815784706E-002
   2.3727199138053823E-002  -5.7206334223456612E-003   6.3332476623433664E-002
   2.2846039392626610E-002  -5.9331723011752449E-003   6.3643617813512715E-002
   2.1964879647199398E-002  -6.0097180526044736E-003   6.3935925386021941E-002
   4.3581596815778334E-002  -1.4634339833733467E-002   4.7090933524714884E-002
   4.2348134423048203E-002  -1.3619890812522878E-002   4.7610949430464539E-002
   4.1114672030318045E-002  -1.2768070471546961E-002   4.8217353515672523E-002
   3.9881209637587914E-002  -1.2078878810805972E-002   4.8910145780338588E-002
   3.8647747244857755E-002  -1.1552315830299753E-002   4.9689326224462926E-002
   3.8486796056355382E-002  -1.2478184388451191E-002   5.1716298695938051E-002
   3.7353875815785920E-002  -1.1708293209799478E-002   5.1913107833713182E-002
   3.6220955575216443E-002  -1.1037990121971368E-002   5.2224613096351444E-002
   3.5088035334646994E-002  -1.0467275124967200E-002   5.2650814483853024E-002
   3.3955115094077490E-002  -9.9961482187865824E-003   5.3191711996217722E-002
   3.3185742941784599E-002  -1.0322028943168998E-002   5.6065585729896950E-002
   3.2181672798780800E-002  -9.7966956070758976E-003   5.6002228689108390E-002
   3.1177602655777008E-002  -9.3079097723956089E-003   5.6081875718588123E-002
   3.0173532512773219E-002  -8.8556714391281495E-003   5.6304526818335997E-002
   2.9169462369769417E-002  -8.4399806072734396E-003   5.6670181988352011E-002
   2.7678437472065932E-002  -8.1658734978867081E-003   6.0138794626591531E-002
   2.6831525372032840E-002  -7.8850980043524074E-003   5.9878311996650391E-002
   2.5984613271999732E-002  -7.5778294228199886E-003   5.9789141382382546E-002
   2.5137701171966655E-002  -7.2440677532893214E-003   5.9871282783787803E-002
   2.4290789071933536E-002  -6.8838129957602273E-003   6.0124736200866280E-002
   2.1964879647199398E-002  -6.0097180526044736E-003   6.3935925386021941E-002
   2.1303433535542010E-002  -5.9735004016288895E-003   6.3541357756339234E-002
   2.0641987423884622E-002  -5.8477490732441323E-003   6.3346410087734645E-002
   1.9980541312227221E-002  -5.6324640674502123E-003   6.3351082380208243E-002
   1.9319095200569847E-002  -5.3276453842471261E-003   6.3555374633760264E-002
   3.8647747244857755E-002  -1.1552315830299753E-002   4.9689326224462926E-002
   3.6447154313842989E-002  -1.1090590815258400E-002   4.8917296439450586E-002
   3.4246561382828167E-002  -1.0595913050912661E-002   4.8341025110372221E-002
   3.2045968451813386E-002  -1.0068282537261882E-002   4.7960512237227984E-002
   2.9845375520798606E-002  -9.5076992743066135E-003   4.7775757820017972E-002
   3.3955115094077490E-002  -9.9961482187865824E-003   5.3191711996217722E-002
   3.1968111931106033E-002  -9.5655134123804053E-003   5.2370271270076735E-002
   2.9981108768134583E-002  -9.1162747146993212E-003   5.1780251624088183E-002
   2.7994105605163151E-002  -8.6484321257430628E-003   5.1421653058252310E-002
   2.6007102442191662E-002  -8.1619856455115714E-003   5.1294475572569054E-002
   2.9169462369769417E-002  -8.4399806072734396E-003   5.6670181988352011E-002
   2.7431711599059841E-002  -8.0404360095023691E-003   5.5784981463052594E-002
   2.5693960828350251E-002  -7.6366363784858768E-003   5.5166864642124565E-002
   2.3956210057640676E-002  -7.2285817142239677E-003   5.4815831525567599E-002
   2.2218459286931079E-002  -6.8162720167165292E-003   5.4731882113381647E-002
   2.4290789071933536E-002  -6.8838129957602273E-003   6.0124736200866280E-002
   2.2837953317704354E-002  -6.5153586066242428E-003   5.9161427018379023E-002
   2.1385117563475182E-002  -6.1569980422724845E-003   5.8500864164481442E-002
   1.9932281809246027E-002  -5.8087313027049550E-003   5.8143047639173454E-002
   1.8479446055016828E-002  -5.4705583879216535E-003   5.8087977442455294E-002
   1.9319095200569847E-002  -5.3276453842471261E-003   6.3555374633760264E-002
   1.8186837087039609E-002  -4.9902812037462829E-003   6.2499607936055246E-002
   1.7054578973509371E-002  -4.6773597060591476E-003   6.1782250191158683E-002
   1.5922320859979147E-002  -4.3888808911859839E-003   6.1403301399070520E-002
   1.4790062746448923E-002  -4.1248447591264448E-003   6.1362761559790258E-002
   2.9845375520798606E-002  -9.5076992743066135E-003   4.7775757820017972E-002
   2.8497851149177161E-002  -8.9106784368344627E-003   4.7820733525832326E-002
   2.7150326777555758E-002  -8.2737351996330921E-003   4.8045937979204201E-002
   2.5802802405934334E-002  -7.5968695627024324E-003   4.8451371180133540E-002
   2.4455278034312883E-002  -6.8800815260425807E-003   4.9037033128620622E-002
   2.6007102442191662E-002  -8.1619856455115714E-003   5.1294475572569054E-002
   2.4834341939084778E-002  -7.6502042641462820E-003   5.1419610478047745E-002
   2.3661581435977901E-002  -7.1063569717883662E-003   5.1714044372998036E-002
   2.2488820932871034E-002  -6.5304437684376333E-003   5.2177777257419816E-002
   2.1316060429764139E-002  -5.9224646540939618E-003   5.2810809131312864E-002
   2.2218459286931079E-002  -6.8162720167165292E-003   5.4731882113381647E-002
   2.1209532894252696E-002  -6.3897300914583788E-003   5.4929319729788220E-002
   2.0200606501574316E-002  -5.9389787439436403E-003   5.5285126577580196E-002
   1.9191680108895950E-002  -5.4640179741726122E-003   5.5799302656757740E-002
   1.8182753716217546E-002  -4.9648477821453429E-003   5.6471847967320854E-002
   1.8479446055016828E-002  -5.4705583879216535E-003   5.8087977442455294E-002
   1.7623424014680901E-002  -5.1292559187703368E-003   5.8349861281053378E-002
   1.6767401974344984E-002  -4.7716005160991365E-003   5.8759184592950854E-002
   1.5911379934009078E-002  -4.3975921799078686E-003   5.9315947378147896E-002
   1.5055357893673139E-002  -4.0072309101966685E-003   6.0020149636644343E-002
   1.4790062746448923E-002  -4.1248447591264448E-003   6.1362761559790258E-002
   1.4076015300369435E-002  -3.8687817460823504E-003   6.1681235131843426E-002
   1.3361967854289933E-002  -3.6042222882543828E-003   6.2136218419109990E-002
   1.2647920408210452E-002  -3.3311663856428961E-003   6.2727711421589866E-002
   1.1933872962130943E-002  -3.0496140382479942E-003   6.3455714139283304E-002
   2.4455278034312883E-002  -6.8800815260425807E-003   4.9037033128620622E-002
   2.2576896876951774E-002  -6.1609481656885179E-003   4.8753786338204264E-002
   2.0698515719590652E-002  -5.4770465576738925E-003   4.8623622419129986E-002
   1.8820134562229536E-002  -4.8283767019991486E-003   4.8646541371397706E-002
   1.6941753404868393E-002  -4.2149385986640642E-003   4.8822543195007895E-002
   2.1316060429764139E-002  -5.9224646540939618E-003   5.2810809131312864E-002
   1.9606230723797580E-002  -5.3117940573337852E-003   5.2517984462701339E-002
   1.7896401017831062E-002  -4.7278064067327041E-003   5.2409179825536972E-002
   1.6186571311864538E-002  -4.1705017022912322E-003   5.2484395219819749E-002
   1.4476741605898014E-002  -3.6398799440090501E-003   5.2743630645549211E-002
   1.8182753716217546E-002  -4.9648477821453429E-003   5.6471847967320854E-002
   1.6672412621750420E-002  -4.4626399489791913E-003   5.6177994226694894E-002
   1.5162071527283331E-002  -3.9785662557919599E-003   5.6099097677620668E-002
   1.3651730432816244E-002  -3.5126267025834268E-003   5.6235158320098524E-002
   1.2141389338349136E-002  -3.0648212893539251E-003   5.6586176154128143E-002
   1.5055357893673139E-002  -4.0072309101966685E-003   6.0020149636644343E-002
   1.3775442570810311E-002  -3.6134858406246390E-003   5.9733815630184497E-002
   1.2495527247947471E-002  -3.2293261048509936E-003   5.9693375975381047E-002
   1.1215611925084653E-002  -2.8547517028756769E-003   5.9898830672234435E-002
   9.9356966022218305E-003  -2.4897626346988555E-003   6.0350179720744412E-002
   1.1933872962130943E-002  -3.0496140382479942E-003   6.3455714139283304E-002
   1.0915320570977216E-002  -2.7643317322699756E-003   6.3185448673169886E-002
   9.8967681798234897E-003  -2.4800859539101106E-003   6.3192014718818135E-002
   8.8782157886697632E-003  -2.1968767031676703E-003   6.3475412276227688E-002
   7.8596633975160368E-003  -1.9147039800436749E-003   6.4035641345398742E-002
   1.6941753404868393E-002  -4.2149385986640642E-003   4.8822543195007895E-002
   1.5034889154591335E-002  -3.6739889608742304E-003   4.8726165341641425E-002
   1.3128024904314320E-002  -3.2427845018353496E-003   4.8883096298840190E-002
   1.1221160654037270E-002  -2.9213252215464502E-003   4.9293336066603716E-002
   9.3142964037602471E-003  -2.7096111200084483E-003   4.9956884644932753E-002
   1.4476741605898014E-002  -3.6398799440090501E-003   5.2743630645549211E-002
   1.2821300778344827E-002  -3.1781046397100776E-003   5.2664649365484262E-002
   1.1165859950791668E-002  -2.8273392972188727E-003   5.2835206120302181E-002
   9.5104191232385088E-003  -2.5875839165344569E-003   5.3255300910002495E-002
   7.8549782956853220E-003  -2.4588384976579336E-003   5.3924933734585845E-002
   1.2141389338349136E-002  -3.0648212893539251E-003   5.6586176154128143E-002
   1.0733601157837461E-002  -2.6822203185457583E-003   5.6523326664307649E-002
   9.3258129773258445E-003  -2.4118940926021737E-003   5.6706244433687741E-002
   7.9180247968142128E-003  -2.2538426115224636E-003   5.7134929462268128E-002
   6.5102366163025810E-003  -2.2080658753073079E-003   5.7809381750048738E-002
   9.9356966022218305E-003  -2.4897626346988555E-003   6.0350179720744412E-002
   8.7717902930693377E-003  -2.1863359973816332E-003   6.0302197238112025E-002
   7.6078839839168735E-003  -1.9964488879854747E-003   6.0496211238997177E-002
   6.4439776747643833E-003  -1.9201013065104702E-003   6.0932221723400785E-002
   5.2800713656119165E-003  -1.9572932529566822E-003   6.1610228691321794E-002
   7.8596633975160368E-003  -1.9147039800436749E-003   6.4035641345398742E-002
   6.9358681840403780E-003  -1.6904516762172306E-003   6.4001261086897077E-002
   6.0120729705647191E-003  -1.5810036833687757E-003   6.4205106536230683E-002
   5.0882777570890464E-003  -1.5863600014984214E-003   6.4647177693400115E-002
   4.1644825436134014E-003  -1.7065206306061675E-003   6.5327474558405041E-002
   9.3142964037602471E-003  -2.7096111200084483E-003   4.9956884644932753E-002
   7.8832465492963966E-003  -2.8562725095659935E-003   5.0357789116855511E-002
   6.4521966948325737E-003  -3.6099397025651236E-003   5.1086937475061711E-002
   5.0211468403687370E-003  -4.9706126990049088E-003   5.2144329719551630E-002
   3.5900969859049003E-003  -6.9382914988860289E-003   5.3529965850324324E-002
   7.8549782956853220E-003  -2.4588384976579336E-003   5.3924933734585845E-002
   6.7262609380668026E-003  -2.6422298610587203E-003   5.3854368542667841E-002
   5.5975435804482693E-003  -3.3388848272086213E-003   5.4060224458157169E-002
   4.4688262228297568E-003  -4.5488033961060687E-003   5.4542501481053801E-002
   3.3401088652112165E-003  -6.2719855677523251E-003   5.5301199611357266E-002
   6.5102366163025810E-003  -2.2080658753073079E-003   5.7809381750048738E-002
   5.6320289766532000E-003  -2.4281872125517800E-003   5.7361089094982942E-002
   4.7538213370038468E-003  -3.0678299518519803E-003   5.7137394768448396E-002
   3.8756136973544762E-003  -4.1269940932077767E-003   5.7138298770444809E-002
   2.9974060577051126E-003  -5.6056796366187323E-003   5.7363801100972445E-002
   5.2800713656119165E-003  -1.9572932529566822E-003   6.1610228691321794E-002
   4.6005506650555854E-003  -2.2141445640445623E-003   6.0877950773801107E-002
   3.9210299644992716E-003  -2.7967750764954086E-003   6.0318448405935192E-002
   3.2415092639429500E-003  -3.7051847903088776E-003   5.9931721587724168E-002
   2.5619885633866267E-003  -4.9393737054850839E-003   5.9717770319168390E-002
   4.1644825436134014E-003  -1.7065206306061675E-003   6.5327474558405041E-002
   3.6318260032739691E-003  -2.0001019155376221E-003   6.4404953579122126E-002
   3.0991694629345645E-003  -2.5257202011389202E-003   6.3603385370617826E-002
   2.5665129225951461E-003  -3.2833754874105545E-003   6.2922769932892336E-002
   2.0338563822557276E-003  -4.2730677743513246E-003   6.2363107265945739E-002
   3.5900969859049003E-003  -6.9382914988860289E-003   5.3529965850324324E-002
   4.1462485119821701E-003  -9.5281447084989424E-003   5.1861315149893450E-002
   4.7024000380594122E-003  -1.2755340934134218E-002   5.0045437089538902E-002
   5.2585515641367098E-003  -1.6619880175791385E-002   4.8082331669261180E-002
   5.8147030902139241E-003  -2.1121762433470526E-002   4.5971998889058785E-002
   3.3401088652112165E-003  -6.2719855677523251E-003   5.5301199611357266E-002
   3.7667222087313518E-003  -8.5398632086260973E-003   5.2950788225616552E-002
   4.1933355522514870E-003  -1.1383868185206675E-002   5.0488527834685104E-002
   4.6199488957716986E-003  -1.4804000497493898E-002   4.7914418438563061E-002
   5.0465622392917853E-003  -1.8800260145487746E-002   4.5228460037250562E-002
   2.9974060577051126E-003  -5.6056796366187323E-003   5.7363801100972445E-002
   3.3298595734013933E-003  -7.5515817087534742E-003   5.4392844710236393E-002
   3.6623130890976532E-003  -1.0012395436279242E-002   5.1345417669043436E-002
   3.9947666047939548E-003  -1.2988120819196466E-002   4.8221519977393337E-002
   4.3272201204902216E-003  -1.6478757857504966E-002   4.5021151635285195E-002
   2.5619885633866267E-003  -4.9393737054850839E-003   5.9717770319168390E-002
   2.8356606059922514E-003  -6.5633002088810732E-003   5.6187484603753217E-002
   3.1093326485978363E-003  -8.6409226873517542E-003   5.2616106592613968E-002
   3.3830046912035044E-003  -1.1172241140899229E-002   4.9003636285750045E-002
   3.6566767338090458E-003  -1.4157255569522187E-002   4.5350073683163600E-002
   2.0338563822557276E-003  -4.2730677743513246E-003   6.2363107265945739E-002
   2.2841253065039036E-003  -5.5750187090082282E-003   5.8334707906166794E-002
   2.5343942307520795E-003  -7.2694499384242939E-003   5.4300594605396990E-002
   2.7846631550002693E-003  -9.3563614626017769E-003   5.0260767363636466E-002
   3.0349320792484313E-003  -1.1835753281539407E-002   4.6215226180884361E-002
   2.5489518628908248E-002  -4.8875762824856506E-003   6.2653693390566034E-002
   2.4608358883481007E-002  -5.3721014161157710E-003   6.3002501815784706E-002
   2.3727199138053823E-002  -5.7206334223456612E-003   6.3332476623433664E-002
   2.2846039392626610E-002  -5.9331723011752449E-003   6.3643617813512715E-002
   2.1964879647199398E-002  -6.0097180526044736E-003   6.3935925386021941E-002
   1.9587270927607675E-002  -4.0401512136780671E-003   6.2941059672143085E-002
   1.8748186014932042E-002  -4.1811739624390831E-003   6.3110039557403824E-002
   1.7909101102256415E-002  -4.2960711426007492E-003   6.3382002725737768E-002
   1.7070016189580785E-002  -4.3848427541633359E-003   6.3756949177144639E-002
   1.6230931276905156E-002  -4.4474887971265309E-003   6.4234878911624688E-002
   1.3363226888027879E-002  -3.1927261448704003E-003   6.3626862117989791E-002
   1.2688033708746729E-002  -2.9902465087622287E-003   6.3506145904491607E-002
   1.2012840529465593E-002  -2.8715088628559343E-003   6.3610229874709365E-002
   1.1337647350184450E-002  -2.8365132071513678E-003   6.3939114028643051E-002
   1.0662454170903314E-002  -2.8852595416486160E-003   6.4492798366292722E-002
   6.8173865101688637E-003  -2.3453010760627890E-003   6.4711100728106347E-002
   6.4279019649251257E-003  -1.7993190550854299E-003   6.4190820857047970E-002
   6.0384174196813807E-003  -1.4469465831110154E-003   6.4017158070348676E-002
   5.6489328744376384E-003  -1.2881836601393738E-003   6.4190112368007951E-002
   5.2594483291938908E-003  -1.3230302861706039E-003   6.4709683750026281E-002
  -5.0250205969340489E-005  -1.4978760072551500E-003   6.6193775502492336E-002
  -3.2209216532796958E-005  -6.0839160140865878E-004   6.5164064415072998E-002
  -1.4168227096229141E-005  -2.2384303366165814E-005   6.4602787312655369E-002
   3.8727623403300021E-006   2.6014588687254744E-004   6.4509944195239519E-002
   2.1913751776885676E-005   2.3919896930724160E-004   6.4885535062825350E-002
   2.1964879647199398E-002  -6.0097180526044736E-003   6.3935925386021941E-002
   2.1303433535542010E-002  -5.9735004016288895E-003   6.3541357756339234E-002
   2.0641987423884622E-002  -5.8477490732441323E-003   6.3346410087734645E-002
   1.9980541312227221E-002  -5.6324640674502123E-003   6.3351082380208243E-002
   1.9319095200569847E-002  -5.3276453842471261E-003   6.3555374633760264E-002
   1.6230931276905156E-002  -4.4474887971265309E-003   6.4234878911624688E-002
   1.5756715908034943E-002  -4.4564264201893966E-003   6.4078805802248701E-002
   1.5282500539164724E-002  -4.3840727720506484E-003   6.4097574217368850E-002
   1.4808285170294529E-002  -4.2304278527104076E-003   6.4291184156985093E-002
   1.4334069801424307E-002  -3.9954916621685599E-003   6.4659635621097555E-002
   1.0662454170903314E-002  -2.8852595416486160E-003   6.4492798366292722E-002
   1.0350691108238250E-002  -2.9393524387498066E-003   6.4566977371015813E-002
   1.0038928045573173E-002  -2.9203964708571159E-003   6.4791219463653044E-002
   9.7271649829081021E-003  -2.8283916379704937E-003   6.5165524644204401E-002
   9.4154019202430245E-003  -2.6633379400900492E-003   6.5689892912669912E-002
   5.2594483291938908E-003  -1.3230302861706039E-003   6.4709683750026281E-002
   5.0853591361519112E-003  -1.4222784573102096E-003   6.5005872462640862E-002
   4.9112699431099281E-003  -1.4567201696635244E-003   6.5427345826587519E-002
   4.7371807500679415E-003  -1.4263554232305789E-003   6.5974103841866180E-002
   4.5630915570259566E-003  -1.3311842180115385E-003   6.6646146508476986E-002
   2.1913751776885676E-005   2.3919896930724160E-004   6.4885535062825350E-002
  -3.9280008224056029E-005   9.4795524129304143E-005   6.5395491077123669E-002
  -1.0047376822499600E-004   6.9561315300531446E-006   6.6005953306172038E-002
  -1.6166752822593944E-004  -2.4319208490820171E-005   6.6716921749970418E-002
  -2.2286128822687767E-004   9.6950406697215996E-007   6.7528396408518820E-002
   1.9319095200569847E-002  -5.3276453842471261E-003   6.3555374633760264E-002
   1.8186837087039609E-002  -4.9902812037462829E-003   6.2499607936055246E-002
   1.7054578973509371E-002  -4.6773597060591476E-003   6.1782250191158683E-002
   1.5922320859979147E-002  -4.3888808911859839E-003   6.1403301399070520E-002
   1.4790062746448923E-002  -4.1248447591264448E-003   6.1362761559790258E-002
   1.4334069801424307E-002  -3.9954916621685599E-003   6.4659635621097555E-002
   1.3531034944048670E-002  -3.7315036669805512E-003   6.3637225572341916E-002
   1.2728000086673026E-002  -3.4907033337012866E-003   6.2934853083087300E-002
   1.1924965229297382E-002  -3.2730906623310886E-003   6.2552518153333514E-002
   1.1121930371921745E-002  -3.0786656528698497E-003   6.2490220783080641E-002
   9.4154019202430245E-003  -2.6633379400900492E-003   6.5689892912669912E-002
   8.9232189257146856E-003  -2.4727261302147363E-003   6.4702094533768309E-002
   8.4310359311863363E-003  -2.3040469613434256E-003   6.4015962321060410E-002
   7.9388529366579939E-003  -2.1573004334762488E-003   6.3631496274546062E-002
   7.4466699421296481E-003  -2.0324865466131437E-003   6.3548696394225529E-002
   4.5630915570259566E-003  -1.3311842180115385E-003   6.6646146508476986E-002
   4.3633890320376317E-003  -1.2139485934490740E-003   6.5694214820334287E-002
   4.1636865070493016E-003  -1.1173905889856478E-003   6.5025577905077986E-002
   3.9639839820609759E-003  -1.0415102046214923E-003   6.4640235762708137E-002
   3.7642814570726466E-003  -9.8630744035638207E-004   6.4538188393224616E-002
  -2.2286128822687767E-004   9.6950406697215996E-007   6.7528396408518820E-002
  -1.4845473698247777E-004   4.4828943316782555E-005   6.6613586432039962E-002
  -7.4048185738070926E-005   6.9265783372282619E-005   6.5963699835140222E-002
   3.5836550632897812E-007   7.4280024233371739E-005   6.5578736617819586E-002
   7.4764916750735821E-005   5.9871665900268489E-005   6.5458696780077874E-002
   1.4790062746448923E-002  -4.1248447591264448E-003   6.1362761559790258E-002
   1.4076015300369435E-002  -3.8687817460823504E-003   6.1681235131843426E-002
   1.3361967854289933E-002  -3.6042222882543828E-003   6.2136218419109990E-002
   1.2647920408210452E-002  -3.3311663856428961E-003   6.2727711421589866E-002
   1.1933872962130943E-002  -3.0496140382479942E-003   6.3455714139283304E-002
   1.1121930371921745E-002  -3.0786656528698497E-003   6.2490220783080641E-002
   1.0553013632720945E-002  -2.8919793205403055E-003   6.2818290667748966E-002
   9.9840968935201446E-003  -2.6975826805646086E-003   6.3300112250961132E-002
   9.4151801543193442E-003  -2.4954757329434460E-003   6.3935685532717376E-002
   8.8462634151185437E-003  -2.2856584776764777E-003   6.4725010513017767E-002
   7.4466699421296481E-003  -2.0324865466131437E-003   6.3548696394225529E-002
   7.0401258931381133E-003  -1.9151768949981218E-003   6.3885576454371068E-002
   6.6335818441465820E-003  -1.7909430728749592E-003   6.4393450196391117E-002
   6.2270377951550420E-003  -1.6597850802439439E-003   6.5072317620285758E-002
   5.8204937461635159E-003  -1.5217029171047947E-003   6.5922178726054964E-002
   3.7642814570726466E-003  -9.8630744035638207E-004   6.4538188393224616E-002
   3.5373520816209449E-003  -9.3837446945595204E-004   6.4883092491709621E-002
   3.3104227061692493E-003  -8.8430346518535846E-004   6.5416232255399845E-002
   3.0834933307175611E-003  -8.2409442754430122E-004   6.6137607684295024E-002
   2.8565639552658520E-003  -7.5774735653313940E-004   6.7047218778395756E-002
   7.4764916750735821E-005   5.9871665900268489E-005   6.5458696780077874E-002
   4.4692198169452024E-005   3.8427956086217741E-005   6.5810838779764791E-002
   1.4619479588161288E-005   2.2336142504408851E-005   6.6368458427987387E-002
  -1.5453238993122509E-005   1.1596225155216522E-005   6.7131555724745579E-002
  -4.5525957574413245E-005   6.2082040384048298E-006   6.8100130670039394E-002
   1.1933872962130943E-002  -3.0496140382479942E-003   6.3455714139283304E-002
   1.0915320570977216E-002  -2.7643317322699756E-003   6.3185448673169886E-002
   9.8967681798234897E-003  -2.4800859539101106E-003   6.3192014718818135E-002
   8.8782157886697632E-003  -2.1968767031676703E-003   6.3475412276227688E-002
   7.8596633975160368E-003  -1.9147039800436749E-003   6.4035641345398742E-002
   8.8462634151185437E-003  -2.2856584776764777E-003   6.4725010513017767E-002
   8.1000447782223484E-003  -2.0723728560802512E-003   6.4511182116154586E-002
   7.3538261413261669E-003  -1.8598608094723135E-003   6.4565189716045357E-002
   6.6076075044299611E-003  -1.6481223378518872E-003   6.4887033312689552E-002
   5.8613888675337900E-003  -1.4371574412195276E-003   6.5476712906087087E-002
   5.8204937461635159E-003  -1.5217029171047947E-003   6.5922178726054964E-002
   5.3376133485168731E-003  -1.3804139798904713E-003   6.5765050351072607E-002
   4.8547329508702372E-003  -1.2396356650340862E-003   6.5866762457835640E-002
   4.3718525532236117E-003  -1.0993679725357190E-003   6.6227315046344382E-002
   3.8889721555769724E-003  -9.5961090239532476E-004   6.6846708116598708E-002
   2.8565639552658520E-003  -7.5774735653313940E-004   6.7047218778395756E-002
   2.6280262818608006E-003  -6.8845510370071916E-004   6.6947053377923713E-002
   2.3994886084557493E-003  -6.1941052059607399E-004   6.7096732944189316E-002
   2.1709509350506910E-003  -5.5061360721985440E-004   6.7496257477192428E-002
   1.9424132616456466E-003  -4.8206436357103866E-004   6.8145626976933438E-002
  -4.5525957574413245E-005   6.2082040384048298E-006   6.8100130670039394E-002
  -2.8716421745872411E-005   3.5037724890885080E-006   6.8057191196707945E-002
  -1.1906885917331578E-005   8.1462384191044457E-007   6.8255101175105970E-002
   4.9026499112057864E-006  -1.8592419036636554E-006   6.8693860605233720E-002
   2.1712185739750089E-005  -4.5178247469745969E-006   6.9373469487090889E-002
   7.8596633975160368E-003  -1.9147039800436749E-003   6.4035641345398742E-002
   6.9358681840403780E-003  -1.6904516762172306E-003   6.4001261086897077E-002
   6.0120729705647191E-003  -1.5810036833687757E-003   6.4205106536230683E-002
   5.0882777570890464E-003  -1.5863600014984214E-003   6.4647177693400115E-002
   4.1644825436134014E-003  -1.7065206306061675E-003   6.5327474558405041E-002
   5.8613888675337900E-003  -1.4371574412195276E-003   6.5476712906087087E-002
   5.1735978664646173E-003  -1.2694316054798205E-003   6.5365714541293862E-002
   4.4858068653954447E-003  -1.1874103165378513E-003   6.5488498893478048E-002
   3.7980158643262721E-003  -1.1910935743929124E-003   6.5845065962639435E-002
   3.1102248632571133E-003  -1.2804813790457947E-003   6.6435415748778259E-002
   3.8889721555769724E-003  -9.5961090239532476E-004   6.6846708116598708E-002
   3.4327423760560395E-003  -8.4841153474243813E-004   6.6688191409694453E-002
   2.9765125965351066E-003  -7.9381694970626082E-004   6.6759014428909358E-002
   2.5202828170141807E-003  -7.9582714728751447E-004   6.7059177174243464E-002
   2.0640530374932547E-003  -8.5444212748564397E-004   6.7588679645696342E-002
   1.9424132616456466E-003  -4.8206436357103866E-004   6.8145626976933438E-002
   1.7133017128146705E-003  -4.2739146400493089E-004   6.7968691692098571E-002
   1.4841901639837066E-003  -4.0022358287522541E-004   6.8016653142524697E-002
   1.2550786151527358E-003  -4.0056072018189448E-004   6.8289511328211774E-002
   1.0259670663217667E-003  -4.2840287592532666E-004   6.8787266249159540E-002
   2.1712185739750089E-005  -4.5178247469745969E-006   6.9373469487090889E-002
   1.5275876740487859E-005  -6.3713932676456864E-006   6.9207215388506160E-002
   8.8395677412325679E-006  -6.6302160437181623E-006   6.9261415034324036E-002
   2.4032587419686030E-006  -5.2942930764340868E-006   6.9536068424544573E-002
  -4.0330502572849536E-006  -2.3636243652314093E-006   7.0031175559167491E-002
   4.1644825436134014E-003  -1.7065206306061675E-003   6.5327474558405041E-002
   3.6318260032739691E-003  -2.0001019155376221E-003   6.4404953579122126E-002
   3.0991694629345645E-003  -2.5257202011389202E-003   6.3603385370617826E-002
   2.5665129225951461E-003  -3.2833754874105545E-003   6.2922769932892336E-002
   2.0338563822557276E-003  -4.2730677743513246E-003   6.2363107265945739E-002
   3.1102248632571133E-003  -1.2804813790457947E-003   6.6435415748778259E-002
   2.7016576349049859E-003  -1.4998987340850145E-003   6.5320921387973685E-002
   2.2930904065528515E-003  -1.8936706430993655E-003   6.4333652880364439E-002
   1.8845231782007275E-003  -2.4617971060890004E-003   6.3473610225950980E-002
   1.4759559498485897E-003  -3.2042781230533501E-003   6.2740793424733488E-002
   2.0640530374932547E-003  -8.5444212748564397E-004   6.7588679645696342E-002
   1.7858482035452670E-003  -9.9969555263260124E-004   6.6339894350064654E-002
   1.5076433695973071E-003  -1.2616210850596027E-003   6.5224607990045466E-002
   1.2294385356493333E-003  -1.6402187247672277E-003   6.4242820565638875E-002
   9.5123370170135946E-004  -2.1354884717552092E-003   6.3394532076844839E-002
   1.0259670663217667E-003  -4.2840287592532666E-004   6.8787266249159540E-002
   8.8439770919483338E-004  -4.9949237118009082E-004   6.7461872465395437E-002
   7.4282835206789140E-004  -6.2957152701983293E-004   6.6276250699661171E-002
   6.0125899494095376E-004  -8.1864034344589741E-004   6.5230400951956341E-002
   4.5968963781401612E-004  -1.0666988204571515E-003   6.4324323222280766E-002
  -4.0330502572849536E-006  -2.3636243652314093E-006   7.0031175559167491E-002
  -2.6938481463220643E-006   7.1081027247510420E-007   6.8686855733966268E-002
  -1.3546460353626444E-006   2.4780310196870214E-006   6.7488581009211457E-002
  -1.5443924399755060E-008   2.9380378757590253E-006   6.6436351384902809E-002
   1.3237581865596648E-006   2.0908308411282661E-006   6.5530166861040628E-002
   2.0338563822557276E-003  -4.2730677743513246E-003   6.2363107265945739E-002
   2.2841253065039036E-003  -5.5750187090082282E-003   5.8334707906166794E-002
   2.5343942307520795E-003  -7.2694499384242939E-003   5.4300594605396990E-002
   2.7846631550002693E-003  -9.3563614626017769E-003   5.0260767363636466E-002
   3.0349320792484313E-003  -1.1835753281539407E-002   4.6215226180884361E-002
   1.4759559498485897E-003  -3.2042781230533501E-003   6.2740793424733488E-002
   1.7062542242891471E-003  -4.1809996381981795E-003   5.8388012171824544E-002
   1.9365524987296975E-003  -5.4518475957280599E-003   5.4001003560291694E-002
   2.1668507731702515E-003  -7.0168219956432201E-003   4.9579767590133966E-002
   2.3971490476107915E-003  -8.8759228379435839E-003   4.5124304261352499E-002
   9.5123370170135946E-004  -2.1354884717552092E-003   6.3394532076844839E-002
   1.1330479087007031E-003  -2.7869805673882420E-003   5.8815722783181951E-002
   1.3148621157000537E-003  -3.6342452530313679E-003   5.4174172713261012E-002
   1.4966763226994285E-003  -4.6772825286846044E-003   4.9469881867081338E-002
   1.6784905296987618E-003  -5.9160923943475385E-003   4.4702850244644821E-002
   4.5968963781401612E-004  -1.0666988204571515E-003   6.4324323222280766E-002
   5.6450635973859069E-004  -1.3929614965786929E-003   5.9617839740238369E-002
   6.6932308166317914E-004  -1.8166429103345719E-003   5.4820102064304668E-002
   7.7413980358775458E-004  -2.3377430617256851E-003   4.9931110194479100E-002
   8.7895652551235604E-004  -2.9562619507516041E-003   4.4950864130762241E-002
   1.3237581865596648E-006   2.0908308411282661E-006   6.5530166861040628E-002
   6.2957740280117358E-007   1.0575742314111736E-006   6.0794363042994237E-002
  -6.4603380953848211E-008   9.5943236178008817E-007   5.5938791613422523E-002
  -7.5878416470193111E-007   1.7964052327901214E-006   5.0963452572326096E-002
  -1.4529649484673612E-006   3.5684928443302510E-006   4.5868345919704012E-002
  -5.0250205969340489E-005  -1.4978760072551500E-003   6.6193775502492336E-002
  -3.2209216532796958E-005  -6.0839160140865878E-004   6.5164064415072998E-002
  -1.4168227096229141E-005  -2.2384303366165814E-005   6.4602787312655369E-002
   3.8727623403300021E-006   2.6014588687254744E-004   6.4509944195239519E-002
   2.1913751776885676E-005   2.3919896930724160E-004   6.4885535062825350E-002
  -6.9093591642160126E-003   9.3888020494165003E-004   6.6003651825654652E-002
  -6.4847406495915395E-003   1.3919003855318857E-003   6.5014480777089600E-002
  -6.0601221349670716E-003   1.6754869631375180E-003   6.4370030793898469E-002
  -5.6355036203425933E-003   1.7896399377585331E-003   6.4070301876081467E-002
  -5.2108851057181237E-003   1.7343593093949727E-003   6.4115294023638553E-002
  -1.3429616268400430E-002   3.3756364171384778E-003   6.5310042171151314E-002
  -1.2722133148215686E-002   3.3921923724724856E-003   6.4495454666259527E-002
  -1.2014650028030968E-002   3.3733582296412087E-003   6.3901875307114275E-002
  -1.1307166907846250E-002   3.3191339886446038E-003   6.3529304093715377E-002
  -1.0599683787661525E-002   3.2295196494826484E-003   6.3377741026062931E-002
  -1.9611021518522547E-002   5.8123926293352640E-003   6.4112946538981946E-002
  -1.8744386712405227E-002   5.3924843594130162E-003   6.3606986082583028E-002
  -1.7877751906287938E-002   5.0712294961448127E-003   6.3198320852302800E-002
  -1.7011117100170635E-002   4.8486280395306043E-003   6.2886950848141374E-002
  -1.6144482294053335E-002   4.7246799895702962E-003   6.2672876070098721E-002
  -2.5453574914582375E-002   8.2491488415321057E-003   6.2412364929146646E-002
  -2.4551501342160165E-002   7.3927763463536300E-003   6.2349075026059853E-002
  -2.3649427769737962E-002   6.7691007626485417E-003   6.2259367429464058E-002
  -2.2747354197315762E-002   6.3781220904166637E-003   6.2143242139359359E-002
  -2.1845280624893552E-002   6.2198403296579996E-003   6.2000699155745742E-002
   2.1913751776885676E-005   2.3919896930724160E-004   6.4885535062825350E-002
  -3.9280008224056029E-005   9.4795524129304143E-005   6.5395491077123669E-002
  -1.0047376822499600E-004   6.9561315300531446E-006   6.6005953306172038E-002
  -1.6166752822593944E-004  -2.4319208490820171E-005   6.6716921749970418E-002
  -2.2286128822687767E-004   9.6950406697215996E-007   6.7528396408518820E-002
  -5.2108851057181237E-003   1.7343593093949727E-003   6.4115294023638553E-002
  -5.1511204420050874E-003   1.6054347526144597E-003   6.4529057321817046E-002
  -5.0913557782920650E-003   1.4986559419845891E-003   6.5084231252673388E-002
  -5.0315911145790322E-003   1.4140228775053817E-003   6.5780815816207733E-002
  -4.9718264508660064E-003   1.3515355591768863E-003   6.6618811012420037E-002
  -1.0599683787661525E-002   3.2295196494826484E-003   6.3377741026062931E-002
  -1.0378056282306630E-002   3.1160739810994348E-003   6.3660893301693666E-002
  -1.0156428776951743E-002   2.9903557524390764E-003   6.4126360627930284E-002
  -9.9348012715968527E-003   2.8523649635015299E-003   6.4774143004772702E-002
  -9.7131737662419608E-003   2.7021016142867726E-003   6.5604240432220864E-002
  -1.6144482294053335E-002   4.7246799895702962E-003   6.2672876070098721E-002
  -1.5720087529128676E-002   4.6267132095845001E-003   6.2790999016753862E-002
  -1.5295692764204016E-002   4.4820555628935881E-003   6.3132341431942768E-002
  -1.4871297999279361E-002   4.2907070494976217E-003   6.3696903315665424E-002
  -1.4446903234354706E-002   4.0526676693966174E-003   6.4484684667921649E-002
  -2.1845280624893552E-002   6.2198403296579996E-003   6.2000699155745742E-002
  -2.1177214182471222E-002   6.1373524380695099E-003   6.1919374466997412E-002
  -2.0509147740048916E-002   5.9737553733480442E-003   6.2102173664710797E-002
  -1.9841081297626597E-002   5.7290491354938383E-003   6.2549096748885730E-002
  -1.9173014855204271E-002   5.4032337245065731E-003   6.3260143719522322E-002
  -2.2286128822687767E-004   9.6950406697215996E-007   6.7528396408518820E-002
  -1.4845473698247777E-004   4.4828943316782555E-005   6.6613586432039962E-002
  -7.4048185738070926E-005   6.9265783372282619E-005   6.5963699835140222E-002
   3.5836550632897812E-007   7.4280024233371739E-005   6.5578736617819586E-002
   7.4764916750735821E-005   5.9871665900268489E-005   6.5458696780077874E-002
  -4.9718264508660064E-003   1.3515355591768863E-003   6.6618811012420037E-002
  -4.6349648392657178E-003   1.2974603240753224E-003   6.5696778474535589E-002
  -4.2981032276654171E-003   1.2380635092771181E-003   6.5034732677783882E-002
  -3.9612416160651242E-003   1.1733451147822281E-003   6.4632673622164960E-002
  -3.6243800044648278E-003   1.1033051405908156E-003   6.4490601307678641E-002
  -9.7131737662419608E-003   2.7021016142867726E-003   6.5604240432220864E-002
  -9.1187937327321701E-003   2.5500917048338761E-003   6.4689086352428718E-002
  -8.5244136992223812E-003   2.4068612351820159E-003   6.4028982375322757E-002
  -7.9300336657125887E-003   2.2724102053311417E-003   6.3623928500903093E-002
  -7.3356536322028015E-003   2.1467386152813073E-003   6.3473924729169795E-002
  -1.4446903234354706E-002   4.0526676693966174E-003   6.4484684667921649E-002
  -1.3599941417381828E-002   3.8027230855924785E-003   6.3590510065719322E-002
  -1.2752979600408944E-002   3.5756589610869936E-003   6.2946448927756832E-002
  -1.1906017783436055E-002   3.3714752958799712E-003   6.2552501254034262E-002
  -1.1059055966463185E-002   3.1901720899717712E-003   6.2408667044551433E-002
  -1.9173014855204271E-002   5.4032337245065731E-003   6.3260143719522322E-002
  -1.8078407893214694E-002   5.0553544663509420E-003   6.2401049614407400E-002
  -1.6983800931225108E-002   4.7444566869917354E-003   6.1787132335085981E-002
  -1.5889193969235535E-002   4.4705403864289082E-003   6.1418391881558079E-002
  -1.4794587007245952E-002   4.2336055646624016E-003   6.1294828253823652E-002
   7.4764916750735821E-005   5.9871665900268489E-005   6.5458696780077874E-002
   4.4692198169452024E-005   3.8427956086217741E-005   6.5810838779764791E-002
   1.4619479588161288E-005   2.2336142504408851E-005   6.6368458427987387E-002
  -1.5453238993122509E-005   1.1596225155216522E-005   6.7131555724745579E-002
  -4.5525957574413245E-005   6.2082040384048298E-006   6.8100130670039394E-002
  -3.6243800044648278E-003   1.1033051405908156E-003   6.4490601307678641E-002
  -3.4529812486287711E-003   1.0287116414571251E-003   6.4827391639747212E-002
  -3.2815824927927111E-003   9.5033267213602557E-004   6.5361647272114798E-002
  -3.1101837369566527E-003   8.6816823262743717E-004   6.6093368204781289E-002
  -2.9387849811205805E-003   7.8221832293134952E-004   6.7022554437747017E-002
  -7.3356536322028015E-003   2.1467386152813073E-003   6.3473924729169795E-002
  -6.9707957501860852E-003   2.0189953268281990E-003   6.3786226027200257E-002
  -6.6059378681693681E-003   1.8783292017676423E-003   6.4287980277292892E-002
  -6.2410799861526509E-003   1.7247402400997133E-003   6.4979187479447878E-002
  -5.8762221041359346E-003   1.5582284418242942E-003   6.5859847633665175E-002
  -1.1059055966463185E-002   3.1901720899717712E-003   6.2408667044551433E-002
  -1.0508751306502511E-002   3.0092790121992452E-003   6.2687341942123720E-002
  -9.9584466465418263E-003   2.8063257313992590E-003   6.3147457443521543E-002
  -9.4081419865811571E-003   2.5813122475720728E-003   6.3789013548745055E-002
  -8.8578373266204706E-003   2.3342385607172389E-003   6.4612010257793978E-002
  -1.4794587007245952E-002   4.2336055646624016E-003   6.1294828253823652E-002
  -1.4066847917578007E-002   3.9995626975702914E-003   6.1530739384517807E-002
  -1.3339108827910073E-002   3.7343222610308896E-003   6.1940078770800738E-002
  -1.2611369738242133E-002   3.4378842550441581E-003   6.2522846412672820E-002
  -1.1883630648574194E-002   3.1102486796100726E-003   6.3279042310133704E-002
  -4.5525957574413245E-005   6.2082040384048298E-006   6.8100130670039394E-002
  -2.8716421745872411E-005   3.5037724890885080E-006   6.8057191196707945E-002
  -1.1906885917331578E-005   8.1462384191044457E-007   6.8255101175105970E-002
   4.9026499112057864E-006  -1.8592419036636554E-006   6.8693860605233720E-002
   2.1712185739750089E-005  -4.5178247469745969E-006   6.9373469487090889E-002
  -2.9387849811205805E-003   7.8221832293134952E-004   6.7022554437747017E-002
  -2.6796474967829519E-003   6.9688611976254089E-004   6.6939433444797580E-002
  -2.4205100124453163E-003   6.1657479983520669E-004   6.7100118897136796E-002
  -2.1613725281076756E-003   5.4128436314989509E-004   6.7504610794764483E-002
  -1.9022350437700383E-003   4.7101480970579424E-004   6.8152909137680906E-002
  -5.8762221041359346E-003   1.5582284418242942E-003   6.5859847633665175E-002
  -5.3717996777302209E-003   1.3902684670358545E-003   6.5741550721437586E-002
  -4.8673772513245141E-003   1.2323349758289609E-003   6.5870017248057702E-002
  -4.3629548249188082E-003   1.0844279682030132E-003   6.6245247213525232E-002
  -3.8585323985130936E-003   9.4654744415878511E-004   6.6867240617840329E-002
  -8.8578373266204706E-003   2.3342385607172389E-003   6.4612010257793978E-002
  -8.1051729645877264E-003   2.0836508143092930E-003   6.4463543026627851E-002
  -7.3525086025549467E-003   1.8480951518224306E-003   6.4564796227868357E-002
  -6.5998442405221791E-003   1.6275715732565737E-003   6.4915769861515552E-002
  -5.8471798784894245E-003   1.4220800786117205E-003   6.5516463927568852E-002
  -1.1883630648574194E-002   3.1102486796100726E-003   6.3279042310133704E-002
  -1.0879767357355401E-002   2.7770331615827870E-003   6.3105410360368652E-002
  -9.8759040661366114E-003   2.4638553278160114E-003   6.3184455836569231E-002
  -8.8720407749178134E-003   2.1707151783096346E-003   6.3516178738735191E-002
  -7.8681774836990223E-003   1.8976127130645448E-003   6.4100579066866947E-002
   2.1712185739750089E-005  -4.5178247469745969E-006   6.9373469487090889E-002
   1.5275876740487859E-005  -6.3713932676456864E-006   6.9207215388506160E-002
   8.8395677412325679E-006  -6.6302160437181623E-006   6.9261415034324036E-002
   2.4032587419686030E-006  -5.2942930764340868E-006   6.9536068424544573E-002
  -4.0330502572849536E-006  -2.3636243652314093E-006   7.0031175559167491E-002
  -1.9022350437700383E-003   4.7101480970579424E-004   6.8152909137680906E-002
  -1.6850399451096773E-003   4.1741249957905069E-004   6.7972436751688181E-002
  -1.4678448464493198E-003   3.9212379284500609E-004   6.8018773436612334E-002
  -1.2506497477889622E-003   3.9514868950415311E-004   6.8291919192452866E-002
  -1.0334546491285873E-003   4.2648718955529130E-004   6.8791874019210331E-002
  -3.8585323985130936E-003   9.4654744415878511E-004   6.6867240617840329E-002
  -3.4113505656790354E-003   8.4119639242574706E-004   6.6699268802088513E-002
  -2.9641687328449693E-003   7.9087780173416056E-004   6.6764461383767501E-002
  -2.5169869000109036E-003   7.9559167208429274E-004   6.7062818362877363E-002
  -2.0698050671768449E-003   8.5533800347586952E-004   6.7594339739417780E-002
  -5.8471798784894245E-003   1.4220800786117205E-003   6.5516463927568852E-002
  -5.1636559849675533E-003   1.2649802852725545E-003   6.5387711539706850E-002
  -4.4801320914456978E-003   1.1896318106232109E-003   6.5498478875789565E-002
  -3.7966081979238452E-003   1.1960346546647672E-003   6.5848765935817330E-002
  -3.1130843044019718E-003   1.2841888173963645E-003   6.6438572719789674E-002
  -7.8681774836990223E-003   1.8976127130645448E-003   6.4100579066866947E-002
  -6.9419562029752746E-003   1.6887641781190288E-003   6.4037764964543276E-002
  -6.0157349222515373E-003   1.5883858195121225E-003   6.4220825912678692E-002
  -5.0895136415277965E-003   1.5964776372449849E-003   6.4649761911273029E-002
  -4.1632923608040523E-003   1.7130396313168594E-003   6.5324572960326122E-002
  -4.0330502572849536E-006  -2.3636243652314093E-006   7.0031175559167491E-002
  -2.6938481463220643E-006   7.1081027247510420E-007   6.8686855733966268E-002
  -1.3546460353626444E-006   2.4780310196870214E-006   6.7488581009211457E-002
  -1.5443924399755060E-008   2.9380378757590253E-006   6.6436351384902809E-002
   1.3237581865596648E-006   2.0908308411282661E-006   6.5530166861040628E-002
  -1.0334546491285873E-003   4.2648718955529130E-004   6.8791874019210331E-002
  -8.8942271432261230E-004   5.0083843798476302E-004   6.7465475346817128E-002
  -7.4539077951662515E-004   6.3290157977777262E-004   6.6278417039367848E-002
  -6.0135884471064320E-004   8.2267661493375804E-004   6.5230699096862257E-002
  -4.5732690990466299E-004   1.0701635434537948E-003   6.4322321519300063E-002
  -2.0698050671768449E-003   8.5533800347586952E-004   6.7594339739417780E-002
  -1.7897851351784556E-003   1.0009660656969122E-003   6.6344881327086935E-002
  -1.5097652031800671E-003   1.2633251285357611E-003   6.5228058544197040E-002
  -1.2297452711816778E-003   1.6424151919920936E-003   6.4243871390748108E-002
  -9.4972533918328932E-004   2.1382362560661283E-003   6.3392319866740543E-002
  -3.1130843044019718E-003   1.2841888173963645E-003   6.6438572719789674E-002
  -2.7037811107138367E-003   1.5010936934091862E-003   6.5325073674775219E-002
  -2.2944779170256738E-003   1.8937486772936316E-003   6.4337505523699434E-002
  -1.8851747233375215E-003   2.4621537690503719E-003   6.3475868266561888E-002
  -1.4758715296493761E-003   3.2063089686787394E-003   6.2740161903363040E-002
  -4.1632923608040523E-003   1.7130396313168594E-003   6.5324572960326122E-002
  -3.6314106409287561E-003   2.0012213211212382E-003   6.4406052389882507E-002
  -3.0995289210534599E-003   2.5241722260519184E-003   6.3606757977874795E-002
  -2.5676472011781620E-003   3.2818923461086155E-003   6.2926689724302681E-002
  -2.0357654813028675E-003   4.2743816812911284E-003   6.2365847629166637E-002
   1.3237581865596648E-006   2.0908308411282661E-006   6.5530166861040628E-002
   6.2957740280117358E-007   1.0575742314111736E-006   6.0794363042994237E-002
  -6.4603380953848211E-008   9.5943236178008817E-007   5.5938791613422523E-002
  -7.5878416470193111E-007   1.7964052327901214E-006   5.0963452572326096E-002
  -1.4529649484673612E-006   3.5684928443302510E-006   4.5868345919704012E-002
  -4.5732690990466299E-004   1.0701635434537948E-003   6.4322321519300063E-002
  -5.6344317483736014E-004   1.3957122644064901E-003   5.9616788870563486E-002
  -6.6955943977007291E-004   1.8196726768607840E-003   5.4820179665054092E-002
  -7.7567570470278395E-004   2.3420447808175371E-003   4.9932493902772518E-002
  -8.8179196963549672E-004   2.9628285762768325E-003   4.4953731583717182E-002
  -9.4972533918328932E-004   2.1382362560661283E-003   6.3392319866740543E-002
  -1.1325726335125949E-003   2.7903669545808474E-003   5.8814534964076015E-002
  -1.3154199278418927E-003   3.6383859213596770E-003   5.4174364559391147E-002
  -1.4982672221712044E-003   4.6822931564024506E-003   4.9471808652685773E-002
  -1.6811145165005238E-003   5.9220886597091127E-003   4.4706867243959891E-002
  -1.4758715296493761E-003   3.2063089686787394E-003   6.2740161903363040E-002
  -1.7067587986229187E-003   4.1850216447554545E-003   5.8387601323531949E-002
  -1.9376460675964611E-003   5.4570991658587364E-003   5.4001346296432801E-002
  -2.1685333365700139E-003   7.0225415319873918E-003   4.9581396822066068E-002
  -2.3994206055435599E-003   8.8813487431413929E-003   4.5127752900429946E-002
  -2.0357654813028675E-003   4.2743816812911284E-003   6.2365847629166637E-002
  -2.2860016701682986E-003   5.5796763349305056E-003   5.8335987948930912E-002
  -2.5362378590337298E-003   7.2758124103575739E-003   5.4301124876179552E-002
  -2.7864740478991453E-003   9.3627899075719445E-003   5.0261258410912280E-002
  -3.0367102367645921E-003   1.1840608826573895E-002   4.6216388553129928E-002
  -2.5453574914582375E-002   8.2491488415321057E-003   6.2412364929146646E-002
  -2.4551501342160165E-002   7.3927763463536300E-003   6.2349075026059853E-002
  -2.3649427769737962E-002   6.7691007626485417E-003   6.2259367429464058E-002
  -2.2747354197315762E-002   6.3781220904166637E-003   6.2143242139359359E-002
  -2.1845280624893552E-002   6.2198403296579996E-003   6.2000699155745742E-002
  -3.1245898782733175E-002   9.7585164190938656E-003   5.8786152563138211E-002
  -3.0321197657318479E-002   9.0801957237747477E-003   5.8728126426482924E-002
  -2.9396496531903828E-002   8.5584007533308776E-003   5.8741773089321395E-002
  -2.8471795406489187E-002   8.1931315077621060E-003   5.8827092551653713E-002
  -2.7547094281074540E-002   7.9843879870687973E-003   5.8984084813479776E-002
  -3.7276615449128081E-002   1.1267883996655625E-002   5.5376077590288272E-002
  -3.6231196277718238E-002   1.0767615101195796E-002   5.5247144033466186E-002
  -3.5185777106308359E-002   1.0347700744013123E-002   5.5287973769140984E-002
  -3.4140357934898481E-002   1.0008140925107769E-002   5.5498566797312243E-002
  -3.3094938763488631E-002   9.7489356444796227E-003   5.5878923117980095E-002
  -4.3545724913767202E-002   1.2777251574217399E-002   5.2182140010596248E-002
  -4.2281497203359331E-002   1.2455034478616824E-002   5.1906127847009945E-002
  -4.1017269492951501E-002   1.2137000734695497E-002   5.1897969468922764E-002
  -3.9753041782543665E-002   1.1823150342453348E-002   5.2157664876335150E-002
  -3.8488814072135849E-002   1.1513483301890406E-002   5.2685214069246714E-002
  -5.0053227176650422E-002   1.4286619151779145E-002   4.9204339824062859E-002
  -4.8472100434241855E-002   1.4142453856037907E-002   4.8705077867113866E-002
  -4.6890973691833288E-002   1.3926300725377733E-002   4.8571760188666879E-002
  -4.5309846949424734E-002   1.3638159759798936E-002   4.8804386788722121E-002
  -4.3728720207016167E-002   1.3278030959301246E-002   4.9402957667279424E-002
  -2.1845280624893552E-002   6.2198403296579996E-003   6.2000699155745742E-002
  -2.1177214182471222E-002   6.1373524380695099E-003   6.1919374466997412E-002
  -2.0509147740048916E-002   5.9737553733480442E-003   6.2102173664710797E-002
  -1.9841081297626597E-002   5.7290491354938383E-003   6.2549096748885730E-002
  -1.9173014855204271E-002   5.4032337245065731E-003   6.3260143719522322E-002
  -2.7547094281074540E-002   7.9843879870687973E-003   5.8984084813479776E-002
  -2.6641855288117175E-002   7.8165942424228696E-003   5.8951910289615161E-002
  -2.5736616295159800E-002   7.5741743249966159E-003   5.9129956980359138E-002
  -2.4831377302202418E-002   7.2571282347899356E-003   5.9518224885711485E-002
  -2.3926138309245056E-002   6.8654559718029917E-003   6.0116714005672395E-002
  -3.3094938763488631E-002   9.7489356444796227E-003   5.5878923117980095E-002
  -3.2006429891849326E-002   9.4958360467762015E-003   5.5902381759351791E-002
  -3.0917921020210046E-002   9.1745932766449101E-003   5.6082158943478830E-002
  -2.9829412148570746E-002   8.7852073340860329E-003   5.6418254670361226E-002
  -2.8740903276931455E-002   8.3276782190992993E-003   5.6910668939999035E-002
  -3.8488814072135849E-002   1.1513483301890406E-002   5.2685214069246714E-002
  -3.7270937993667763E-002   1.1175077851129464E-002   5.2770788876207175E-002
  -3.6053061915199670E-002   1.0775012228293399E-002   5.2958779554069954E-002
  -3.4835185836731598E-002   1.0313286433382047E-002   5.3249186102834870E-002
  -3.3617309758263519E-002   9.7899004663956346E-003   5.3642008522502102E-002
  -4.3728720207016167E-002   1.3278030959301246E-002   4.9402957667279424E-002
  -4.2435379593572409E-002   1.2854319655482893E-002   4.9557131640181384E-002
  -4.1142038980128671E-002   1.2375431179941762E-002   4.9759818812132456E-002
  -3.9848698366684934E-002   1.1841365532678252E-002   5.0011019183132638E-002
  -3.8555357753241176E-002   1.1252122713692025E-002   5.0310732753181875E-002
  -1.9173014855204271E-002   5.4032337245065731E-003   6.3260143719522322E-002
  -1.8078407893214694E-002   5.0553544663509420E-003   6.2401049614407400E-002
  -1.6983800931225108E-002   4.7444566869917354E-003   6.1787132335085981E-002
  -1.5889193969235535E-002   4.4705403864289082E-003   6.1418391881558079E-002
  -1.4794587007245952E-002   4.2336055646624016E-003   6.1294828253823652E-002
  -2.3926138309245056E-002   6.8654559718029917E-003   6.0116714005672395E-002
  -2.2581051150817134E-002   6.4527612010741031E-003   5.9236063075603113E-002
  -2.1235963992389216E-002   6.0726475876417968E-003   5.8611195712617067E-002
  -1.9890876833961301E-002   5.7251151315064717E-003   5.8242111916714141E-002
  -1.8545789675533376E-002   5.4101638326674029E-003   5.8128811687894522E-002
  -2.8740903276931455E-002   8.3276782190992993E-003   5.6910668939999035E-002
  -2.7134729180775544E-002   7.8501679357971671E-003   5.6004060863475744E-002
  -2.5528555084619608E-002   7.4008384882919762E-003   5.5363843095325334E-002
  -2.3922380988463676E-002   6.9796898765837039E-003   5.4990015635547784E-002
  -2.2316206892307733E-002   6.5867221006723764E-003   5.4882578484143144E-002
  -3.3617309758263519E-002   9.7899004663956346E-003   5.3642008522502102E-002
  -3.1739441983089874E-002   9.2475746705203352E-003   5.2705042978025154E-002
  -2.9861574207916249E-002   8.7290293889420965E-003   5.2045074483210774E-002
  -2.7983706432742627E-002   8.2342646216609361E-003   5.1662103038058807E-002
  -2.6105838657568978E-002   7.7632803686772528E-003   5.1556128642569532E-002
  -3.8555357753241176E-002   1.1252122713692025E-002   5.0310732753181875E-002
  -3.6395189557760180E-002   1.0644981405243364E-002   4.9339009419251512E-002
  -3.4235021362279183E-002   1.0057220289592175E-002   4.8654889876273338E-002
  -3.2074853166798173E-002   9.4888393667385447E-003   4.8258374124247425E-002
  -2.9914684971317190E-002   8.9398386366824067E-003   4.8149462163173562E-002
  -1.4794587007245952E-002   4.2336055646624016E-003   6.1294828253823652E-002
  -1.4066847917578007E-002   3.9995626975702914E-003   6.1530739384517807E-002
  -1.3339108827910073E-002   3.7343222610308896E-003   6.1940078770800738E-002
  -1.2611369738242133E-002   3.4378842550441581E-003   6.2522846412672820E-002
  -1.1883630648574194E-002   3.1102486796100726E-003   6.3279042310133704E-002
  -1.8545789675533376E-002   5.4101638326674029E-003   5.8128811687894522E-002
  -1.7648242917524863E-002   5.0982902230035376E-003   5.8313076008656567E-002
  -1.6750696159516333E-002   4.7599908343935599E-003   5.8663527410510924E-002
  -1.5853149401507800E-002   4.3952656668373065E-003   5.9180165893457398E-002
  -1.4955602643499290E-002   4.0041147203345728E-003   5.9862991457496184E-002
  -2.2316206892307733E-002   6.5867221006723764E-003   5.4882578484143144E-002
  -2.1256093640455304E-002   6.1970177484367839E-003   5.5019967785474286E-002
  -2.0195980388602864E-002   5.7856594077560011E-003   5.5316302993400908E-002
  -1.9135867136750428E-002   5.3526470786301201E-003   5.5771584107923128E-002
  -1.8075753884897967E-002   4.8979807610590176E-003   5.6385811129040980E-002
  -2.6105838657568978E-002   7.7632803686772528E-003   5.1556128642569532E-002
  -2.4890400086369325E-002   7.2957452738701412E-003   5.1651414714970603E-002
  -2.3674961515169610E-002   6.8113279811186679E-003   5.1898405519470711E-002
  -2.2459522943969926E-002   6.3100284904230456E-003   5.2297101056069703E-002
  -2.1244084372770242E-002   5.7918468017835456E-003   5.2847501324767537E-002
  -2.9914684971317190E-002   8.9398386366824067E-003   4.8149462163173562E-002
  -2.8551162255266910E-002   8.3944727993032764E-003   4.8207416797145852E-002
  -2.7187639539216643E-002   7.8369965544811820E-003   4.8409834988720452E-002
  -2.5824116823166363E-002   7.2674099022160439E-003   4.8756716737897124E-002
  -2.4460594107116096E-002   6.6857128425078516E-003   4.9248062044676133E-002
  -1.1883630648574194E-002   3.1102486796100726E-003   6.3279042310133704E-002
  -1.0879767357355401E-002   2.7770331615827870E-003   6.3105410360368652E-002
  -9.8759040661366114E-003   2.4638553278160114E-003   6.3184455836569231E-002
  -8.8720407749178134E-003   2.1707151783096346E-003   6.3516178738735191E-002
  -7.8681774836990223E-003   1.8976127130645448E-003   6.4100579066866947E-002
  -1.4955602643499290E-002   4.0041147203345728E-003   5.9862991457496184E-002
  -1.3708023390991333E-002   3.6060664989623903E-003   5.9648553253315195E-002
  -1.2460444138483328E-002   3.2206495067968466E-003   5.9668869545746878E-002
  -1.1212864885975341E-002   2.8478637438382054E-003   5.9923940334791634E-002
  -9.9652856334673662E-003   2.4877092100863418E-003   6.0413765620448978E-002
  -1.8075753884897967E-002   4.8979807610590176E-003   5.6385811129040980E-002
  -1.6602381600453429E-002   4.4350998363417993E-003   5.6123160215389822E-002
  -1.5129009316008926E-002   3.9774436857774598E-003   5.6077340868998848E-002
  -1.3655637031564390E-002   3.5250123093662766E-003   5.6248353089868169E-002
  -1.2182264747119857E-002   3.0778057071082499E-003   5.6636196877997730E-002
  -2.1244084372770242E-002   5.7918468017835456E-003   5.2847501324767537E-002
  -1.9562841985741854E-002   5.2641331737212499E-003   5.2529231246592770E-002
  -1.7881599598713421E-002   4.7342378647582395E-003   5.2409869806325393E-002
  -1.6200357211685005E-002   4.2021608748947087E-003   5.2489417003965637E-002
  -1.4519114824656596E-002   3.6679022041299358E-003   5.2767872839513306E-002
  -2.4460594107116096E-002   6.6857128425078516E-003   4.9248062044676133E-002
  -2.2589404546856443E-002   6.0931665111007560E-003   4.8866766346923662E-002
  -2.0718214986596789E-002   5.4910320437389082E-003   4.8666456357726151E-002
  -1.8847025426337150E-002   4.8793094404228632E-003   4.8647132077083460E-002
  -1.6975835866077482E-002   4.2579987011520659E-003   4.8808793504995784E-002
  -7.8681774836990223E-003   1.8976127130645448E-003   6.4100579066866947E-002
  -6.9419562029752746E-003   1.6887641781190288E-003   6.4037764964543276E-002
  -6.0157349222515373E-003   1.5883858195121225E-003   6.4220825912678692E-002
  -5.0895136415277965E-003   1.5964776372449849E-003   6.4649761911273029E-002
  -4.1632923608040523E-003   1.7130396313168594E-003   6.5324572960326122E-002
  -9.9652856334673662E-003   2.4877092100863418E-003   6.0413765620448978E-002
  -8.7928216680795770E-003   2.1894486565705029E-003   6.0341261642248623E-002
  -7.6203577026917879E-003   2.0023448343203798E-003   6.0515367982917290E-002
  -6.4478937373040040E-003   1.9263977433356116E-003   6.0936084642455479E-002
  -5.2754297719162097E-003   1.9616073836163928E-003   6.1603411620862358E-002
  -1.2182264747119857E-002   3.0778057071082499E-003   5.6636196877997730E-002
  -1.0762822828657804E-002   2.6901331350223656E-003   5.6556689578846964E-002
  -9.3433809101957678E-003   2.4163038491284289E-003   5.6724527866975502E-002
  -7.9239389917336832E-003   2.2563178494263529E-003   5.7139711742383546E-002
  -6.5044970732716523E-003   2.2101751359159816E-003   5.7802241205071020E-002
  -1.4519114824656596E-002   3.6679022041299358E-003   5.2767872839513306E-002
  -1.2851959684710059E-002   3.1908176134742006E-003   5.2684048774338424E-002
  -1.1184804544763496E-002   2.8302628639366376E-003   5.2848305564853107E-002
  -9.5176494048169382E-003   2.5862379555169259E-003   5.3260643211057605E-002
  -7.8504942648703925E-003   2.4587428882155427E-003   5.3921061712951308E-002
  -1.6975835866077482E-002   4.2579987011520659E-003   4.8808793504995784E-002
  -1.5060232236236218E-002   3.6915020919258135E-003   4.8723339228722962E-002
  -1.3144628606394926E-002   3.2442218787447075E-003   4.8886701076550187E-002
  -1.1229024976553661E-002   2.9161580616076585E-003   4.9298879048477406E-002
  -9.3134213467123694E-003   2.7073106405151037E-003   4.9959873144503897E-002
  -4.1632923608040523E-003   1.7130396313168594E-003   6.5324572960326122E-002
  -3.6314106409287561E-003   2.0012213211212382E-003   6.4406052389882507E-002
  -3.0995289210534599E-003   2.5241722260519184E-003   6.3606757977874795E-002
  -2.5676472011781620E-003   3.2818923461086155E-003   6.2926689724302681E-002
  -2.0357654813028675E-003   4.2743816812911284E-003   6.2365847629166637E-002
  -5.2754297719162097E-003   1.9616073836163928E-003   6.1603411620862358E-002
  -4.5980235974696151E-003   2.2159797485437061E-003   6.0875228422887673E-002
  -3.9206174230229963E-003   2.7975208314973132E-003   6.0318867975619639E-002
  -3.2432112485763862E-003   3.7062306324790739E-003   5.9934330279058395E-002
  -2.5658050741297518E-003   4.9421091514876281E-003   5.9721615333203970E-002
  -6.5044970732716523E-003   2.2101751359159816E-003   5.7802241205071020E-002
  -5.6289698519827701E-003   2.4307381759656743E-003   5.7356794882466061E-002
  -4.7534426306938592E-003   3.0708694369434991E-003   5.7135767902838960E-002
  -3.8779154094049531E-003   4.1305689188496468E-003   5.7139160266189433E-002
  -3.0023881881160626E-003   5.6098366216839057E-003   5.7366971972517944E-002
  -7.8504942648703925E-003   2.4587428882155427E-003   5.3921061712951308E-002
  -6.7242494044682383E-003   2.6454966033879479E-003   5.3850751768617311E-002
  -5.5980045440660537E-003   3.3442180423891785E-003   5.4057457759532260E-002
  -4.4717596836638847E-003   4.5549072052198294E-003   5.4541179685695905E-002
  -3.3455148232617144E-003   6.2775640918805165E-003   5.5301917547108073E-002
  -9.3134213467123694E-003   2.7073106405151037E-003   4.9959873144503897E-002
  -7.8838622549259468E-003   2.8602550308100549E-003   5.0357099081342227E-002
  -6.4543031631395797E-003   3.6175666478351354E-003   5.1083937545699731E-002
  -5.0247440713531710E-003   4.9792454915907475E-003   5.2140388537577298E-002
  -3.5951849795667901E-003   6.9452915620766831E-003   5.3526452056974483E-002
  -2.0357654813028675E-003   4.2743816812911284E-003   6.2365847629166637E-002
  -2.2860016701682986E-003   5.5796763349305056E-003   5.8335987948930912E-002
  -2.5362378590337298E-003   7.2758124103575739E-003   5.4301124876179552E-002
  -2.7864740478991453E-003   9.3627899075719445E-003   5.0261258410912280E-002
  -3.0367102367645921E-003   1.1840608826573895E-002   4.6216388553129928E-002
  -2.5658050741297518E-003   4.9421091514876281E-003   5.9721615333203970E-002
  -2.8388281584754947E-003   6.5679706070518318E-003   5.6189247917280527E-002
  -3.1118512428212446E-003   8.6466292177004855E-003   5.2616310102911956E-002
  -3.3848743271669788E-003   1.1178084983433631E-002   4.9002801890098119E-002
  -3.6578974115127477E-003   1.4162337904251032E-002   4.5348723278840097E-002
  -3.0023881881160626E-003   5.6098366216839057E-003   5.7366971972517944E-002
  -3.3337651738713208E-003   7.5562648791728249E-003   5.4394052554202960E-002
  -3.6651421596265504E-003   1.0017446025043508E-002   5.1344995731514076E-002
  -3.9965191453818234E-003   1.2993380059295095E-002   4.8219801504451015E-002
  -4.3278961311370122E-003   1.6484066981928169E-002   4.5018469873013500E-002
  -3.3455148232617144E-003   6.2775640918805165E-003   5.5301917547108073E-002
  -3.7708127163557092E-003   8.5445591512939845E-003   5.2950401859699056E-002
  -4.1961106094496620E-003   1.1388262832386142E-002   5.0487181761986757E-002
  -4.6214085025436148E-003   1.4808675135156671E-002   4.7912257253971594E-002
  -5.0467063956376101E-003   1.8805796059605306E-002   4.5225628335652218E-002
  -3.5951849795667901E-003   6.9452915620766831E-003   5.3526452056974483E-002
  -4.1499707859286722E-003   9.5328534234149220E-003   5.1858295833768220E-002
  -4.7047565922905543E-003   1.2759079639729387E-002   5.0042868194329571E-002
  -5.2595423986524226E-003   1.6623970211018343E-002   4.8080169138658313E-002
  -5.8143282050143186E-003   2.1127525137282444E-002   4.5970198666754669E-002
  -5.0053227176650422E-002   1.4286619151779145E-002   4.9204339824062859E-002
  -4.8472100434241855E-002   1.4142453856037907E-002   4.8705077867113866E-002
  -4.6890973691833288E-002   1.3926300725377733E-002   4.8571760188666879E-002
  -4.5309846949424734E-002   1.3638159759798936E-002   4.8804386788722121E-002
  -4.3728720207016167E-002   1.3278030959301246E-002   4.9402957667279424E-002
  -5.6598241503063723E-002   1.6365450740421172E-002   4.4532522909723149E-002
  -5.4681198719766136E-002   1.6195359184077662E-002   4.4070917522722047E-002
  -5.2764155936468549E-002   1.5905887735406549E-002   4.3915199938996646E-002
  -5.0847113153170941E-002   1.5497036394407672E-002   4.4065370158547321E-002
  -4.8930070369873381E-002   1.4968805161081289E-002   4.4521428181373862E-002
  -6.2979887158292780E-002   1.8444282329063089E-002   3.9858475763485779E-002
  -6.0786984809332374E-002   1.8248264512117390E-002   3.9387134889023498E-002
  -5.8594082460372024E-002   1.7885474745435240E-002   3.9161625342611028E-002
  -5.6401180111411646E-002   1.7355913029016488E-002   3.9181947124248211E-002
  -5.4208277762451240E-002   1.6659579362861332E-002   3.9448100233935010E-002
  -6.9198164142337704E-002   2.0523113917705060E-002   3.5182198385350506E-002
  -6.6789458702940716E-002   2.0301169840157160E-002   3.4653729966018454E-002
  -6.4380753263543741E-002   1.9865061755463924E-002   3.4311036399509887E-002
  -6.1972047824146774E-002   1.9214789663625317E-002   3.4154117685824728E-002
  -5.9563342384749793E-002   1.8350353564641292E-002   3.4182973824963145E-002
  -7.5253072455198466E-002   2.2601945506347032E-002   3.0503690775317560E-002
  -7.2688620400591097E-002   2.2354075168196930E-002   2.9870702753706790E-002
  -7.0124168345983728E-002   2.1844648765492677E-002   2.9363433109693221E-002
  -6.7559716291376359E-002   2.1073666298234036E-002   2.8981881843276922E-002
  -6.4995264236768990E-002   2.0041127766421474E-002   2.8726048954458017E-002
  -4.3728720207016167E-002   1.3278030959301246E-002   4.9402957667279424E-002
  -4.2435379593572409E-002   1.2854319655482893E-002   4.9557131640181384E-002
  -4.1142038980128671E-002   1.2375431179941762E-002   4.9759818812132456E-002
  -3.9848698366684934E-002   1.1841365532678252E-002   5.0011019183132638E-002
  -3.8555357753241176E-002   1.1252122713692025E-002   5.0310732753181875E-002
  -4.8930070369873381E-002   1.4968805161081289E-002   4.4521428181373862E-002
  -4.7578364654452053E-002   1.4381218964482134E-002   4.4581343224513514E-002
  -4.6226658939030718E-002   1.3794302733665678E-002   4.4709475272559362E-002
  -4.4874953223609404E-002   1.3208056468631674E-002   4.4905824325511337E-002
  -4.3523247508188076E-002   1.2622480169380279E-002   4.5170390383369258E-002
  -5.4208277762451240E-002   1.6659579362861332E-002   3.9448100233935010E-002
  -5.2778503139195375E-002   1.5908118273481708E-002   3.9469603484817720E-002
  -5.1348728515939503E-002   1.5213174287389657E-002   3.9579027546463356E-002
  -4.9918953892683575E-002   1.4574747404585265E-002   3.9776372418872080E-002
  -4.8489179269427696E-002   1.3992837625068477E-002   4.0061638102044009E-002
  -5.9563342384749793E-002   1.8350353564641292E-002   3.4182973824963145E-002
  -5.8035795047802395E-002   1.7435017582481088E-002   3.4221912421093681E-002
  -5.6508247710854984E-002   1.6632045841113604E-002   3.4368475633844375E-002
  -5.4980700373907530E-002   1.5941438340538662E-002   3.4622663463215061E-002
  -5.3453153036960119E-002   1.5363195080756703E-002   3.4984475909205670E-002
  -6.4995264236768990E-002   2.0041127766421474E-002   2.8726048954458017E-002
  -6.3350240380273079E-002   1.8961916891480551E-002   2.8838270033341773E-002
  -6.1705216523777168E-002   1.8050917394837537E-002   2.9077819534702481E-002
  -6.0060192667281256E-002   1.7308129276492331E-002   2.9444697458540225E-002
  -5.8415168810785317E-002   1.6733552536444929E-002   2.9938903804854866E-002
  -3.8555357753241176E-002   1.1252122713692025E-002   5.0310732753181875E-002
  -3.6395189557760180E-002   1.0644981405243364E-002   4.9339009419251512E-002
  -3.4235021362279183E-002   1.0057220289592175E-002   4.8654889876273338E-002
  -3.2074853166798173E-002   9.4888393667385447E-003   4.8258374124247425E-002
  -2.9914684971317190E-002   8.9398386366824067E-003   4.8149462163173562E-002
  -4.3523247508188076E-002   1.2622480169380279E-002   4.5170390383369258E-002
  -4.1074343376352733E-002   1.2036000667267815E-002   4.4210209099194708E-002
  -3.8625439244517418E-002   1.1447044793650690E-002   4.3539895896776551E-002
  -3.6176535112682068E-002   1.0855612548529216E-002   4.3159450776114945E-002
  -3.3727630980846759E-002   1.0261703931903066E-002   4.3068873737209745E-002
  -4.8489179269427696E-002   1.3992837625068477E-002   4.0061638102044009E-002
  -4.5749274910433832E-002   1.3427019929292169E-002   3.9091142303323043E-002
  -4.3009370551439947E-002   1.2836869297709254E-002   3.8412778877162997E-002
  -4.0269466192446077E-002   1.2222385730319774E-002   3.8026547823563447E-002
  -3.7529561833452199E-002   1.1583569227123697E-002   3.7932449142524624E-002
  -5.3453153036960119E-002   1.5363195080756703E-002   3.4984475909205670E-002
  -5.0419984160003498E-002   1.4818039191316738E-002   3.3981809031636709E-002
  -4.7386815283046821E-002   1.4226693801767821E-002   3.3273538817432481E-002
  -4.4353646406090137E-002   1.3589158912110554E-002   3.2859665266593160E-002
  -4.1320477529133565E-002   1.2905434522344397E-002   3.2740188379118795E-002
  -5.8415168810785317E-002   1.6733552536444929E-002   2.9938903804854866E-002
  -5.5086471125061653E-002   1.6209058453341002E-002   2.8882209284135485E-002
  -5.1757773439338017E-002   1.5616518305826249E-002   2.8122175717585129E-002
  -4.8429075753614367E-002   1.4955932093901093E-002   2.7658803105203827E-002
  -4.5100378067890717E-002   1.4227299817565098E-002   2.7492091446991718E-002
  -2.9914684971317190E-002   8.9398386366824067E-003   4.8149462163173562E-002
  -2.8551162255266910E-002   8.3944727993032764E-003   4.8207416797145852E-002
  -2.7187639539216643E-002   7.8369965544811820E-003   4.8409834988720452E-002
  -2.5824116823166363E-002   7.2674099022160439E-003   4.8756716737897124E-002
  -2.4460594107116096E-002   6.6857128425078516E-003   4.9248062044676133E-002
  -3.3727630980846759E-002   1.0261703931903066E-002   4.3068873737209745E-002
  -3.2229556573693210E-002   9.6595232434568967E-003   4.3114842571817885E-002
  -3.0731482166539613E-002   9.0432747828753657E-003   4.3285451231030558E-002
  -2.9233407759386012E-002   8.4129585501586945E-003   4.3580699714847349E-002
  -2.7735333352232411E-002   7.7685745453065502E-003   4.4000588023268616E-002
  -3.7529561833452199E-002   1.1583569227123697E-002   3.7932449142524624E-002
  -3.5916759468193241E-002   1.0924573687610462E-002   3.7964474813076632E-002
  -3.4303957102934199E-002   1.0249553011269653E-002   3.8101316575235085E-002
  -3.2691154737675227E-002   9.5585071981013434E-003   3.8342974428999990E-002
  -3.1078352372416254E-002   8.8514362481053044E-003   3.8689448374371327E-002
  -4.1320477529133565E-002   1.2905434522344397E-002   3.2740188379118795E-002
  -3.9612770938767007E-002   1.2189624131763999E-002   3.2756313520922134E-002
  -3.7905064348400457E-002   1.1455831239663834E-002   3.2857431021334128E-002
  -3.6197357758033899E-002   1.0704055846043826E-002   3.3043540880354702E-002
  -3.4489651167667397E-002   9.9342979509041418E-003   3.3314643097984015E-002
  -4.5100378067890717E-002   1.4227299817565098E-002   2.7492091446991718E-002
  -4.3317590985414545E-002   1.3454674575917536E-002   2.7490358695354378E-002
  -4.1534803902938358E-002   1.2662109468057986E-002   2.7553794569327661E-002
  -3.9752016820462165E-002   1.1849604493986581E-002   2.7682399068911789E-002
  -3.7969229737985999E-002   1.1017159653702757E-002   2.7876172194106541E-002
  -2.4460594107116096E-002   6.6857128425078516E-003   4.9248062044676133E-002
  -2.2589404546856443E-002   6.0931665111007560E-003   4.8866766346923662E-002
  -2.0718214986596789E-002   5.4910320437389082E-003   4.8666456357726151E-002
  -1.8847025426337150E-002   4.8793094404228632E-003   4.8647132077083460E-002
  -1.6975835866077482E-002   4.2579987011520659E-003   4.8808793504995784E-002
  -2.7735333352232411E-002   7.7685745453065502E-003   4.4000588023268616E-002
  -2.5689066657023751E-002   7.1192500745976273E-003   4.3542403329076496E-002
  -2.3642799961815016E-002   6.4741124443104536E-003   4.3253387196227483E-002
  -2.1596533266606315E-002   5.8331616544448767E-003   4.3133539624721731E-002
  -1.9550266571397565E-002   5.1963977050010213E-003   4.3182860614559115E-002
  -3.1078352372416254E-002   8.8514362481053044E-003   3.8689448374371327E-002
  -2.8868825689470190E-002   8.1453336380945263E-003   3.8168149660115669E-002
  -2.6659299006524188E-002   7.4571928448817770E-003   3.7804202359991546E-002
  -2.4449772323578131E-002   6.7870138684670012E-003   3.7597606473998790E-002
  -2.2240245640632123E-002   6.1347967088501432E-003   3.7548362002137542E-002
  -3.4489651167667397E-002   9.9342979509041418E-003   3.3314643097984015E-002
  -3.2128681644195793E-002   9.1714172015913559E-003   3.2744005340041134E-002
  -2.9767712120724096E-002   8.4402732454531004E-003   3.2318901849018096E-002
  -2.7406742597252433E-002   7.7408660824891257E-003   3.2039332624914769E-002
  -2.5045773073780798E-002   7.0731957126990708E-003   3.1905297667731349E-002
  -3.7969229737985999E-002   1.1017159653702757E-002   2.7876172194106541E-002
  -3.5468634521200471E-002   1.0197500765088463E-002   2.7269970368852925E-002
  -3.2968039304414942E-002   9.4233536460245904E-003   2.6797485663307419E-002
  -3.0467444087629400E-002   8.6947182965111808E-003   2.6458718077469606E-002
  -2.7966848870843886E-002   8.0115947165483314E-003   2.6253667611340181E-002
  -1.6975835866077482E-002   4.2579987011520659E-003   4.8808793504995784E-002
  -1.5060232236236218E-002   3.6915020919258135E-003   4.8723339228722962E-002
  -1.3144628606394926E-002   3.2442218787447075E-003   4.8886701076550187E-002
  -1.1229024976553661E-002   2.9161580616076585E-003   4.9298879048477406E-002
  -9.3134213467123694E-003   2.7073106405151037E-003   4.9959873144503897E-002
  -1.9550266571397565E-002   5.1963977050010213E-003   4.3182860614559115E-002
  -1.7422837764660623E-002   4.5978008515539237E-003   4.3040548900976083E-002
  -1.5295408957923654E-002   4.0713513496783149E-003   4.3073071417084663E-002
  -1.3167980151186691E-002   3.6170491993751733E-003   4.3280428162884688E-002
  -1.1040551344449687E-002   3.2348944006435065E-003   4.3662619138376602E-002
  -2.2240245640632123E-002   6.1347967088501432E-003   3.7548362002137542E-002
  -1.9974973551407701E-002   5.5040996111819784E-003   3.7302123806771698E-002
  -1.7709701462183224E-002   4.8984808206128244E-003   3.7156737946688986E-002
  -1.5444429372958816E-002   4.3179403371428025E-003   3.7112204421889596E-002
  -1.3179157283734380E-002   3.7624781607719093E-003   3.7168523232373574E-002
  -2.5045773073780798E-002   7.0731957126990708E-003   3.1905297667731349E-002
  -2.2716639596477236E-002   6.4103983708098389E-003   3.1508063946109562E-002
  -2.0387506119173594E-002   5.7256102915468829E-003   3.1137700665363113E-002
  -1.8058372641870005E-002   5.0188314749102635E-003   3.0794207825491554E-002
  -1.5729239164566384E-002   4.2900619209003676E-003   3.0477585426495105E-002
  -2.7966848870843886E-002   8.0115947165483314E-003   2.6253667611340181E-002
  -2.5647835899869381E-002   7.3166971304380879E-003   2.5658369318990126E-002
  -2.3328822928894821E-002   6.5527397624809414E-003   2.5015959573107205E-002
  -2.1009809957920289E-002   5.7197226126778911E-003   2.4326438373690612E-002
  -1.8690796986945757E-002   4.8176456810287149E-003   2.3589805720740986E-002
  -9.3134213467123694E-003   2.7073106405151037E-003   4.9959873144503897E-002
  -7.8838622549259468E-003   2.8602550308100549E-003   5.0357099081342227E-002
  -6.4543031631395797E-003   3.6175666478351354E-003   5.1083937545699731E-002
  -5.0247440713531710E-003   4.9792454915907475E-003   5.2140388537577298E-002
  -3.5951849795667901E-003   6.9452915620766831E-003   5.3526452056974483E-002
  -1.1040551344449687E-002   3.2348944006435065E-003   4.3662619138376602E-002
  -9.2639337642366204E-003   3.1636757542471972E-003   4.4242861184488891E-002
  -7.4873161840234848E-003   3.6421820609502387E-003   4.5187607679935099E-002
  -5.7106986038103665E-003   4.6704133207522425E-003   4.6496858624714851E-002
  -3.9340810235972273E-003   6.2483695336534861E-003   4.8170614018828717E-002
  -1.3179157283734380E-002   3.7624781607719093E-003   3.7168523232373574E-002
  -1.1020589293280540E-002   3.4670964776845892E-003   3.7877139114129266E-002
  -8.8620213028266434E-003   3.6667974740652032E-003   3.8985151367032650E-002
  -6.7034533123728306E-003   4.3615811499136195E-003   4.0492559991083782E-002
  -4.5448853219189622E-003   5.5514475052305112E-003   4.2399364986282551E-002
  -1.5729239164566384E-002   4.2900619209003676E-003   3.0477585426495105E-002
  -1.3153828842057833E-002   3.7705172011219673E-003   3.1259932870262866E-002
  -1.0578418519549283E-002   3.6914128871801261E-003   3.2476568606992447E-002
  -8.0030081970407473E-003   4.0527489790754996E-003   3.4127492636683354E-002
  -5.4275978745321821E-003   4.8545254768074253E-003   3.6212704959336400E-002
  -1.8690796986945757E-002   4.8176456810287149E-003   2.3589805720740986E-002
  -1.5663652410568496E-002   4.0739379245590679E-003   2.4391242452889594E-002
  -1.2636507834191207E-002   3.7160283002952987E-003   2.5661859399813969E-002
  -9.6093632578139049E-003   3.7439168082363875E-003   2.7401656561514026E-002
  -6.5822186814366579E-003   4.1576034483844504E-003   2.9610633937989683E-002
  -3.5951849795667901E-003   6.9452915620766831E-003   5.3526452056974483E-002
  -4.1499707859286722E-003   9.5328534234149220E-003   5.1858295833768220E-002
  -4.7047565922905543E-003   1.2759079639729387E-002   5.0042868194329571E-002
  -5.2595423986524226E-003   1.6623970211018343E-002   4.8080169138658313E-002
  -5.8143282050143186E-003   2.1127525137282444E-002   4.5970198666754669E-002
  -3.9340810235972273E-003   6.2483695336534861E-003   4.8170614018828717E-002
  -4.5316697794012401E-003   8.6862494976189808E-003   4.7239411460123504E-002
  -5.1292585352051764E-003   1.2294252010612905E-002   4.6369874418766610E-002
  -5.7268472910090781E-003   1.7072377072636161E-002   4.5562002894758619E-002
  -6.3244360468130145E-003   2.3020624683688151E-002   4.4815796888098225E-002
  -4.5448853219189622E-003   5.5514475052305112E-003   4.2399364986282551E-002
  -4.9763400935841848E-003   7.8396455718222624E-003   4.2736574286132312E-002
  -5.4077948652494004E-003   1.1829424381496895E-002   4.3344386036911070E-002
  -5.8392496369145050E-003   1.7520783934253985E-002   4.4222800238619353E-002
  -6.2707044085798941E-003   2.4913724230093637E-002   4.5371816891256245E-002
  -5.4275978745321821E-003   4.8545254768074253E-003   3.6212704959336400E-002
  -5.4839817284777267E-003   6.9930416460259326E-003   3.8349784311794713E-002
  -5.5403655824232973E-003   1.1364596752380982E-002   4.0966403048762805E-002
  -5.5967494363688263E-003   1.7969190795872027E-002   4.4062561170240877E-002
  -5.6531332903144126E-003   2.6806823776499233E-002   4.7638258676229200E-002
  -6.5822186814366579E-003   4.1576034483844504E-003   2.9610633937989683E-002
  -6.0545946840817599E-003   6.1464377202294918E-003   3.4079041537110277E-002
  -5.5269706867268065E-003   1.0899769123264819E-002   3.9235925454321474E-002
  -4.9993466893718391E-003   1.8417597657489675E-002   4.5081285689623635E-002
  -4.4717226920170106E-003   2.8699923322904830E-002   5.1615122243017009E-002
  -7.5253072455198466E-002   2.2601945506347032E-002   3.0503690775317560E-002
  -7.2688620400591097E-002   2.2354075168196930E-002   2.9870702753706790E-002
  -7.0124168345983728E-002   2.1844648765492677E-002   2.9363433109693221E-002
  -6.7559716291376359E-002   2.1073666298234036E-002   2.8981881843276922E-002
  -6.4995264236768990E-002   2.0041127766421474E-002   2.8726048954458017E-002
  -8.1269381091207099E-002   2.4876468071029889E-002   2.3497222716197586E-002
  -7.8562522742629121E-002   2.3821101020043145E-002   2.2705424725061762E-002
  -7.5855664394051114E-002   2.2848632896773843E-002   2.2072720944269847E-002
  -7.3148806045473108E-002   2.1959063701222106E-002   2.1599111373822019E-002
  -7.0441947696895116E-002   2.1152393433387873E-002   2.1284596013718377E-002
  -8.7371859044695938E-002   2.7150990635712774E-002   1.5511030448104993E-002
  -8.4489218569400490E-002   2.5288126871889222E-002   1.4904877479715847E-002
  -8.1606578094105098E-002   2.3852617028054988E-002   1.4491194554417573E-002
  -7.8723937618809664E-002   2.2844461104210123E-002   1.4269981672209820E-002
  -7.5841297143514244E-002   2.2263659100354244E-002   1.4241238833092987E-002
  -9.3560506315664579E-002   2.9425513200395756E-002   6.5451139710398544E-003
  -9.0468707880905080E-002   2.6755152723735562E-002   6.4690610176691907E-003
  -8.7376909446145623E-002   2.4856601159336144E-002   6.6188539401360862E-003
  -8.4285111011386166E-002   2.3729858507198054E-002   6.9944927384401985E-003
  -8.1193312576626639E-002   2.3374924767320573E-002   7.5959774125820036E-003
  -9.9835322904113344E-002   3.1700035765078516E-002  -3.4005267149977980E-003
  -9.6500990677143017E-002   2.8222178575581736E-002  -2.6020246610782283E-003
  -9.3166658450172690E-002   2.5860585290617411E-002  -1.5443008985744633E-003
  -8.9832326223202419E-002   2.4615255910186068E-002  -2.2735542748699572E-004
  -8.6497993996232148E-002   2.4486190434287125E-002   1.3488117521851528E-003
  -6.4995264236768990E-002   2.0041127766421474E-002   2.8726048954458017E-002
  -6.3350240380273079E-002   1.8961916891480551E-002   2.8838270033341773E-002
  -6.1705216523777168E-002   1.8050917394837537E-002   2.9077819534702481E-002
  -6.0060192667281256E-002   1.7308129276492331E-002   2.9444697458540225E-002
  -5.8415168810785317E-002   1.6733552536444929E-002   2.9938903804854866E-002
  -7.0441947696895116E-002   2.1152393433387873E-002   2.1284596013718377E-002
  -6.8663697991802719E-002   2.0395831732263017E-002   2.1542813324227875E-002
  -6.6885448286710392E-002   1.9656588236839009E-002   2.1940153909453350E-002
  -6.5107198581617995E-002   1.8934662947116470E-002   2.2476617769394566E-002
  -6.3328948876525681E-002   1.8230055863094785E-002   2.3152204904051898E-002
  -7.5841297143514244E-002   2.2263659100354244E-002   1.4241238833092987E-002
  -7.3918026737586601E-002   2.1829746573045331E-002   1.4494559202631555E-002
  -7.1994756331658888E-002   2.1262259078840821E-002   1.4898797699125138E-002
  -7.0071485925731189E-002   2.0561196617740612E-002   1.5453954322573033E-002
  -6.8148215519803546E-002   1.9726559189744863E-002   1.6160029072976159E-002
  -8.1193312576626639E-002   2.3374924767320573E-002   7.5959774125820036E-003
  -7.9113226617624779E-002   2.3263661413827692E-002   7.6935076685529548E-003
  -7.7033140658622809E-002   2.2867929920842574E-002   7.9537509037175633E-003
  -7.4953054699620894E-002   2.2187730288364890E-002   8.3767071180760599E-003
  -7.2872968740618937E-002   2.1223062516394720E-002   8.9623763116279329E-003
  -8.6497993996232148E-002   2.4486190434287125E-002   1.3488117521851528E-003
  -8.4249297631917075E-002   2.4697576254610221E-002   1.1396587219918430E-003
  -8.2000601267602002E-002   2.4473600762843994E-002   1.1050135232311964E-003
  -7.9751904903286874E-002   2.3814263958988918E-002   1.2448761559028174E-003
  -7.7503208538971857E-002   2.2719565843044909E-002   1.5592466200072819E-003
  -5.8415168810785317E-002   1.6733552536444929E-002   2.9938903804854866E-002
  -5.5086471125061653E-002   1.6209058453341002E-002   2.8882209284135485E-002
  -5.1757773439338017E-002   1.5616518305826249E-002   2.8122175717585129E-002
  -4.8429075753614367E-002   1.4955932093901093E-002   2.7658803105203827E-002
  -4.5100378067890717E-002   1.4227299817565098E-002   2.7492091446991718E-002
  -6.3328948876525681E-002   1.8230055863094785E-002   2.3152204904051898E-002
  -5.9717475631134748E-002   1.7518923096513705E-002   2.2126930593677541E-002
  -5.6106002385743814E-002   1.6777420759112205E-002   2.1370546448468600E-002
  -5.2494529140352880E-002   1.6005548850890464E-002   2.0883052468425069E-002
  -4.8883055894961960E-002   1.5203307371848440E-002   2.0664448653546885E-002
  -6.8148215519803546E-002   1.9726559189744863E-002   1.6160029072976159E-002
  -6.4281737503749020E-002   1.8828787739686229E-002   1.5203851466537480E-002
  -6.0415259487694495E-002   1.7938323212397814E-002   1.4488793236260358E-002
  -5.6548781471640011E-002   1.7055165607879830E-002   1.4014854382145177E-002
  -5.2682303455585479E-002   1.6179314926131949E-002   1.3782034904191581E-002
  -7.2872968740618937E-002   2.1223062516394720E-002   8.9623763116279329E-003
  -6.8779256742904499E-002   2.0138652382859175E-002   8.1129719027150278E-003
  -6.4685544745190060E-002   1.9099225665683651E-002   7.4769160809604364E-003
  -6.0591832747475566E-002   1.8104782364869419E-002   7.0542088463640181E-003
  -5.6498120749761183E-002   1.7155322480415430E-002   6.8448501989253896E-003
  -7.7503208538971857E-002   2.2719565843044909E-002   1.5592466200072819E-003
  -7.3210033348601211E-002   2.1448517026031677E-002   8.5429190221125717E-004
  -6.8916858158230510E-002   2.0260128118969517E-002   3.3491498256912888E-004
  -6.4623682967859836E-002   1.9154399121858491E-002   1.1158610818476355E-006
  -6.0330507777489162E-002   1.8131330034698800E-002  -1.4710546225149557E-004
  -4.5100378067890717E-002   1.4227299817565098E-002   2.7492091446991718E-002
  -4.3317590985414545E-002   1.3454674575917536E-002   2.7490358695354378E-002
  -4.1534803902938358E-002   1.2662109468057986E-002   2.7553794569327661E-002
  -3.9752016820462165E-002   1.1849604493986581E-002   2.7682399068911789E-002
  -3.7969229737985999E-002   1.1017159653702757E-002   2.7876172194106541E-002
  -4.8883055894961960E-002   1.5203307371848440E-002   2.0664448653546885E-002
  -4.7025432320905447E-002   1.4393568233778603E-002   2.0653531227603356E-002
  -4.5167808746848913E-002   1.3599203348473449E-002   2.0727118159209856E-002
  -4.3310185172792406E-002   1.2820212715932984E-002   2.0885209448366110E-002
  -4.1452561598735865E-002   1.2056596336157466E-002   2.1127805095072560E-002
  -5.2682303455585479E-002   1.6179314926131949E-002   1.3782034904191581E-002
  -5.0730507658009343E-002   1.5332461891639781E-002   1.3797246922918505E-002
  -4.8778711860433158E-002   1.4536297228888981E-002   1.3916299031134491E-002
  -4.6826916062857028E-002   1.3790820937879724E-002   1.4139191228840088E-002
  -4.4875120265280830E-002   1.3096033018611952E-002   1.4465923516034790E-002
  -5.6498120749761183E-002   1.7155322480415430E-002   6.8448501989253896E-003
  -5.4432816996726079E-002   1.6271355549500904E-002   6.9215057812992940E-003
  -5.2367513243691016E-002   1.5473391109304534E-002   7.1213371851021022E-003
  -5.0302209490655926E-002   1.4761429159826074E-002   7.4443444103333405E-003
  -4.8236905737620850E-002   1.4135469701066217E-002   7.8905274569932571E-003
  -6.0330507777489162E-002   1.8131330034698800E-002  -1.4710546225149557E-004
  -5.8132360337055933E-002   1.7210249207362027E-002   2.6307802746650122E-005
  -5.5934212896622593E-002   1.6410484989719865E-002   3.4223262111249264E-004
  -5.3736065456189308E-002   1.5732037381773062E-002   8.0066899284621240E-004
  -5.1537918015756023E-002   1.5174906383521147E-002   1.4016169179479343E-003
  -3.7969229737985999E-002   1.1017159653702757E-002   2.7876172194106541E-002
  -3.5468634521200471E-002   1.0197500765088463E-002   2.7269970368852925E-002
  -3.2968039304414942E-002   9.4233536460245904E-003   2.6797485663307419E-002
  -3.0467444087629400E-002   8.6947182965111808E-003   2.6458718077469606E-002
  -2.7966848870843886E-002   8.0115947165483314E-003   2.6253667611340181E-002
  -4.1452561598735865E-002   1.2056596336157466E-002   2.1127805095072560E-002
  -3.8822493917637438E-002   1.1300291998604273E-002   2.0600512609244337E-002
  -3.6192426236539024E-002   1.0543237492731908E-002   2.0198447932333746E-002
  -3.3562358555440708E-002   9.7854328185402219E-003   1.9921611064340802E-002
  -3.0932290874342239E-002   9.0268779760295237E-003   1.9770002005265741E-002
  -4.4875120265280830E-002   1.3096033018611952E-002   1.4465923516034790E-002
  -4.2124069430659827E-002   1.2403083232120443E-002   1.3971278431761977E-002
  -3.9373018596038874E-002   1.1663121339439225E-002   1.3593371845616764E-002
  -3.6621967761417906E-002   1.0876147340569318E-002   1.3332203757598637E-002
  -3.3870916926796932E-002   1.0042161235510216E-002   1.3187774167708388E-002
  -4.8236905737620850E-002   1.4135469701066217E-002   7.8905274569932571E-003
  -4.5373361060267667E-002   1.3505874465636211E-002   7.3822678364061818E-003
  -4.2509816382914414E-002   1.2783005186146709E-002   6.9822574031563646E-003
  -3.9646271705561183E-002   1.1966861862598831E-002   6.6904961572434272E-003
  -3.6782727028207972E-002   1.1057444494991270E-002   6.5069840986677133E-003
  -5.1537918015756023E-002   1.5174906383521147E-002   1.4016169179479343E-003
  -4.8570368806460817E-002   1.4608665699152201E-002   8.3348082317658001E-004
  -4.5602819597165667E-002   1.3902889032854027E-002   3.6510460495242647E-004
  -4.2635270387870516E-002   1.3057576384627609E-002  -3.5117367253034715E-006
  -3.9667721178575310E-002   1.2072727754472323E-002  -2.7236820185583266E-004
  -2.7966848870843886E-002   8.0115947165483314E-003   2.6253667611340181E-002
  -2.5647835899869381E-002   7.3166971304380879E-003   2.5658369318990126E-002
  -2.3328822928894821E-002   6.5527397624809414E-003   2.5015959573107205E-002
  -2.1009809957920289E-002   5.7197226126778911E-003   2.4326438373690612E-002
  -1.8690796986945757E-002   4.8176456810287149E-003   2.3589805720740986E-002
  -3.0932290874342239E-002   9.0268779760295237E-003   1.9770002005265741E-002
  -2.8646878047173516E-002   8.2686555469382306E-003   1.9181208580343057E-002
  -2.6361465220004779E-002   7.5118481130058146E-003   1.8572326321342231E-002
  -2.4076052392835966E-002   6.7564556742322340E-003   1.7943355228262944E-002
  -2.1790639565667375E-002   6.0024782306176139E-003   1.7294295301105156E-002
  -3.3870916926796932E-002   1.0042161235510216E-002   1.3187774167708388E-002
  -3.1592081623979119E-002   9.2206139634389561E-003   1.2675960387218244E-002
  -2.9313246321161272E-002   8.4709564635311319E-003   1.2171080392104294E-002
  -2.7034411018343474E-002   7.7931887357870211E-003   1.1673134182367206E-002
  -2.4755575715525613E-002   7.1873107802066238E-003   1.1182121758006591E-002
  -3.6782727028207972E-002   1.1057444494991270E-002   6.5069840986677133E-003
  -3.4483446630286192E-002   1.0172572379939057E-002   6.1426247396151323E-003
  -3.2184166232364433E-002   9.4300648140555610E-003   5.8122217853936106E-003
  -2.9884885834442633E-002   8.8299217973412530E-003   5.5157752360034604E-003
  -2.7585605436520898E-002   8.3721433297954118E-003   5.2532850914450008E-003
  -3.9667721178575310E-002   1.2072727754472323E-002  -2.7236820185583266E-004
  -3.7320973066094720E-002   1.1124530796439269E-002  -4.1879836246616620E-004
  -3.4974224953614186E-002   1.0389173164581378E-002  -5.0424949879060432E-004
  -3.2627476841133596E-002   9.8666548588954989E-003  -5.2872161082823804E-004
  -3.0280728728653061E-002   9.5569758793845327E-003  -4.9221469857951838E-004
  -1.8690796986945757E-002   4.8176456810287149E-003   2.3589805720740986E-002
  -1.5663652410568496E-002   4.0739379245590679E-003   2.4391242452889594E-002
  -1.2636507834191207E-002   3.7160283002952987E-003   2.5661859399813969E-002
  -9.6093632578139049E-003   3.7439168082363875E-003   2.7401656561514026E-002
  -6.5822186814366579E-003   4.1576034483844504E-003   2.9610633937989683E-002
  -2.1790639565667375E-002   6.0024782306176139E-003   1.7294295301105156E-002
  -1.8561412110462805E-002   5.3401046100140515E-003   1.8247336517703217E-002
  -1.5332184655258305E-002   4.8595236402747821E-003   1.9135363277180045E-002
  -1.2102957200053770E-002   4.5607353213993687E-003   1.9958375579535517E-002
  -8.8737297448493457E-003   4.4437396533879570E-003   2.0716373424769841E-002
  -2.4755575715525613E-002   7.1873107802066238E-003   1.1182121758006591E-002
  -2.1858460053390968E-002   6.6062712954691738E-003   1.2082761977712436E-002
  -1.8961344391256282E-002   6.0030189802544737E-003   1.2384193068400037E-002
  -1.6064228729121586E-002   5.3775538345619024E-003   1.2086415030069068E-002
  -1.3167113066986896E-002   4.7298758583916301E-003   1.1189427862720064E-002
  -2.7585605436520898E-002   8.3721433297954118E-003   5.2532850914450008E-003
  -2.5554796239352997E-002   7.8724379809247819E-003   5.8975188329169134E-003
  -2.3523987042185182E-002   7.1465143202340611E-003   5.4083487734734904E-003
  -2.1493177845017246E-002   6.1943723477242158E-003   3.7857749131145740E-003
  -1.9462368647849459E-002   5.0160120633952199E-003   1.0297972518405543E-003
  -3.0280728728653061E-002   9.5569758793845327E-003  -4.9221469857951838E-004
  -2.9650420668348998E-002   9.1386046663790577E-003  -3.0839291668349755E-004
  -2.9020112608044935E-002   8.2900096602133155E-003  -1.7921696075991478E-003
  -2.8389804547740899E-002   7.0111908608865570E-003  -4.9435447713275377E-003
  -2.7759496487436808E-002   5.3021482683990317E-003  -9.7625184078681260E-003
  -6.5822186814366579E-003   4.1576034483844504E-003   2.9610633937989683E-002
  -6.0545946840817599E-003   6.1464377202294918E-003   3.4079041537110277E-002
  -5.5269706867268065E-003   1.0899769123264819E-002   3.9235925454321474E-002
  -4.9993466893718391E-003   1.8417597657489675E-002   4.5081285689623635E-002
  -4.4717226920170106E-003   2.8699923322904830E-002   5.1615122243017009E-002
  -8.8737297448493457E-003   4.4437396533879570E-003   2.0716373424769841E-002
  -7.5866234344160316E-003   5.6595591875364115E-003   2.5878082202475894E-002
  -6.2995171239825787E-003   9.3592164751421791E-003   3.1870279288248093E-002
  -5.0124108135493201E-003   1.5542711516203241E-002   3.8692964682086134E-002
  -3.7253045031158116E-003   2.4210044310721379E-002   4.6346138383990043E-002
  -1.3167113066986896E-002   4.7298758583916301E-003   1.1189427862720064E-002
  -1.0978512453500094E-002   5.1726806548441639E-003   1.6763778441278354E-002
  -8.7899118400133203E-003   7.8186638270189984E-003   2.3310629317877626E-002
  -6.6013112265265843E-003   1.2667825374917088E-002   3.0829980492517679E-002
  -4.4127106130397442E-003   1.9720165298537928E-002   3.9321831965199228E-002
  -1.9462368647849459E-002   5.0160120633952199E-003   1.0297972518405543E-003
  -1.6230261741334191E-002   4.6858021221512780E-003   6.7361302535175402E-003
  -1.2998154834818842E-002   6.2781111788963104E-003   1.3556975543210555E-002
  -9.7660479283035381E-003   9.7929392336307940E-003   2.1492333120919659E-002
  -6.5339410217882324E-003   1.5230286286354699E-002   3.0542202986644479E-002
  -2.7759496487436808E-002   5.3021482683990317E-003  -9.7625184078681260E-003
  -2.3341871297918093E-002   4.1989235894579480E-003  -4.2048623608061941E-003
  -1.8924246108399267E-002   4.7375585307731227E-003   2.6093179642467934E-003
  -1.4506620918880470E-002   6.9180530923442646E-003   1.0680022567291197E-002
  -1.0088995729361727E-002   1.0740407274171027E-002   2.0007251448326269E-002
 </DataArray>
 </PointData>
 </Piece>
 </UnstructuredGrid>
 </VTKFile>
