 <VTKFile type="UnstructuredGrid"  version="0.1"   >
 <UnstructuredGrid>
 <Piece  NumberOfPoints="          1600 "  NumberOfCells="         1024 ">
 <Points>
 <DataArray  type="Float64" NumberOfComponents="3"  format="ascii" >
   0.0000000000000000        0.0000000000000000        0.0000000000000000     
   3.1250000000000000E-002   0.0000000000000000        0.0000000000000000     
   6.2500000000000000E-002   0.0000000000000000        0.0000000000000000     
   9.3750000000000000E-002   0.0000000000000000        0.0000000000000000     
  0.12500000000000000        0.0000000000000000        0.0000000000000000     
   0.0000000000000000        3.1250000000000000E-002   0.0000000000000000     
   3.1250000000000000E-002   3.1250000000000000E-002   0.0000000000000000     
   6.2500000000000000E-002   3.1250000000000000E-002   0.0000000000000000     
   9.3750000000000000E-002   3.1250000000000000E-002   0.0000000000000000     
  0.12500000000000000        3.1250000000000000E-002   0.0000000000000000     
   0.0000000000000000        6.2500000000000000E-002   0.0000000000000000     
   3.1250000000000000E-002   6.2500000000000000E-002   0.0000000000000000     
   6.2500000000000000E-002   6.2500000000000000E-002   0.0000000000000000     
   9.3750000000000000E-002   6.2500000000000000E-002   0.0000000000000000     
  0.12500000000000000        6.2500000000000000E-002   0.0000000000000000     
   0.0000000000000000        9.3750000000000000E-002   0.0000000000000000     
   3.1250000000000000E-002   9.3750000000000000E-002   0.0000000000000000     
   6.2500000000000000E-002   9.3750000000000000E-002   0.0000000000000000     
   9.3750000000000000E-002   9.3750000000000000E-002   0.0000000000000000     
  0.12500000000000000        9.3750000000000000E-002   0.0000000000000000     
   0.0000000000000000       0.12500000000000000        0.0000000000000000     
   3.1250000000000000E-002  0.12500000000000000        0.0000000000000000     
   6.2500000000000000E-002  0.12500000000000000        0.0000000000000000     
   9.3750000000000000E-002  0.12500000000000000        0.0000000000000000     
  0.12500000000000000       0.12500000000000000        0.0000000000000000     
  0.12500000000000000        0.0000000000000000        0.0000000000000000     
  0.15625000000000000        0.0000000000000000        0.0000000000000000     
  0.18750000000000000        0.0000000000000000        0.0000000000000000     
  0.21875000000000000        0.0000000000000000        0.0000000000000000     
  0.25000000000000000        0.0000000000000000        0.0000000000000000     
  0.12500000000000000        3.1250000000000000E-002   0.0000000000000000     
  0.15625000000000000        3.1250000000000000E-002   0.0000000000000000     
  0.18750000000000000        3.1250000000000000E-002   0.0000000000000000     
  0.21875000000000000        3.1250000000000000E-002   0.0000000000000000     
  0.25000000000000000        3.1250000000000000E-002   0.0000000000000000     
  0.12500000000000000        6.2500000000000000E-002   0.0000000000000000     
  0.15625000000000000        6.2500000000000000E-002   0.0000000000000000     
  0.18750000000000000        6.2500000000000000E-002   0.0000000000000000     
  0.21875000000000000        6.2500000000000000E-002   0.0000000000000000     
  0.25000000000000000        6.2500000000000000E-002   0.0000000000000000     
  0.12500000000000000        9.3750000000000000E-002   0.0000000000000000     
  0.15625000000000000        9.3750000000000000E-002   0.0000000000000000     
  0.18750000000000000        9.3750000000000000E-002   0.0000000000000000     
  0.21875000000000000        9.3750000000000000E-002   0.0000000000000000     
  0.25000000000000000        9.3750000000000000E-002   0.0000000000000000     
  0.12500000000000000       0.12500000000000000        0.0000000000000000     
  0.15625000000000000       0.12500000000000000        0.0000000000000000     
  0.18750000000000000       0.12500000000000000        0.0000000000000000     
  0.21875000000000000       0.12500000000000000        0.0000000000000000     
  0.25000000000000000       0.12500000000000000        0.0000000000000000     
  0.25000000000000000        0.0000000000000000        0.0000000000000000     
  0.28125000000000000        0.0000000000000000        0.0000000000000000     
  0.31250000000000000        0.0000000000000000        0.0000000000000000     
  0.34375000000000000        0.0000000000000000        0.0000000000000000     
  0.37500000000000000        0.0000000000000000        0.0000000000000000     
  0.25000000000000000        3.1250000000000000E-002   0.0000000000000000     
  0.28125000000000000        3.1250000000000000E-002   0.0000000000000000     
  0.31250000000000000        3.1250000000000000E-002   0.0000000000000000     
  0.34375000000000000        3.1250000000000000E-002   0.0000000000000000     
  0.37500000000000000        3.1250000000000000E-002   0.0000000000000000     
  0.25000000000000000        6.2500000000000000E-002   0.0000000000000000     
  0.28125000000000000        6.2500000000000000E-002   0.0000000000000000     
  0.31250000000000000        6.2500000000000000E-002   0.0000000000000000     
  0.34375000000000000        6.2500000000000000E-002   0.0000000000000000     
  0.37500000000000000        6.2500000000000000E-002   0.0000000000000000     
  0.25000000000000000        9.3750000000000000E-002   0.0000000000000000     
  0.28125000000000000        9.3750000000000000E-002   0.0000000000000000     
  0.31250000000000000        9.3750000000000000E-002   0.0000000000000000     
  0.34375000000000000        9.3750000000000000E-002   0.0000000000000000     
  0.37500000000000000        9.3750000000000000E-002   0.0000000000000000     
  0.25000000000000000       0.12500000000000000        0.0000000000000000     
  0.28125000000000000       0.12500000000000000        0.0000000000000000     
  0.31250000000000000       0.12500000000000000        0.0000000000000000     
  0.34375000000000000       0.12500000000000000        0.0000000000000000     
  0.37500000000000000       0.12500000000000000        0.0000000000000000     
  0.37500000000000000        0.0000000000000000        0.0000000000000000     
  0.40625000000000000        0.0000000000000000        0.0000000000000000     
  0.43750000000000000        0.0000000000000000        0.0000000000000000     
  0.46875000000000000        0.0000000000000000        0.0000000000000000     
  0.50000000000000000        0.0000000000000000        0.0000000000000000     
  0.37500000000000000        3.1250000000000000E-002   0.0000000000000000     
  0.40625000000000000        3.1250000000000000E-002   0.0000000000000000     
  0.43750000000000000        3.1250000000000000E-002   0.0000000000000000     
  0.46875000000000000        3.1250000000000000E-002   0.0000000000000000     
  0.50000000000000000        3.1250000000000000E-002   0.0000000000000000     
  0.37500000000000000        6.2500000000000000E-002   0.0000000000000000     
  0.40625000000000000        6.2500000000000000E-002   0.0000000000000000     
  0.43750000000000000        6.2500000000000000E-002   0.0000000000000000     
  0.46875000000000000        6.2500000000000000E-002   0.0000000000000000     
  0.50000000000000000        6.2500000000000000E-002   0.0000000000000000     
  0.37500000000000000        9.3750000000000000E-002   0.0000000000000000     
  0.40625000000000000        9.3750000000000000E-002   0.0000000000000000     
  0.43750000000000000        9.3750000000000000E-002   0.0000000000000000     
  0.46875000000000000        9.3750000000000000E-002   0.0000000000000000     
  0.50000000000000000        9.3750000000000000E-002   0.0000000000000000     
  0.37500000000000000       0.12500000000000000        0.0000000000000000     
  0.40625000000000000       0.12500000000000000        0.0000000000000000     
  0.43750000000000000       0.12500000000000000        0.0000000000000000     
  0.46875000000000000       0.12500000000000000        0.0000000000000000     
  0.50000000000000000       0.12500000000000000        0.0000000000000000     
  0.50000000000000000        0.0000000000000000        0.0000000000000000     
  0.53125000000000000        0.0000000000000000        0.0000000000000000     
  0.56250000000000000        0.0000000000000000        0.0000000000000000     
  0.59375000000000000        0.0000000000000000        0.0000000000000000     
  0.62500000000000000        0.0000000000000000        0.0000000000000000     
  0.50000000000000000        3.1250000000000000E-002   0.0000000000000000     
  0.53125000000000000        3.1250000000000000E-002   0.0000000000000000     
  0.56250000000000000        3.1250000000000000E-002   0.0000000000000000     
  0.59375000000000000        3.1250000000000000E-002   0.0000000000000000     
  0.62500000000000000        3.1250000000000000E-002   0.0000000000000000     
  0.50000000000000000        6.2500000000000000E-002   0.0000000000000000     
  0.53125000000000000        6.2500000000000000E-002   0.0000000000000000     
  0.56250000000000000        6.2500000000000000E-002   0.0000000000000000     
  0.59375000000000000        6.2500000000000000E-002   0.0000000000000000     
  0.62500000000000000        6.2500000000000000E-002   0.0000000000000000     
  0.50000000000000000        9.3750000000000000E-002   0.0000000000000000     
  0.53125000000000000        9.3750000000000000E-002   0.0000000000000000     
  0.56250000000000000        9.3750000000000000E-002   0.0000000000000000     
  0.59375000000000000        9.3750000000000000E-002   0.0000000000000000     
  0.62500000000000000        9.3750000000000000E-002   0.0000000000000000     
  0.50000000000000000       0.12500000000000000        0.0000000000000000     
  0.53125000000000000       0.12500000000000000        0.0000000000000000     
  0.56250000000000000       0.12500000000000000        0.0000000000000000     
  0.59375000000000000       0.12500000000000000        0.0000000000000000     
  0.62500000000000000       0.12500000000000000        0.0000000000000000     
  0.62500000000000000        0.0000000000000000        0.0000000000000000     
  0.65625000000000000        0.0000000000000000        0.0000000000000000     
  0.68750000000000000        0.0000000000000000        0.0000000000000000     
  0.71875000000000000        0.0000000000000000        0.0000000000000000     
  0.75000000000000000        0.0000000000000000        0.0000000000000000     
  0.62500000000000000        3.1250000000000000E-002   0.0000000000000000     
  0.65625000000000000        3.1250000000000000E-002   0.0000000000000000     
  0.68750000000000000        3.1250000000000000E-002   0.0000000000000000     
  0.71875000000000000        3.1250000000000000E-002   0.0000000000000000     
  0.75000000000000000        3.1250000000000000E-002   0.0000000000000000     
  0.62500000000000000        6.2500000000000000E-002   0.0000000000000000     
  0.65625000000000000        6.2500000000000000E-002   0.0000000000000000     
  0.68750000000000000        6.2500000000000000E-002   0.0000000000000000     
  0.71875000000000000        6.2500000000000000E-002   0.0000000000000000     
  0.75000000000000000        6.2500000000000000E-002   0.0000000000000000     
  0.62500000000000000        9.3750000000000000E-002   0.0000000000000000     
  0.65625000000000000        9.3750000000000000E-002   0.0000000000000000     
  0.68750000000000000        9.3750000000000000E-002   0.0000000000000000     
  0.71875000000000000        9.3750000000000000E-002   0.0000000000000000     
  0.75000000000000000        9.3750000000000000E-002   0.0000000000000000     
  0.62500000000000000       0.12500000000000000        0.0000000000000000     
  0.65625000000000000       0.12500000000000000        0.0000000000000000     
  0.68750000000000000       0.12500000000000000        0.0000000000000000     
  0.71875000000000000       0.12500000000000000        0.0000000000000000     
  0.75000000000000000       0.12500000000000000        0.0000000000000000     
  0.75000000000000000        0.0000000000000000        0.0000000000000000     
  0.78125000000000000        0.0000000000000000        0.0000000000000000     
  0.81250000000000000        0.0000000000000000        0.0000000000000000     
  0.84375000000000000        0.0000000000000000        0.0000000000000000     
  0.87500000000000000        0.0000000000000000        0.0000000000000000     
  0.75000000000000000        3.1250000000000000E-002   0.0000000000000000     
  0.78125000000000000        3.1250000000000000E-002   0.0000000000000000     
  0.81250000000000000        3.1250000000000000E-002   0.0000000000000000     
  0.84375000000000000        3.1250000000000000E-002   0.0000000000000000     
  0.87500000000000000        3.1250000000000000E-002   0.0000000000000000     
  0.75000000000000000        6.2500000000000000E-002   0.0000000000000000     
  0.78125000000000000        6.2500000000000000E-002   0.0000000000000000     
  0.81250000000000000        6.2500000000000000E-002   0.0000000000000000     
  0.84375000000000000        6.2500000000000000E-002   0.0000000000000000     
  0.87500000000000000        6.2500000000000000E-002   0.0000000000000000     
  0.75000000000000000        9.3750000000000000E-002   0.0000000000000000     
  0.78125000000000000        9.3750000000000000E-002   0.0000000000000000     
  0.81250000000000000        9.3750000000000000E-002   0.0000000000000000     
  0.84375000000000000        9.3750000000000000E-002   0.0000000000000000     
  0.87500000000000000        9.3750000000000000E-002   0.0000000000000000     
  0.75000000000000000       0.12500000000000000        0.0000000000000000     
  0.78125000000000000       0.12500000000000000        0.0000000000000000     
  0.81250000000000000       0.12500000000000000        0.0000000000000000     
  0.84375000000000000       0.12500000000000000        0.0000000000000000     
  0.87500000000000000       0.12500000000000000        0.0000000000000000     
  0.87500000000000000        0.0000000000000000        0.0000000000000000     
  0.90625000000000000        0.0000000000000000        0.0000000000000000     
  0.93750000000000000        0.0000000000000000        0.0000000000000000     
  0.96875000000000000        0.0000000000000000        0.0000000000000000     
   1.0000000000000000        0.0000000000000000        0.0000000000000000     
  0.87500000000000000        3.1250000000000000E-002   0.0000000000000000     
  0.90625000000000000        3.1250000000000000E-002   0.0000000000000000     
  0.93750000000000000        3.1250000000000000E-002   0.0000000000000000     
  0.96875000000000000        3.1250000000000000E-002   0.0000000000000000     
   1.0000000000000000        3.1250000000000000E-002   0.0000000000000000     
  0.87500000000000000        6.2500000000000000E-002   0.0000000000000000     
  0.90625000000000000        6.2500000000000000E-002   0.0000000000000000     
  0.93750000000000000        6.2500000000000000E-002   0.0000000000000000     
  0.96875000000000000        6.2500000000000000E-002   0.0000000000000000     
   1.0000000000000000        6.2500000000000000E-002   0.0000000000000000     
  0.87500000000000000        9.3750000000000000E-002   0.0000000000000000     
  0.90625000000000000        9.3750000000000000E-002   0.0000000000000000     
  0.93750000000000000        9.3750000000000000E-002   0.0000000000000000     
  0.96875000000000000        9.3750000000000000E-002   0.0000000000000000     
   1.0000000000000000        9.3750000000000000E-002   0.0000000000000000     
  0.87500000000000000       0.12500000000000000        0.0000000000000000     
  0.90625000000000000       0.12500000000000000        0.0000000000000000     
  0.93750000000000000       0.12500000000000000        0.0000000000000000     
  0.96875000000000000       0.12500000000000000        0.0000000000000000     
   1.0000000000000000       0.12500000000000000        0.0000000000000000     
   0.0000000000000000       0.12500000000000000        0.0000000000000000     
   3.1250000000000000E-002  0.12500000000000000        0.0000000000000000     
   6.2500000000000000E-002  0.12500000000000000        0.0000000000000000     
   9.3750000000000000E-002  0.12500000000000000        0.0000000000000000     
  0.12500000000000000       0.12500000000000000        0.0000000000000000     
   0.0000000000000000       0.15625000000000000        0.0000000000000000     
   3.1250000000000000E-002  0.15625000000000000        0.0000000000000000     
   6.2500000000000000E-002  0.15625000000000000        0.0000000000000000     
   9.3750000000000000E-002  0.15625000000000000        0.0000000000000000     
  0.12500000000000000       0.15625000000000000        0.0000000000000000     
   0.0000000000000000       0.18750000000000000        0.0000000000000000     
   3.1250000000000000E-002  0.18750000000000000        0.0000000000000000     
   6.2500000000000000E-002  0.18750000000000000        0.0000000000000000     
   9.3750000000000000E-002  0.18750000000000000        0.0000000000000000     
  0.12500000000000000       0.18750000000000000        0.0000000000000000     
   0.0000000000000000       0.21875000000000000        0.0000000000000000     
   3.1250000000000000E-002  0.21875000000000000        0.0000000000000000     
   6.2500000000000000E-002  0.21875000000000000        0.0000000000000000     
   9.3750000000000000E-002  0.21875000000000000        0.0000000000000000     
  0.12500000000000000       0.21875000000000000        0.0000000000000000     
   0.0000000000000000       0.25000000000000000        0.0000000000000000     
   3.1250000000000000E-002  0.25000000000000000        0.0000000000000000     
   6.2500000000000000E-002  0.25000000000000000        0.0000000000000000     
   9.3750000000000000E-002  0.25000000000000000        0.0000000000000000     
  0.12500000000000000       0.25000000000000000        0.0000000000000000     
  0.12500000000000000       0.12500000000000000        0.0000000000000000     
  0.15625000000000000       0.12500000000000000        0.0000000000000000     
  0.18750000000000000       0.12500000000000000        0.0000000000000000     
  0.21875000000000000       0.12500000000000000        0.0000000000000000     
  0.25000000000000000       0.12500000000000000        0.0000000000000000     
  0.12500000000000000       0.15625000000000000        0.0000000000000000     
  0.15625000000000000       0.15625000000000000        0.0000000000000000     
  0.18750000000000000       0.15625000000000000        0.0000000000000000     
  0.21875000000000000       0.15625000000000000        0.0000000000000000     
  0.25000000000000000       0.15625000000000000        0.0000000000000000     
  0.12500000000000000       0.18750000000000000        0.0000000000000000     
  0.15625000000000000       0.18750000000000000        0.0000000000000000     
  0.18750000000000000       0.18750000000000000        0.0000000000000000     
  0.21875000000000000       0.18750000000000000        0.0000000000000000     
  0.25000000000000000       0.18750000000000000        0.0000000000000000     
  0.12500000000000000       0.21875000000000000        0.0000000000000000     
  0.15625000000000000       0.21875000000000000        0.0000000000000000     
  0.18750000000000000       0.21875000000000000        0.0000000000000000     
  0.21875000000000000       0.21875000000000000        0.0000000000000000     
  0.25000000000000000       0.21875000000000000        0.0000000000000000     
  0.12500000000000000       0.25000000000000000        0.0000000000000000     
  0.15625000000000000       0.25000000000000000        0.0000000000000000     
  0.18750000000000000       0.25000000000000000        0.0000000000000000     
  0.21875000000000000       0.25000000000000000        0.0000000000000000     
  0.25000000000000000       0.25000000000000000        0.0000000000000000     
  0.25000000000000000       0.12500000000000000        0.0000000000000000     
  0.28125000000000000       0.12500000000000000        0.0000000000000000     
  0.31250000000000000       0.12500000000000000        0.0000000000000000     
  0.34375000000000000       0.12500000000000000        0.0000000000000000     
  0.37500000000000000       0.12500000000000000        0.0000000000000000     
  0.25000000000000000       0.15625000000000000        0.0000000000000000     
  0.28125000000000000       0.15625000000000000        0.0000000000000000     
  0.31250000000000000       0.15625000000000000        0.0000000000000000     
  0.34375000000000000       0.15625000000000000        0.0000000000000000     
  0.37500000000000000       0.15625000000000000        0.0000000000000000     
  0.25000000000000000       0.18750000000000000        0.0000000000000000     
  0.28125000000000000       0.18750000000000000        0.0000000000000000     
  0.31250000000000000       0.18750000000000000        0.0000000000000000     
  0.34375000000000000       0.18750000000000000        0.0000000000000000     
  0.37500000000000000       0.18750000000000000        0.0000000000000000     
  0.25000000000000000       0.21875000000000000        0.0000000000000000     
  0.28125000000000000       0.21875000000000000        0.0000000000000000     
  0.31250000000000000       0.21875000000000000        0.0000000000000000     
  0.34375000000000000       0.21875000000000000        0.0000000000000000     
  0.37500000000000000       0.21875000000000000        0.0000000000000000     
  0.25000000000000000       0.25000000000000000        0.0000000000000000     
  0.28125000000000000       0.25000000000000000        0.0000000000000000     
  0.31250000000000000       0.25000000000000000        0.0000000000000000     
  0.34375000000000000       0.25000000000000000        0.0000000000000000     
  0.37500000000000000       0.25000000000000000        0.0000000000000000     
  0.37500000000000000       0.12500000000000000        0.0000000000000000     
  0.40625000000000000       0.12500000000000000        0.0000000000000000     
  0.43750000000000000       0.12500000000000000        0.0000000000000000     
  0.46875000000000000       0.12500000000000000        0.0000000000000000     
  0.50000000000000000       0.12500000000000000        0.0000000000000000     
  0.37500000000000000       0.15625000000000000        0.0000000000000000     
  0.40625000000000000       0.15625000000000000        0.0000000000000000     
  0.43750000000000000       0.15625000000000000        0.0000000000000000     
  0.46875000000000000       0.15625000000000000        0.0000000000000000     
  0.50000000000000000       0.15625000000000000        0.0000000000000000     
  0.37500000000000000       0.18750000000000000        0.0000000000000000     
  0.40625000000000000       0.18750000000000000        0.0000000000000000     
  0.43750000000000000       0.18750000000000000        0.0000000000000000     
  0.46875000000000000       0.18750000000000000        0.0000000000000000     
  0.50000000000000000       0.18750000000000000        0.0000000000000000     
  0.37500000000000000       0.21875000000000000        0.0000000000000000     
  0.40625000000000000       0.21875000000000000        0.0000000000000000     
  0.43750000000000000       0.21875000000000000        0.0000000000000000     
  0.46875000000000000       0.21875000000000000        0.0000000000000000     
  0.50000000000000000       0.21875000000000000        0.0000000000000000     
  0.37500000000000000       0.25000000000000000        0.0000000000000000     
  0.40625000000000000       0.25000000000000000        0.0000000000000000     
  0.43750000000000000       0.25000000000000000        0.0000000000000000     
  0.46875000000000000       0.25000000000000000        0.0000000000000000     
  0.50000000000000000       0.25000000000000000        0.0000000000000000     
  0.50000000000000000       0.12500000000000000        0.0000000000000000     
  0.53125000000000000       0.12500000000000000        0.0000000000000000     
  0.56250000000000000       0.12500000000000000        0.0000000000000000     
  0.59375000000000000       0.12500000000000000        0.0000000000000000     
  0.62500000000000000       0.12500000000000000        0.0000000000000000     
  0.50000000000000000       0.15625000000000000        0.0000000000000000     
  0.53125000000000000       0.15625000000000000        0.0000000000000000     
  0.56250000000000000       0.15625000000000000        0.0000000000000000     
  0.59375000000000000       0.15625000000000000        0.0000000000000000     
  0.62500000000000000       0.15625000000000000        0.0000000000000000     
  0.50000000000000000       0.18750000000000000        0.0000000000000000     
  0.53125000000000000       0.18750000000000000        0.0000000000000000     
  0.56250000000000000       0.18750000000000000        0.0000000000000000     
  0.59375000000000000       0.18750000000000000        0.0000000000000000     
  0.62500000000000000       0.18750000000000000        0.0000000000000000     
  0.50000000000000000       0.21875000000000000        0.0000000000000000     
  0.53125000000000000       0.21875000000000000        0.0000000000000000     
  0.56250000000000000       0.21875000000000000        0.0000000000000000     
  0.59375000000000000       0.21875000000000000        0.0000000000000000     
  0.62500000000000000       0.21875000000000000        0.0000000000000000     
  0.50000000000000000       0.25000000000000000        0.0000000000000000     
  0.53125000000000000       0.25000000000000000        0.0000000000000000     
  0.56250000000000000       0.25000000000000000        0.0000000000000000     
  0.59375000000000000       0.25000000000000000        0.0000000000000000     
  0.62500000000000000       0.25000000000000000        0.0000000000000000     
  0.62500000000000000       0.12500000000000000        0.0000000000000000     
  0.65625000000000000       0.12500000000000000        0.0000000000000000     
  0.68750000000000000       0.12500000000000000        0.0000000000000000     
  0.71875000000000000       0.12500000000000000        0.0000000000000000     
  0.75000000000000000       0.12500000000000000        0.0000000000000000     
  0.62500000000000000       0.15625000000000000        0.0000000000000000     
  0.65625000000000000       0.15625000000000000        0.0000000000000000     
  0.68750000000000000       0.15625000000000000        0.0000000000000000     
  0.71875000000000000       0.15625000000000000        0.0000000000000000     
  0.75000000000000000       0.15625000000000000        0.0000000000000000     
  0.62500000000000000       0.18750000000000000        0.0000000000000000     
  0.65625000000000000       0.18750000000000000        0.0000000000000000     
  0.68750000000000000       0.18750000000000000        0.0000000000000000     
  0.71875000000000000       0.18750000000000000        0.0000000000000000     
  0.75000000000000000       0.18750000000000000        0.0000000000000000     
  0.62500000000000000       0.21875000000000000        0.0000000000000000     
  0.65625000000000000       0.21875000000000000        0.0000000000000000     
  0.68750000000000000       0.21875000000000000        0.0000000000000000     
  0.71875000000000000       0.21875000000000000        0.0000000000000000     
  0.75000000000000000       0.21875000000000000        0.0000000000000000     
  0.62500000000000000       0.25000000000000000        0.0000000000000000     
  0.65625000000000000       0.25000000000000000        0.0000000000000000     
  0.68750000000000000       0.25000000000000000        0.0000000000000000     
  0.71875000000000000       0.25000000000000000        0.0000000000000000     
  0.75000000000000000       0.25000000000000000        0.0000000000000000     
  0.75000000000000000       0.12500000000000000        0.0000000000000000     
  0.78125000000000000       0.12500000000000000        0.0000000000000000     
  0.81250000000000000       0.12500000000000000        0.0000000000000000     
  0.84375000000000000       0.12500000000000000        0.0000000000000000     
  0.87500000000000000       0.12500000000000000        0.0000000000000000     
  0.75000000000000000       0.15625000000000000        0.0000000000000000     
  0.78125000000000000       0.15625000000000000        0.0000000000000000     
  0.81250000000000000       0.15625000000000000        0.0000000000000000     
  0.84375000000000000       0.15625000000000000        0.0000000000000000     
  0.87500000000000000       0.15625000000000000        0.0000000000000000     
  0.75000000000000000       0.18750000000000000        0.0000000000000000     
  0.78125000000000000       0.18750000000000000        0.0000000000000000     
  0.81250000000000000       0.18750000000000000        0.0000000000000000     
  0.84375000000000000       0.18750000000000000        0.0000000000000000     
  0.87500000000000000       0.18750000000000000        0.0000000000000000     
  0.75000000000000000       0.21875000000000000        0.0000000000000000     
  0.78125000000000000       0.21875000000000000        0.0000000000000000     
  0.81250000000000000       0.21875000000000000        0.0000000000000000     
  0.84375000000000000       0.21875000000000000        0.0000000000000000     
  0.87500000000000000       0.21875000000000000        0.0000000000000000     
  0.75000000000000000       0.25000000000000000        0.0000000000000000     
  0.78125000000000000       0.25000000000000000        0.0000000000000000     
  0.81250000000000000       0.25000000000000000        0.0000000000000000     
  0.84375000000000000       0.25000000000000000        0.0000000000000000     
  0.87500000000000000       0.25000000000000000        0.0000000000000000     
  0.87500000000000000       0.12500000000000000        0.0000000000000000     
  0.90625000000000000       0.12500000000000000        0.0000000000000000     
  0.93750000000000000       0.12500000000000000        0.0000000000000000     
  0.96875000000000000       0.12500000000000000        0.0000000000000000     
   1.0000000000000000       0.12500000000000000        0.0000000000000000     
  0.87500000000000000       0.15625000000000000        0.0000000000000000     
  0.90625000000000000       0.15625000000000000        0.0000000000000000     
  0.93750000000000000       0.15625000000000000        0.0000000000000000     
  0.96875000000000000       0.15625000000000000        0.0000000000000000     
   1.0000000000000000       0.15625000000000000        0.0000000000000000     
  0.87500000000000000       0.18750000000000000        0.0000000000000000     
  0.90625000000000000       0.18750000000000000        0.0000000000000000     
  0.93750000000000000       0.18750000000000000        0.0000000000000000     
  0.96875000000000000       0.18750000000000000        0.0000000000000000     
   1.0000000000000000       0.18750000000000000        0.0000000000000000     
  0.87500000000000000       0.21875000000000000        0.0000000000000000     
  0.90625000000000000       0.21875000000000000        0.0000000000000000     
  0.93750000000000000       0.21875000000000000        0.0000000000000000     
  0.96875000000000000       0.21875000000000000        0.0000000000000000     
   1.0000000000000000       0.21875000000000000        0.0000000000000000     
  0.87500000000000000       0.25000000000000000        0.0000000000000000     
  0.90625000000000000       0.25000000000000000        0.0000000000000000     
  0.93750000000000000       0.25000000000000000        0.0000000000000000     
  0.96875000000000000       0.25000000000000000        0.0000000000000000     
   1.0000000000000000       0.25000000000000000        0.0000000000000000     
   0.0000000000000000       0.25000000000000000        0.0000000000000000     
   3.1250000000000000E-002  0.25000000000000000        0.0000000000000000     
   6.2500000000000000E-002  0.25000000000000000        0.0000000000000000     
   9.3750000000000000E-002  0.25000000000000000        0.0000000000000000     
  0.12500000000000000       0.25000000000000000        0.0000000000000000     
   0.0000000000000000       0.28125000000000000        0.0000000000000000     
   3.1250000000000000E-002  0.28125000000000000        0.0000000000000000     
   6.2500000000000000E-002  0.28125000000000000        0.0000000000000000     
   9.3750000000000000E-002  0.28125000000000000        0.0000000000000000     
  0.12500000000000000       0.28125000000000000        0.0000000000000000     
   0.0000000000000000       0.31250000000000000        0.0000000000000000     
   3.1250000000000000E-002  0.31250000000000000        0.0000000000000000     
   6.2500000000000000E-002  0.31250000000000000        0.0000000000000000     
   9.3750000000000000E-002  0.31250000000000000        0.0000000000000000     
  0.12500000000000000       0.31250000000000000        0.0000000000000000     
   0.0000000000000000       0.34375000000000000        0.0000000000000000     
   3.1250000000000000E-002  0.34375000000000000        0.0000000000000000     
   6.2500000000000000E-002  0.34375000000000000        0.0000000000000000     
   9.3750000000000000E-002  0.34375000000000000        0.0000000000000000     
  0.12500000000000000       0.34375000000000000        0.0000000000000000     
   0.0000000000000000       0.37500000000000000        0.0000000000000000     
   3.1250000000000000E-002  0.37500000000000000        0.0000000000000000     
   6.2500000000000000E-002  0.37500000000000000        0.0000000000000000     
   9.3750000000000000E-002  0.37500000000000000        0.0000000000000000     
  0.12500000000000000       0.37500000000000000        0.0000000000000000     
  0.12500000000000000       0.25000000000000000        0.0000000000000000     
  0.15625000000000000       0.25000000000000000        0.0000000000000000     
  0.18750000000000000       0.25000000000000000        0.0000000000000000     
  0.21875000000000000       0.25000000000000000        0.0000000000000000     
  0.25000000000000000       0.25000000000000000        0.0000000000000000     
  0.12500000000000000       0.28125000000000000        0.0000000000000000     
  0.15625000000000000       0.28125000000000000        0.0000000000000000     
  0.18750000000000000       0.28125000000000000        0.0000000000000000     
  0.21875000000000000       0.28125000000000000        0.0000000000000000     
  0.25000000000000000       0.28125000000000000        0.0000000000000000     
  0.12500000000000000       0.31250000000000000        0.0000000000000000     
  0.15625000000000000       0.31250000000000000        0.0000000000000000     
  0.18750000000000000       0.31250000000000000        0.0000000000000000     
  0.21875000000000000       0.31250000000000000        0.0000000000000000     
  0.25000000000000000       0.31250000000000000        0.0000000000000000     
  0.12500000000000000       0.34375000000000000        0.0000000000000000     
  0.15625000000000000       0.34375000000000000        0.0000000000000000     
  0.18750000000000000       0.34375000000000000        0.0000000000000000     
  0.21875000000000000       0.34375000000000000        0.0000000000000000     
  0.25000000000000000       0.34375000000000000        0.0000000000000000     
  0.12500000000000000       0.37500000000000000        0.0000000000000000     
  0.15625000000000000       0.37500000000000000        0.0000000000000000     
  0.18750000000000000       0.37500000000000000        0.0000000000000000     
  0.21875000000000000       0.37500000000000000        0.0000000000000000     
  0.25000000000000000       0.37500000000000000        0.0000000000000000     
  0.25000000000000000       0.25000000000000000        0.0000000000000000     
  0.28125000000000000       0.25000000000000000        0.0000000000000000     
  0.31250000000000000       0.25000000000000000        0.0000000000000000     
  0.34375000000000000       0.25000000000000000        0.0000000000000000     
  0.37500000000000000       0.25000000000000000        0.0000000000000000     
  0.25000000000000000       0.28125000000000000        0.0000000000000000     
  0.28125000000000000       0.28125000000000000        0.0000000000000000     
  0.31250000000000000       0.28125000000000000        0.0000000000000000     
  0.34375000000000000       0.28125000000000000        0.0000000000000000     
  0.37500000000000000       0.28125000000000000        0.0000000000000000     
  0.25000000000000000       0.31250000000000000        0.0000000000000000     
  0.28125000000000000       0.31250000000000000        0.0000000000000000     
  0.31250000000000000       0.31250000000000000        0.0000000000000000     
  0.34375000000000000       0.31250000000000000        0.0000000000000000     
  0.37500000000000000       0.31250000000000000        0.0000000000000000     
  0.25000000000000000       0.34375000000000000        0.0000000000000000     
  0.28125000000000000       0.34375000000000000        0.0000000000000000     
  0.31250000000000000       0.34375000000000000        0.0000000000000000     
  0.34375000000000000       0.34375000000000000        0.0000000000000000     
  0.37500000000000000       0.34375000000000000        0.0000000000000000     
  0.25000000000000000       0.37500000000000000        0.0000000000000000     
  0.28125000000000000       0.37500000000000000        0.0000000000000000     
  0.31250000000000000       0.37500000000000000        0.0000000000000000     
  0.34375000000000000       0.37500000000000000        0.0000000000000000     
  0.37500000000000000       0.37500000000000000        0.0000000000000000     
  0.37500000000000000       0.25000000000000000        0.0000000000000000     
  0.40625000000000000       0.25000000000000000        0.0000000000000000     
  0.43750000000000000       0.25000000000000000        0.0000000000000000     
  0.46875000000000000       0.25000000000000000        0.0000000000000000     
  0.50000000000000000       0.25000000000000000        0.0000000000000000     
  0.37500000000000000       0.28125000000000000        0.0000000000000000     
  0.40625000000000000       0.28125000000000000        0.0000000000000000     
  0.43750000000000000       0.28125000000000000        0.0000000000000000     
  0.46875000000000000       0.28125000000000000        0.0000000000000000     
  0.50000000000000000       0.28125000000000000        0.0000000000000000     
  0.37500000000000000       0.31250000000000000        0.0000000000000000     
  0.40625000000000000       0.31250000000000000        0.0000000000000000     
  0.43750000000000000       0.31250000000000000        0.0000000000000000     
  0.46875000000000000       0.31250000000000000        0.0000000000000000     
  0.50000000000000000       0.31250000000000000        0.0000000000000000     
  0.37500000000000000       0.34375000000000000        0.0000000000000000     
  0.40625000000000000       0.34375000000000000        0.0000000000000000     
  0.43750000000000000       0.34375000000000000        0.0000000000000000     
  0.46875000000000000       0.34375000000000000        0.0000000000000000     
  0.50000000000000000       0.34375000000000000        0.0000000000000000     
  0.37500000000000000       0.37500000000000000        0.0000000000000000     
  0.40625000000000000       0.37500000000000000        0.0000000000000000     
  0.43750000000000000       0.37500000000000000        0.0000000000000000     
  0.46875000000000000       0.37500000000000000        0.0000000000000000     
  0.50000000000000000       0.37500000000000000        0.0000000000000000     
  0.50000000000000000       0.25000000000000000        0.0000000000000000     
  0.53125000000000000       0.25000000000000000        0.0000000000000000     
  0.56250000000000000       0.25000000000000000        0.0000000000000000     
  0.59375000000000000       0.25000000000000000        0.0000000000000000     
  0.62500000000000000       0.25000000000000000        0.0000000000000000     
  0.50000000000000000       0.28125000000000000        0.0000000000000000     
  0.53125000000000000       0.28125000000000000        0.0000000000000000     
  0.56250000000000000       0.28125000000000000        0.0000000000000000     
  0.59375000000000000       0.28125000000000000        0.0000000000000000     
  0.62500000000000000       0.28125000000000000        0.0000000000000000     
  0.50000000000000000       0.31250000000000000        0.0000000000000000     
  0.53125000000000000       0.31250000000000000        0.0000000000000000     
  0.56250000000000000       0.31250000000000000        0.0000000000000000     
  0.59375000000000000       0.31250000000000000        0.0000000000000000     
  0.62500000000000000       0.31250000000000000        0.0000000000000000     
  0.50000000000000000       0.34375000000000000        0.0000000000000000     
  0.53125000000000000       0.34375000000000000        0.0000000000000000     
  0.56250000000000000       0.34375000000000000        0.0000000000000000     
  0.59375000000000000       0.34375000000000000        0.0000000000000000     
  0.62500000000000000       0.34375000000000000        0.0000000000000000     
  0.50000000000000000       0.37500000000000000        0.0000000000000000     
  0.53125000000000000       0.37500000000000000        0.0000000000000000     
  0.56250000000000000       0.37500000000000000        0.0000000000000000     
  0.59375000000000000       0.37500000000000000        0.0000000000000000     
  0.62500000000000000       0.37500000000000000        0.0000000000000000     
  0.62500000000000000       0.25000000000000000        0.0000000000000000     
  0.65625000000000000       0.25000000000000000        0.0000000000000000     
  0.68750000000000000       0.25000000000000000        0.0000000000000000     
  0.71875000000000000       0.25000000000000000        0.0000000000000000     
  0.75000000000000000       0.25000000000000000        0.0000000000000000     
  0.62500000000000000       0.28125000000000000        0.0000000000000000     
  0.65625000000000000       0.28125000000000000        0.0000000000000000     
  0.68750000000000000       0.28125000000000000        0.0000000000000000     
  0.71875000000000000       0.28125000000000000        0.0000000000000000     
  0.75000000000000000       0.28125000000000000        0.0000000000000000     
  0.62500000000000000       0.31250000000000000        0.0000000000000000     
  0.65625000000000000       0.31250000000000000        0.0000000000000000     
  0.68750000000000000       0.31250000000000000        0.0000000000000000     
  0.71875000000000000       0.31250000000000000        0.0000000000000000     
  0.75000000000000000       0.31250000000000000        0.0000000000000000     
  0.62500000000000000       0.34375000000000000        0.0000000000000000     
  0.65625000000000000       0.34375000000000000        0.0000000000000000     
  0.68750000000000000       0.34375000000000000        0.0000000000000000     
  0.71875000000000000       0.34375000000000000        0.0000000000000000     
  0.75000000000000000       0.34375000000000000        0.0000000000000000     
  0.62500000000000000       0.37500000000000000        0.0000000000000000     
  0.65625000000000000       0.37500000000000000        0.0000000000000000     
  0.68750000000000000       0.37500000000000000        0.0000000000000000     
  0.71875000000000000       0.37500000000000000        0.0000000000000000     
  0.75000000000000000       0.37500000000000000        0.0000000000000000     
  0.75000000000000000       0.25000000000000000        0.0000000000000000     
  0.78125000000000000       0.25000000000000000        0.0000000000000000     
  0.81250000000000000       0.25000000000000000        0.0000000000000000     
  0.84375000000000000       0.25000000000000000        0.0000000000000000     
  0.87500000000000000       0.25000000000000000        0.0000000000000000     
  0.75000000000000000       0.28125000000000000        0.0000000000000000     
  0.78125000000000000       0.28125000000000000        0.0000000000000000     
  0.81250000000000000       0.28125000000000000        0.0000000000000000     
  0.84375000000000000       0.28125000000000000        0.0000000000000000     
  0.87500000000000000       0.28125000000000000        0.0000000000000000     
  0.75000000000000000       0.31250000000000000        0.0000000000000000     
  0.78125000000000000       0.31250000000000000        0.0000000000000000     
  0.81250000000000000       0.31250000000000000        0.0000000000000000     
  0.84375000000000000       0.31250000000000000        0.0000000000000000     
  0.87500000000000000       0.31250000000000000        0.0000000000000000     
  0.75000000000000000       0.34375000000000000        0.0000000000000000     
  0.78125000000000000       0.34375000000000000        0.0000000000000000     
  0.81250000000000000       0.34375000000000000        0.0000000000000000     
  0.84375000000000000       0.34375000000000000        0.0000000000000000     
  0.87500000000000000       0.34375000000000000        0.0000000000000000     
  0.75000000000000000       0.37500000000000000        0.0000000000000000     
  0.78125000000000000       0.37500000000000000        0.0000000000000000     
  0.81250000000000000       0.37500000000000000        0.0000000000000000     
  0.84375000000000000       0.37500000000000000        0.0000000000000000     
  0.87500000000000000       0.37500000000000000        0.0000000000000000     
  0.87500000000000000       0.25000000000000000        0.0000000000000000     
  0.90625000000000000       0.25000000000000000        0.0000000000000000     
  0.93750000000000000       0.25000000000000000        0.0000000000000000     
  0.96875000000000000       0.25000000000000000        0.0000000000000000     
   1.0000000000000000       0.25000000000000000        0.0000000000000000     
  0.87500000000000000       0.28125000000000000        0.0000000000000000     
  0.90625000000000000       0.28125000000000000        0.0000000000000000     
  0.93750000000000000       0.28125000000000000        0.0000000000000000     
  0.96875000000000000       0.28125000000000000        0.0000000000000000     
   1.0000000000000000       0.28125000000000000        0.0000000000000000     
  0.87500000000000000       0.31250000000000000        0.0000000000000000     
  0.90625000000000000       0.31250000000000000        0.0000000000000000     
  0.93750000000000000       0.31250000000000000        0.0000000000000000     
  0.96875000000000000       0.31250000000000000        0.0000000000000000     
   1.0000000000000000       0.31250000000000000        0.0000000000000000     
  0.87500000000000000       0.34375000000000000        0.0000000000000000     
  0.90625000000000000       0.34375000000000000        0.0000000000000000     
  0.93750000000000000       0.34375000000000000        0.0000000000000000     
  0.96875000000000000       0.34375000000000000        0.0000000000000000     
   1.0000000000000000       0.34375000000000000        0.0000000000000000     
  0.87500000000000000       0.37500000000000000        0.0000000000000000     
  0.90625000000000000       0.37500000000000000        0.0000000000000000     
  0.93750000000000000       0.37500000000000000        0.0000000000000000     
  0.96875000000000000       0.37500000000000000        0.0000000000000000     
   1.0000000000000000       0.37500000000000000        0.0000000000000000     
   0.0000000000000000       0.37500000000000000        0.0000000000000000     
   3.1250000000000000E-002  0.37500000000000000        0.0000000000000000     
   6.2500000000000000E-002  0.37500000000000000        0.0000000000000000     
   9.3750000000000000E-002  0.37500000000000000        0.0000000000000000     
  0.12500000000000000       0.37500000000000000        0.0000000000000000     
   0.0000000000000000       0.40625000000000000        0.0000000000000000     
   3.1250000000000000E-002  0.40625000000000000        0.0000000000000000     
   6.2500000000000000E-002  0.40625000000000000        0.0000000000000000     
   9.3750000000000000E-002  0.40625000000000000        0.0000000000000000     
  0.12500000000000000       0.40625000000000000        0.0000000000000000     
   0.0000000000000000       0.43750000000000000        0.0000000000000000     
   3.1250000000000000E-002  0.43750000000000000        0.0000000000000000     
   6.2500000000000000E-002  0.43750000000000000        0.0000000000000000     
   9.3750000000000000E-002  0.43750000000000000        0.0000000000000000     
  0.12500000000000000       0.43750000000000000        0.0000000000000000     
   0.0000000000000000       0.46875000000000000        0.0000000000000000     
   3.1250000000000000E-002  0.46875000000000000        0.0000000000000000     
   6.2500000000000000E-002  0.46875000000000000        0.0000000000000000     
   9.3750000000000000E-002  0.46875000000000000        0.0000000000000000     
  0.12500000000000000       0.46875000000000000        0.0000000000000000     
   0.0000000000000000       0.50000000000000000        0.0000000000000000     
   3.1250000000000000E-002  0.50000000000000000        0.0000000000000000     
   6.2500000000000000E-002  0.50000000000000000        0.0000000000000000     
   9.3750000000000000E-002  0.50000000000000000        0.0000000000000000     
  0.12500000000000000       0.50000000000000000        0.0000000000000000     
  0.12500000000000000       0.37500000000000000        0.0000000000000000     
  0.15625000000000000       0.37500000000000000        0.0000000000000000     
  0.18750000000000000       0.37500000000000000        0.0000000000000000     
  0.21875000000000000       0.37500000000000000        0.0000000000000000     
  0.25000000000000000       0.37500000000000000        0.0000000000000000     
  0.12500000000000000       0.40625000000000000        0.0000000000000000     
  0.15625000000000000       0.40625000000000000        0.0000000000000000     
  0.18750000000000000       0.40625000000000000        0.0000000000000000     
  0.21875000000000000       0.40625000000000000        0.0000000000000000     
  0.25000000000000000       0.40625000000000000        0.0000000000000000     
  0.12500000000000000       0.43750000000000000        0.0000000000000000     
  0.15625000000000000       0.43750000000000000        0.0000000000000000     
  0.18750000000000000       0.43750000000000000        0.0000000000000000     
  0.21875000000000000       0.43750000000000000        0.0000000000000000     
  0.25000000000000000       0.43750000000000000        0.0000000000000000     
  0.12500000000000000       0.46875000000000000        0.0000000000000000     
  0.15625000000000000       0.46875000000000000        0.0000000000000000     
  0.18750000000000000       0.46875000000000000        0.0000000000000000     
  0.21875000000000000       0.46875000000000000        0.0000000000000000     
  0.25000000000000000       0.46875000000000000        0.0000000000000000     
  0.12500000000000000       0.50000000000000000        0.0000000000000000     
  0.15625000000000000       0.50000000000000000        0.0000000000000000     
  0.18750000000000000       0.50000000000000000        0.0000000000000000     
  0.21875000000000000       0.50000000000000000        0.0000000000000000     
  0.25000000000000000       0.50000000000000000        0.0000000000000000     
  0.25000000000000000       0.37500000000000000        0.0000000000000000     
  0.28125000000000000       0.37500000000000000        0.0000000000000000     
  0.31250000000000000       0.37500000000000000        0.0000000000000000     
  0.34375000000000000       0.37500000000000000        0.0000000000000000     
  0.37500000000000000       0.37500000000000000        0.0000000000000000     
  0.25000000000000000       0.40625000000000000        0.0000000000000000     
  0.28125000000000000       0.40625000000000000        0.0000000000000000     
  0.31250000000000000       0.40625000000000000        0.0000000000000000     
  0.34375000000000000       0.40625000000000000        0.0000000000000000     
  0.37500000000000000       0.40625000000000000        0.0000000000000000     
  0.25000000000000000       0.43750000000000000        0.0000000000000000     
  0.28125000000000000       0.43750000000000000        0.0000000000000000     
  0.31250000000000000       0.43750000000000000        0.0000000000000000     
  0.34375000000000000       0.43750000000000000        0.0000000000000000     
  0.37500000000000000       0.43750000000000000        0.0000000000000000     
  0.25000000000000000       0.46875000000000000        0.0000000000000000     
  0.28125000000000000       0.46875000000000000        0.0000000000000000     
  0.31250000000000000       0.46875000000000000        0.0000000000000000     
  0.34375000000000000       0.46875000000000000        0.0000000000000000     
  0.37500000000000000       0.46875000000000000        0.0000000000000000     
  0.25000000000000000       0.50000000000000000        0.0000000000000000     
  0.28125000000000000       0.50000000000000000        0.0000000000000000     
  0.31250000000000000       0.50000000000000000        0.0000000000000000     
  0.34375000000000000       0.50000000000000000        0.0000000000000000     
  0.37500000000000000       0.50000000000000000        0.0000000000000000     
  0.37500000000000000       0.37500000000000000        0.0000000000000000     
  0.40625000000000000       0.37500000000000000        0.0000000000000000     
  0.43750000000000000       0.37500000000000000        0.0000000000000000     
  0.46875000000000000       0.37500000000000000        0.0000000000000000     
  0.50000000000000000       0.37500000000000000        0.0000000000000000     
  0.37500000000000000       0.40625000000000000        0.0000000000000000     
  0.40625000000000000       0.40625000000000000        0.0000000000000000     
  0.43750000000000000       0.40625000000000000        0.0000000000000000     
  0.46875000000000000       0.40625000000000000        0.0000000000000000     
  0.50000000000000000       0.40625000000000000        0.0000000000000000     
  0.37500000000000000       0.43750000000000000        0.0000000000000000     
  0.40625000000000000       0.43750000000000000        0.0000000000000000     
  0.43750000000000000       0.43750000000000000        0.0000000000000000     
  0.46875000000000000       0.43750000000000000        0.0000000000000000     
  0.50000000000000000       0.43750000000000000        0.0000000000000000     
  0.37500000000000000       0.46875000000000000        0.0000000000000000     
  0.40625000000000000       0.46875000000000000        0.0000000000000000     
  0.43750000000000000       0.46875000000000000        0.0000000000000000     
  0.46875000000000000       0.46875000000000000        0.0000000000000000     
  0.50000000000000000       0.46875000000000000        0.0000000000000000     
  0.37500000000000000       0.50000000000000000        0.0000000000000000     
  0.40625000000000000       0.50000000000000000        0.0000000000000000     
  0.43750000000000000       0.50000000000000000        0.0000000000000000     
  0.46875000000000000       0.50000000000000000        0.0000000000000000     
  0.50000000000000000       0.50000000000000000        0.0000000000000000     
  0.50000000000000000       0.37500000000000000        0.0000000000000000     
  0.53125000000000000       0.37500000000000000        0.0000000000000000     
  0.56250000000000000       0.37500000000000000        0.0000000000000000     
  0.59375000000000000       0.37500000000000000        0.0000000000000000     
  0.62500000000000000       0.37500000000000000        0.0000000000000000     
  0.50000000000000000       0.40625000000000000        0.0000000000000000     
  0.53125000000000000       0.40625000000000000        0.0000000000000000     
  0.56250000000000000       0.40625000000000000        0.0000000000000000     
  0.59375000000000000       0.40625000000000000        0.0000000000000000     
  0.62500000000000000       0.40625000000000000        0.0000000000000000     
  0.50000000000000000       0.43750000000000000        0.0000000000000000     
  0.53125000000000000       0.43750000000000000        0.0000000000000000     
  0.56250000000000000       0.43750000000000000        0.0000000000000000     
  0.59375000000000000       0.43750000000000000        0.0000000000000000     
  0.62500000000000000       0.43750000000000000        0.0000000000000000     
  0.50000000000000000       0.46875000000000000        0.0000000000000000     
  0.53125000000000000       0.46875000000000000        0.0000000000000000     
  0.56250000000000000       0.46875000000000000        0.0000000000000000     
  0.59375000000000000       0.46875000000000000        0.0000000000000000     
  0.62500000000000000       0.46875000000000000        0.0000000000000000     
  0.50000000000000000       0.50000000000000000        0.0000000000000000     
  0.53125000000000000       0.50000000000000000        0.0000000000000000     
  0.56250000000000000       0.50000000000000000        0.0000000000000000     
  0.59375000000000000       0.50000000000000000        0.0000000000000000     
  0.62500000000000000       0.50000000000000000        0.0000000000000000     
  0.62500000000000000       0.37500000000000000        0.0000000000000000     
  0.65625000000000000       0.37500000000000000        0.0000000000000000     
  0.68750000000000000       0.37500000000000000        0.0000000000000000     
  0.71875000000000000       0.37500000000000000        0.0000000000000000     
  0.75000000000000000       0.37500000000000000        0.0000000000000000     
  0.62500000000000000       0.40625000000000000        0.0000000000000000     
  0.65625000000000000       0.40625000000000000        0.0000000000000000     
  0.68750000000000000       0.40625000000000000        0.0000000000000000     
  0.71875000000000000       0.40625000000000000        0.0000000000000000     
  0.75000000000000000       0.40625000000000000        0.0000000000000000     
  0.62500000000000000       0.43750000000000000        0.0000000000000000     
  0.65625000000000000       0.43750000000000000        0.0000000000000000     
  0.68750000000000000       0.43750000000000000        0.0000000000000000     
  0.71875000000000000       0.43750000000000000        0.0000000000000000     
  0.75000000000000000       0.43750000000000000        0.0000000000000000     
  0.62500000000000000       0.46875000000000000        0.0000000000000000     
  0.65625000000000000       0.46875000000000000        0.0000000000000000     
  0.68750000000000000       0.46875000000000000        0.0000000000000000     
  0.71875000000000000       0.46875000000000000        0.0000000000000000     
  0.75000000000000000       0.46875000000000000        0.0000000000000000     
  0.62500000000000000       0.50000000000000000        0.0000000000000000     
  0.65625000000000000       0.50000000000000000        0.0000000000000000     
  0.68750000000000000       0.50000000000000000        0.0000000000000000     
  0.71875000000000000       0.50000000000000000        0.0000000000000000     
  0.75000000000000000       0.50000000000000000        0.0000000000000000     
  0.75000000000000000       0.37500000000000000        0.0000000000000000     
  0.78125000000000000       0.37500000000000000        0.0000000000000000     
  0.81250000000000000       0.37500000000000000        0.0000000000000000     
  0.84375000000000000       0.37500000000000000        0.0000000000000000     
  0.87500000000000000       0.37500000000000000        0.0000000000000000     
  0.75000000000000000       0.40625000000000000        0.0000000000000000     
  0.78125000000000000       0.40625000000000000        0.0000000000000000     
  0.81250000000000000       0.40625000000000000        0.0000000000000000     
  0.84375000000000000       0.40625000000000000        0.0000000000000000     
  0.87500000000000000       0.40625000000000000        0.0000000000000000     
  0.75000000000000000       0.43750000000000000        0.0000000000000000     
  0.78125000000000000       0.43750000000000000        0.0000000000000000     
  0.81250000000000000       0.43750000000000000        0.0000000000000000     
  0.84375000000000000       0.43750000000000000        0.0000000000000000     
  0.87500000000000000       0.43750000000000000        0.0000000000000000     
  0.75000000000000000       0.46875000000000000        0.0000000000000000     
  0.78125000000000000       0.46875000000000000        0.0000000000000000     
  0.81250000000000000       0.46875000000000000        0.0000000000000000     
  0.84375000000000000       0.46875000000000000        0.0000000000000000     
  0.87500000000000000       0.46875000000000000        0.0000000000000000     
  0.75000000000000000       0.50000000000000000        0.0000000000000000     
  0.78125000000000000       0.50000000000000000        0.0000000000000000     
  0.81250000000000000       0.50000000000000000        0.0000000000000000     
  0.84375000000000000       0.50000000000000000        0.0000000000000000     
  0.87500000000000000       0.50000000000000000        0.0000000000000000     
  0.87500000000000000       0.37500000000000000        0.0000000000000000     
  0.90625000000000000       0.37500000000000000        0.0000000000000000     
  0.93750000000000000       0.37500000000000000        0.0000000000000000     
  0.96875000000000000       0.37500000000000000        0.0000000000000000     
   1.0000000000000000       0.37500000000000000        0.0000000000000000     
  0.87500000000000000       0.40625000000000000        0.0000000000000000     
  0.90625000000000000       0.40625000000000000        0.0000000000000000     
  0.93750000000000000       0.40625000000000000        0.0000000000000000     
  0.96875000000000000       0.40625000000000000        0.0000000000000000     
   1.0000000000000000       0.40625000000000000        0.0000000000000000     
  0.87500000000000000       0.43750000000000000        0.0000000000000000     
  0.90625000000000000       0.43750000000000000        0.0000000000000000     
  0.93750000000000000       0.43750000000000000        0.0000000000000000     
  0.96875000000000000       0.43750000000000000        0.0000000000000000     
   1.0000000000000000       0.43750000000000000        0.0000000000000000     
  0.87500000000000000       0.46875000000000000        0.0000000000000000     
  0.90625000000000000       0.46875000000000000        0.0000000000000000     
  0.93750000000000000       0.46875000000000000        0.0000000000000000     
  0.96875000000000000       0.46875000000000000        0.0000000000000000     
   1.0000000000000000       0.46875000000000000        0.0000000000000000     
  0.87500000000000000       0.50000000000000000        0.0000000000000000     
  0.90625000000000000       0.50000000000000000        0.0000000000000000     
  0.93750000000000000       0.50000000000000000        0.0000000000000000     
  0.96875000000000000       0.50000000000000000        0.0000000000000000     
   1.0000000000000000       0.50000000000000000        0.0000000000000000     
   0.0000000000000000       0.50000000000000000        0.0000000000000000     
   3.1250000000000000E-002  0.50000000000000000        0.0000000000000000     
   6.2500000000000000E-002  0.50000000000000000        0.0000000000000000     
   9.3750000000000000E-002  0.50000000000000000        0.0000000000000000     
  0.12500000000000000       0.50000000000000000        0.0000000000000000     
   0.0000000000000000       0.53125000000000000        0.0000000000000000     
   3.1250000000000000E-002  0.53125000000000000        0.0000000000000000     
   6.2500000000000000E-002  0.53125000000000000        0.0000000000000000     
   9.3750000000000000E-002  0.53125000000000000        0.0000000000000000     
  0.12500000000000000       0.53125000000000000        0.0000000000000000     
   0.0000000000000000       0.56250000000000000        0.0000000000000000     
   3.1250000000000000E-002  0.56250000000000000        0.0000000000000000     
   6.2500000000000000E-002  0.56250000000000000        0.0000000000000000     
   9.3750000000000000E-002  0.56250000000000000        0.0000000000000000     
  0.12500000000000000       0.56250000000000000        0.0000000000000000     
   0.0000000000000000       0.59375000000000000        0.0000000000000000     
   3.1250000000000000E-002  0.59375000000000000        0.0000000000000000     
   6.2500000000000000E-002  0.59375000000000000        0.0000000000000000     
   9.3750000000000000E-002  0.59375000000000000        0.0000000000000000     
  0.12500000000000000       0.59375000000000000        0.0000000000000000     
   0.0000000000000000       0.62500000000000000        0.0000000000000000     
   3.1250000000000000E-002  0.62500000000000000        0.0000000000000000     
   6.2500000000000000E-002  0.62500000000000000        0.0000000000000000     
   9.3750000000000000E-002  0.62500000000000000        0.0000000000000000     
  0.12500000000000000       0.62500000000000000        0.0000000000000000     
  0.12500000000000000       0.50000000000000000        0.0000000000000000     
  0.15625000000000000       0.50000000000000000        0.0000000000000000     
  0.18750000000000000       0.50000000000000000        0.0000000000000000     
  0.21875000000000000       0.50000000000000000        0.0000000000000000     
  0.25000000000000000       0.50000000000000000        0.0000000000000000     
  0.12500000000000000       0.53125000000000000        0.0000000000000000     
  0.15625000000000000       0.53125000000000000        0.0000000000000000     
  0.18750000000000000       0.53125000000000000        0.0000000000000000     
  0.21875000000000000       0.53125000000000000        0.0000000000000000     
  0.25000000000000000       0.53125000000000000        0.0000000000000000     
  0.12500000000000000       0.56250000000000000        0.0000000000000000     
  0.15625000000000000       0.56250000000000000        0.0000000000000000     
  0.18750000000000000       0.56250000000000000        0.0000000000000000     
  0.21875000000000000       0.56250000000000000        0.0000000000000000     
  0.25000000000000000       0.56250000000000000        0.0000000000000000     
  0.12500000000000000       0.59375000000000000        0.0000000000000000     
  0.15625000000000000       0.59375000000000000        0.0000000000000000     
  0.18750000000000000       0.59375000000000000        0.0000000000000000     
  0.21875000000000000       0.59375000000000000        0.0000000000000000     
  0.25000000000000000       0.59375000000000000        0.0000000000000000     
  0.12500000000000000       0.62500000000000000        0.0000000000000000     
  0.15625000000000000       0.62500000000000000        0.0000000000000000     
  0.18750000000000000       0.62500000000000000        0.0000000000000000     
  0.21875000000000000       0.62500000000000000        0.0000000000000000     
  0.25000000000000000       0.62500000000000000        0.0000000000000000     
  0.25000000000000000       0.50000000000000000        0.0000000000000000     
  0.28125000000000000       0.50000000000000000        0.0000000000000000     
  0.31250000000000000       0.50000000000000000        0.0000000000000000     
  0.34375000000000000       0.50000000000000000        0.0000000000000000     
  0.37500000000000000       0.50000000000000000        0.0000000000000000     
  0.25000000000000000       0.53125000000000000        0.0000000000000000     
  0.28125000000000000       0.53125000000000000        0.0000000000000000     
  0.31250000000000000       0.53125000000000000        0.0000000000000000     
  0.34375000000000000       0.53125000000000000        0.0000000000000000     
  0.37500000000000000       0.53125000000000000        0.0000000000000000     
  0.25000000000000000       0.56250000000000000        0.0000000000000000     
  0.28125000000000000       0.56250000000000000        0.0000000000000000     
  0.31250000000000000       0.56250000000000000        0.0000000000000000     
  0.34375000000000000       0.56250000000000000        0.0000000000000000     
  0.37500000000000000       0.56250000000000000        0.0000000000000000     
  0.25000000000000000       0.59375000000000000        0.0000000000000000     
  0.28125000000000000       0.59375000000000000        0.0000000000000000     
  0.31250000000000000       0.59375000000000000        0.0000000000000000     
  0.34375000000000000       0.59375000000000000        0.0000000000000000     
  0.37500000000000000       0.59375000000000000        0.0000000000000000     
  0.25000000000000000       0.62500000000000000        0.0000000000000000     
  0.28125000000000000       0.62500000000000000        0.0000000000000000     
  0.31250000000000000       0.62500000000000000        0.0000000000000000     
  0.34375000000000000       0.62500000000000000        0.0000000000000000     
  0.37500000000000000       0.62500000000000000        0.0000000000000000     
  0.37500000000000000       0.50000000000000000        0.0000000000000000     
  0.40625000000000000       0.50000000000000000        0.0000000000000000     
  0.43750000000000000       0.50000000000000000        0.0000000000000000     
  0.46875000000000000       0.50000000000000000        0.0000000000000000     
  0.50000000000000000       0.50000000000000000        0.0000000000000000     
  0.37500000000000000       0.53125000000000000        0.0000000000000000     
  0.40625000000000000       0.53125000000000000        0.0000000000000000     
  0.43750000000000000       0.53125000000000000        0.0000000000000000     
  0.46875000000000000       0.53125000000000000        0.0000000000000000     
  0.50000000000000000       0.53125000000000000        0.0000000000000000     
  0.37500000000000000       0.56250000000000000        0.0000000000000000     
  0.40625000000000000       0.56250000000000000        0.0000000000000000     
  0.43750000000000000       0.56250000000000000        0.0000000000000000     
  0.46875000000000000       0.56250000000000000        0.0000000000000000     
  0.50000000000000000       0.56250000000000000        0.0000000000000000     
  0.37500000000000000       0.59375000000000000        0.0000000000000000     
  0.40625000000000000       0.59375000000000000        0.0000000000000000     
  0.43750000000000000       0.59375000000000000        0.0000000000000000     
  0.46875000000000000       0.59375000000000000        0.0000000000000000     
  0.50000000000000000       0.59375000000000000        0.0000000000000000     
  0.37500000000000000       0.62500000000000000        0.0000000000000000     
  0.40625000000000000       0.62500000000000000        0.0000000000000000     
  0.43750000000000000       0.62500000000000000        0.0000000000000000     
  0.46875000000000000       0.62500000000000000        0.0000000000000000     
  0.50000000000000000       0.62500000000000000        0.0000000000000000     
  0.50000000000000000       0.50000000000000000        0.0000000000000000     
  0.53125000000000000       0.50000000000000000        0.0000000000000000     
  0.56250000000000000       0.50000000000000000        0.0000000000000000     
  0.59375000000000000       0.50000000000000000        0.0000000000000000     
  0.62500000000000000       0.50000000000000000        0.0000000000000000     
  0.50000000000000000       0.53125000000000000        0.0000000000000000     
  0.53125000000000000       0.53125000000000000        0.0000000000000000     
  0.56250000000000000       0.53125000000000000        0.0000000000000000     
  0.59375000000000000       0.53125000000000000        0.0000000000000000     
  0.62500000000000000       0.53125000000000000        0.0000000000000000     
  0.50000000000000000       0.56250000000000000        0.0000000000000000     
  0.53125000000000000       0.56250000000000000        0.0000000000000000     
  0.56250000000000000       0.56250000000000000        0.0000000000000000     
  0.59375000000000000       0.56250000000000000        0.0000000000000000     
  0.62500000000000000       0.56250000000000000        0.0000000000000000     
  0.50000000000000000       0.59375000000000000        0.0000000000000000     
  0.53125000000000000       0.59375000000000000        0.0000000000000000     
  0.56250000000000000       0.59375000000000000        0.0000000000000000     
  0.59375000000000000       0.59375000000000000        0.0000000000000000     
  0.62500000000000000       0.59375000000000000        0.0000000000000000     
  0.50000000000000000       0.62500000000000000        0.0000000000000000     
  0.53125000000000000       0.62500000000000000        0.0000000000000000     
  0.56250000000000000       0.62500000000000000        0.0000000000000000     
  0.59375000000000000       0.62500000000000000        0.0000000000000000     
  0.62500000000000000       0.62500000000000000        0.0000000000000000     
  0.62500000000000000       0.50000000000000000        0.0000000000000000     
  0.65625000000000000       0.50000000000000000        0.0000000000000000     
  0.68750000000000000       0.50000000000000000        0.0000000000000000     
  0.71875000000000000       0.50000000000000000        0.0000000000000000     
  0.75000000000000000       0.50000000000000000        0.0000000000000000     
  0.62500000000000000       0.53125000000000000        0.0000000000000000     
  0.65625000000000000       0.53125000000000000        0.0000000000000000     
  0.68750000000000000       0.53125000000000000        0.0000000000000000     
  0.71875000000000000       0.53125000000000000        0.0000000000000000     
  0.75000000000000000       0.53125000000000000        0.0000000000000000     
  0.62500000000000000       0.56250000000000000        0.0000000000000000     
  0.65625000000000000       0.56250000000000000        0.0000000000000000     
  0.68750000000000000       0.56250000000000000        0.0000000000000000     
  0.71875000000000000       0.56250000000000000        0.0000000000000000     
  0.75000000000000000       0.56250000000000000        0.0000000000000000     
  0.62500000000000000       0.59375000000000000        0.0000000000000000     
  0.65625000000000000       0.59375000000000000        0.0000000000000000     
  0.68750000000000000       0.59375000000000000        0.0000000000000000     
  0.71875000000000000       0.59375000000000000        0.0000000000000000     
  0.75000000000000000       0.59375000000000000        0.0000000000000000     
  0.62500000000000000       0.62500000000000000        0.0000000000000000     
  0.65625000000000000       0.62500000000000000        0.0000000000000000     
  0.68750000000000000       0.62500000000000000        0.0000000000000000     
  0.71875000000000000       0.62500000000000000        0.0000000000000000     
  0.75000000000000000       0.62500000000000000        0.0000000000000000     
  0.75000000000000000       0.50000000000000000        0.0000000000000000     
  0.78125000000000000       0.50000000000000000        0.0000000000000000     
  0.81250000000000000       0.50000000000000000        0.0000000000000000     
  0.84375000000000000       0.50000000000000000        0.0000000000000000     
  0.87500000000000000       0.50000000000000000        0.0000000000000000     
  0.75000000000000000       0.53125000000000000        0.0000000000000000     
  0.78125000000000000       0.53125000000000000        0.0000000000000000     
  0.81250000000000000       0.53125000000000000        0.0000000000000000     
  0.84375000000000000       0.53125000000000000        0.0000000000000000     
  0.87500000000000000       0.53125000000000000        0.0000000000000000     
  0.75000000000000000       0.56250000000000000        0.0000000000000000     
  0.78125000000000000       0.56250000000000000        0.0000000000000000     
  0.81250000000000000       0.56250000000000000        0.0000000000000000     
  0.84375000000000000       0.56250000000000000        0.0000000000000000     
  0.87500000000000000       0.56250000000000000        0.0000000000000000     
  0.75000000000000000       0.59375000000000000        0.0000000000000000     
  0.78125000000000000       0.59375000000000000        0.0000000000000000     
  0.81250000000000000       0.59375000000000000        0.0000000000000000     
  0.84375000000000000       0.59375000000000000        0.0000000000000000     
  0.87500000000000000       0.59375000000000000        0.0000000000000000     
  0.75000000000000000       0.62500000000000000        0.0000000000000000     
  0.78125000000000000       0.62500000000000000        0.0000000000000000     
  0.81250000000000000       0.62500000000000000        0.0000000000000000     
  0.84375000000000000       0.62500000000000000        0.0000000000000000     
  0.87500000000000000       0.62500000000000000        0.0000000000000000     
  0.87500000000000000       0.50000000000000000        0.0000000000000000     
  0.90625000000000000       0.50000000000000000        0.0000000000000000     
  0.93750000000000000       0.50000000000000000        0.0000000000000000     
  0.96875000000000000       0.50000000000000000        0.0000000000000000     
   1.0000000000000000       0.50000000000000000        0.0000000000000000     
  0.87500000000000000       0.53125000000000000        0.0000000000000000     
  0.90625000000000000       0.53125000000000000        0.0000000000000000     
  0.93750000000000000       0.53125000000000000        0.0000000000000000     
  0.96875000000000000       0.53125000000000000        0.0000000000000000     
   1.0000000000000000       0.53125000000000000        0.0000000000000000     
  0.87500000000000000       0.56250000000000000        0.0000000000000000     
  0.90625000000000000       0.56250000000000000        0.0000000000000000     
  0.93750000000000000       0.56250000000000000        0.0000000000000000     
  0.96875000000000000       0.56250000000000000        0.0000000000000000     
   1.0000000000000000       0.56250000000000000        0.0000000000000000     
  0.87500000000000000       0.59375000000000000        0.0000000000000000     
  0.90625000000000000       0.59375000000000000        0.0000000000000000     
  0.93750000000000000       0.59375000000000000        0.0000000000000000     
  0.96875000000000000       0.59375000000000000        0.0000000000000000     
   1.0000000000000000       0.59375000000000000        0.0000000000000000     
  0.87500000000000000       0.62500000000000000        0.0000000000000000     
  0.90625000000000000       0.62500000000000000        0.0000000000000000     
  0.93750000000000000       0.62500000000000000        0.0000000000000000     
  0.96875000000000000       0.62500000000000000        0.0000000000000000     
   1.0000000000000000       0.62500000000000000        0.0000000000000000     
   0.0000000000000000       0.62500000000000000        0.0000000000000000     
   3.1250000000000000E-002  0.62500000000000000        0.0000000000000000     
   6.2500000000000000E-002  0.62500000000000000        0.0000000000000000     
   9.3750000000000000E-002  0.62500000000000000        0.0000000000000000     
  0.12500000000000000       0.62500000000000000        0.0000000000000000     
   0.0000000000000000       0.65625000000000000        0.0000000000000000     
   3.1250000000000000E-002  0.65625000000000000        0.0000000000000000     
   6.2500000000000000E-002  0.65625000000000000        0.0000000000000000     
   9.3750000000000000E-002  0.65625000000000000        0.0000000000000000     
  0.12500000000000000       0.65625000000000000        0.0000000000000000     
   0.0000000000000000       0.68750000000000000        0.0000000000000000     
   3.1250000000000000E-002  0.68750000000000000        0.0000000000000000     
   6.2500000000000000E-002  0.68750000000000000        0.0000000000000000     
   9.3750000000000000E-002  0.68750000000000000        0.0000000000000000     
  0.12500000000000000       0.68750000000000000        0.0000000000000000     
   0.0000000000000000       0.71875000000000000        0.0000000000000000     
   3.1250000000000000E-002  0.71875000000000000        0.0000000000000000     
   6.2500000000000000E-002  0.71875000000000000        0.0000000000000000     
   9.3750000000000000E-002  0.71875000000000000        0.0000000000000000     
  0.12500000000000000       0.71875000000000000        0.0000000000000000     
   0.0000000000000000       0.75000000000000000        0.0000000000000000     
   3.1250000000000000E-002  0.75000000000000000        0.0000000000000000     
   6.2500000000000000E-002  0.75000000000000000        0.0000000000000000     
   9.3750000000000000E-002  0.75000000000000000        0.0000000000000000     
  0.12500000000000000       0.75000000000000000        0.0000000000000000     
  0.12500000000000000       0.62500000000000000        0.0000000000000000     
  0.15625000000000000       0.62500000000000000        0.0000000000000000     
  0.18750000000000000       0.62500000000000000        0.0000000000000000     
  0.21875000000000000       0.62500000000000000        0.0000000000000000     
  0.25000000000000000       0.62500000000000000        0.0000000000000000     
  0.12500000000000000       0.65625000000000000        0.0000000000000000     
  0.15625000000000000       0.65625000000000000        0.0000000000000000     
  0.18750000000000000       0.65625000000000000        0.0000000000000000     
  0.21875000000000000       0.65625000000000000        0.0000000000000000     
  0.25000000000000000       0.65625000000000000        0.0000000000000000     
  0.12500000000000000       0.68750000000000000        0.0000000000000000     
  0.15625000000000000       0.68750000000000000        0.0000000000000000     
  0.18750000000000000       0.68750000000000000        0.0000000000000000     
  0.21875000000000000       0.68750000000000000        0.0000000000000000     
  0.25000000000000000       0.68750000000000000        0.0000000000000000     
  0.12500000000000000       0.71875000000000000        0.0000000000000000     
  0.15625000000000000       0.71875000000000000        0.0000000000000000     
  0.18750000000000000       0.71875000000000000        0.0000000000000000     
  0.21875000000000000       0.71875000000000000        0.0000000000000000     
  0.25000000000000000       0.71875000000000000        0.0000000000000000     
  0.12500000000000000       0.75000000000000000        0.0000000000000000     
  0.15625000000000000       0.75000000000000000        0.0000000000000000     
  0.18750000000000000       0.75000000000000000        0.0000000000000000     
  0.21875000000000000       0.75000000000000000        0.0000000000000000     
  0.25000000000000000       0.75000000000000000        0.0000000000000000     
  0.25000000000000000       0.62500000000000000        0.0000000000000000     
  0.28125000000000000       0.62500000000000000        0.0000000000000000     
  0.31250000000000000       0.62500000000000000        0.0000000000000000     
  0.34375000000000000       0.62500000000000000        0.0000000000000000     
  0.37500000000000000       0.62500000000000000        0.0000000000000000     
  0.25000000000000000       0.65625000000000000        0.0000000000000000     
  0.28125000000000000       0.65625000000000000        0.0000000000000000     
  0.31250000000000000       0.65625000000000000        0.0000000000000000     
  0.34375000000000000       0.65625000000000000        0.0000000000000000     
  0.37500000000000000       0.65625000000000000        0.0000000000000000     
  0.25000000000000000       0.68750000000000000        0.0000000000000000     
  0.28125000000000000       0.68750000000000000        0.0000000000000000     
  0.31250000000000000       0.68750000000000000        0.0000000000000000     
  0.34375000000000000       0.68750000000000000        0.0000000000000000     
  0.37500000000000000       0.68750000000000000        0.0000000000000000     
  0.25000000000000000       0.71875000000000000        0.0000000000000000     
  0.28125000000000000       0.71875000000000000        0.0000000000000000     
  0.31250000000000000       0.71875000000000000        0.0000000000000000     
  0.34375000000000000       0.71875000000000000        0.0000000000000000     
  0.37500000000000000       0.71875000000000000        0.0000000000000000     
  0.25000000000000000       0.75000000000000000        0.0000000000000000     
  0.28125000000000000       0.75000000000000000        0.0000000000000000     
  0.31250000000000000       0.75000000000000000        0.0000000000000000     
  0.34375000000000000       0.75000000000000000        0.0000000000000000     
  0.37500000000000000       0.75000000000000000        0.0000000000000000     
  0.37500000000000000       0.62500000000000000        0.0000000000000000     
  0.40625000000000000       0.62500000000000000        0.0000000000000000     
  0.43750000000000000       0.62500000000000000        0.0000000000000000     
  0.46875000000000000       0.62500000000000000        0.0000000000000000     
  0.50000000000000000       0.62500000000000000        0.0000000000000000     
  0.37500000000000000       0.65625000000000000        0.0000000000000000     
  0.40625000000000000       0.65625000000000000        0.0000000000000000     
  0.43750000000000000       0.65625000000000000        0.0000000000000000     
  0.46875000000000000       0.65625000000000000        0.0000000000000000     
  0.50000000000000000       0.65625000000000000        0.0000000000000000     
  0.37500000000000000       0.68750000000000000        0.0000000000000000     
  0.40625000000000000       0.68750000000000000        0.0000000000000000     
  0.43750000000000000       0.68750000000000000        0.0000000000000000     
  0.46875000000000000       0.68750000000000000        0.0000000000000000     
  0.50000000000000000       0.68750000000000000        0.0000000000000000     
  0.37500000000000000       0.71875000000000000        0.0000000000000000     
  0.40625000000000000       0.71875000000000000        0.0000000000000000     
  0.43750000000000000       0.71875000000000000        0.0000000000000000     
  0.46875000000000000       0.71875000000000000        0.0000000000000000     
  0.50000000000000000       0.71875000000000000        0.0000000000000000     
  0.37500000000000000       0.75000000000000000        0.0000000000000000     
  0.40625000000000000       0.75000000000000000        0.0000000000000000     
  0.43750000000000000       0.75000000000000000        0.0000000000000000     
  0.46875000000000000       0.75000000000000000        0.0000000000000000     
  0.50000000000000000       0.75000000000000000        0.0000000000000000     
  0.50000000000000000       0.62500000000000000        0.0000000000000000     
  0.53125000000000000       0.62500000000000000        0.0000000000000000     
  0.56250000000000000       0.62500000000000000        0.0000000000000000     
  0.59375000000000000       0.62500000000000000        0.0000000000000000     
  0.62500000000000000       0.62500000000000000        0.0000000000000000     
  0.50000000000000000       0.65625000000000000        0.0000000000000000     
  0.53125000000000000       0.65625000000000000        0.0000000000000000     
  0.56250000000000000       0.65625000000000000        0.0000000000000000     
  0.59375000000000000       0.65625000000000000        0.0000000000000000     
  0.62500000000000000       0.65625000000000000        0.0000000000000000     
  0.50000000000000000       0.68750000000000000        0.0000000000000000     
  0.53125000000000000       0.68750000000000000        0.0000000000000000     
  0.56250000000000000       0.68750000000000000        0.0000000000000000     
  0.59375000000000000       0.68750000000000000        0.0000000000000000     
  0.62500000000000000       0.68750000000000000        0.0000000000000000     
  0.50000000000000000       0.71875000000000000        0.0000000000000000     
  0.53125000000000000       0.71875000000000000        0.0000000000000000     
  0.56250000000000000       0.71875000000000000        0.0000000000000000     
  0.59375000000000000       0.71875000000000000        0.0000000000000000     
  0.62500000000000000       0.71875000000000000        0.0000000000000000     
  0.50000000000000000       0.75000000000000000        0.0000000000000000     
  0.53125000000000000       0.75000000000000000        0.0000000000000000     
  0.56250000000000000       0.75000000000000000        0.0000000000000000     
  0.59375000000000000       0.75000000000000000        0.0000000000000000     
  0.62500000000000000       0.75000000000000000        0.0000000000000000     
  0.62500000000000000       0.62500000000000000        0.0000000000000000     
  0.65625000000000000       0.62500000000000000        0.0000000000000000     
  0.68750000000000000       0.62500000000000000        0.0000000000000000     
  0.71875000000000000       0.62500000000000000        0.0000000000000000     
  0.75000000000000000       0.62500000000000000        0.0000000000000000     
  0.62500000000000000       0.65625000000000000        0.0000000000000000     
  0.65625000000000000       0.65625000000000000        0.0000000000000000     
  0.68750000000000000       0.65625000000000000        0.0000000000000000     
  0.71875000000000000       0.65625000000000000        0.0000000000000000     
  0.75000000000000000       0.65625000000000000        0.0000000000000000     
  0.62500000000000000       0.68750000000000000        0.0000000000000000     
  0.65625000000000000       0.68750000000000000        0.0000000000000000     
  0.68750000000000000       0.68750000000000000        0.0000000000000000     
  0.71875000000000000       0.68750000000000000        0.0000000000000000     
  0.75000000000000000       0.68750000000000000        0.0000000000000000     
  0.62500000000000000       0.71875000000000000        0.0000000000000000     
  0.65625000000000000       0.71875000000000000        0.0000000000000000     
  0.68750000000000000       0.71875000000000000        0.0000000000000000     
  0.71875000000000000       0.71875000000000000        0.0000000000000000     
  0.75000000000000000       0.71875000000000000        0.0000000000000000     
  0.62500000000000000       0.75000000000000000        0.0000000000000000     
  0.65625000000000000       0.75000000000000000        0.0000000000000000     
  0.68750000000000000       0.75000000000000000        0.0000000000000000     
  0.71875000000000000       0.75000000000000000        0.0000000000000000     
  0.75000000000000000       0.75000000000000000        0.0000000000000000     
  0.75000000000000000       0.62500000000000000        0.0000000000000000     
  0.78125000000000000       0.62500000000000000        0.0000000000000000     
  0.81250000000000000       0.62500000000000000        0.0000000000000000     
  0.84375000000000000       0.62500000000000000        0.0000000000000000     
  0.87500000000000000       0.62500000000000000        0.0000000000000000     
  0.75000000000000000       0.65625000000000000        0.0000000000000000     
  0.78125000000000000       0.65625000000000000        0.0000000000000000     
  0.81250000000000000       0.65625000000000000        0.0000000000000000     
  0.84375000000000000       0.65625000000000000        0.0000000000000000     
  0.87500000000000000       0.65625000000000000        0.0000000000000000     
  0.75000000000000000       0.68750000000000000        0.0000000000000000     
  0.78125000000000000       0.68750000000000000        0.0000000000000000     
  0.81250000000000000       0.68750000000000000        0.0000000000000000     
  0.84375000000000000       0.68750000000000000        0.0000000000000000     
  0.87500000000000000       0.68750000000000000        0.0000000000000000     
  0.75000000000000000       0.71875000000000000        0.0000000000000000     
  0.78125000000000000       0.71875000000000000        0.0000000000000000     
  0.81250000000000000       0.71875000000000000        0.0000000000000000     
  0.84375000000000000       0.71875000000000000        0.0000000000000000     
  0.87500000000000000       0.71875000000000000        0.0000000000000000     
  0.75000000000000000       0.75000000000000000        0.0000000000000000     
  0.78125000000000000       0.75000000000000000        0.0000000000000000     
  0.81250000000000000       0.75000000000000000        0.0000000000000000     
  0.84375000000000000       0.75000000000000000        0.0000000000000000     
  0.87500000000000000       0.75000000000000000        0.0000000000000000     
  0.87500000000000000       0.62500000000000000        0.0000000000000000     
  0.90625000000000000       0.62500000000000000        0.0000000000000000     
  0.93750000000000000       0.62500000000000000        0.0000000000000000     
  0.96875000000000000       0.62500000000000000        0.0000000000000000     
   1.0000000000000000       0.62500000000000000        0.0000000000000000     
  0.87500000000000000       0.65625000000000000        0.0000000000000000     
  0.90625000000000000       0.65625000000000000        0.0000000000000000     
  0.93750000000000000       0.65625000000000000        0.0000000000000000     
  0.96875000000000000       0.65625000000000000        0.0000000000000000     
   1.0000000000000000       0.65625000000000000        0.0000000000000000     
  0.87500000000000000       0.68750000000000000        0.0000000000000000     
  0.90625000000000000       0.68750000000000000        0.0000000000000000     
  0.93750000000000000       0.68750000000000000        0.0000000000000000     
  0.96875000000000000       0.68750000000000000        0.0000000000000000     
   1.0000000000000000       0.68750000000000000        0.0000000000000000     
  0.87500000000000000       0.71875000000000000        0.0000000000000000     
  0.90625000000000000       0.71875000000000000        0.0000000000000000     
  0.93750000000000000       0.71875000000000000        0.0000000000000000     
  0.96875000000000000       0.71875000000000000        0.0000000000000000     
   1.0000000000000000       0.71875000000000000        0.0000000000000000     
  0.87500000000000000       0.75000000000000000        0.0000000000000000     
  0.90625000000000000       0.75000000000000000        0.0000000000000000     
  0.93750000000000000       0.75000000000000000        0.0000000000000000     
  0.96875000000000000       0.75000000000000000        0.0000000000000000     
   1.0000000000000000       0.75000000000000000        0.0000000000000000     
   0.0000000000000000       0.75000000000000000        0.0000000000000000     
   3.1250000000000000E-002  0.75000000000000000        0.0000000000000000     
   6.2500000000000000E-002  0.75000000000000000        0.0000000000000000     
   9.3750000000000000E-002  0.75000000000000000        0.0000000000000000     
  0.12500000000000000       0.75000000000000000        0.0000000000000000     
   0.0000000000000000       0.78125000000000000        0.0000000000000000     
   3.1250000000000000E-002  0.78125000000000000        0.0000000000000000     
   6.2500000000000000E-002  0.78125000000000000        0.0000000000000000     
   9.3750000000000000E-002  0.78125000000000000        0.0000000000000000     
  0.12500000000000000       0.78125000000000000        0.0000000000000000     
   0.0000000000000000       0.81250000000000000        0.0000000000000000     
   3.1250000000000000E-002  0.81250000000000000        0.0000000000000000     
   6.2500000000000000E-002  0.81250000000000000        0.0000000000000000     
   9.3750000000000000E-002  0.81250000000000000        0.0000000000000000     
  0.12500000000000000       0.81250000000000000        0.0000000000000000     
   0.0000000000000000       0.84375000000000000        0.0000000000000000     
   3.1250000000000000E-002  0.84375000000000000        0.0000000000000000     
   6.2500000000000000E-002  0.84375000000000000        0.0000000000000000     
   9.3750000000000000E-002  0.84375000000000000        0.0000000000000000     
  0.12500000000000000       0.84375000000000000        0.0000000000000000     
   0.0000000000000000       0.87500000000000000        0.0000000000000000     
   3.1250000000000000E-002  0.87500000000000000        0.0000000000000000     
   6.2500000000000000E-002  0.87500000000000000        0.0000000000000000     
   9.3750000000000000E-002  0.87500000000000000        0.0000000000000000     
  0.12500000000000000       0.87500000000000000        0.0000000000000000     
  0.12500000000000000       0.75000000000000000        0.0000000000000000     
  0.15625000000000000       0.75000000000000000        0.0000000000000000     
  0.18750000000000000       0.75000000000000000        0.0000000000000000     
  0.21875000000000000       0.75000000000000000        0.0000000000000000     
  0.25000000000000000       0.75000000000000000        0.0000000000000000     
  0.12500000000000000       0.78125000000000000        0.0000000000000000     
  0.15625000000000000       0.78125000000000000        0.0000000000000000     
  0.18750000000000000       0.78125000000000000        0.0000000000000000     
  0.21875000000000000       0.78125000000000000        0.0000000000000000     
  0.25000000000000000       0.78125000000000000        0.0000000000000000     
  0.12500000000000000       0.81250000000000000        0.0000000000000000     
  0.15625000000000000       0.81250000000000000        0.0000000000000000     
  0.18750000000000000       0.81250000000000000        0.0000000000000000     
  0.21875000000000000       0.81250000000000000        0.0000000000000000     
  0.25000000000000000       0.81250000000000000        0.0000000000000000     
  0.12500000000000000       0.84375000000000000        0.0000000000000000     
  0.15625000000000000       0.84375000000000000        0.0000000000000000     
  0.18750000000000000       0.84375000000000000        0.0000000000000000     
  0.21875000000000000       0.84375000000000000        0.0000000000000000     
  0.25000000000000000       0.84375000000000000        0.0000000000000000     
  0.12500000000000000       0.87500000000000000        0.0000000000000000     
  0.15625000000000000       0.87500000000000000        0.0000000000000000     
  0.18750000000000000       0.87500000000000000        0.0000000000000000     
  0.21875000000000000       0.87500000000000000        0.0000000000000000     
  0.25000000000000000       0.87500000000000000        0.0000000000000000     
  0.25000000000000000       0.75000000000000000        0.0000000000000000     
  0.28125000000000000       0.75000000000000000        0.0000000000000000     
  0.31250000000000000       0.75000000000000000        0.0000000000000000     
  0.34375000000000000       0.75000000000000000        0.0000000000000000     
  0.37500000000000000       0.75000000000000000        0.0000000000000000     
  0.25000000000000000       0.78125000000000000        0.0000000000000000     
  0.28125000000000000       0.78125000000000000        0.0000000000000000     
  0.31250000000000000       0.78125000000000000        0.0000000000000000     
  0.34375000000000000       0.78125000000000000        0.0000000000000000     
  0.37500000000000000       0.78125000000000000        0.0000000000000000     
  0.25000000000000000       0.81250000000000000        0.0000000000000000     
  0.28125000000000000       0.81250000000000000        0.0000000000000000     
  0.31250000000000000       0.81250000000000000        0.0000000000000000     
  0.34375000000000000       0.81250000000000000        0.0000000000000000     
  0.37500000000000000       0.81250000000000000        0.0000000000000000     
  0.25000000000000000       0.84375000000000000        0.0000000000000000     
  0.28125000000000000       0.84375000000000000        0.0000000000000000     
  0.31250000000000000       0.84375000000000000        0.0000000000000000     
  0.34375000000000000       0.84375000000000000        0.0000000000000000     
  0.37500000000000000       0.84375000000000000        0.0000000000000000     
  0.25000000000000000       0.87500000000000000        0.0000000000000000     
  0.28125000000000000       0.87500000000000000        0.0000000000000000     
  0.31250000000000000       0.87500000000000000        0.0000000000000000     
  0.34375000000000000       0.87500000000000000        0.0000000000000000     
  0.37500000000000000       0.87500000000000000        0.0000000000000000     
  0.37500000000000000       0.75000000000000000        0.0000000000000000     
  0.40625000000000000       0.75000000000000000        0.0000000000000000     
  0.43750000000000000       0.75000000000000000        0.0000000000000000     
  0.46875000000000000       0.75000000000000000        0.0000000000000000     
  0.50000000000000000       0.75000000000000000        0.0000000000000000     
  0.37500000000000000       0.78125000000000000        0.0000000000000000     
  0.40625000000000000       0.78125000000000000        0.0000000000000000     
  0.43750000000000000       0.78125000000000000        0.0000000000000000     
  0.46875000000000000       0.78125000000000000        0.0000000000000000     
  0.50000000000000000       0.78125000000000000        0.0000000000000000     
  0.37500000000000000       0.81250000000000000        0.0000000000000000     
  0.40625000000000000       0.81250000000000000        0.0000000000000000     
  0.43750000000000000       0.81250000000000000        0.0000000000000000     
  0.46875000000000000       0.81250000000000000        0.0000000000000000     
  0.50000000000000000       0.81250000000000000        0.0000000000000000     
  0.37500000000000000       0.84375000000000000        0.0000000000000000     
  0.40625000000000000       0.84375000000000000        0.0000000000000000     
  0.43750000000000000       0.84375000000000000        0.0000000000000000     
  0.46875000000000000       0.84375000000000000        0.0000000000000000     
  0.50000000000000000       0.84375000000000000        0.0000000000000000     
  0.37500000000000000       0.87500000000000000        0.0000000000000000     
  0.40625000000000000       0.87500000000000000        0.0000000000000000     
  0.43750000000000000       0.87500000000000000        0.0000000000000000     
  0.46875000000000000       0.87500000000000000        0.0000000000000000     
  0.50000000000000000       0.87500000000000000        0.0000000000000000     
  0.50000000000000000       0.75000000000000000        0.0000000000000000     
  0.53125000000000000       0.75000000000000000        0.0000000000000000     
  0.56250000000000000       0.75000000000000000        0.0000000000000000     
  0.59375000000000000       0.75000000000000000        0.0000000000000000     
  0.62500000000000000       0.75000000000000000        0.0000000000000000     
  0.50000000000000000       0.78125000000000000        0.0000000000000000     
  0.53125000000000000       0.78125000000000000        0.0000000000000000     
  0.56250000000000000       0.78125000000000000        0.0000000000000000     
  0.59375000000000000       0.78125000000000000        0.0000000000000000     
  0.62500000000000000       0.78125000000000000        0.0000000000000000     
  0.50000000000000000       0.81250000000000000        0.0000000000000000     
  0.53125000000000000       0.81250000000000000        0.0000000000000000     
  0.56250000000000000       0.81250000000000000        0.0000000000000000     
  0.59375000000000000       0.81250000000000000        0.0000000000000000     
  0.62500000000000000       0.81250000000000000        0.0000000000000000     
  0.50000000000000000       0.84375000000000000        0.0000000000000000     
  0.53125000000000000       0.84375000000000000        0.0000000000000000     
  0.56250000000000000       0.84375000000000000        0.0000000000000000     
  0.59375000000000000       0.84375000000000000        0.0000000000000000     
  0.62500000000000000       0.84375000000000000        0.0000000000000000     
  0.50000000000000000       0.87500000000000000        0.0000000000000000     
  0.53125000000000000       0.87500000000000000        0.0000000000000000     
  0.56250000000000000       0.87500000000000000        0.0000000000000000     
  0.59375000000000000       0.87500000000000000        0.0000000000000000     
  0.62500000000000000       0.87500000000000000        0.0000000000000000     
  0.62500000000000000       0.75000000000000000        0.0000000000000000     
  0.65625000000000000       0.75000000000000000        0.0000000000000000     
  0.68750000000000000       0.75000000000000000        0.0000000000000000     
  0.71875000000000000       0.75000000000000000        0.0000000000000000     
  0.75000000000000000       0.75000000000000000        0.0000000000000000     
  0.62500000000000000       0.78125000000000000        0.0000000000000000     
  0.65625000000000000       0.78125000000000000        0.0000000000000000     
  0.68750000000000000       0.78125000000000000        0.0000000000000000     
  0.71875000000000000       0.78125000000000000        0.0000000000000000     
  0.75000000000000000       0.78125000000000000        0.0000000000000000     
  0.62500000000000000       0.81250000000000000        0.0000000000000000     
  0.65625000000000000       0.81250000000000000        0.0000000000000000     
  0.68750000000000000       0.81250000000000000        0.0000000000000000     
  0.71875000000000000       0.81250000000000000        0.0000000000000000     
  0.75000000000000000       0.81250000000000000        0.0000000000000000     
  0.62500000000000000       0.84375000000000000        0.0000000000000000     
  0.65625000000000000       0.84375000000000000        0.0000000000000000     
  0.68750000000000000       0.84375000000000000        0.0000000000000000     
  0.71875000000000000       0.84375000000000000        0.0000000000000000     
  0.75000000000000000       0.84375000000000000        0.0000000000000000     
  0.62500000000000000       0.87500000000000000        0.0000000000000000     
  0.65625000000000000       0.87500000000000000        0.0000000000000000     
  0.68750000000000000       0.87500000000000000        0.0000000000000000     
  0.71875000000000000       0.87500000000000000        0.0000000000000000     
  0.75000000000000000       0.87500000000000000        0.0000000000000000     
  0.75000000000000000       0.75000000000000000        0.0000000000000000     
  0.78125000000000000       0.75000000000000000        0.0000000000000000     
  0.81250000000000000       0.75000000000000000        0.0000000000000000     
  0.84375000000000000       0.75000000000000000        0.0000000000000000     
  0.87500000000000000       0.75000000000000000        0.0000000000000000     
  0.75000000000000000       0.78125000000000000        0.0000000000000000     
  0.78125000000000000       0.78125000000000000        0.0000000000000000     
  0.81250000000000000       0.78125000000000000        0.0000000000000000     
  0.84375000000000000       0.78125000000000000        0.0000000000000000     
  0.87500000000000000       0.78125000000000000        0.0000000000000000     
  0.75000000000000000       0.81250000000000000        0.0000000000000000     
  0.78125000000000000       0.81250000000000000        0.0000000000000000     
  0.81250000000000000       0.81250000000000000        0.0000000000000000     
  0.84375000000000000       0.81250000000000000        0.0000000000000000     
  0.87500000000000000       0.81250000000000000        0.0000000000000000     
  0.75000000000000000       0.84375000000000000        0.0000000000000000     
  0.78125000000000000       0.84375000000000000        0.0000000000000000     
  0.81250000000000000       0.84375000000000000        0.0000000000000000     
  0.84375000000000000       0.84375000000000000        0.0000000000000000     
  0.87500000000000000       0.84375000000000000        0.0000000000000000     
  0.75000000000000000       0.87500000000000000        0.0000000000000000     
  0.78125000000000000       0.87500000000000000        0.0000000000000000     
  0.81250000000000000       0.87500000000000000        0.0000000000000000     
  0.84375000000000000       0.87500000000000000        0.0000000000000000     
  0.87500000000000000       0.87500000000000000        0.0000000000000000     
  0.87500000000000000       0.75000000000000000        0.0000000000000000     
  0.90625000000000000       0.75000000000000000        0.0000000000000000     
  0.93750000000000000       0.75000000000000000        0.0000000000000000     
  0.96875000000000000       0.75000000000000000        0.0000000000000000     
   1.0000000000000000       0.75000000000000000        0.0000000000000000     
  0.87500000000000000       0.78125000000000000        0.0000000000000000     
  0.90625000000000000       0.78125000000000000        0.0000000000000000     
  0.93750000000000000       0.78125000000000000        0.0000000000000000     
  0.96875000000000000       0.78125000000000000        0.0000000000000000     
   1.0000000000000000       0.78125000000000000        0.0000000000000000     
  0.87500000000000000       0.81250000000000000        0.0000000000000000     
  0.90625000000000000       0.81250000000000000        0.0000000000000000     
  0.93750000000000000       0.81250000000000000        0.0000000000000000     
  0.96875000000000000       0.81250000000000000        0.0000000000000000     
   1.0000000000000000       0.81250000000000000        0.0000000000000000     
  0.87500000000000000       0.84375000000000000        0.0000000000000000     
  0.90625000000000000       0.84375000000000000        0.0000000000000000     
  0.93750000000000000       0.84375000000000000        0.0000000000000000     
  0.96875000000000000       0.84375000000000000        0.0000000000000000     
   1.0000000000000000       0.84375000000000000        0.0000000000000000     
  0.87500000000000000       0.87500000000000000        0.0000000000000000     
  0.90625000000000000       0.87500000000000000        0.0000000000000000     
  0.93750000000000000       0.87500000000000000        0.0000000000000000     
  0.96875000000000000       0.87500000000000000        0.0000000000000000     
   1.0000000000000000       0.87500000000000000        0.0000000000000000     
   0.0000000000000000       0.87500000000000000        0.0000000000000000     
   3.1250000000000000E-002  0.87500000000000000        0.0000000000000000     
   6.2500000000000000E-002  0.87500000000000000        0.0000000000000000     
   9.3750000000000000E-002  0.87500000000000000        0.0000000000000000     
  0.12500000000000000       0.87500000000000000        0.0000000000000000     
   0.0000000000000000       0.90625000000000000        0.0000000000000000     
   3.1250000000000000E-002  0.90625000000000000        0.0000000000000000     
   6.2500000000000000E-002  0.90625000000000000        0.0000000000000000     
   9.3750000000000000E-002  0.90625000000000000        0.0000000000000000     
  0.12500000000000000       0.90625000000000000        0.0000000000000000     
   0.0000000000000000       0.93750000000000000        0.0000000000000000     
   3.1250000000000000E-002  0.93750000000000000        0.0000000000000000     
   6.2500000000000000E-002  0.93750000000000000        0.0000000000000000     
   9.3750000000000000E-002  0.93750000000000000        0.0000000000000000     
  0.12500000000000000       0.93750000000000000        0.0000000000000000     
   0.0000000000000000       0.96875000000000000        0.0000000000000000     
   3.1250000000000000E-002  0.96875000000000000        0.0000000000000000     
   6.2500000000000000E-002  0.96875000000000000        0.0000000000000000     
   9.3750000000000000E-002  0.96875000000000000        0.0000000000000000     
  0.12500000000000000       0.96875000000000000        0.0000000000000000     
   0.0000000000000000        1.0000000000000000        0.0000000000000000     
   3.1250000000000000E-002   1.0000000000000000        0.0000000000000000     
   6.2500000000000000E-002   1.0000000000000000        0.0000000000000000     
   9.3750000000000000E-002   1.0000000000000000        0.0000000000000000     
  0.12500000000000000        1.0000000000000000        0.0000000000000000     
  0.12500000000000000       0.87500000000000000        0.0000000000000000     
  0.15625000000000000       0.87500000000000000        0.0000000000000000     
  0.18750000000000000       0.87500000000000000        0.0000000000000000     
  0.21875000000000000       0.87500000000000000        0.0000000000000000     
  0.25000000000000000       0.87500000000000000        0.0000000000000000     
  0.12500000000000000       0.90625000000000000        0.0000000000000000     
  0.15625000000000000       0.90625000000000000        0.0000000000000000     
  0.18750000000000000       0.90625000000000000        0.0000000000000000     
  0.21875000000000000       0.90625000000000000        0.0000000000000000     
  0.25000000000000000       0.90625000000000000        0.0000000000000000     
  0.12500000000000000       0.93750000000000000        0.0000000000000000     
  0.15625000000000000       0.93750000000000000        0.0000000000000000     
  0.18750000000000000       0.93750000000000000        0.0000000000000000     
  0.21875000000000000       0.93750000000000000        0.0000000000000000     
  0.25000000000000000       0.93750000000000000        0.0000000000000000     
  0.12500000000000000       0.96875000000000000        0.0000000000000000     
  0.15625000000000000       0.96875000000000000        0.0000000000000000     
  0.18750000000000000       0.96875000000000000        0.0000000000000000     
  0.21875000000000000       0.96875000000000000        0.0000000000000000     
  0.25000000000000000       0.96875000000000000        0.0000000000000000     
  0.12500000000000000        1.0000000000000000        0.0000000000000000     
  0.15625000000000000        1.0000000000000000        0.0000000000000000     
  0.18750000000000000        1.0000000000000000        0.0000000000000000     
  0.21875000000000000        1.0000000000000000        0.0000000000000000     
  0.25000000000000000        1.0000000000000000        0.0000000000000000     
  0.25000000000000000       0.87500000000000000        0.0000000000000000     
  0.28125000000000000       0.87500000000000000        0.0000000000000000     
  0.31250000000000000       0.87500000000000000        0.0000000000000000     
  0.34375000000000000       0.87500000000000000        0.0000000000000000     
  0.37500000000000000       0.87500000000000000        0.0000000000000000     
  0.25000000000000000       0.90625000000000000        0.0000000000000000     
  0.28125000000000000       0.90625000000000000        0.0000000000000000     
  0.31250000000000000       0.90625000000000000        0.0000000000000000     
  0.34375000000000000       0.90625000000000000        0.0000000000000000     
  0.37500000000000000       0.90625000000000000        0.0000000000000000     
  0.25000000000000000       0.93750000000000000        0.0000000000000000     
  0.28125000000000000       0.93750000000000000        0.0000000000000000     
  0.31250000000000000       0.93750000000000000        0.0000000000000000     
  0.34375000000000000       0.93750000000000000        0.0000000000000000     
  0.37500000000000000       0.93750000000000000        0.0000000000000000     
  0.25000000000000000       0.96875000000000000        0.0000000000000000     
  0.28125000000000000       0.96875000000000000        0.0000000000000000     
  0.31250000000000000       0.96875000000000000        0.0000000000000000     
  0.34375000000000000       0.96875000000000000        0.0000000000000000     
  0.37500000000000000       0.96875000000000000        0.0000000000000000     
  0.25000000000000000        1.0000000000000000        0.0000000000000000     
  0.28125000000000000        1.0000000000000000        0.0000000000000000     
  0.31250000000000000        1.0000000000000000        0.0000000000000000     
  0.34375000000000000        1.0000000000000000        0.0000000000000000     
  0.37500000000000000        1.0000000000000000        0.0000000000000000     
  0.37500000000000000       0.87500000000000000        0.0000000000000000     
  0.40625000000000000       0.87500000000000000        0.0000000000000000     
  0.43750000000000000       0.87500000000000000        0.0000000000000000     
  0.46875000000000000       0.87500000000000000        0.0000000000000000     
  0.50000000000000000       0.87500000000000000        0.0000000000000000     
  0.37500000000000000       0.90625000000000000        0.0000000000000000     
  0.40625000000000000       0.90625000000000000        0.0000000000000000     
  0.43750000000000000       0.90625000000000000        0.0000000000000000     
  0.46875000000000000       0.90625000000000000        0.0000000000000000     
  0.50000000000000000       0.90625000000000000        0.0000000000000000     
  0.37500000000000000       0.93750000000000000        0.0000000000000000     
  0.40625000000000000       0.93750000000000000        0.0000000000000000     
  0.43750000000000000       0.93750000000000000        0.0000000000000000     
  0.46875000000000000       0.93750000000000000        0.0000000000000000     
  0.50000000000000000       0.93750000000000000        0.0000000000000000     
  0.37500000000000000       0.96875000000000000        0.0000000000000000     
  0.40625000000000000       0.96875000000000000        0.0000000000000000     
  0.43750000000000000       0.96875000000000000        0.0000000000000000     
  0.46875000000000000       0.96875000000000000        0.0000000000000000     
  0.50000000000000000       0.96875000000000000        0.0000000000000000     
  0.37500000000000000        1.0000000000000000        0.0000000000000000     
  0.40625000000000000        1.0000000000000000        0.0000000000000000     
  0.43750000000000000        1.0000000000000000        0.0000000000000000     
  0.46875000000000000        1.0000000000000000        0.0000000000000000     
  0.50000000000000000        1.0000000000000000        0.0000000000000000     
  0.50000000000000000       0.87500000000000000        0.0000000000000000     
  0.53125000000000000       0.87500000000000000        0.0000000000000000     
  0.56250000000000000       0.87500000000000000        0.0000000000000000     
  0.59375000000000000       0.87500000000000000        0.0000000000000000     
  0.62500000000000000       0.87500000000000000        0.0000000000000000     
  0.50000000000000000       0.90625000000000000        0.0000000000000000     
  0.53125000000000000       0.90625000000000000        0.0000000000000000     
  0.56250000000000000       0.90625000000000000        0.0000000000000000     
  0.59375000000000000       0.90625000000000000        0.0000000000000000     
  0.62500000000000000       0.90625000000000000        0.0000000000000000     
  0.50000000000000000       0.93750000000000000        0.0000000000000000     
  0.53125000000000000       0.93750000000000000        0.0000000000000000     
  0.56250000000000000       0.93750000000000000        0.0000000000000000     
  0.59375000000000000       0.93750000000000000        0.0000000000000000     
  0.62500000000000000       0.93750000000000000        0.0000000000000000     
  0.50000000000000000       0.96875000000000000        0.0000000000000000     
  0.53125000000000000       0.96875000000000000        0.0000000000000000     
  0.56250000000000000       0.96875000000000000        0.0000000000000000     
  0.59375000000000000       0.96875000000000000        0.0000000000000000     
  0.62500000000000000       0.96875000000000000        0.0000000000000000     
  0.50000000000000000        1.0000000000000000        0.0000000000000000     
  0.53125000000000000        1.0000000000000000        0.0000000000000000     
  0.56250000000000000        1.0000000000000000        0.0000000000000000     
  0.59375000000000000        1.0000000000000000        0.0000000000000000     
  0.62500000000000000        1.0000000000000000        0.0000000000000000     
  0.62500000000000000       0.87500000000000000        0.0000000000000000     
  0.65625000000000000       0.87500000000000000        0.0000000000000000     
  0.68750000000000000       0.87500000000000000        0.0000000000000000     
  0.71875000000000000       0.87500000000000000        0.0000000000000000     
  0.75000000000000000       0.87500000000000000        0.0000000000000000     
  0.62500000000000000       0.90625000000000000        0.0000000000000000     
  0.65625000000000000       0.90625000000000000        0.0000000000000000     
  0.68750000000000000       0.90625000000000000        0.0000000000000000     
  0.71875000000000000       0.90625000000000000        0.0000000000000000     
  0.75000000000000000       0.90625000000000000        0.0000000000000000     
  0.62500000000000000       0.93750000000000000        0.0000000000000000     
  0.65625000000000000       0.93750000000000000        0.0000000000000000     
  0.68750000000000000       0.93750000000000000        0.0000000000000000     
  0.71875000000000000       0.93750000000000000        0.0000000000000000     
  0.75000000000000000       0.93750000000000000        0.0000000000000000     
  0.62500000000000000       0.96875000000000000        0.0000000000000000     
  0.65625000000000000       0.96875000000000000        0.0000000000000000     
  0.68750000000000000       0.96875000000000000        0.0000000000000000     
  0.71875000000000000       0.96875000000000000        0.0000000000000000     
  0.75000000000000000       0.96875000000000000        0.0000000000000000     
  0.62500000000000000        1.0000000000000000        0.0000000000000000     
  0.65625000000000000        1.0000000000000000        0.0000000000000000     
  0.68750000000000000        1.0000000000000000        0.0000000000000000     
  0.71875000000000000        1.0000000000000000        0.0000000000000000     
  0.75000000000000000        1.0000000000000000        0.0000000000000000     
  0.75000000000000000       0.87500000000000000        0.0000000000000000     
  0.78125000000000000       0.87500000000000000        0.0000000000000000     
  0.81250000000000000       0.87500000000000000        0.0000000000000000     
  0.84375000000000000       0.87500000000000000        0.0000000000000000     
  0.87500000000000000       0.87500000000000000        0.0000000000000000     
  0.75000000000000000       0.90625000000000000        0.0000000000000000     
  0.78125000000000000       0.90625000000000000        0.0000000000000000     
  0.81250000000000000       0.90625000000000000        0.0000000000000000     
  0.84375000000000000       0.90625000000000000        0.0000000000000000     
  0.87500000000000000       0.90625000000000000        0.0000000000000000     
  0.75000000000000000       0.93750000000000000        0.0000000000000000     
  0.78125000000000000       0.93750000000000000        0.0000000000000000     
  0.81250000000000000       0.93750000000000000        0.0000000000000000     
  0.84375000000000000       0.93750000000000000        0.0000000000000000     
  0.87500000000000000       0.93750000000000000        0.0000000000000000     
  0.75000000000000000       0.96875000000000000        0.0000000000000000     
  0.78125000000000000       0.96875000000000000        0.0000000000000000     
  0.81250000000000000       0.96875000000000000        0.0000000000000000     
  0.84375000000000000       0.96875000000000000        0.0000000000000000     
  0.87500000000000000       0.96875000000000000        0.0000000000000000     
  0.75000000000000000        1.0000000000000000        0.0000000000000000     
  0.78125000000000000        1.0000000000000000        0.0000000000000000     
  0.81250000000000000        1.0000000000000000        0.0000000000000000     
  0.84375000000000000        1.0000000000000000        0.0000000000000000     
  0.87500000000000000        1.0000000000000000        0.0000000000000000     
  0.87500000000000000       0.87500000000000000        0.0000000000000000     
  0.90625000000000000       0.87500000000000000        0.0000000000000000     
  0.93750000000000000       0.87500000000000000        0.0000000000000000     
  0.96875000000000000       0.87500000000000000        0.0000000000000000     
   1.0000000000000000       0.87500000000000000        0.0000000000000000     
  0.87500000000000000       0.90625000000000000        0.0000000000000000     
  0.90625000000000000       0.90625000000000000        0.0000000000000000     
  0.93750000000000000       0.90625000000000000        0.0000000000000000     
  0.96875000000000000       0.90625000000000000        0.0000000000000000     
   1.0000000000000000       0.90625000000000000        0.0000000000000000     
  0.87500000000000000       0.93750000000000000        0.0000000000000000     
  0.90625000000000000       0.93750000000000000        0.0000000000000000     
  0.93750000000000000       0.93750000000000000        0.0000000000000000     
  0.96875000000000000       0.93750000000000000        0.0000000000000000     
   1.0000000000000000       0.93750000000000000        0.0000000000000000     
  0.87500000000000000       0.96875000000000000        0.0000000000000000     
  0.90625000000000000       0.96875000000000000        0.0000000000000000     
  0.93750000000000000       0.96875000000000000        0.0000000000000000     
  0.96875000000000000       0.96875000000000000        0.0000000000000000     
   1.0000000000000000       0.96875000000000000        0.0000000000000000     
  0.87500000000000000        1.0000000000000000        0.0000000000000000     
  0.90625000000000000        1.0000000000000000        0.0000000000000000     
  0.93750000000000000        1.0000000000000000        0.0000000000000000     
  0.96875000000000000        1.0000000000000000        0.0000000000000000     
   1.0000000000000000        1.0000000000000000        0.0000000000000000     
 </DataArray>
 </Points>
 <Cells>
 <DataArray  type="Int32"  Name="connectivity"  format="ascii">
           0           1           6           5
           1           2           7           6
           2           3           8           7
           3           4           9           8
           5           6          11          10
           6           7          12          11
           7           8          13          12
           8           9          14          13
          10          11          16          15
          11          12          17          16
          12          13          18          17
          13          14          19          18
          15          16          21          20
          16          17          22          21
          17          18          23          22
          18          19          24          23
          25          26          31          30
          26          27          32          31
          27          28          33          32
          28          29          34          33
          30          31          36          35
          31          32          37          36
          32          33          38          37
          33          34          39          38
          35          36          41          40
          36          37          42          41
          37          38          43          42
          38          39          44          43
          40          41          46          45
          41          42          47          46
          42          43          48          47
          43          44          49          48
          50          51          56          55
          51          52          57          56
          52          53          58          57
          53          54          59          58
          55          56          61          60
          56          57          62          61
          57          58          63          62
          58          59          64          63
          60          61          66          65
          61          62          67          66
          62          63          68          67
          63          64          69          68
          65          66          71          70
          66          67          72          71
          67          68          73          72
          68          69          74          73
          75          76          81          80
          76          77          82          81
          77          78          83          82
          78          79          84          83
          80          81          86          85
          81          82          87          86
          82          83          88          87
          83          84          89          88
          85          86          91          90
          86          87          92          91
          87          88          93          92
          88          89          94          93
          90          91          96          95
          91          92          97          96
          92          93          98          97
          93          94          99          98
         100         101         106         105
         101         102         107         106
         102         103         108         107
         103         104         109         108
         105         106         111         110
         106         107         112         111
         107         108         113         112
         108         109         114         113
         110         111         116         115
         111         112         117         116
         112         113         118         117
         113         114         119         118
         115         116         121         120
         116         117         122         121
         117         118         123         122
         118         119         124         123
         125         126         131         130
         126         127         132         131
         127         128         133         132
         128         129         134         133
         130         131         136         135
         131         132         137         136
         132         133         138         137
         133         134         139         138
         135         136         141         140
         136         137         142         141
         137         138         143         142
         138         139         144         143
         140         141         146         145
         141         142         147         146
         142         143         148         147
         143         144         149         148
         150         151         156         155
         151         152         157         156
         152         153         158         157
         153         154         159         158
         155         156         161         160
         156         157         162         161
         157         158         163         162
         158         159         164         163
         160         161         166         165
         161         162         167         166
         162         163         168         167
         163         164         169         168
         165         166         171         170
         166         167         172         171
         167         168         173         172
         168         169         174         173
         175         176         181         180
         176         177         182         181
         177         178         183         182
         178         179         184         183
         180         181         186         185
         181         182         187         186
         182         183         188         187
         183         184         189         188
         185         186         191         190
         186         187         192         191
         187         188         193         192
         188         189         194         193
         190         191         196         195
         191         192         197         196
         192         193         198         197
         193         194         199         198
         200         201         206         205
         201         202         207         206
         202         203         208         207
         203         204         209         208
         205         206         211         210
         206         207         212         211
         207         208         213         212
         208         209         214         213
         210         211         216         215
         211         212         217         216
         212         213         218         217
         213         214         219         218
         215         216         221         220
         216         217         222         221
         217         218         223         222
         218         219         224         223
         225         226         231         230
         226         227         232         231
         227         228         233         232
         228         229         234         233
         230         231         236         235
         231         232         237         236
         232         233         238         237
         233         234         239         238
         235         236         241         240
         236         237         242         241
         237         238         243         242
         238         239         244         243
         240         241         246         245
         241         242         247         246
         242         243         248         247
         243         244         249         248
         250         251         256         255
         251         252         257         256
         252         253         258         257
         253         254         259         258
         255         256         261         260
         256         257         262         261
         257         258         263         262
         258         259         264         263
         260         261         266         265
         261         262         267         266
         262         263         268         267
         263         264         269         268
         265         266         271         270
         266         267         272         271
         267         268         273         272
         268         269         274         273
         275         276         281         280
         276         277         282         281
         277         278         283         282
         278         279         284         283
         280         281         286         285
         281         282         287         286
         282         283         288         287
         283         284         289         288
         285         286         291         290
         286         287         292         291
         287         288         293         292
         288         289         294         293
         290         291         296         295
         291         292         297         296
         292         293         298         297
         293         294         299         298
         300         301         306         305
         301         302         307         306
         302         303         308         307
         303         304         309         308
         305         306         311         310
         306         307         312         311
         307         308         313         312
         308         309         314         313
         310         311         316         315
         311         312         317         316
         312         313         318         317
         313         314         319         318
         315         316         321         320
         316         317         322         321
         317         318         323         322
         318         319         324         323
         325         326         331         330
         326         327         332         331
         327         328         333         332
         328         329         334         333
         330         331         336         335
         331         332         337         336
         332         333         338         337
         333         334         339         338
         335         336         341         340
         336         337         342         341
         337         338         343         342
         338         339         344         343
         340         341         346         345
         341         342         347         346
         342         343         348         347
         343         344         349         348
         350         351         356         355
         351         352         357         356
         352         353         358         357
         353         354         359         358
         355         356         361         360
         356         357         362         361
         357         358         363         362
         358         359         364         363
         360         361         366         365
         361         362         367         366
         362         363         368         367
         363         364         369         368
         365         366         371         370
         366         367         372         371
         367         368         373         372
         368         369         374         373
         375         376         381         380
         376         377         382         381
         377         378         383         382
         378         379         384         383
         380         381         386         385
         381         382         387         386
         382         383         388         387
         383         384         389         388
         385         386         391         390
         386         387         392         391
         387         388         393         392
         388         389         394         393
         390         391         396         395
         391         392         397         396
         392         393         398         397
         393         394         399         398
         400         401         406         405
         401         402         407         406
         402         403         408         407
         403         404         409         408
         405         406         411         410
         406         407         412         411
         407         408         413         412
         408         409         414         413
         410         411         416         415
         411         412         417         416
         412         413         418         417
         413         414         419         418
         415         416         421         420
         416         417         422         421
         417         418         423         422
         418         419         424         423
         425         426         431         430
         426         427         432         431
         427         428         433         432
         428         429         434         433
         430         431         436         435
         431         432         437         436
         432         433         438         437
         433         434         439         438
         435         436         441         440
         436         437         442         441
         437         438         443         442
         438         439         444         443
         440         441         446         445
         441         442         447         446
         442         443         448         447
         443         444         449         448
         450         451         456         455
         451         452         457         456
         452         453         458         457
         453         454         459         458
         455         456         461         460
         456         457         462         461
         457         458         463         462
         458         459         464         463
         460         461         466         465
         461         462         467         466
         462         463         468         467
         463         464         469         468
         465         466         471         470
         466         467         472         471
         467         468         473         472
         468         469         474         473
         475         476         481         480
         476         477         482         481
         477         478         483         482
         478         479         484         483
         480         481         486         485
         481         482         487         486
         482         483         488         487
         483         484         489         488
         485         486         491         490
         486         487         492         491
         487         488         493         492
         488         489         494         493
         490         491         496         495
         491         492         497         496
         492         493         498         497
         493         494         499         498
         500         501         506         505
         501         502         507         506
         502         503         508         507
         503         504         509         508
         505         506         511         510
         506         507         512         511
         507         508         513         512
         508         509         514         513
         510         511         516         515
         511         512         517         516
         512         513         518         517
         513         514         519         518
         515         516         521         520
         516         517         522         521
         517         518         523         522
         518         519         524         523
         525         526         531         530
         526         527         532         531
         527         528         533         532
         528         529         534         533
         530         531         536         535
         531         532         537         536
         532         533         538         537
         533         534         539         538
         535         536         541         540
         536         537         542         541
         537         538         543         542
         538         539         544         543
         540         541         546         545
         541         542         547         546
         542         543         548         547
         543         544         549         548
         550         551         556         555
         551         552         557         556
         552         553         558         557
         553         554         559         558
         555         556         561         560
         556         557         562         561
         557         558         563         562
         558         559         564         563
         560         561         566         565
         561         562         567         566
         562         563         568         567
         563         564         569         568
         565         566         571         570
         566         567         572         571
         567         568         573         572
         568         569         574         573
         575         576         581         580
         576         577         582         581
         577         578         583         582
         578         579         584         583
         580         581         586         585
         581         582         587         586
         582         583         588         587
         583         584         589         588
         585         586         591         590
         586         587         592         591
         587         588         593         592
         588         589         594         593
         590         591         596         595
         591         592         597         596
         592         593         598         597
         593         594         599         598
         600         601         606         605
         601         602         607         606
         602         603         608         607
         603         604         609         608
         605         606         611         610
         606         607         612         611
         607         608         613         612
         608         609         614         613
         610         611         616         615
         611         612         617         616
         612         613         618         617
         613         614         619         618
         615         616         621         620
         616         617         622         621
         617         618         623         622
         618         619         624         623
         625         626         631         630
         626         627         632         631
         627         628         633         632
         628         629         634         633
         630         631         636         635
         631         632         637         636
         632         633         638         637
         633         634         639         638
         635         636         641         640
         636         637         642         641
         637         638         643         642
         638         639         644         643
         640         641         646         645
         641         642         647         646
         642         643         648         647
         643         644         649         648
         650         651         656         655
         651         652         657         656
         652         653         658         657
         653         654         659         658
         655         656         661         660
         656         657         662         661
         657         658         663         662
         658         659         664         663
         660         661         666         665
         661         662         667         666
         662         663         668         667
         663         664         669         668
         665         666         671         670
         666         667         672         671
         667         668         673         672
         668         669         674         673
         675         676         681         680
         676         677         682         681
         677         678         683         682
         678         679         684         683
         680         681         686         685
         681         682         687         686
         682         683         688         687
         683         684         689         688
         685         686         691         690
         686         687         692         691
         687         688         693         692
         688         689         694         693
         690         691         696         695
         691         692         697         696
         692         693         698         697
         693         694         699         698
         700         701         706         705
         701         702         707         706
         702         703         708         707
         703         704         709         708
         705         706         711         710
         706         707         712         711
         707         708         713         712
         708         709         714         713
         710         711         716         715
         711         712         717         716
         712         713         718         717
         713         714         719         718
         715         716         721         720
         716         717         722         721
         717         718         723         722
         718         719         724         723
         725         726         731         730
         726         727         732         731
         727         728         733         732
         728         729         734         733
         730         731         736         735
         731         732         737         736
         732         733         738         737
         733         734         739         738
         735         736         741         740
         736         737         742         741
         737         738         743         742
         738         739         744         743
         740         741         746         745
         741         742         747         746
         742         743         748         747
         743         744         749         748
         750         751         756         755
         751         752         757         756
         752         753         758         757
         753         754         759         758
         755         756         761         760
         756         757         762         761
         757         758         763         762
         758         759         764         763
         760         761         766         765
         761         762         767         766
         762         763         768         767
         763         764         769         768
         765         766         771         770
         766         767         772         771
         767         768         773         772
         768         769         774         773
         775         776         781         780
         776         777         782         781
         777         778         783         782
         778         779         784         783
         780         781         786         785
         781         782         787         786
         782         783         788         787
         783         784         789         788
         785         786         791         790
         786         787         792         791
         787         788         793         792
         788         789         794         793
         790         791         796         795
         791         792         797         796
         792         793         798         797
         793         794         799         798
         800         801         806         805
         801         802         807         806
         802         803         808         807
         803         804         809         808
         805         806         811         810
         806         807         812         811
         807         808         813         812
         808         809         814         813
         810         811         816         815
         811         812         817         816
         812         813         818         817
         813         814         819         818
         815         816         821         820
         816         817         822         821
         817         818         823         822
         818         819         824         823
         825         826         831         830
         826         827         832         831
         827         828         833         832
         828         829         834         833
         830         831         836         835
         831         832         837         836
         832         833         838         837
         833         834         839         838
         835         836         841         840
         836         837         842         841
         837         838         843         842
         838         839         844         843
         840         841         846         845
         841         842         847         846
         842         843         848         847
         843         844         849         848
         850         851         856         855
         851         852         857         856
         852         853         858         857
         853         854         859         858
         855         856         861         860
         856         857         862         861
         857         858         863         862
         858         859         864         863
         860         861         866         865
         861         862         867         866
         862         863         868         867
         863         864         869         868
         865         866         871         870
         866         867         872         871
         867         868         873         872
         868         869         874         873
         875         876         881         880
         876         877         882         881
         877         878         883         882
         878         879         884         883
         880         881         886         885
         881         882         887         886
         882         883         888         887
         883         884         889         888
         885         886         891         890
         886         887         892         891
         887         888         893         892
         888         889         894         893
         890         891         896         895
         891         892         897         896
         892         893         898         897
         893         894         899         898
         900         901         906         905
         901         902         907         906
         902         903         908         907
         903         904         909         908
         905         906         911         910
         906         907         912         911
         907         908         913         912
         908         909         914         913
         910         911         916         915
         911         912         917         916
         912         913         918         917
         913         914         919         918
         915         916         921         920
         916         917         922         921
         917         918         923         922
         918         919         924         923
         925         926         931         930
         926         927         932         931
         927         928         933         932
         928         929         934         933
         930         931         936         935
         931         932         937         936
         932         933         938         937
         933         934         939         938
         935         936         941         940
         936         937         942         941
         937         938         943         942
         938         939         944         943
         940         941         946         945
         941         942         947         946
         942         943         948         947
         943         944         949         948
         950         951         956         955
         951         952         957         956
         952         953         958         957
         953         954         959         958
         955         956         961         960
         956         957         962         961
         957         958         963         962
         958         959         964         963
         960         961         966         965
         961         962         967         966
         962         963         968         967
         963         964         969         968
         965         966         971         970
         966         967         972         971
         967         968         973         972
         968         969         974         973
         975         976         981         980
         976         977         982         981
         977         978         983         982
         978         979         984         983
         980         981         986         985
         981         982         987         986
         982         983         988         987
         983         984         989         988
         985         986         991         990
         986         987         992         991
         987         988         993         992
         988         989         994         993
         990         991         996         995
         991         992         997         996
         992         993         998         997
         993         994         999         998
        1000        1001        1006        1005
        1001        1002        1007        1006
        1002        1003        1008        1007
        1003        1004        1009        1008
        1005        1006        1011        1010
        1006        1007        1012        1011
        1007        1008        1013        1012
        1008        1009        1014        1013
        1010        1011        1016        1015
        1011        1012        1017        1016
        1012        1013        1018        1017
        1013        1014        1019        1018
        1015        1016        1021        1020
        1016        1017        1022        1021
        1017        1018        1023        1022
        1018        1019        1024        1023
        1025        1026        1031        1030
        1026        1027        1032        1031
        1027        1028        1033        1032
        1028        1029        1034        1033
        1030        1031        1036        1035
        1031        1032        1037        1036
        1032        1033        1038        1037
        1033        1034        1039        1038
        1035        1036        1041        1040
        1036        1037        1042        1041
        1037        1038        1043        1042
        1038        1039        1044        1043
        1040        1041        1046        1045
        1041        1042        1047        1046
        1042        1043        1048        1047
        1043        1044        1049        1048
        1050        1051        1056        1055
        1051        1052        1057        1056
        1052        1053        1058        1057
        1053        1054        1059        1058
        1055        1056        1061        1060
        1056        1057        1062        1061
        1057        1058        1063        1062
        1058        1059        1064        1063
        1060        1061        1066        1065
        1061        1062        1067        1066
        1062        1063        1068        1067
        1063        1064        1069        1068
        1065        1066        1071        1070
        1066        1067        1072        1071
        1067        1068        1073        1072
        1068        1069        1074        1073
        1075        1076        1081        1080
        1076        1077        1082        1081
        1077        1078        1083        1082
        1078        1079        1084        1083
        1080        1081        1086        1085
        1081        1082        1087        1086
        1082        1083        1088        1087
        1083        1084        1089        1088
        1085        1086        1091        1090
        1086        1087        1092        1091
        1087        1088        1093        1092
        1088        1089        1094        1093
        1090        1091        1096        1095
        1091        1092        1097        1096
        1092        1093        1098        1097
        1093        1094        1099        1098
        1100        1101        1106        1105
        1101        1102        1107        1106
        1102        1103        1108        1107
        1103        1104        1109        1108
        1105        1106        1111        1110
        1106        1107        1112        1111
        1107        1108        1113        1112
        1108        1109        1114        1113
        1110        1111        1116        1115
        1111        1112        1117        1116
        1112        1113        1118        1117
        1113        1114        1119        1118
        1115        1116        1121        1120
        1116        1117        1122        1121
        1117        1118        1123        1122
        1118        1119        1124        1123
        1125        1126        1131        1130
        1126        1127        1132        1131
        1127        1128        1133        1132
        1128        1129        1134        1133
        1130        1131        1136        1135
        1131        1132        1137        1136
        1132        1133        1138        1137
        1133        1134        1139        1138
        1135        1136        1141        1140
        1136        1137        1142        1141
        1137        1138        1143        1142
        1138        1139        1144        1143
        1140        1141        1146        1145
        1141        1142        1147        1146
        1142        1143        1148        1147
        1143        1144        1149        1148
        1150        1151        1156        1155
        1151        1152        1157        1156
        1152        1153        1158        1157
        1153        1154        1159        1158
        1155        1156        1161        1160
        1156        1157        1162        1161
        1157        1158        1163        1162
        1158        1159        1164        1163
        1160        1161        1166        1165
        1161        1162        1167        1166
        1162        1163        1168        1167
        1163        1164        1169        1168
        1165        1166        1171        1170
        1166        1167        1172        1171
        1167        1168        1173        1172
        1168        1169        1174        1173
        1175        1176        1181        1180
        1176        1177        1182        1181
        1177        1178        1183        1182
        1178        1179        1184        1183
        1180        1181        1186        1185
        1181        1182        1187        1186
        1182        1183        1188        1187
        1183        1184        1189        1188
        1185        1186        1191        1190
        1186        1187        1192        1191
        1187        1188        1193        1192
        1188        1189        1194        1193
        1190        1191        1196        1195
        1191        1192        1197        1196
        1192        1193        1198        1197
        1193        1194        1199        1198
        1200        1201        1206        1205
        1201        1202        1207        1206
        1202        1203        1208        1207
        1203        1204        1209        1208
        1205        1206        1211        1210
        1206        1207        1212        1211
        1207        1208        1213        1212
        1208        1209        1214        1213
        1210        1211        1216        1215
        1211        1212        1217        1216
        1212        1213        1218        1217
        1213        1214        1219        1218
        1215        1216        1221        1220
        1216        1217        1222        1221
        1217        1218        1223        1222
        1218        1219        1224        1223
        1225        1226        1231        1230
        1226        1227        1232        1231
        1227        1228        1233        1232
        1228        1229        1234        1233
        1230        1231        1236        1235
        1231        1232        1237        1236
        1232        1233        1238        1237
        1233        1234        1239        1238
        1235        1236        1241        1240
        1236        1237        1242        1241
        1237        1238        1243        1242
        1238        1239        1244        1243
        1240        1241        1246        1245
        1241        1242        1247        1246
        1242        1243        1248        1247
        1243        1244        1249        1248
        1250        1251        1256        1255
        1251        1252        1257        1256
        1252        1253        1258        1257
        1253        1254        1259        1258
        1255        1256        1261        1260
        1256        1257        1262        1261
        1257        1258        1263        1262
        1258        1259        1264        1263
        1260        1261        1266        1265
        1261        1262        1267        1266
        1262        1263        1268        1267
        1263        1264        1269        1268
        1265        1266        1271        1270
        1266        1267        1272        1271
        1267        1268        1273        1272
        1268        1269        1274        1273
        1275        1276        1281        1280
        1276        1277        1282        1281
        1277        1278        1283        1282
        1278        1279        1284        1283
        1280        1281        1286        1285
        1281        1282        1287        1286
        1282        1283        1288        1287
        1283        1284        1289        1288
        1285        1286        1291        1290
        1286        1287        1292        1291
        1287        1288        1293        1292
        1288        1289        1294        1293
        1290        1291        1296        1295
        1291        1292        1297        1296
        1292        1293        1298        1297
        1293        1294        1299        1298
        1300        1301        1306        1305
        1301        1302        1307        1306
        1302        1303        1308        1307
        1303        1304        1309        1308
        1305        1306        1311        1310
        1306        1307        1312        1311
        1307        1308        1313        1312
        1308        1309        1314        1313
        1310        1311        1316        1315
        1311        1312        1317        1316
        1312        1313        1318        1317
        1313        1314        1319        1318
        1315        1316        1321        1320
        1316        1317        1322        1321
        1317        1318        1323        1322
        1318        1319        1324        1323
        1325        1326        1331        1330
        1326        1327        1332        1331
        1327        1328        1333        1332
        1328        1329        1334        1333
        1330        1331        1336        1335
        1331        1332        1337        1336
        1332        1333        1338        1337
        1333        1334        1339        1338
        1335        1336        1341        1340
        1336        1337        1342        1341
        1337        1338        1343        1342
        1338        1339        1344        1343
        1340        1341        1346        1345
        1341        1342        1347        1346
        1342        1343        1348        1347
        1343        1344        1349        1348
        1350        1351        1356        1355
        1351        1352        1357        1356
        1352        1353        1358        1357
        1353        1354        1359        1358
        1355        1356        1361        1360
        1356        1357        1362        1361
        1357        1358        1363        1362
        1358        1359        1364        1363
        1360        1361        1366        1365
        1361        1362        1367        1366
        1362        1363        1368        1367
        1363        1364        1369        1368
        1365        1366        1371        1370
        1366        1367        1372        1371
        1367        1368        1373        1372
        1368        1369        1374        1373
        1375        1376        1381        1380
        1376        1377        1382        1381
        1377        1378        1383        1382
        1378        1379        1384        1383
        1380        1381        1386        1385
        1381        1382        1387        1386
        1382        1383        1388        1387
        1383        1384        1389        1388
        1385        1386        1391        1390
        1386        1387        1392        1391
        1387        1388        1393        1392
        1388        1389        1394        1393
        1390        1391        1396        1395
        1391        1392        1397        1396
        1392        1393        1398        1397
        1393        1394        1399        1398
        1400        1401        1406        1405
        1401        1402        1407        1406
        1402        1403        1408        1407
        1403        1404        1409        1408
        1405        1406        1411        1410
        1406        1407        1412        1411
        1407        1408        1413        1412
        1408        1409        1414        1413
        1410        1411        1416        1415
        1411        1412        1417        1416
        1412        1413        1418        1417
        1413        1414        1419        1418
        1415        1416        1421        1420
        1416        1417        1422        1421
        1417        1418        1423        1422
        1418        1419        1424        1423
        1425        1426        1431        1430
        1426        1427        1432        1431
        1427        1428        1433        1432
        1428        1429        1434        1433
        1430        1431        1436        1435
        1431        1432        1437        1436
        1432        1433        1438        1437
        1433        1434        1439        1438
        1435        1436        1441        1440
        1436        1437        1442        1441
        1437        1438        1443        1442
        1438        1439        1444        1443
        1440        1441        1446        1445
        1441        1442        1447        1446
        1442        1443        1448        1447
        1443        1444        1449        1448
        1450        1451        1456        1455
        1451        1452        1457        1456
        1452        1453        1458        1457
        1453        1454        1459        1458
        1455        1456        1461        1460
        1456        1457        1462        1461
        1457        1458        1463        1462
        1458        1459        1464        1463
        1460        1461        1466        1465
        1461        1462        1467        1466
        1462        1463        1468        1467
        1463        1464        1469        1468
        1465        1466        1471        1470
        1466        1467        1472        1471
        1467        1468        1473        1472
        1468        1469        1474        1473
        1475        1476        1481        1480
        1476        1477        1482        1481
        1477        1478        1483        1482
        1478        1479        1484        1483
        1480        1481        1486        1485
        1481        1482        1487        1486
        1482        1483        1488        1487
        1483        1484        1489        1488
        1485        1486        1491        1490
        1486        1487        1492        1491
        1487        1488        1493        1492
        1488        1489        1494        1493
        1490        1491        1496        1495
        1491        1492        1497        1496
        1492        1493        1498        1497
        1493        1494        1499        1498
        1500        1501        1506        1505
        1501        1502        1507        1506
        1502        1503        1508        1507
        1503        1504        1509        1508
        1505        1506        1511        1510
        1506        1507        1512        1511
        1507        1508        1513        1512
        1508        1509        1514        1513
        1510        1511        1516        1515
        1511        1512        1517        1516
        1512        1513        1518        1517
        1513        1514        1519        1518
        1515        1516        1521        1520
        1516        1517        1522        1521
        1517        1518        1523        1522
        1518        1519        1524        1523
        1525        1526        1531        1530
        1526        1527        1532        1531
        1527        1528        1533        1532
        1528        1529        1534        1533
        1530        1531        1536        1535
        1531        1532        1537        1536
        1532        1533        1538        1537
        1533        1534        1539        1538
        1535        1536        1541        1540
        1536        1537        1542        1541
        1537        1538        1543        1542
        1538        1539        1544        1543
        1540        1541        1546        1545
        1541        1542        1547        1546
        1542        1543        1548        1547
        1543        1544        1549        1548
        1550        1551        1556        1555
        1551        1552        1557        1556
        1552        1553        1558        1557
        1553        1554        1559        1558
        1555        1556        1561        1560
        1556        1557        1562        1561
        1557        1558        1563        1562
        1558        1559        1564        1563
        1560        1561        1566        1565
        1561        1562        1567        1566
        1562        1563        1568        1567
        1563        1564        1569        1568
        1565        1566        1571        1570
        1566        1567        1572        1571
        1567        1568        1573        1572
        1568        1569        1574        1573
        1575        1576        1581        1580
        1576        1577        1582        1581
        1577        1578        1583        1582
        1578        1579        1584        1583
        1580        1581        1586        1585
        1581        1582        1587        1586
        1582        1583        1588        1587
        1583        1584        1589        1588
        1585        1586        1591        1590
        1586        1587        1592        1591
        1587        1588        1593        1592
        1588        1589        1594        1593
        1590        1591        1596        1595
        1591        1592        1597        1596
        1592        1593        1598        1597
        1593        1594        1599        1598
 </DataArray>
 <DataArray  type="Int32"  Name="offsets"  format="ascii"> 
           4
           8
          12
          16
          20
          24
          28
          32
          36
          40
          44
          48
          52
          56
          60
          64
          68
          72
          76
          80
          84
          88
          92
          96
         100
         104
         108
         112
         116
         120
         124
         128
         132
         136
         140
         144
         148
         152
         156
         160
         164
         168
         172
         176
         180
         184
         188
         192
         196
         200
         204
         208
         212
         216
         220
         224
         228
         232
         236
         240
         244
         248
         252
         256
         260
         264
         268
         272
         276
         280
         284
         288
         292
         296
         300
         304
         308
         312
         316
         320
         324
         328
         332
         336
         340
         344
         348
         352
         356
         360
         364
         368
         372
         376
         380
         384
         388
         392
         396
         400
         404
         408
         412
         416
         420
         424
         428
         432
         436
         440
         444
         448
         452
         456
         460
         464
         468
         472
         476
         480
         484
         488
         492
         496
         500
         504
         508
         512
         516
         520
         524
         528
         532
         536
         540
         544
         548
         552
         556
         560
         564
         568
         572
         576
         580
         584
         588
         592
         596
         600
         604
         608
         612
         616
         620
         624
         628
         632
         636
         640
         644
         648
         652
         656
         660
         664
         668
         672
         676
         680
         684
         688
         692
         696
         700
         704
         708
         712
         716
         720
         724
         728
         732
         736
         740
         744
         748
         752
         756
         760
         764
         768
         772
         776
         780
         784
         788
         792
         796
         800
         804
         808
         812
         816
         820
         824
         828
         832
         836
         840
         844
         848
         852
         856
         860
         864
         868
         872
         876
         880
         884
         888
         892
         896
         900
         904
         908
         912
         916
         920
         924
         928
         932
         936
         940
         944
         948
         952
         956
         960
         964
         968
         972
         976
         980
         984
         988
         992
         996
        1000
        1004
        1008
        1012
        1016
        1020
        1024
        1028
        1032
        1036
        1040
        1044
        1048
        1052
        1056
        1060
        1064
        1068
        1072
        1076
        1080
        1084
        1088
        1092
        1096
        1100
        1104
        1108
        1112
        1116
        1120
        1124
        1128
        1132
        1136
        1140
        1144
        1148
        1152
        1156
        1160
        1164
        1168
        1172
        1176
        1180
        1184
        1188
        1192
        1196
        1200
        1204
        1208
        1212
        1216
        1220
        1224
        1228
        1232
        1236
        1240
        1244
        1248
        1252
        1256
        1260
        1264
        1268
        1272
        1276
        1280
        1284
        1288
        1292
        1296
        1300
        1304
        1308
        1312
        1316
        1320
        1324
        1328
        1332
        1336
        1340
        1344
        1348
        1352
        1356
        1360
        1364
        1368
        1372
        1376
        1380
        1384
        1388
        1392
        1396
        1400
        1404
        1408
        1412
        1416
        1420
        1424
        1428
        1432
        1436
        1440
        1444
        1448
        1452
        1456
        1460
        1464
        1468
        1472
        1476
        1480
        1484
        1488
        1492
        1496
        1500
        1504
        1508
        1512
        1516
        1520
        1524
        1528
        1532
        1536
        1540
        1544
        1548
        1552
        1556
        1560
        1564
        1568
        1572
        1576
        1580
        1584
        1588
        1592
        1596
        1600
        1604
        1608
        1612
        1616
        1620
        1624
        1628
        1632
        1636
        1640
        1644
        1648
        1652
        1656
        1660
        1664
        1668
        1672
        1676
        1680
        1684
        1688
        1692
        1696
        1700
        1704
        1708
        1712
        1716
        1720
        1724
        1728
        1732
        1736
        1740
        1744
        1748
        1752
        1756
        1760
        1764
        1768
        1772
        1776
        1780
        1784
        1788
        1792
        1796
        1800
        1804
        1808
        1812
        1816
        1820
        1824
        1828
        1832
        1836
        1840
        1844
        1848
        1852
        1856
        1860
        1864
        1868
        1872
        1876
        1880
        1884
        1888
        1892
        1896
        1900
        1904
        1908
        1912
        1916
        1920
        1924
        1928
        1932
        1936
        1940
        1944
        1948
        1952
        1956
        1960
        1964
        1968
        1972
        1976
        1980
        1984
        1988
        1992
        1996
        2000
        2004
        2008
        2012
        2016
        2020
        2024
        2028
        2032
        2036
        2040
        2044
        2048
        2052
        2056
        2060
        2064
        2068
        2072
        2076
        2080
        2084
        2088
        2092
        2096
        2100
        2104
        2108
        2112
        2116
        2120
        2124
        2128
        2132
        2136
        2140
        2144
        2148
        2152
        2156
        2160
        2164
        2168
        2172
        2176
        2180
        2184
        2188
        2192
        2196
        2200
        2204
        2208
        2212
        2216
        2220
        2224
        2228
        2232
        2236
        2240
        2244
        2248
        2252
        2256
        2260
        2264
        2268
        2272
        2276
        2280
        2284
        2288
        2292
        2296
        2300
        2304
        2308
        2312
        2316
        2320
        2324
        2328
        2332
        2336
        2340
        2344
        2348
        2352
        2356
        2360
        2364
        2368
        2372
        2376
        2380
        2384
        2388
        2392
        2396
        2400
        2404
        2408
        2412
        2416
        2420
        2424
        2428
        2432
        2436
        2440
        2444
        2448
        2452
        2456
        2460
        2464
        2468
        2472
        2476
        2480
        2484
        2488
        2492
        2496
        2500
        2504
        2508
        2512
        2516
        2520
        2524
        2528
        2532
        2536
        2540
        2544
        2548
        2552
        2556
        2560
        2564
        2568
        2572
        2576
        2580
        2584
        2588
        2592
        2596
        2600
        2604
        2608
        2612
        2616
        2620
        2624
        2628
        2632
        2636
        2640
        2644
        2648
        2652
        2656
        2660
        2664
        2668
        2672
        2676
        2680
        2684
        2688
        2692
        2696
        2700
        2704
        2708
        2712
        2716
        2720
        2724
        2728
        2732
        2736
        2740
        2744
        2748
        2752
        2756
        2760
        2764
        2768
        2772
        2776
        2780
        2784
        2788
        2792
        2796
        2800
        2804
        2808
        2812
        2816
        2820
        2824
        2828
        2832
        2836
        2840
        2844
        2848
        2852
        2856
        2860
        2864
        2868
        2872
        2876
        2880
        2884
        2888
        2892
        2896
        2900
        2904
        2908
        2912
        2916
        2920
        2924
        2928
        2932
        2936
        2940
        2944
        2948
        2952
        2956
        2960
        2964
        2968
        2972
        2976
        2980
        2984
        2988
        2992
        2996
        3000
        3004
        3008
        3012
        3016
        3020
        3024
        3028
        3032
        3036
        3040
        3044
        3048
        3052
        3056
        3060
        3064
        3068
        3072
        3076
        3080
        3084
        3088
        3092
        3096
        3100
        3104
        3108
        3112
        3116
        3120
        3124
        3128
        3132
        3136
        3140
        3144
        3148
        3152
        3156
        3160
        3164
        3168
        3172
        3176
        3180
        3184
        3188
        3192
        3196
        3200
        3204
        3208
        3212
        3216
        3220
        3224
        3228
        3232
        3236
        3240
        3244
        3248
        3252
        3256
        3260
        3264
        3268
        3272
        3276
        3280
        3284
        3288
        3292
        3296
        3300
        3304
        3308
        3312
        3316
        3320
        3324
        3328
        3332
        3336
        3340
        3344
        3348
        3352
        3356
        3360
        3364
        3368
        3372
        3376
        3380
        3384
        3388
        3392
        3396
        3400
        3404
        3408
        3412
        3416
        3420
        3424
        3428
        3432
        3436
        3440
        3444
        3448
        3452
        3456
        3460
        3464
        3468
        3472
        3476
        3480
        3484
        3488
        3492
        3496
        3500
        3504
        3508
        3512
        3516
        3520
        3524
        3528
        3532
        3536
        3540
        3544
        3548
        3552
        3556
        3560
        3564
        3568
        3572
        3576
        3580
        3584
        3588
        3592
        3596
        3600
        3604
        3608
        3612
        3616
        3620
        3624
        3628
        3632
        3636
        3640
        3644
        3648
        3652
        3656
        3660
        3664
        3668
        3672
        3676
        3680
        3684
        3688
        3692
        3696
        3700
        3704
        3708
        3712
        3716
        3720
        3724
        3728
        3732
        3736
        3740
        3744
        3748
        3752
        3756
        3760
        3764
        3768
        3772
        3776
        3780
        3784
        3788
        3792
        3796
        3800
        3804
        3808
        3812
        3816
        3820
        3824
        3828
        3832
        3836
        3840
        3844
        3848
        3852
        3856
        3860
        3864
        3868
        3872
        3876
        3880
        3884
        3888
        3892
        3896
        3900
        3904
        3908
        3912
        3916
        3920
        3924
        3928
        3932
        3936
        3940
        3944
        3948
        3952
        3956
        3960
        3964
        3968
        3972
        3976
        3980
        3984
        3988
        3992
        3996
        4000
        4004
        4008
        4012
        4016
        4020
        4024
        4028
        4032
        4036
        4040
        4044
        4048
        4052
        4056
        4060
        4064
        4068
        4072
        4076
        4080
        4084
        4088
        4092
        4096
 </DataArray>
 <DataArray  type="UInt8"  Name="types"  format="ascii">
 9
 9
 9
 9
 9
 9
 9
 9
 9
 9
 9
 9
 9
 9
 9
 9
 9
 9
 9
 9
 9
 9
 9
 9
 9
 9
 9
 9
 9
 9
 9
 9
 9
 9
 9
 9
 9
 9
 9
 9
 9
 9
 9
 9
 9
 9
 9
 9
 9
 9
 9
 9
 9
 9
 9
 9
 9
 9
 9
 9
 9
 9
 9
 9
 9
 9
 9
 9
 9
 9
 9
 9
 9
 9
 9
 9
 9
 9
 9
 9
 9
 9
 9
 9
 9
 9
 9
 9
 9
 9
 9
 9
 9
 9
 9
 9
 9
 9
 9
 9
 9
 9
 9
 9
 9
 9
 9
 9
 9
 9
 9
 9
 9
 9
 9
 9
 9
 9
 9
 9
 9
 9
 9
 9
 9
 9
 9
 9
 9
 9
 9
 9
 9
 9
 9
 9
 9
 9
 9
 9
 9
 9
 9
 9
 9
 9
 9
 9
 9
 9
 9
 9
 9
 9
 9
 9
 9
 9
 9
 9
 9
 9
 9
 9
 9
 9
 9
 9
 9
 9
 9
 9
 9
 9
 9
 9
 9
 9
 9
 9
 9
 9
 9
 9
 9
 9
 9
 9
 9
 9
 9
 9
 9
 9
 9
 9
 9
 9
 9
 9
 9
 9
 9
 9
 9
 9
 9
 9
 9
 9
 9
 9
 9
 9
 9
 9
 9
 9
 9
 9
 9
 9
 9
 9
 9
 9
 9
 9
 9
 9
 9
 9
 9
 9
 9
 9
 9
 9
 9
 9
 9
 9
 9
 9
 9
 9
 9
 9
 9
 9
 9
 9
 9
 9
 9
 9
 9
 9
 9
 9
 9
 9
 9
 9
 9
 9
 9
 9
 9
 9
 9
 9
 9
 9
 9
 9
 9
 9
 9
 9
 9
 9
 9
 9
 9
 9
 9
 9
 9
 9
 9
 9
 9
 9
 9
 9
 9
 9
 9
 9
 9
 9
 9
 9
 9
 9
 9
 9
 9
 9
 9
 9
 9
 9
 9
 9
 9
 9
 9
 9
 9
 9
 9
 9
 9
 9
 9
 9
 9
 9
 9
 9
 9
 9
 9
 9
 9
 9
 9
 9
 9
 9
 9
 9
 9
 9
 9
 9
 9
 9
 9
 9
 9
 9
 9
 9
 9
 9
 9
 9
 9
 9
 9
 9
 9
 9
 9
 9
 9
 9
 9
 9
 9
 9
 9
 9
 9
 9
 9
 9
 9
 9
 9
 9
 9
 9
 9
 9
 9
 9
 9
 9
 9
 9
 9
 9
 9
 9
 9
 9
 9
 9
 9
 9
 9
 9
 9
 9
 9
 9
 9
 9
 9
 9
 9
 9
 9
 9
 9
 9
 9
 9
 9
 9
 9
 9
 9
 9
 9
 9
 9
 9
 9
 9
 9
 9
 9
 9
 9
 9
 9
 9
 9
 9
 9
 9
 9
 9
 9
 9
 9
 9
 9
 9
 9
 9
 9
 9
 9
 9
 9
 9
 9
 9
 9
 9
 9
 9
 9
 9
 9
 9
 9
 9
 9
 9
 9
 9
 9
 9
 9
 9
 9
 9
 9
 9
 9
 9
 9
 9
 9
 9
 9
 9
 9
 9
 9
 9
 9
 9
 9
 9
 9
 9
 9
 9
 9
 9
 9
 9
 9
 9
 9
 9
 9
 9
 9
 9
 9
 9
 9
 9
 9
 9
 9
 9
 9
 9
 9
 9
 9
 9
 9
 9
 9
 9
 9
 9
 9
 9
 9
 9
 9
 9
 9
 9
 9
 9
 9
 9
 9
 9
 9
 9
 9
 9
 9
 9
 9
 9
 9
 9
 9
 9
 9
 9
 9
 9
 9
 9
 9
 9
 9
 9
 9
 9
 9
 9
 9
 9
 9
 9
 9
 9
 9
 9
 9
 9
 9
 9
 9
 9
 9
 9
 9
 9
 9
 9
 9
 9
 9
 9
 9
 9
 9
 9
 9
 9
 9
 9
 9
 9
 9
 9
 9
 9
 9
 9
 9
 9
 9
 9
 9
 9
 9
 9
 9
 9
 9
 9
 9
 9
 9
 9
 9
 9
 9
 9
 9
 9
 9
 9
 9
 9
 9
 9
 9
 9
 9
 9
 9
 9
 9
 9
 9
 9
 9
 9
 9
 9
 9
 9
 9
 9
 9
 9
 9
 9
 9
 9
 9
 9
 9
 9
 9
 9
 9
 9
 9
 9
 9
 9
 9
 9
 9
 9
 9
 9
 9
 9
 9
 9
 9
 9
 9
 9
 9
 9
 9
 9
 9
 9
 9
 9
 9
 9
 9
 9
 9
 9
 9
 9
 9
 9
 9
 9
 9
 9
 9
 9
 9
 9
 9
 9
 9
 9
 9
 9
 9
 9
 9
 9
 9
 9
 9
 9
 9
 9
 9
 9
 9
 9
 9
 9
 9
 9
 9
 9
 9
 9
 9
 9
 9
 9
 9
 9
 9
 9
 9
 9
 9
 9
 9
 9
 9
 9
 9
 9
 9
 9
 9
 9
 9
 9
 9
 9
 9
 9
 9
 9
 9
 9
 9
 9
 9
 9
 9
 9
 9
 9
 9
 9
 9
 9
 9
 9
 9
 9
 9
 9
 9
 9
 9
 9
 9
 9
 9
 9
 9
 9
 9
 9
 9
 9
 9
 9
 9
 9
 9
 9
 9
 9
 9
 9
 9
 9
 9
 9
 9
 9
 9
 9
 9
 9
 9
 9
 9
 9
 9
 9
 9
 9
 9
 9
 9
 9
 9
 9
 9
 9
 9
 9
 9
 9
 9
 9
 9
 9
 9
 9
 9
 9
 9
 9
 9
 9
 9
 9
 9
 9
 9
 9
 9
 9
 9
 9
 9
 9
 9
 9
 9
 9
 9
 9
 9
 9
 9
 9
 9
 9
 9
 9
 9
 9
 9
 9
 9
 9
 9
 9
 9
 9
 9
 9
 9
 9
 9
 9
 9
 9
 9
 9
 9
 9
 9
 9
 9
 9
 9
 9
 9
 9
 9
 9
 9
 9
 9
 9
 9
 9
 9
 9
 9
 9
 9
 9
 9
 9
 9
 9
 9
 9
 9
 9
 9
 9
 9
 9
 9
 9
 9
 9
 9
 9
 9
 9
 9
 9
 9
 9
 9
 9
 9
 9
 9
 9
 9
 9
 9
 9
 9
 9
 9
 9
 9
 9
 9
 9
 9
 9
 9
 9
 9
 9
 9
 9
 9
 9
 9
 9
 9
 9
 9
 9
 9
 9
 9
 9
 9
 9
 9
 9
 9
 9
 9
 9
 9
 9
 9
 9
 9
 9
 9
 9
 9
 9
 9
 9
 9
 9
 9
 9
 9
 9
 </DataArray>
 </Cells> 
 <PointData>
 <DataArray  type="Float64" Name="disp" NumberOfComponents="3" format="ascii">
   0.0000000000000000        0.0000000000000000        0.0000000000000000     
   6.0960283744504809E-003   3.7905625616814873E-003   0.0000000000000000     
   1.1666081272934128E-002   7.3241218061433321E-003   0.0000000000000000     
   1.6710158695450939E-002   1.0600677733385532E-002   0.0000000000000000     
   2.1228260642000917E-002   1.3620230343408094E-002   0.0000000000000000     
   0.0000000000000000        0.0000000000000000        0.0000000000000000     
   4.8911537234458558E-003   3.0222878188206383E-003   0.0000000000000000     
   9.5736049309321138E-003   6.0608352396858967E-003   0.0000000000000000     
   1.4047353622458776E-002   9.1156422625957734E-003   0.0000000000000000     
   1.8312399798025843E-002   1.2186708887550270E-002   0.0000000000000000     
   0.0000000000000000        0.0000000000000000        0.0000000000000000     
   3.9535301032088748E-003   2.4252681853103777E-003   0.0000000000000000     
   7.9105310066860599E-003   5.0632083622128773E-003   0.0000000000000000     
   1.1871002710431556E-002   7.9138205307074990E-003   0.0000000000000000     
   1.5834945214445360E-002   1.0977104690794243E-002   0.0000000000000000     
   0.0000000000000000        0.0000000000000000        0.0000000000000000     
   3.2831575137395410E-003   1.9995036611507051E-003   0.0000000000000000     
   6.6768595001959674E-003   4.3312411737242758E-003   0.0000000000000000     
   1.0181105959369278E-002   6.9952125377207115E-003   0.0000000000000000     
   1.3795896891259471E-002   9.9914177531400146E-003   0.0000000000000000     
   0.0000000000000000        0.0000000000000000        0.0000000000000000     
   2.8800359550378522E-003   1.7449942463416193E-003   0.0000000000000000     
   5.8725904114618321E-003   3.8649336742200896E-003   0.0000000000000000     
   8.9776633692719397E-003   6.3598182836354109E-003   0.0000000000000000     
   1.2195254828468177E-002   9.2296480745875809E-003   0.0000000000000000     
   2.1228260642000917E-002   1.3620230343408094E-002   0.0000000000000000     
   2.5433260594201978E-002   1.6613418793939582E-002   0.0000000000000000     
   2.9538032033672043E-002   1.9810882242708574E-002   0.0000000000000000     
   3.3542574960411117E-002   2.3212620689715066E-002   0.0000000000000000     
   3.7446889374419187E-002   2.6818634134959059E-002   0.0000000000000000     
   1.8312399798025843E-002   1.2186708887550270E-002   0.0000000000000000     
   2.2406947641279221E-002   1.5342420037069860E-002   0.0000000000000000     
   2.6369201335864820E-002   1.8651160633675019E-002   0.0000000000000000     
   3.0199160881782643E-002   2.2112930677365750E-002   0.0000000000000000     
   3.3896826279032677E-002   2.5727730168142053E-002   0.0000000000000000     
   1.5834945214445360E-002   1.0977104690794243E-002   0.0000000000000000     
   1.9730571068673500E-002   1.4211915481849215E-002   0.0000000000000000     
   2.3486092823061987E-002   1.7577107543248514E-002   0.0000000000000000     
   2.7101510477610832E-002   2.1072680874992148E-002   0.0000000000000000     
   3.0576824032320024E-002   2.4698635477080108E-002   0.0000000000000000     
   1.3795896891259471E-002   9.9914177531400146E-003   0.0000000000000000     
   1.7404130876384809E-002   1.3221905128277643E-002   0.0000000000000000     
   2.0888706495263545E-002   1.6588722971429052E-002   0.0000000000000000     
   2.4249623747895681E-002   2.0091871282594247E-002   0.0000000000000000     
   2.7486882634281219E-002   2.3731350061773231E-002   0.0000000000000000     
   1.2195254828468177E-002   9.2296480745875809E-003   0.0000000000000000     
   1.5427627064413158E-002   1.2372388976355146E-002   0.0000000000000000     
   1.8577042352469500E-002   1.5686006918216637E-002   0.0000000000000000     
   2.1643500692637204E-002   1.9170501900172065E-002   0.0000000000000000     
   2.4627002084916274E-002   2.2825873922221417E-002   0.0000000000000000     
   3.7446889374419187E-002   2.6818634134959059E-002   0.0000000000000000     
   4.1254970523450105E-002   3.0624265139982815E-002   0.0000000000000000     
   4.4970813655257708E-002   3.4624856266328587E-002   0.0000000000000000     
   4.8594418769842010E-002   3.8820407513996388E-002   0.0000000000000000     
   5.2125785867202991E-002   4.3210918882986213E-002   0.0000000000000000     
   3.3896826279032677E-002   2.5727730168142053E-002   0.0000000000000000     
   3.7485168905723142E-002   2.9524422406644282E-002   0.0000000000000000     
   4.0987160139962238E-002   3.3531870693512794E-002   0.0000000000000000     
   4.4402799981749959E-002   3.7750075028747589E-002   0.0000000000000000     
   4.7732088431086304E-002   4.2179035412348673E-002   0.0000000000000000     
   3.0576824032320024E-002   2.4698635477080108E-002   0.0000000000000000     
   3.3941387217738483E-002   2.8499551224995125E-002   0.0000000000000000     
   3.7224553764415122E-002   3.2520007994219932E-002   0.0000000000000000     
   4.0426323672349926E-002   3.6760005784754531E-002   0.0000000000000000     
   4.3546696941542923E-002   4.1219544596598899E-002   0.0000000000000000     
   2.7486882634281219E-002   2.3731350061773231E-002   0.0000000000000000     
   3.0623625459496127E-002   2.7549651595035366E-002   0.0000000000000000     
   3.3682994528616360E-002   3.1589268168450028E-002   0.0000000000000000     
   3.6664989841641925E-002   3.5850199782017214E-002   0.0000000000000000     
   3.9569611398572811E-002   4.0332446435736913E-002   0.0000000000000000     
   2.4627002084916274E-002   2.2825873922221417E-002   0.0000000000000000     
   2.7531883630996071E-002   2.6674723516764982E-002   0.0000000000000000     
   3.0362482432565958E-002   3.0739651216203055E-002   0.0000000000000000     
   3.3118798489625942E-002   3.5020657020535619E-002   0.0000000000000000     
   3.5800831802176011E-002   3.9517740929762693E-002   0.0000000000000000     
   5.2125785867202991E-002   4.3210918882986213E-002   0.0000000000000000     
   5.5560726207171757E-002   4.7800228941726322E-002   0.0000000000000000     
   5.8895051049579421E-002   5.2592176258644999E-002   0.0000000000000000     
   6.2128760394425962E-002   5.7586760833742243E-002   0.0000000000000000     
   6.5261854241711395E-002   6.2783982667018054E-002   0.0000000000000000     
   4.7732088431086304E-002   4.2179035412348673E-002   0.0000000000000000     
   5.0970861940162884E-002   4.6811209858538996E-002   0.0000000000000000     
   5.4114956961171252E-002   5.1639056381541530E-002   0.0000000000000000     
   5.7164373494111437E-002   5.6662574981356267E-002   0.0000000000000000     
   6.0119111538983416E-002   6.1881765657983215E-002   0.0000000000000000     
   4.3546696941542923E-002   4.1219544596598899E-002   0.0000000000000000     
   4.6582264528917332E-002   4.5885002065696318E-002   0.0000000000000000     
   4.9529617391396420E-002   5.0742755827990024E-002   0.0000000000000000     
   5.2388755528980202E-002   5.5792805883480005E-002   0.0000000000000000     
   5.5159678941668629E-002   6.1035152232166281E-002   0.0000000000000000     
   3.9569611398572811E-002   4.0332446435736913E-002   0.0000000000000000     
   4.2394933973435127E-002   4.5021605563198286E-002   0.0000000000000000     
   4.5139032340254931E-002   4.9903274597990474E-002   0.0000000000000000     
   4.7801906499032230E-002   5.4977453540113463E-002   0.0000000000000000     
   5.0383556449767025E-002   6.0244142389567261E-002   0.0000000000000000     
   3.5800831802176011E-002   3.9517740929762693E-002   0.0000000000000000     
   3.8408870273716256E-002   4.4221020351044887E-002   0.0000000000000000     
   4.0943201807746771E-002   4.9120612691542873E-002   0.0000000000000000     
   4.3403826404267550E-002   5.4216517951256628E-002   0.0000000000000000     
   4.5790744063278585E-002   5.9508736130186160E-002   0.0000000000000000     
   6.5261854241711395E-002   6.2783982667018054E-002   0.0000000000000000     
   6.8300544520665543E-002   6.8172893506183330E-002   0.0000000000000000     
   7.1251043160518251E-002   7.3742545098948953E-002   0.0000000000000000     
   7.4113350161269506E-002   7.9492937445314937E-002   0.0000000000000000     
   7.6887465522919321E-002   8.5424070545281283E-002   0.0000000000000000     
   6.0119111538983416E-002   6.1881765657983215E-002   0.0000000000000000     
   6.2983656927870488E-002   6.7290736041996452E-002   0.0000000000000000     
   6.5762495492855899E-002   7.2883593763970078E-002   0.0000000000000000     
   6.8455627233939650E-002   7.8660338823904094E-002   0.0000000000000000     
   7.1063052151121756E-002   8.4620971221798499E-002   0.0000000000000000     
   5.5159678941668629E-002   6.1035152232166281E-002   0.0000000000000000     
   5.7845276359509742E-002   6.6466323547749007E-002   0.0000000000000000     
   6.0448436512551537E-002   7.2082848503928321E-002   0.0000000000000000     
   6.2969159400793992E-002   7.7884727100704237E-002   0.0000000000000000     
   6.5407445024237093E-002   8.3871959338076743E-002   0.0000000000000000     
   5.0383556449767025E-002   6.0244142389567261E-002   0.0000000000000000     
   5.2885402815583328E-002   6.5699656023440980E-002   0.0000000000000000     
   5.5308866219605138E-002   7.1340309318823680E-002   0.0000000000000000     
   5.7653946661832489E-002   7.7166102275715354E-002   0.0000000000000000     
   5.9920644142265354E-002   8.3177034894116028E-002   0.0000000000000000     
   4.5790744063278585E-002   5.9508736130186160E-002   0.0000000000000000     
   4.8104036296091210E-002   6.4990733469072345E-002   0.0000000000000000     
   5.0343784614016743E-002   7.0655976208656116E-002   0.0000000000000000     
   5.2509989017055177E-002   7.6504464348937443E-002   0.0000000000000000     
   5.4602649505206526E-002   8.2536197889916341E-002   0.0000000000000000     
   7.6887465522919321E-002   8.5424070545281283E-002   0.0000000000000000     
   7.9566358033963516E-002   9.1523456543596490E-002   0.0000000000000000     
   8.2142996482897940E-002   9.7778607585009059E-002   0.0000000000000000     
   8.4617380869722550E-002  0.10418952366951897        0.0000000000000000     
   8.6989511194437402E-002  0.11075620479712625        0.0000000000000000     
   7.1063052151121756E-002   8.4620971221798499E-002   0.0000000000000000     
   7.3580128950006207E-002   9.0750782928627857E-002   0.0000000000000000     
   7.6002216336197026E-002   9.7035065915366758E-002   0.0000000000000000     
   7.8329314309694240E-002  0.10347382018201517        0.0000000000000000     
   8.0561422870497806E-002  0.11006704572857312        0.0000000000000000     
   6.5407445024237093E-002   8.3871959338076743E-002   0.0000000000000000     
   6.7760494066197496E-002   9.0028910092928877E-002   0.0000000000000000     
   7.0025507209991830E-002   9.6339944242143649E-002   0.0000000000000000     
   7.2202484455620081E-002  0.10280506178572106        0.0000000000000000     
   7.4291425803082248E-002  0.10942426272366111        0.0000000000000000     
   5.9920644142265354E-002   8.3177034894116028E-002   0.0000000000000000     
   6.2107453382537404E-002   8.9357838036499534E-002   0.0000000000000000     
   6.4212869104282325E-002   9.5693242565339759E-002   0.0000000000000000     
   6.6236891307500115E-002  0.10218324848063665        0.0000000000000000     
   6.8179519992190768E-002  0.10882785578239024        0.0000000000000000     
   5.4602649505206526E-002   8.2536197889916341E-002   0.0000000000000000     
   5.6621006899025911E-002   8.8737566759339845E-002   0.0000000000000000     
   5.8564302019068509E-002   9.5094960884955018E-002   0.0000000000000000     
   6.0432534865334307E-002  0.10160838026676190        0.0000000000000000     
   6.2225705437823312E-002  0.10827782490476047        0.0000000000000000     
   8.6989511194437402E-002  0.11075620479712625        0.0000000000000000     
   8.9262488538980667E-002  0.11746922694029582        0.0000000000000000     
   9.1439413985290555E-002  0.12431916607149264        0.0000000000000000     
   9.3520287533367039E-002  0.13130602219071671        0.0000000000000000     
   9.5505109183210146E-002  0.13842979529796801        0.0000000000000000     
   8.0561422870497806E-002  0.11006704572857312        0.0000000000000000     
   8.2703016493982096E-002  0.11680573157156413        0.0000000000000000     
   8.4758569655521449E-002  0.12368086672751172        0.0000000000000000     
   8.6728082355115851E-002  0.13069245119641593        0.0000000000000000     
   8.8611554592765290E-002  0.13784048497827667        0.0000000000000000     
   7.4291425803082248E-002  0.10942426272366111        0.0000000000000000     
   7.6297396456295671E-002  0.11618840905522299        0.0000000000000000     
   7.8225461619177650E-002  0.12308836277966585        0.0000000000000000     
   8.0075621291728169E-002  0.13012412389698969        0.0000000000000000     
   8.1847875473947257E-002  0.13729569240719453        0.0000000000000000     
   6.8179519992190768E-002  0.10882785578239024        0.0000000000000000     
   7.0045628425921408E-002  0.11561725939127239        0.0000000000000000     
   7.1840089876259158E-002  0.12254165422795503        0.0000000000000000     
   7.3562904343204033E-002  0.12960104029243807        0.0000000000000000     
   7.5214071826756018E-002  0.13679541758472161        0.0000000000000000     
   6.2225705437823312E-002  0.10827782490476047        0.0000000000000000     
   6.3947712402859264E-002  0.11509228257971234        0.0000000000000000     
   6.5602454426765960E-002  0.12204074107237921        0.0000000000000000     
   6.7189931509543402E-002  0.12912320038276107        0.0000000000000000     
   6.8710143651191546E-002  0.13633966051085786        0.0000000000000000     
   9.5505109183210146E-002  0.13842979529796801        0.0000000000000000     
   9.7366453803446135E-002  0.14566980012166530        0.0000000000000000     
   9.9076896262701220E-002  0.15300535139022742        0.0000000000000000     
  0.10063643656097546       0.16043644910365426        0.0000000000000000     
  0.10204507469826880       0.16796309326194589        0.0000000000000000     
   8.8611554592765290E-002  0.13784048497827667        0.0000000000000000     
   9.0396348695241602E-002  0.14510761594503685        0.0000000000000000     
   9.2069826989316539E-002  0.15247649196863924        0.0000000000000000     
   9.3631989474990088E-002  0.15994711304908391        0.0000000000000000     
   9.5082836152262262E-002  0.16751947918637078        0.0000000000000000     
   8.1847875473947257E-002  0.13729569240719453        0.0000000000000000     
   8.3538965960093761E-002  0.14458832787114329        0.0000000000000000     
   8.5145634544426571E-002  0.15198728984969886        0.0000000000000000     
   8.6667881226945645E-002  0.15949257834286129        0.0000000000000000     
   8.8105706007651011E-002  0.16710419335063059        0.0000000000000000     
   7.5214071826756018E-002  0.13679541758472161        0.0000000000000000     
   7.6794305598002599E-002  0.14411193589998461        0.0000000000000000     
   7.8304318928031302E-002  0.15153774503340628        0.0000000000000000     
   7.9744111816842114E-002  0.15907284498498644        0.0000000000000000     
   8.1113684264435049E-002  0.16671723575472522        0.0000000000000000     
   6.8710143651191546E-002  0.13633966051085786        0.0000000000000000     
   7.0162367608968129E-002  0.14367844003156094        0.0000000000000000     
   7.1545880140130788E-002  0.15112785751976140        0.0000000000000000     
   7.2860681244679537E-002  0.15868791297545931        0.0000000000000000     
   7.4106770922614376E-002  0.16635860639865471        0.0000000000000000     
   0.0000000000000000        0.0000000000000000        0.0000000000000000     
   2.8800359550378522E-003   1.7449942463416193E-003   0.0000000000000000     
   5.8725904114618321E-003   3.8649336742200896E-003   0.0000000000000000     
   8.9776633692719397E-003   6.3598182836354109E-003   0.0000000000000000     
   1.2195254828468177E-002   9.2296480745875809E-003   0.0000000000000000     
   0.0000000000000000        0.0000000000000000        0.0000000000000000     
   2.6103105030280582E-003   1.5890751220361897E-003   0.0000000000000000     
   5.2897189114637037E-003   3.5569680523039695E-003   0.0000000000000000     
   8.0382252253069341E-003   5.9036787908033376E-003   0.0000000000000000     
   1.0855829444557756E-002   8.6292073375342972E-003   0.0000000000000000     
   0.0000000000000000        0.0000000000000000        0.0000000000000000     
   2.3401262336344079E-003   1.4590814693874838E-003   0.0000000000000000     
   4.7202401711816276E-003   3.3000264965795624E-003   0.0000000000000000     
   7.1403418126416559E-003   5.5228350815762373E-003   0.0000000000000000     
   9.6004311580144969E-003   8.1275072243775070E-003   0.0000000000000000     
   0.0000000000000000        0.0000000000000000        0.0000000000000000     
   2.0694831468569021E-003   1.3550132883955015E-003   0.0000000000000000     
   4.1641541906156021E-003   3.0941090070468707E-003   0.0000000000000000     
   6.2840131312761000E-003   5.2172871559541083E-003   0.0000000000000000     
   8.4290599688383958E-003   7.7245477351172110E-003   0.0000000000000000     
   0.0000000000000000        0.0000000000000000        0.0000000000000000     
   1.7983812426955394E-003   1.2768705790602427E-003   0.0000000000000000     
   3.6214609697656289E-003   2.9392155837058924E-003   0.0000000000000000     
   5.4692391812102680E-003   4.9870350139369487E-003   0.0000000000000000     
   7.3417158770294590E-003   7.4203288697534111E-003   0.0000000000000000     
   1.2195254828468177E-002   9.2296480745875809E-003   0.0000000000000000     
   1.5427627064413158E-002   1.2372388976355146E-002   0.0000000000000000     
   1.8577042352469500E-002   1.5686006918216637E-002   0.0000000000000000     
   2.1643500692637204E-002   1.9170501900172065E-002   0.0000000000000000     
   2.4627002084916274E-002   2.2825873922221417E-002   0.0000000000000000     
   1.0855829444557756E-002   8.6292073375342972E-003   0.0000000000000000     
   1.3689202693416872E-002   1.1651329523255186E-002   0.0000000000000000     
   1.6485016096085003E-002   1.4887821178724347E-002   0.0000000000000000     
   1.9243269652562140E-002   1.8338682303941777E-002   0.0000000000000000     
   2.1963963362848289E-002   2.2003912898907477E-002   0.0000000000000000     
   9.6004311580144969E-003   8.1275072243775070E-003   0.0000000000000000     
   1.2077000824054300E-002   1.1046689266151228E-002   0.0000000000000000     
   1.4546543427515213E-002   1.4213027548065254E-002   0.0000000000000000     
   1.7009058968397248E-002   1.7626522070119589E-002   0.0000000000000000     
   1.9464547446700391E-002   2.1287172832314225E-002   0.0000000000000000     
   8.4290599688383958E-003   7.7245477351172110E-003   0.0000000000000000     
   1.0591021456325430E-002   1.0558468205043270E-002   0.0000000000000000     
   1.2761624346760137E-002   1.3661626026239363E-002   0.0000000000000000     
   1.4940868640142513E-002   1.7034021198705493E-002   0.0000000000000000     
   1.7128754336472565E-002   2.0675653722441661E-002   0.0000000000000000     
   7.3417158770294590E-003   7.4203288697534111E-003   0.0000000000000000     
   9.2312645902302686E-003   1.0186666339931311E-002   0.0000000000000000     
   1.1130258853819765E-002   1.3233616613246672E-002   0.0000000000000000     
   1.3038698667797950E-002   1.6561179689699498E-002   0.0000000000000000     
   1.4956584032164827E-002   2.0169355569289789E-002   0.0000000000000000     
   2.4627002084916274E-002   2.2825873922221417E-002   0.0000000000000000     
   2.7531883630996071E-002   2.6674723516764982E-002   0.0000000000000000     
   3.0362482432565958E-002   3.0739651216203055E-002   0.0000000000000000     
   3.3118798489625942E-002   3.5020657020535619E-002   0.0000000000000000     
   3.5800831802176011E-002   3.9517740929762693E-002   0.0000000000000000     
   2.1963963362848289E-002   2.2003912898907477E-002   0.0000000000000000     
   2.4630753039706261E-002   2.5881312689654240E-002   0.0000000000000000     
   2.7227294495898859E-002   2.9968681402214856E-002   0.0000000000000000     
   2.9753587731426081E-002   3.4266019036589331E-002   0.0000000000000000     
   3.2209632746287936E-002   3.8773325592777658E-002   0.0000000000000000     
   1.9464547446700391E-002   2.1287172832314225E-002   0.0000000000000000     
   2.1884824993094645E-002   2.5175964813173378E-002   0.0000000000000000     
   2.4241707738250011E-002   2.9273882991221262E-002   0.0000000000000000     
   2.6535195682166477E-002   3.3580927366457874E-002   0.0000000000000000     
   2.8765288824844058E-002   3.8097097938883218E-002   0.0000000000000000     
   1.7128754336472565E-002   2.0675653722441661E-002   0.0000000000000000     
   1.9294099491161221E-002   2.4558679887322410E-002   0.0000000000000000     
   2.1405722159619403E-002   2.8655255983222275E-002   0.0000000000000000     
   2.3463622341847120E-002   3.2965382010141250E-002   0.0000000000000000     
   2.5467800037844365E-002   3.7489057968079366E-002   0.0000000000000000     
   1.4956584032164827E-002   2.0169355569289789E-002   0.0000000000000000     
   1.6858576533905992E-002   2.4029457912101322E-002   0.0000000000000000     
   1.8719337760007056E-002   2.8112800378217891E-002   0.0000000000000000     
   2.0538867710468013E-002   3.2419382967639493E-002   0.0000000000000000     
   2.2317166385288866E-002   3.6949205680366116E-002   0.0000000000000000     
   3.5800831802176011E-002   3.9517740929762693E-002   0.0000000000000000     
   3.8408870273716256E-002   4.4221020351044887E-002   0.0000000000000000     
   4.0943201807746771E-002   4.9120612691542873E-002   0.0000000000000000     
   4.3403826404267550E-002   5.4216517951256628E-002   0.0000000000000000     
   4.5790744063278585E-002   5.9508736130186160E-002   0.0000000000000000     
   3.2209632746287936E-002   3.8773325592777658E-002   0.0000000000000000     
   3.4597439491441118E-002   4.3486188795931038E-002   0.0000000000000000     
   3.6919017917842328E-002   4.8400196371200702E-002   0.0000000000000000     
   3.9174368025491575E-002   5.3515348318586613E-002   0.0000000000000000     
   4.1363489814388851E-002   5.8831644638088799E-002   0.0000000000000000     
   2.8765288824844058E-002   3.8097097938883218E-002   0.0000000000000000     
   3.0934007688290112E-002   4.2820053264551607E-002   0.0000000000000000     
   3.3043372794512013E-002   4.7747451899517367E-002   0.0000000000000000     
   3.5093384143509751E-002   5.2879293843780505E-002   0.0000000000000000     
   3.7084041735283332E-002   5.8215579097341007E-002   0.0000000000000000     
   2.5467800037844365E-002   3.7489057968079366E-002   0.0000000000000000     
   2.7418574864263228E-002   4.2222613756906585E-002   0.0000000000000000     
   2.9316266437755794E-002   4.7162379276492895E-002   0.0000000000000000     
   3.1160874758322063E-002   5.2308354526838303E-002   0.0000000000000000     
   3.2952399825962035E-002   5.7660539507942803E-002   0.0000000000000000     
   2.2317166385288866E-002   3.6949205680366116E-002   0.0000000000000000     
   2.4051141019360477E-002   4.1693870272995981E-002   0.0000000000000000     
   2.5737698847573692E-002   4.6644978502127274E-002   0.0000000000000000     
   2.7376839869928522E-002   5.1802530367760009E-002   0.0000000000000000     
   2.8968564086424960E-002   5.7166525869894173E-002   0.0000000000000000     
   4.5790744063278585E-002   5.9508736130186160E-002   0.0000000000000000     
   4.8104036296091210E-002   6.4990733469072345E-002   0.0000000000000000     
   5.0343784614016743E-002   7.0655976208656116E-002   0.0000000000000000     
   5.2509989017055177E-002   7.6504464348937443E-002   0.0000000000000000     
   5.4602649505206526E-002   8.2536197889916341E-002   0.0000000000000000     
   4.1363489814388851E-002   5.8831644638088799E-002   0.0000000000000000     
   4.3485459232215327E-002   6.4339054566860412E-002   0.0000000000000000     
   4.5539352226652181E-002   7.0027547342054686E-002   0.0000000000000000     
   4.7525168797699406E-002   7.5897122963671571E-002   0.0000000000000000     
   4.9442908945357009E-002   8.1947781431711095E-002   0.0000000000000000     
   3.7084041735283332E-002   5.8215579097341007E-002   0.0000000000000000     
   3.9013954055137585E-002   6.3744117999022437E-002   0.0000000000000000     
   4.0881729588377304E-002   6.9452720887648395E-002   0.0000000000000000     
   4.2687368335002522E-002   7.5341387763218817E-002   0.0000000000000000     
   4.4430870295013219E-002   8.1410118625733718E-002   0.0000000000000000     
   3.2952399825962035E-002   5.7660539507942803E-002   0.0000000000000000     
   3.4689520764857970E-002   6.3205923765558433E-002   0.0000000000000000     
   3.6370916699192145E-002   6.8931496845437229E-002   0.0000000000000000     
   3.7996587628964532E-002   7.4837258747579169E-002   0.0000000000000000     
   3.9566533554175144E-002   8.0923209471984267E-002   0.0000000000000000     
   2.8968564086424960E-002   5.7166525869894173E-002   0.0000000000000000     
   3.0512159361376506E-002   6.2724471866468373E-002   0.0000000000000000     
   3.2006913559096670E-002   6.8463875215421188E-002   0.0000000000000000     
   3.3452826679585421E-002   7.4384735916752612E-002   0.0000000000000000     
   3.4849898722842797E-002   8.0487053970462658E-002   0.0000000000000000     
   5.4602649505206526E-002   8.2536197889916341E-002   0.0000000000000000     
   5.6621006899025911E-002   8.8737566759339845E-002   0.0000000000000000     
   5.8564302019068509E-002   9.5094960884955018E-002   0.0000000000000000     
   6.0432534865334307E-002  0.10160838026676190        0.0000000000000000     
   6.2225705437823312E-002  0.10827782490476047        0.0000000000000000     
   4.9442908945357009E-002   8.1947781431711095E-002   0.0000000000000000     
   5.1292124506406640E-002   8.8167776635854248E-002   0.0000000000000000     
   5.3072367317629945E-002   9.4545362465782032E-002   0.0000000000000000     
   5.4783637379026931E-002  0.10108053892149446        0.0000000000000000     
   5.6425934690597590E-002  0.10777330600299152        0.0000000000000000     
   4.4430870295013219E-002   8.1410118625733718E-002   0.0000000000000000     
   4.6111776095423176E-002   8.7648148040447210E-002   0.0000000000000000     
   4.7729626363246180E-002   9.4044710572613280E-002   0.0000000000000000     
   4.9284421098482217E-002  0.10059980622223190        0.0000000000000000     
   5.0776160301131301E-002  0.10731343498930310        0.0000000000000000     
   3.9566533554175144E-002   8.0923209471984267E-002   0.0000000000000000     
   4.1079961666075526E-002   8.7178680973118719E-002   0.0000000000000000     
   4.2536079155917200E-002   9.3593005205448693E-002   0.0000000000000000     
   4.3934886023700187E-002  0.10016618216897419        0.0000000000000000     
   4.5276382269424459E-002  0.10689821186369523        0.0000000000000000     
   3.4849898722842797E-002   8.0487053970462658E-002   0.0000000000000000     
   3.6196681218363697E-002   8.6759375433868760E-002   0.0000000000000000     
   3.7491725695643033E-002   9.3190246364288312E-002   0.0000000000000000     
   3.8735032154680812E-002   9.9779666761721370E-002   0.0000000000000000     
   3.9926600595477035E-002  0.10652763662616788        0.0000000000000000     
   6.2225705437823312E-002  0.10827782490476047        0.0000000000000000     
   6.3947712402859264E-002  0.11509228257971234        0.0000000000000000     
   6.5602454426765960E-002  0.12204074107237921        0.0000000000000000     
   6.7189931509543402E-002  0.12912320038276107        0.0000000000000000     
   6.8710143651191546E-002  0.13633966051085786        0.0000000000000000     
   5.6425934690597590E-002  0.10777330600299152        0.0000000000000000     
   5.8002002649577500E-002  0.11461146787298587        0.0000000000000000     
   5.9514584653202217E-002  0.12158282869419017        0.0000000000000000     
   6.0963680701471776E-002  0.12868738846660441        0.0000000000000000     
   6.2349290794386135E-002  0.13592514719022858        0.0000000000000000     
   5.0776160301131301E-002  0.10731343498930310        0.0000000000000000     
   5.2206853428544302E-002  0.11417280452353598        0.0000000000000000     
   5.3578509938072082E-002  0.12116512247463956        0.0000000000000000     
   5.4891129829714641E-002  0.12829038884261387        0.0000000000000000     
   5.6144713103471973E-002  0.13554860362745891        0.0000000000000000     
   4.5276382269424459E-002  0.10689821186369523        0.0000000000000000     
   4.6562264739759683E-002  0.11377629253136269        0.0000000000000000     
   4.7794230281375534E-002  0.12078762241372745        0.0000000000000000     
   4.8972278894271998E-002  0.12793220151078952        0.0000000000000000     
   5.0096410578449088E-002  0.13521002982254890        0.0000000000000000     
   3.9926600595477035E-002  0.10652763662616788        0.0000000000000000     
   4.1068236583223644E-002  0.11342193189646596        0.0000000000000000     
   4.2161745683112581E-002  0.12045032851145376        0.0000000000000000     
   4.3207127895143853E-002  0.12761282647113126        0.0000000000000000     
   4.4204383219317446E-002  0.13490942577549850        0.0000000000000000     
   6.8710143651191546E-002  0.13633966051085786        0.0000000000000000     
   7.0162367608968129E-002  0.14367844003156094        0.0000000000000000     
   7.1545880140130788E-002  0.15112785751976140        0.0000000000000000     
   7.2860681244679537E-002  0.15868791297545931        0.0000000000000000     
   7.4106770922614376E-002  0.16635860639865471        0.0000000000000000     
   6.2349290794386135E-002  0.13592514719022858        0.0000000000000000     
   6.3667208347432253E-002  0.14328503292332281        0.0000000000000000     
   6.4913226776097066E-002  0.15075597372414717        0.0000000000000000     
   6.6087346080380582E-002  0.15833796959270169        0.0000000000000000     
   6.7189566260282788E-002  0.16603102052898638        0.0000000000000000     
   5.6144713103471973E-002  0.13554860362745891        0.0000000000000000     
   5.7332884167836898E-002  0.14292890723272100        0.0000000000000000     
   5.8449267431302243E-002  0.15042044006194646        0.0000000000000000     
   5.9493862893867967E-002  0.15802320211513526        0.0000000000000000     
   6.0466670555534105E-002  0.16573719339228749        0.0000000000000000     
   5.0096410578449088E-002  0.13521002982254890        0.0000000000000000     
   5.1159395070182079E-002  0.14261006295975548        0.0000000000000000     
   5.2154002105746278E-002  0.15012125653315922        0.0000000000000000     
   5.3080231685141692E-002  0.15774361054276007        0.0000000000000000     
   5.3938083808368315E-002  0.16547712498855804        0.0000000000000000     
   4.4204383219317446E-002  0.13490942577549850        0.0000000000000000     
   4.5146741054467775E-002  0.14232850010442627        0.0000000000000000     
   4.6027430799429205E-002  0.14985842313778544        0.0000000000000000     
   4.6846452454201756E-002  0.15749919487557604        0.0000000000000000     
   4.7603806018785430E-002  0.16525081531779806        0.0000000000000000     
   0.0000000000000000        0.0000000000000000        0.0000000000000000     
   1.7983812426955394E-003   1.2768705790602427E-003   0.0000000000000000     
   3.6214609697656289E-003   2.9392155837058924E-003   0.0000000000000000     
   5.4692391812102680E-003   4.9870350139369487E-003   0.0000000000000000     
   7.3417158770294590E-003   7.4203288697534111E-003   0.0000000000000000     
   0.0000000000000000        0.0000000000000000        0.0000000000000000     
   1.5350908489973132E-003   1.2175482915706499E-003   0.0000000000000000     
   3.0995109186017756E-003   2.8208475621351518E-003   0.0000000000000000     
   4.6932602088133870E-003   4.8098978116935072E-003   0.0000000000000000     
   6.3163387196321485E-003   7.1846990402457140E-003   0.0000000000000000     
   0.0000000000000000        0.0000000000000000        0.0000000000000000     
   1.2878822936092157E-003   1.1699413761156645E-003   0.0000000000000000     
   2.6056544470941093E-003   2.7245062779131732E-003   0.0000000000000000     
   3.9533164604546806E-003   4.6636947053925269E-003   0.0000000000000000     
   5.3308683336909298E-003   6.9875066585537238E-003   0.0000000000000000     
   0.0000000000000000        0.0000000000000000        0.0000000000000000     
   1.0567555765312469E-003   1.1340498326952862E-003   0.0000000000000000     
   2.1398915552426298E-003   2.6501917310399548E-003   0.0000000000000000     
   3.2494079361341491E-003   4.5484256950340069E-003   0.0000000000000000     
   4.3853047192058056E-003   6.8287517246774423E-003   0.0000000000000000     
   0.0000000000000000        0.0000000000000000        0.0000000000000000     
   8.4171069776340648E-004   1.1098736613095155E-003   0.0000000000000000     
   1.7022222430473377E-003   2.5979039215154988E-003   0.0000000000000000     
   2.5815346358517930E-003   4.4640907806179500E-003   0.0000000000000000     
   3.4796478761767733E-003   6.7084342386168686E-003   0.0000000000000000     
   7.3417158770294590E-003   7.4203288697534111E-003   0.0000000000000000     
   9.2312645902302686E-003   1.0186666339931311E-002   0.0000000000000000     
   1.1130258853819765E-002   1.3233616613246672E-002   0.0000000000000000     
   1.3038698667797950E-002   1.6561179689699498E-002   0.0000000000000000     
   1.4956584032164827E-002   2.0169355569289789E-002   0.0000000000000000     
   6.3163387196321485E-003   7.1846990402457140E-003   0.0000000000000000     
   7.9560959087099058E-003   9.8956533973527366E-003   0.0000000000000000     
   9.5998812336985043E-003   1.2893163032575537E-002   0.0000000000000000     
   1.1247694694597948E-002   1.6177227945914113E-002   0.0000000000000000     
   1.2899536291408234E-002   1.9747848137368469E-002   0.0000000000000000     
   5.3308683336909298E-003   6.9875066585537238E-003   0.0000000000000000     
   6.7238810947054294E-003   9.6497991038449280E-003   0.0000000000000000     
   8.1179257714007521E-003   1.2604429007714305E-002   0.0000000000000000     
   9.5130023637768988E-003   1.5851396370161853E-002   0.0000000000000000     
   1.0909110871833869E-002   1.9390701191187576E-002   0.0000000000000000     
   4.3853047192058056E-003   6.8287517246774423E-003   0.0000000000000000     
   5.5346201482168430E-003   9.4491034594078906E-003   0.0000000000000000     
   6.6843924669265104E-003   1.2367414538662984E-002   0.0000000000000000     
   7.8346216753348037E-003   1.5583684962442723E-002   0.0000000000000000     
   8.9853077734417270E-003   1.9097914730747106E-002   0.0000000000000000     
   3.4796478761767733E-003   6.7084342386168686E-003   0.0000000000000000     
   4.3883130692441447E-003   9.2935664640416207E-003   0.0000000000000000     
   5.2992813202757750E-003   1.2182119625421569E-002   0.0000000000000000     
   6.2125526292716631E-003   1.5374093722756716E-002   0.0000000000000000     
   7.1281269962318108E-003   1.8869488756047062E-002   0.0000000000000000     
   1.4956584032164827E-002   2.0169355569289789E-002   0.0000000000000000     
   1.6858576533905992E-002   2.4029457912101322E-002   0.0000000000000000     
   1.8719337760007056E-002   2.8112800378217891E-002   0.0000000000000000     
   2.0538867710468013E-002   3.2419382967639493E-002   0.0000000000000000     
   2.2317166385288866E-002   3.6949205680366116E-002   0.0000000000000000     
   1.2899536291408234E-002   1.9747848137368469E-002   0.0000000000000000     
   1.4538935133204265E-002   2.3578879053282445E-002   0.0000000000000000     
   1.6149420329060936E-002   2.7644176139999886E-002   0.0000000000000000     
   1.7730991878978246E-002   3.1943739397520793E-002   0.0000000000000000     
   1.9283649782956200E-002   3.6477568825845165E-002   0.0000000000000000     
   1.0909110871833869E-002   1.9390701191187576E-002   0.0000000000000000     
   1.2295854300931349E-002   2.3197523476638095E-002   0.0000000000000000     
   1.3662835656429033E-002   2.7247043232360046E-002   0.0000000000000000     
   1.5010054938326920E-002   3.1539260458353424E-002   0.0000000000000000     
   1.6337512146625006E-002   3.6074175154618235E-002   0.0000000000000000     
   8.9853077734417270E-003   1.9097914730747106E-002   0.0000000000000000     
   1.0129334037087252E-002   2.2885391182168268E-002   0.0000000000000000     
   1.1259583742111353E-002   2.6921401655298362E-002   0.0000000000000000     
   1.2376056888514033E-002   3.1205946150137373E-002   0.0000000000000000     
   1.3478753476295288E-002   3.5739024666685312E-002   0.0000000000000000     
   7.1281269962318108E-003   1.8869488756047062E-002   0.0000000000000000     
   8.0393743416719704E-003   2.2642482169872982E-002   0.0000000000000000     
   8.9396645861078931E-003   2.6667251408814839E-002   0.0000000000000000     
   9.8289977295395840E-003   3.0943796472872650E-002   0.0000000000000000     
   1.0707373771967036E-002   3.5472117362046397E-002   0.0000000000000000     
   2.2317166385288866E-002   3.6949205680366116E-002   0.0000000000000000     
   2.4051141019360477E-002   4.1693870272995981E-002   0.0000000000000000     
   2.5737698847573692E-002   4.6644978502127274E-002   0.0000000000000000     
   2.7376839869928522E-002   5.1802530367760009E-002   0.0000000000000000     
   2.8968564086424960E-002   5.7166525869894173E-002   0.0000000000000000     
   1.9283649782956200E-002   3.6477568825845165E-002   0.0000000000000000     
   2.0800941341686023E-002   4.1231701701819036E-002   0.0000000000000000     
   2.2276413855858941E-002   4.6192175302288405E-002   0.0000000000000000     
   2.3710067325474954E-002   5.1358989627253306E-002   0.0000000000000000     
   2.5101901750534068E-002   5.6732144676713711E-002   0.0000000000000000     
   1.6337512146625006E-002   3.6074175154618235E-002   0.0000000000000000     
   1.7637211019344044E-002   4.0833986932374985E-002   0.0000000000000000     
   1.8901155294504771E-002   4.5800895402844204E-002   0.0000000000000000     
   2.0129344972107194E-002   5.0974900566025876E-002   0.0000000000000000     
   2.1321780052151313E-002   5.6356002421920008E-002   0.0000000000000000     
   1.3478753476295288E-002   3.5739024666685312E-002   0.0000000000000000     
   1.4559950052334531E-002   4.0500725964663843E-002   0.0000000000000000     
   1.5611923163511178E-002   4.5471138803794650E-002   0.0000000000000000     
   1.6634672809825234E-002   5.0650263184077712E-002   0.0000000000000000     
   1.7628198991276701E-002   5.6038099105513051E-002   0.0000000000000000     
   1.0707373771967036E-002   3.5472117362046397E-002   0.0000000000000000     
   1.1569158440657487E-002   4.0231918798685595E-002   0.0000000000000000     
   1.2408717462878169E-002   4.5202905505139744E-002   0.0000000000000000     
   1.3226050838629081E-002   5.0385077481408830E-002   0.0000000000000000     
   1.4021158567910225E-002   5.5778434727492852E-002   0.0000000000000000     
   2.8968564086424960E-002   5.7166525869894173E-002   0.0000000000000000     
   3.0512159361376506E-002   6.2724471866468373E-002   0.0000000000000000     
   3.2006913559096670E-002   6.8463875215421188E-002   0.0000000000000000     
   3.3452826679585421E-002   7.4384735916752612E-002   0.0000000000000000     
   3.4849898722842797E-002   8.0487053970462658E-002   0.0000000000000000     
   2.5101901750534068E-002   5.6732144676713711E-002   0.0000000000000000     
   2.6451853081961893E-002   6.2300007401337142E-002   0.0000000000000000     
   2.7759857270684061E-002   6.8050944751791104E-002   0.0000000000000000     
   2.9025914316700568E-002   7.3984956728075577E-002   0.0000000000000000     
   3.0250024220011409E-002   8.0102043330190567E-002   0.0000000000000000     
   2.1321780052151313E-002   5.6356002421920008E-002   0.0000000000000000     
   2.2478585163882844E-002   6.1932775469749630E-002   0.0000000000000000     
   2.3599884936547508E-002   6.7693794208737765E-002   0.0000000000000000     
   2.4685679370145302E-002   7.3639058638884411E-002   0.0000000000000000     
   2.5735968464676229E-002   7.9768568760189576E-002   0.0000000000000000     
   1.7628198991276701E-002   5.6038099105513051E-002   0.0000000000000000     
   1.8592355607139361E-002   6.1622776071705833E-002   0.0000000000000000     
   1.9526996556687003E-002   6.7392423586261185E-002   0.0000000000000000     
   2.0432121839919635E-002   7.3347041649179170E-002   0.0000000000000000     
   2.1307731456837255E-002   7.9486630260459712E-002   0.0000000000000000     
   1.4021158567910225E-002   5.5778434727492852E-002   0.0000000000000000     
   1.4793164411731435E-002   6.1370009207205749E-002   0.0000000000000000     
   1.5541192131102548E-002   6.7146832884361393E-002   0.0000000000000000     
   1.6265241726023567E-002   7.3108905758959813E-002   0.0000000000000000     
   1.6965313196494490E-002   7.9256227831000975E-002   0.0000000000000000     
   3.4849898722842797E-002   8.0487053970462658E-002   0.0000000000000000     
   3.6196681218363697E-002   8.6759375433868760E-002   0.0000000000000000     
   3.7491725695643033E-002   9.3190246364288312E-002   0.0000000000000000     
   3.8735032154680812E-002   9.9779666761721370E-002   0.0000000000000000     
   3.9926600595477035E-002  0.10652763662616788        0.0000000000000000     
   3.0250024220011409E-002   8.0102043330190567E-002   0.0000000000000000     
   3.1430134868874957E-002   8.6389715999838287E-002   0.0000000000000000     
   3.2564194151549576E-002   9.2835486178720991E-002   0.0000000000000000     
   3.3652202068035257E-002   9.9439353866838637E-002   0.0000000000000000     
   3.4694158618332013E-002  0.10620131906419122        0.0000000000000000     
   2.5735968464676229E-002   7.9768568760189576E-002   0.0000000000000000     
   2.6748522734196610E-002   8.6069187248168269E-002   0.0000000000000000     
   2.7721112692762759E-002   9.2527776778335485E-002   0.0000000000000000     
   2.8653738340374674E-002   9.9144337350691239E-002   0.0000000000000000     
   2.9546399677032365E-002  0.10591886896523549        0.0000000000000000     
   2.1307731456837255E-002   7.9486630260459712E-002   0.0000000000000000     
   2.2151844814328647E-002   8.5797789178858677E-002   0.0000000000000000     
   2.2962481319282576E-002   9.2267118163131823E-002   0.0000000000000000     
   2.3739640971699068E-002   9.8894617213279135E-002   0.0000000000000000     
   2.4483323771578087E-002  0.10568028632930065        0.0000000000000000     
   1.6965313196494490E-002   7.9256227831000975E-002   0.0000000000000000     
   1.7640101109271063E-002   8.5575521791909512E-002   0.0000000000000000     
   1.8288300031109039E-002   9.2053510333109975E-002   0.0000000000000000     
   1.8909909962008406E-002   9.8690193454602393E-002   0.0000000000000000     
   1.9504930901969177E-002  0.10548557115638675        0.0000000000000000     
   3.9926600595477035E-002  0.10652763662616788        0.0000000000000000     
   4.1068236583223644E-002  0.11342193189646596        0.0000000000000000     
   4.2161745683112581E-002  0.12045032851145376        0.0000000000000000     
   4.3207127895143853E-002  0.12761282647113126        0.0000000000000000     
   4.4204383219317446E-002  0.13490942577549850        0.0000000000000000     
   3.4694158618332013E-002  0.10620131906419122        0.0000000000000000     
   3.5692058495178952E-002  0.11310986671419977        0.0000000000000000     
   3.6647896391315160E-002  0.12015348176028523        0.0000000000000000     
   3.7561672306740679E-002  0.12733216420244761        0.0000000000000000     
   3.8433386241455467E-002  0.13464591404068693        0.0000000000000000     
   2.9546399677032365E-002  0.10591886896523549        0.0000000000000000     
   3.0401020011868372E-002  0.11284024107991801        0.0000000000000000     
   3.1219522654015234E-002  0.11989732315268850        0.0000000000000000     
   3.2001907603472955E-002  0.12709011518354699        0.0000000000000000     
   3.2748174860241536E-002  0.13441861717249343        0.0000000000000000     
   2.4483323771578087E-002  0.10568028632930065        0.0000000000000000     
   2.5195121133291906E-002  0.11261305499362070        0.0000000000000000     
   2.5876624471212778E-002  0.11968185268866359        0.0000000000000000     
   2.6527833785340699E-002  0.12688667941442938        0.0000000000000000     
   2.7148749075675653E-002  0.13422753517091796        0.0000000000000000     
   1.9504930901969177E-002  0.10548557115638675        0.0000000000000000     
   2.0074361859449566E-002  0.11242830845530785        0.0000000000000000     
   2.0619201842907806E-002  0.11950707036821052        0.0000000000000000     
   2.1139450852343891E-002  0.12672185689509474        0.0000000000000000     
   2.1635108887757819E-002  0.13407266803596055        0.0000000000000000     
   4.4204383219317446E-002  0.13490942577549850        0.0000000000000000     
   4.5146741054467775E-002  0.14232850010442627        0.0000000000000000     
   4.6027430799429205E-002  0.14985842313778544        0.0000000000000000     
   4.6846452454201756E-002  0.15749919487557604        0.0000000000000000     
   4.7603806018785430E-002  0.16525081531779806        0.0000000000000000     
   3.8433386241455467E-002  0.13464591404068693        0.0000000000000000     
   3.9257351473755316E-002  0.14208247831350504        0.0000000000000000     
   4.0027881281935983E-002  0.14962960405940379        0.0000000000000000     
   4.0744975665997482E-002  0.15728729127838317        0.0000000000000000     
   4.1408634625939800E-002  0.16505553997044323        0.0000000000000000     
   3.2748174860241536E-002  0.13441861717249343        0.0000000000000000     
   3.3453655681106059E-002  0.14187025723376348        0.0000000000000000     
   3.4113681322851613E-002  0.14943246348159286        0.0000000000000000     
   3.4728251785478198E-002  0.15710523591598144        0.0000000000000000     
   3.5297367068985813E-002  0.16488857453692926        0.0000000000000000     
   2.7148749075675653E-002  0.13422753517091796        0.0000000000000000     
   2.7735653676519999E-002  0.14169183686520162        0.0000000000000000     
   2.8284830922176082E-002  0.14926700140435256        0.0000000000000000     
   2.8796280812643904E-002  0.15695302878837072        0.0000000000000000     
   2.9270003347923460E-002  0.16474991901725619        0.0000000000000000     
   2.1635108887757819E-002  0.13407266803596055        0.0000000000000000     
   2.2103345459997141E-002  0.14154721720781946        0.0000000000000000     
   2.2541330079909404E-002  0.14913321782768299        0.0000000000000000     
   2.2949062747494604E-002  0.15683066989555117        0.0000000000000000     
   2.3326543462752741E-002  0.16463957341142396        0.0000000000000000     
   0.0000000000000000        0.0000000000000000        0.0000000000000000     
   8.4171069776340648E-004   1.1098736613095155E-003   0.0000000000000000     
   1.7022222430473377E-003   2.5979039215154988E-003   0.0000000000000000     
   2.5815346358517930E-003   4.4640907806179500E-003   0.0000000000000000     
   3.4796478761767733E-003   6.7084342386168686E-003   0.0000000000000000     
   0.0000000000000000        0.0000000000000000        0.0000000000000000     
   6.3385080944328240E-004   1.0938449866114419E-003   0.0000000000000000     
   1.2781164610811730E-003   2.5617887857705005E-003   0.0000000000000000     
   1.9327969549136712E-003   4.4038313974771757E-003   0.0000000000000000     
   2.5978922909407776E-003   6.6199728217314676E-003   0.0000000000000000     
   0.0000000000000000        0.0000000000000000        0.0000000000000000     
   4.2427906370846196E-004   1.0823959332541546E-003   0.0000000000000000     
   8.5304415991707639E-004   2.5359922602356563E-003   0.0000000000000000     
   1.2862952886258431E-003   4.3607889809445062E-003   0.0000000000000000     
   1.7240324498347622E-003   6.5567860953807027E-003   0.0000000000000000     
   0.0000000000000000        0.0000000000000000        0.0000000000000000     
   2.1299546055894507E-004   1.0755265012376539E-003   0.0000000000000000     
   4.2700533955504797E-004   2.5205143449109671E-003   0.0000000000000000     
   6.4202963698830847E-004   4.3349635310199405E-003   0.0000000000000000     
   8.5806835285872707E-004   6.5188740595645729E-003   0.0000000000000000     
   0.0000000000000000        0.0000000000000000        0.0000000000000000     
  -5.2681925662156903E-015   1.0732366905619394E-003   0.0000000000000000     
  -4.9121947828800749E-015   2.5153550397964321E-003   0.0000000000000000     
   1.0678849297895976E-015   4.3263550477034788E-003   0.0000000000000000     
   1.2672100781901952E-014   6.5062367142830774E-003   0.0000000000000000     
   3.4796478761767733E-003   6.7084342386168686E-003   0.0000000000000000     
   4.3883130692441447E-003   9.2935664640416207E-003   0.0000000000000000     
   5.2992813202757750E-003   1.2182119625421569E-002   0.0000000000000000     
   6.2125526292716631E-003   1.5374093722756716E-002   0.0000000000000000     
   7.1281269962318108E-003   1.8869488756047062E-002   0.0000000000000000     
   2.5978922909407776E-003   6.6199728217314676E-003   0.0000000000000000     
   3.2704208935070362E-003   9.1772285020621722E-003   0.0000000000000000     
   3.9474011869569912E-003   1.2042613881998083E-002   0.0000000000000000     
   4.6288331712906420E-003   1.5216128961539200E-002   0.0000000000000000     
   5.3147168465079893E-003   1.8697773740685524E-002   0.0000000000000000     
   1.7240324498347622E-003   6.5567860953807027E-003   0.0000000000000000     
   2.1664046567252196E-003   9.0941299577855985E-003   0.0000000000000000     
   2.6135609224786013E-003   1.1942966922400539E-002   0.0000000000000000     
   3.0655012470949062E-003   1.5103296989225532E-002   0.0000000000000000     
   3.5222256305741358E-003   1.8575120158260572E-002   0.0000000000000000     
   8.5806835285872707E-004   6.5188740595645729E-003   0.0000000000000000     
   1.0762643588986950E-003   9.0442708312118963E-003   0.0000000000000000     
   1.2977605268406046E-003   1.1883178746628942E-002   0.0000000000000000     
   1.5225568566844560E-003   1.5035597805815709E-002   0.0000000000000000     
   1.7506533484302486E-003   1.8501528008772205E-002   0.0000000000000000     
   1.2672100781901952E-014   6.5062367142830774E-003   0.0000000000000000     
   2.7463098527073793E-014   9.0276511223410690E-003   0.0000000000000000     
   4.3002534584439533E-014   1.1863249354683289E-002   0.0000000000000000     
   5.9290961219480784E-014   1.5013031411309738E-002   0.0000000000000000     
   7.6328158203631258E-014   1.8476997292220413E-002   0.0000000000000000     
   7.1281269962318108E-003   1.8869488756047062E-002   0.0000000000000000     
   8.0393743416719704E-003   2.2642482169872982E-002   0.0000000000000000     
   8.9396645861078931E-003   2.6667251408814839E-002   0.0000000000000000     
   9.8289977295395840E-003   3.0943796472872650E-002   0.0000000000000000     
   1.0707373771967036E-002   3.5472117362046397E-002   0.0000000000000000     
   5.3147168465079893E-003   1.8697773740685524E-002   0.0000000000000000     
   5.9981538869254211E-003   2.2460221970052187E-002   0.0000000000000000     
   6.6722459668593203E-003   2.6476147400254318E-002   0.0000000000000000     
   7.3369930863096903E-003   3.0745550031291910E-002   0.0000000000000000     
   7.9923952452765311E-003   3.5268429863164974E-002   0.0000000000000000     
   3.5222256305741358E-003   1.8575120158260572E-002   0.0000000000000000     
   3.9778513450875229E-003   2.2330036113005863E-002   0.0000000000000000     
   4.4264956628063019E-003   2.6339644536961620E-002   0.0000000000000000     
   4.8681585837304746E-003   3.0603945430127837E-002   0.0000000000000000     
   5.3028401078600400E-003   3.5122938792504520E-002   0.0000000000000000     
   1.7506533484302486E-003   1.8501528008772205E-002   0.0000000000000000     
   1.9784667161582776E-003   2.2251924598734013E-002   0.0000000000000000     
   2.2024136739488397E-003   2.6257742818936759E-002   0.0000000000000000     
   2.4224942218019335E-003   3.0518982669380423E-002   0.0000000000000000     
   2.6387083597175600E-003   3.5035644150065021E-002   0.0000000000000000     
   7.6328158203631258E-014   1.8476997292220413E-002   0.0000000000000000     
   1.3768489386806193E-013   2.2225887427236642E-002   0.0000000000000000     
   2.8693163838834634E-013   2.6230442246179729E-002   0.0000000000000000     
   5.2406845275085670E-013   3.0490661749049675E-002   0.0000000000000000     
   8.4909466610549877E-013   3.5006545935846491E-002   0.0000000000000000     
   1.0707373771967036E-002   3.5472117362046397E-002   0.0000000000000000     
   1.1569158440657487E-002   4.0231918798685595E-002   0.0000000000000000     
   1.2408717462878169E-002   4.5202905505139744E-002   0.0000000000000000     
   1.3226050838629081E-002   5.0385077481408830E-002   0.0000000000000000     
   1.4021158567910225E-002   5.5778434727492852E-002   0.0000000000000000     
   7.9923952452765311E-003   3.5268429863164974E-002   0.0000000000000000     
   8.6354183376787814E-003   4.0024911066704132E-002   0.0000000000000000     
   9.2630282574353816E-003   4.4995117812740008E-002   0.0000000000000000     
   9.8752250045463369E-003   5.0179050101272625E-002   0.0000000000000000     
   1.0472008579011640E-002   5.5576707932301947E-002   0.0000000000000000     
   5.3028401078600400E-003   3.5122938792504520E-002   0.0000000000000000     
   5.7293118967642756E-003   3.9877048400983342E-002   0.0000000000000000     
   6.1463456120124643E-003   4.4846698032456014E-002   0.0000000000000000     
   6.5539412536046032E-003   5.0031887686922502E-002   0.0000000000000000     
   6.9520988215406969E-003   5.5432617364382854E-002   0.0000000000000000     
   2.6387083597175600E-003   3.5035644150065021E-002   0.0000000000000000     
   2.8508391179139694E-003   3.9788330801523213E-002   0.0000000000000000     
   3.0586695266094106E-003   4.4757646164287714E-002   0.0000000000000000     
   3.2621995858038845E-003   4.9943590238358503E-002   0.0000000000000000     
   3.4614292954973907E-003   5.5346163023735573E-002   0.0000000000000000     
   8.4909466610549877E-013   3.5006545935846491E-002   0.0000000000000000     
   1.1278635360725819E-012   3.9758758268323778E-002   0.0000000000000000     
   1.2262239834637256E-012   4.4727962208235141E-002   0.0000000000000000     
   1.1441786103641438E-012   4.9914157755580585E-002   0.0000000000000000     
   8.8172503152905701E-013   5.5317344910360111E-002   0.0000000000000000     
   1.4021158567910225E-002   5.5778434727492852E-002   0.0000000000000000     
   1.4793164411731435E-002   6.1370009207205749E-002   0.0000000000000000     
   1.5541192131102548E-002   6.7146832884361393E-002   0.0000000000000000     
   1.6265241726023567E-002   7.3108905758959813E-002   0.0000000000000000     
   1.6965313196494490E-002   7.9256227831000975E-002   0.0000000000000000     
   1.0472008579011640E-002   5.5576707932301947E-002   0.0000000000000000     
   1.1051837624923521E-002   6.1173877434238091E-002   0.0000000000000000     
   1.1613170786374203E-002   6.6956344735491183E-002   0.0000000000000000     
   1.2156008063363689E-002   7.2924109836061193E-002   0.0000000000000000     
   1.2680349455891974E-002   7.9077172735948137E-002   0.0000000000000000     
   6.9520988215406969E-003   5.5432617364382854E-002   0.0000000000000000     
   7.3392012939800626E-003   6.1033783310791609E-002   0.0000000000000000     
   7.7136316490820280E-003   6.6820281772103404E-002   0.0000000000000000     
   8.0753898868465897E-003   7.2792112748318177E-002   0.0000000000000000     
   8.4244760072737530E-003   7.8949276239435984E-002   0.0000000000000000     
   3.4614292954973907E-003   5.5346163023735573E-002   0.0000000000000000     
   3.6552554189010593E-003   6.0949726836866294E-002   0.0000000000000000     
   3.8425747192260217E-003   6.6738643994198030E-002   0.0000000000000000     
   4.0233871964722783E-003   7.2712914495730752E-002   0.0000000000000000     
   4.1976928506398262E-003   7.8872538341464515E-002   0.0000000000000000     
   8.8172503152905701E-013   5.5317344910360111E-002   0.0000000000000000     
  -3.1348805929615198E-013   6.0921708012462140E-002   0.0000000000000000     
  -3.1938140283502281E-012   6.6711431401775073E-002   0.0000000000000000     
  -7.7592527401078998E-012   7.2686515078298944E-002   0.0000000000000000     
  -1.4009804384304547E-011   7.8846959042033732E-002   0.0000000000000000     
   1.6965313196494490E-002   7.9256227831000975E-002   0.0000000000000000     
   1.7640101109271063E-002   8.5575521791909512E-002   0.0000000000000000     
   1.8288300031109039E-002   9.2053510333109975E-002   0.0000000000000000     
   1.8909909962008406E-002   9.8690193454602393E-002   0.0000000000000000     
   1.9504930901969177E-002  0.10548557115638675        0.0000000000000000     
   1.2680349455891974E-002   7.9077172735948137E-002   0.0000000000000000     
   1.3185637340435343E-002   8.5402532501809986E-002   0.0000000000000000     
   1.3671314093470074E-002   9.1887188200304754E-002   0.0000000000000000     
   1.4137379714996167E-002   9.8531139831432371E-002   0.0000000000000000     
   1.4583834205013625E-002  0.10533438739519289        0.0000000000000000     
   8.4244760072737530E-003   7.8949276239435984E-002   0.0000000000000000     
   8.7607992292329535E-003   8.5278968723049367E-002   0.0000000000000000     
   9.0842687715936305E-003   9.1768386676750871E-002   0.0000000000000000     
   9.3948846343557841E-003   9.8417530100540523E-002   0.0000000000000000     
   9.6926468175194160E-003  0.10522639899441828        0.0000000000000000     
   4.1976928506398262E-003   7.8872538341464515E-002   0.0000000000000000     
   4.3655867756638937E-003   8.5204830455627614E-002   0.0000000000000000     
   4.5271640654797043E-003   9.1697105762448369E-002   0.0000000000000000     
   4.6824247200872573E-003   9.8349364261926808E-002   0.0000000000000000     
   4.8313687394865535E-003  0.10516160595406293        0.0000000000000000     
  -1.4009804384304547E-011   7.8846959042033732E-002   0.0000000000000000     
  -2.0271832823492986E-011   8.5180117699544727E-002   0.0000000000000000     
  -2.4871702733377660E-011   9.1673345457397262E-002   0.0000000000000000     
  -2.7809413829355499E-011   9.8326642315591267E-002   0.0000000000000000     
  -2.9084964905251587E-011  0.10514000827412678        0.0000000000000000     
   1.9504930901969177E-002  0.10548557115638675        0.0000000000000000     
   2.0074361859449566E-002  0.11242830845530785        0.0000000000000000     
   2.0619201842907806E-002  0.11950707036821052        0.0000000000000000     
   2.1139450852343891E-002  0.12672185689509474        0.0000000000000000     
   2.1635108887757819E-002  0.13407266803596055        0.0000000000000000     
   1.4583834205013625E-002  0.10533438739519289        0.0000000000000000     
   1.5011072137915707E-002  0.11228522253661502        0.0000000000000000     
   1.5419488088095677E-002  0.11937193690072746        0.0000000000000000     
   1.5809082055553536E-002  0.12659453048753022        0.0000000000000000     
   1.6179854040289290E-002  0.13395300329702331        0.0000000000000000     
   9.6926468175194160E-003  0.10522639899441828        0.0000000000000000     
   9.9775819162646884E-003  0.11218301830917778        0.0000000000000000     
   1.0249716525771762E-002  0.11927541299561263        0.0000000000000000     
   1.0509050646040642E-002  0.12650358305372281        0.0000000000000000     
   1.0755584277071323E-002  0.13386752848350830        0.0000000000000000     
   4.8313687394865535E-003  0.10516160595406293        0.0000000000000000     
   4.9738911944965138E-003  0.11212169577299617        0.0000000000000000     
   5.1098871559360614E-003  0.11921749865286600        0.0000000000000000     
   5.2393566238051947E-003  0.12644901459367244        0.0000000000000000     
   5.3622995981039145E-003  0.13381624359541552        0.0000000000000000     
  -2.9084964905251587E-011  0.10514000827412678        0.0000000000000000     
  -2.7388817125731379E-011  0.11210125492807015        0.0000000000000000     
  -2.1411429270215554E-011  0.11919819387248763        0.0000000000000000     
  -1.1152800308712046E-011  0.12643082510737924        0.0000000000000000     
   3.3870679698455586E-012  0.13379914863274500        0.0000000000000000     
   2.1635108887757819E-002  0.13407266803596055        0.0000000000000000     
   2.2103345459997141E-002  0.14154721720781946        0.0000000000000000     
   2.2541330079909404E-002  0.14913321782768299        0.0000000000000000     
   2.2949062747494604E-002  0.15683066989555117        0.0000000000000000     
   2.3326543462752741E-002  0.16463957341142396        0.0000000000000000     
   1.6179854040289290E-002  0.13395300329702331        0.0000000000000000     
   1.6529790378464679E-002  0.14143546281848454        0.0000000000000000     
   1.6856877406241456E-002  0.14903001654119180        0.0000000000000000     
   1.7161115123619616E-002  0.15673666446514509        0.0000000000000000     
   1.7442503530599170E-002  0.16455540659034437        0.0000000000000000     
   1.0755584277071323E-002  0.13386752848350830        0.0000000000000000     
   1.0988047778849819E-002  0.14135563825406447        0.0000000000000000     
   1.1205171511362140E-002  0.14895630133448667        0.0000000000000000     
   1.1406955474608288E-002  0.15666951772477489        0.0000000000000000     
   1.1593399668588262E-002  0.16449528742492919        0.0000000000000000     
   5.3622995981039145E-003  0.13381624359541552        0.0000000000000000     
   5.4781176611525574E-003  0.14130774351455919        0.0000000000000000     
   5.5862123952714546E-003  0.14891207220756755        0.0000000000000000     
   5.6865838004606043E-003  0.15662922967444062        0.0000000000000000     
   5.7792318767200136E-003  0.16445921591517831        0.0000000000000000     
   3.3870679698455586E-012  0.13379914863274500        0.0000000000000000     
   2.5372894540617863E-011  0.14129177859996880        0.0000000000000000     
   5.7969396101940907E-011  0.14889732916043455        0.0000000000000000     
   1.0117657327723094E-010  0.15661580031414224        0.0000000000000000     
   1.5499442441307965E-010  0.16444719206109187        0.0000000000000000     
   0.0000000000000000        0.0000000000000000        0.0000000000000000     
  -5.2681925662156903E-015   1.0732366905619394E-003   0.0000000000000000     
  -4.9121947828800749E-015   2.5153550397964321E-003   0.0000000000000000     
   1.0678849297895976E-015   4.3263550477034788E-003   0.0000000000000000     
   1.2672100781901952E-014   6.5062367142830774E-003   0.0000000000000000     
   0.0000000000000000        0.0000000000000000        0.0000000000000000     
  -2.1299546057045816E-004   1.0755265012288879E-003   0.0000000000000000     
  -4.2700533956730206E-004   2.5205143448955017E-003   0.0000000000000000     
  -6.4202963699053163E-004   4.3349635309998403E-003   0.0000000000000000     
  -8.5806835284014699E-004   6.5188740595419044E-003   0.0000000000000000     
   0.0000000000000000        0.0000000000000000        0.0000000000000000     
  -4.2427906372290511E-004   1.0823959332403755E-003   0.0000000000000000     
  -8.5304415993661946E-004   2.5359922602116239E-003   0.0000000000000000     
  -1.2862952886411427E-003   4.3607889809137443E-003   0.0000000000000000     
  -1.7240324498364753E-003   6.5567860953467377E-003   0.0000000000000000     
   0.0000000000000000        0.0000000000000000        0.0000000000000000     
  -6.3385080946260918E-004   1.0938449865964021E-003   0.0000000000000000     
  -1.2781164611128642E-003   2.5617887857447988E-003   0.0000000000000000     
  -1.9327969549507655E-003   4.4038313974451900E-003   0.0000000000000000     
  -2.5978922909763117E-003   6.6199728216975763E-003   0.0000000000000000     
   0.0000000000000000        0.0000000000000000        0.0000000000000000     
  -8.4171069778957012E-004   1.1098736612969679E-003   0.0000000000000000     
  -1.7022222430960366E-003   2.5979039214950274E-003   0.0000000000000000     
  -2.5815346359193991E-003   4.4640907805941791E-003   0.0000000000000000     
  -3.4796478762596575E-003   6.7084342385944221E-003   0.0000000000000000     
   1.2672100781901952E-014   6.5062367142830774E-003   0.0000000000000000     
   2.7463098527073793E-014   9.0276511223410690E-003   0.0000000000000000     
   4.3002534584439533E-014   1.1863249354683289E-002   0.0000000000000000     
   5.9290961219480784E-014   1.5013031411309738E-002   0.0000000000000000     
   7.6328158203631258E-014   1.8476997292220413E-002   0.0000000000000000     
  -8.5806835284014699E-004   6.5188740595419044E-003   0.0000000000000000     
  -1.0762643588538871E-003   9.0442708311803018E-003   0.0000000000000000     
  -1.2977605267694907E-003   1.1883178746573639E-002   0.0000000000000000     
  -1.5225568565869565E-003   1.5035597805721912E-002   0.0000000000000000     
  -1.7506533483062866E-003   1.8501528008625128E-002   0.0000000000000000     
  -1.7240324498364753E-003   6.5567860953467377E-003   0.0000000000000000     
  -2.1664046567107646E-003   9.0941299577367782E-003   0.0000000000000000     
  -2.6135609224521581E-003   1.1942966922310044E-002   0.0000000000000000     
  -3.0655012470606558E-003   1.5103296989066534E-002   0.0000000000000000     
  -3.5222256305362585E-003   1.8575120158006247E-002   0.0000000000000000     
  -2.5978922909763117E-003   6.6199728216975763E-003   0.0000000000000000     
  -3.2704208935431692E-003   9.1772285020105034E-003   0.0000000000000000     
  -3.9474011870050006E-003   1.2042613881892511E-002   0.0000000000000000     
  -4.6288331713618064E-003   1.5216128961343597E-002   0.0000000000000000     
  -5.3147168466135862E-003   1.8697773740363771E-002   0.0000000000000000     
  -3.4796478762596575E-003   6.7084342385944221E-003   0.0000000000000000     
  -4.3883130693511017E-003   9.2935664640014706E-003   0.0000000000000000     
  -5.2992813204280178E-003   1.2182119625321031E-002   0.0000000000000000     
  -6.2125526294904082E-003   1.5374093722553109E-002   0.0000000000000000     
  -7.1281269965382714E-003   1.8869488755697703E-002   0.0000000000000000     
   7.6328158203631258E-014   1.8476997292220413E-002   0.0000000000000000     
   1.3768489386806193E-013   2.2225887427236642E-002   0.0000000000000000     
   2.8693163838834634E-013   2.6230442246179729E-002   0.0000000000000000     
   5.2406845275085670E-013   3.0490661749049675E-002   0.0000000000000000     
   8.4909466610549877E-013   3.5006545935846491E-002   0.0000000000000000     
  -1.7506533483062866E-003   1.8501528008625128E-002   0.0000000000000000     
  -1.9784667159227442E-003   2.2251924598539370E-002   0.0000000000000000     
  -2.2024136734315920E-003   2.6257742818720724E-002   0.0000000000000000     
  -2.4224942208328315E-003   3.0518982669169203E-002   0.0000000000000000     
  -2.6387083581264612E-003   3.5035644149884790E-002   0.0000000000000000     
  -3.5222256305362585E-003   1.8575120158006247E-002   0.0000000000000000     
  -3.9778513449714977E-003   2.2330036112667831E-002   0.0000000000000000     
  -4.4264956624589010E-003   2.6339644536589952E-002   0.0000000000000000     
  -4.8681585829984759E-003   3.0603945429772600E-002   0.0000000000000000     
  -5.3028401065902137E-003   3.5122938792215778E-002   0.0000000000000000     
  -5.3147168466135862E-003   1.8697773740363771E-002   0.0000000000000000     
  -5.9981538870085725E-003   2.2460221969622034E-002   0.0000000000000000     
  -6.6722459667949985E-003   2.6476147399787407E-002   0.0000000000000000     
  -7.3369930859728616E-003   3.0745550030859884E-002   0.0000000000000000     
  -7.9923952445421637E-003   3.5268429862839464E-002   0.0000000000000000     
  -7.1281269965382714E-003   1.8869488755697703E-002   0.0000000000000000     
  -8.0393743420339742E-003   2.2642482169401977E-002   0.0000000000000000     
  -8.9396645864398810E-003   2.6667251408313088E-002   0.0000000000000000     
  -9.8289977297559925E-003   3.0943796472431041E-002   0.0000000000000000     
  -1.0707373771982309E-002   3.5472117361755838E-002   0.0000000000000000     
   8.4909466610549877E-013   3.5006545935846491E-002   0.0000000000000000     
   1.1278635360725819E-012   3.9758758268323778E-002   0.0000000000000000     
   1.2262239834637256E-012   4.4727962208235141E-002   0.0000000000000000     
   1.1441786103641438E-012   4.9914157755580585E-002   0.0000000000000000     
   8.8172503152905701E-013   5.5317344910360111E-002   0.0000000000000000     
  -2.6387083581264612E-003   3.5035644149884790E-002   0.0000000000000000     
  -2.8508391157968985E-003   3.9788330801413772E-002   0.0000000000000000     
  -3.0586695243285580E-003   4.4757646164302431E-002   0.0000000000000000     
  -3.2621995837214383E-003   4.9943590238550772E-002   0.0000000000000000     
  -3.4614292939755403E-003   5.5346163024158804E-002   0.0000000000000000     
  -5.3028401065902137E-003   3.5122938792215778E-002   0.0000000000000000     
  -5.7293118950631711E-003   3.9877048400821999E-002   0.0000000000000000     
  -6.1463456102463952E-003   4.4846698032493769E-002   0.0000000000000000     
  -6.5539412521398860E-003   5.0031887687231109E-002   0.0000000000000000     
  -6.9520988207436435E-003   5.5432617365034000E-002   0.0000000000000000     
  -7.9923952445421637E-003   3.5268429862839464E-002   0.0000000000000000     
  -8.6354183366709539E-003   4.0024911066548451E-002   0.0000000000000000     
  -9.2630282565272903E-003   4.4995117812809141E-002   0.0000000000000000     
  -9.8752250041111659E-003   5.0179050101621554E-002   0.0000000000000000     
  -1.0472008579422586E-002   5.5576707932985685E-002   0.0000000000000000     
  -1.0707373771982309E-002   3.5472117361755838E-002   0.0000000000000000     
  -1.1569158440620248E-002   4.0231918798593128E-002   0.0000000000000000     
  -1.2408717463171241E-002   4.5202905505248560E-002   0.0000000000000000     
  -1.3226050839635278E-002   5.0385077481722156E-002   0.0000000000000000     
  -1.4021158570012369E-002   5.5778434728013880E-002   0.0000000000000000     
   8.8172503152905701E-013   5.5317344910360111E-002   0.0000000000000000     
  -3.1348805929615198E-013   6.0921708012462140E-002   0.0000000000000000     
  -3.1938140283502281E-012   6.6711431401775073E-002   0.0000000000000000     
  -7.7592527401078998E-012   7.2686515078298944E-002   0.0000000000000000     
  -1.4009804384304547E-011   7.8846959042033732E-002   0.0000000000000000     
  -3.4614292939755403E-003   5.5346163024158804E-002   0.0000000000000000     
  -3.6552554198090578E-003   6.0949726837429059E-002   0.0000000000000000     
  -3.8425747259401848E-003   6.6738643994664060E-002   0.0000000000000000     
  -4.0233872123689209E-003   7.2712914495863867E-002   0.0000000000000000     
  -4.1976928790952656E-003   7.8872538341028448E-002   0.0000000000000000     
  -6.9520988207436435E-003   5.5432617365034000E-002   0.0000000000000000     
  -7.3392012957311271E-003   6.1033783311616963E-002   0.0000000000000000     
  -7.7136316567757938E-003   6.6820281772694529E-002   0.0000000000000000     
  -8.0753899038776469E-003   7.2792112748266663E-002   0.0000000000000000     
  -8.4244760370366812E-003   7.8949276238333435E-002   0.0000000000000000     
  -1.0472008579422586E-002   5.5576707932985685E-002   0.0000000000000000     
  -1.1051837628079698E-002   6.1173877435025864E-002   0.0000000000000000     
  -1.1613170795700643E-002   6.6956344735866424E-002   0.0000000000000000     
  -1.2156008082285430E-002   7.2924109835507372E-002   0.0000000000000000     
  -1.2680349487834050E-002   7.9077172733948736E-002   0.0000000000000000     
  -1.4021158570012369E-002   5.5778434728013880E-002   0.0000000000000000     
  -1.4793164416854765E-002   6.1370009207655757E-002   0.0000000000000000     
  -1.5541192142714733E-002   6.7146832884179788E-002   0.0000000000000000     
  -1.6265241747592269E-002   7.3108905757585968E-002   0.0000000000000000     
  -1.6965313231487374E-002   7.9256227827874309E-002   0.0000000000000000     
  -1.4009804384304547E-011   7.8846959042033732E-002   0.0000000000000000     
  -2.0271832823492986E-011   8.5180117699544727E-002   0.0000000000000000     
  -2.4871702733377660E-011   9.1673345457397262E-002   0.0000000000000000     
  -2.7809413829355499E-011   9.8326642315591267E-002   0.0000000000000000     
  -2.9084964905251587E-011  0.10514000827412678        0.0000000000000000     
  -4.1976928790952656E-003   7.8872538341028448E-002   0.0000000000000000     
  -4.3655868167032123E-003   8.5204830454737882E-002   0.0000000000000000     
  -4.5271641157767512E-003   9.1697105761572320E-002   0.0000000000000000     
  -4.6824247763158841E-003   9.8349364261531735E-002   0.0000000000000000     
  -4.8313687983206084E-003  0.10516160595461613        0.0000000000000000     
  -8.4244760370366812E-003   7.8949276238333435E-002   0.0000000000000000     
  -8.7607992717592224E-003   8.5278968721144197E-002   0.0000000000000000     
  -9.0842688235516014E-003   9.1768386674948410E-002   0.0000000000000000     
  -9.3948846924138078E-003   9.8417530099746020E-002   0.0000000000000000     
  -9.6926468783458484E-003  0.10522639899553711        0.0000000000000000     
  -1.2680349487834050E-002   7.9077172733948736E-002   0.0000000000000000     
  -1.3185637385439873E-002   8.5402532498763672E-002   0.0000000000000000     
  -1.3671314148196249E-002   9.1887188197525504E-002   0.0000000000000000     
  -1.4137379776103189E-002   9.8531139830234177E-002   0.0000000000000000     
  -1.4583834269160684E-002  0.10533438739688973        0.0000000000000000     
  -1.6965313231487374E-002   7.9256227827874309E-002   0.0000000000000000     
  -1.7640101157745152E-002   8.5575521787596337E-002   0.0000000000000000     
  -1.8288300089710701E-002   9.2053510329303645E-002   0.0000000000000000     
  -1.8909910027384024E-002   9.8690193452996192E-002   0.0000000000000000     
  -1.9504930970765118E-002  0.10548557115867402        0.0000000000000000     
  -2.9084964905251587E-011  0.10514000827412678        0.0000000000000000     
  -2.7388817125731379E-011  0.11210125492807015        0.0000000000000000     
  -2.1411429270215554E-011  0.11919819387248763        0.0000000000000000     
  -1.1152800308712046E-011  0.12643082510737924        0.0000000000000000     
   3.3870679698455586E-012  0.13379914863274500        0.0000000000000000     
  -4.8313687983206084E-003  0.10516160595461613        0.0000000000000000     
  -4.9738912499759569E-003  0.11212169577443748        0.0000000000000000     
  -5.1098871994669599E-003  0.11921749865460773        0.0000000000000000     
  -5.2393566467936201E-003  0.12644901459512692        0.0000000000000000     
  -5.3622995919559322E-003  0.13381624359599503        0.0000000000000000     
  -9.6926468783458484E-003  0.10522639899553711        0.0000000000000000     
  -9.9775819738495610E-003  0.11218301831213585        0.0000000000000000     
  -1.0249716571426792E-002  0.11927541299935655        0.0000000000000000     
  -1.0509050671077535E-002  0.12650358305719922        0.0000000000000000     
  -1.0755584272801797E-002  0.13386752848566383        0.0000000000000000     
  -1.4583834269160684E-002  0.10533438739688973        0.0000000000000000     
  -1.5011072199009632E-002  0.11228522254116532        0.0000000000000000     
  -1.5419488137290925E-002  0.11937193690673412        0.0000000000000000     
  -1.5809082084004552E-002  0.12659453049359617        0.0000000000000000     
  -1.6179854039150530E-002  0.13395300330175144        0.0000000000000000     
  -1.9504930970765118E-002  0.10548557115867402        0.0000000000000000     
  -2.0074361925456165E-002  0.11242830846152582        0.0000000000000000     
  -2.0619201897059351E-002  0.11950707037674042        0.0000000000000000     
  -2.1139450885574670E-002  0.12672185690431778        0.0000000000000000     
  -2.1635108891002126E-002  0.13407266804425785        0.0000000000000000     
   3.3870679698455586E-012  0.13379914863274500        0.0000000000000000     
   2.5372894540617863E-011  0.14129177859996880        0.0000000000000000     
   5.7969396101940907E-011  0.14889732916043455        0.0000000000000000     
   1.0117657327723094E-010  0.15661580031414224        0.0000000000000000     
   1.5499442441307965E-010  0.16444719206109187        0.0000000000000000     
  -5.3622995919559322E-003  0.13381624359599503        0.0000000000000000     
  -5.4781176110413566E-003  0.14130774351127978        0.0000000000000000     
  -5.5862122801373527E-003  0.14891207219504896        0.0000000000000000     
  -5.6865835992439221E-003  0.15662922964730247        0.0000000000000000     
  -5.7792315683610623E-003  0.16445921586804041        0.0000000000000000     
  -1.0755584272801797E-002  0.13386752848566383        0.0000000000000000     
  -1.0988047730642384E-002  0.14135563824947872        0.0000000000000000     
  -1.1205171398642117E-002  0.14895630131337212        0.0000000000000000     
  -1.1406955276800990E-002  0.15666951767734402        0.0000000000000000     
  -1.1593399365119009E-002  0.16449528734139451        0.0000000000000000     
  -1.6179854039150530E-002  0.13395300330175144        0.0000000000000000     
  -1.6529790333430192E-002  0.14143546281456557        0.0000000000000000     
  -1.6856877297544898E-002  0.14903001651540401        0.0000000000000000     
  -1.7161114931494630E-002  0.15673666440426690        0.0000000000000000     
  -1.7442503235279412E-002  0.16455540648115421        0.0000000000000000     
  -2.1635108891002126E-002  0.13407266804425785        0.0000000000000000     
  -2.2103345419404775E-002  0.14154721720654032        0.0000000000000000     
  -2.2541329976845687E-002  0.14913321780114475        0.0000000000000000     
  -2.2949062563324851E-002  0.15683066982807115        0.0000000000000000     
  -2.3326543178842276E-002  0.16463957328731949        0.0000000000000000     
   0.0000000000000000        0.0000000000000000        0.0000000000000000     
  -8.4171069778957012E-004   1.1098736612969679E-003   0.0000000000000000     
  -1.7022222430960366E-003   2.5979039214950274E-003   0.0000000000000000     
  -2.5815346359193991E-003   4.4640907805941791E-003   0.0000000000000000     
  -3.4796478762596575E-003   6.7084342385944221E-003   0.0000000000000000     
   0.0000000000000000        0.0000000000000000        0.0000000000000000     
  -1.0567555765634551E-003   1.1340498326891937E-003   0.0000000000000000     
  -2.1398915553066658E-003   2.6501917310318957E-003   0.0000000000000000     
  -3.2494079362296322E-003   4.5484256950281063E-003   0.0000000000000000     
  -4.3853047193323537E-003   6.8287517246778248E-003   0.0000000000000000     
   0.0000000000000000        0.0000000000000000        0.0000000000000000     
  -1.2878822936439305E-003   1.1699413761202004E-003   0.0000000000000000     
  -2.6056544471652807E-003   2.7245062779249901E-003   0.0000000000000000     
  -3.9533164605640506E-003   4.6636947054143696E-003   0.0000000000000000     
  -5.3308683338402392E-003   6.9875066585883367E-003   0.0000000000000000     
   0.0000000000000000        0.0000000000000000        0.0000000000000000     
  -1.5350908490309968E-003   1.2175482915899884E-003   0.0000000000000000     
  -3.0995109186718818E-003   2.8208475621743106E-003   0.0000000000000000     
  -4.6932602089226564E-003   4.8098978117529665E-003   0.0000000000000000     
  -6.3163387197833166E-003   7.1846990403259588E-003   0.0000000000000000     
   0.0000000000000000        0.0000000000000000        0.0000000000000000     
  -1.7983812427246537E-003   1.2768705790985569E-003   0.0000000000000000     
  -3.6214609698264691E-003   2.9392155837798576E-003   0.0000000000000000     
  -5.4692391813054462E-003   4.9870350140439014E-003   0.0000000000000000     
  -7.3417158771615842E-003   7.4203288698906893E-003   0.0000000000000000     
  -3.4796478762596575E-003   6.7084342385944221E-003   0.0000000000000000     
  -4.3883130693511017E-003   9.2935664640014706E-003   0.0000000000000000     
  -5.2992813204280178E-003   1.2182119625321031E-002   0.0000000000000000     
  -6.2125526294904082E-003   1.5374093722553109E-002   0.0000000000000000     
  -7.1281269965382714E-003   1.8869488755697703E-002   0.0000000000000000     
  -4.3853047193323537E-003   6.8287517246778248E-003   0.0000000000000000     
  -5.5346201483900377E-003   9.4491034593933397E-003   0.0000000000000000     
  -6.6843924671778927E-003   1.2367414538586943E-002   0.0000000000000000     
  -7.8346216756959210E-003   1.5583684962258626E-002   0.0000000000000000     
  -8.9853077739441203E-003   1.9097914730408401E-002   0.0000000000000000     
  -5.3308683338402392E-003   6.9875066585883367E-003   0.0000000000000000     
  -6.7238810949154567E-003   9.6497991038697779E-003   0.0000000000000000     
  -8.1179257717113144E-003   1.2604429007681569E-002   0.0000000000000000     
  -9.5130023642278037E-003   1.5851396370023717E-002   0.0000000000000000     
  -1.0909110872464933E-002   1.9390701190896212E-002   0.0000000000000000     
  -6.3163387197833166E-003   7.1846990403259588E-003   0.0000000000000000     
  -7.9560959089273586E-003   9.8956533974307766E-003   0.0000000000000000     
  -9.5998812340282701E-003   1.2893163032604916E-002   0.0000000000000000     
  -1.1247694695086061E-002   1.6177227945848371E-002   0.0000000000000000     
  -1.2899536292100717E-002   1.9747848137161149E-002   0.0000000000000000     
  -7.3417158771615842E-003   7.4203288698906893E-003   0.0000000000000000     
  -9.2312645904257407E-003   1.0186666340076339E-002   0.0000000000000000     
  -1.1130258854128775E-002   1.3233616613356976E-002   0.0000000000000000     
  -1.3038698668270683E-002   1.6561179689732600E-002   0.0000000000000000     
  -1.4956584032851467E-002   2.0169355569203198E-002   0.0000000000000000     
  -7.1281269965382714E-003   1.8869488755697703E-002   0.0000000000000000     
  -8.0393743420339742E-003   2.2642482169401977E-002   0.0000000000000000     
  -8.9396645864398810E-003   2.6667251408313088E-002   0.0000000000000000     
  -9.8289977297559925E-003   3.0943796472431041E-002   0.0000000000000000     
  -1.0707373771982309E-002   3.5472117361755838E-002   0.0000000000000000     
  -8.9853077739441203E-003   1.9097914730408401E-002   0.0000000000000000     
  -1.0129334037722216E-002   2.2885391181704299E-002   0.0000000000000000     
  -1.1259583742829942E-002   2.6921401654814367E-002   0.0000000000000000     
  -1.2376056889267297E-002   3.1205946149738616E-002   0.0000000000000000     
  -1.3478753477034280E-002   3.5739024666477034E-002   0.0000000000000000     
  -1.0909110872464933E-002   1.9390701190896212E-002   0.0000000000000000     
  -1.2295854301747818E-002   2.3197523476225650E-002   0.0000000000000000     
  -1.3662835657401579E-002   2.7247043231938634E-002   0.0000000000000000     
  -1.5010054939426211E-002   3.1539260458035137E-002   0.0000000000000000     
  -1.6337512147821719E-002   3.6074175154515178E-002   0.0000000000000000     
  -1.2899536292100717E-002   1.9747848137161149E-002   0.0000000000000000     
  -1.4538935134110781E-002   2.3578879052966045E-002   0.0000000000000000     
  -1.6149420330154787E-002   2.7644176139685860E-002   0.0000000000000000     
  -1.7730991880232735E-002   3.1943739397320606E-002   0.0000000000000000     
  -1.9283649784344613E-002   3.6477568825870263E-002   0.0000000000000000     
  -1.4956584032851467E-002   2.0169355569203198E-002   0.0000000000000000     
  -1.6858576534811102E-002   2.4029457911925470E-002   0.0000000000000000     
  -1.8719337761089565E-002   2.8112800378056076E-002   0.0000000000000000     
  -2.0538867711686861E-002   3.2419382967595015E-002   0.0000000000000000     
  -2.2317166386602982E-002   3.6949205680542309E-002   0.0000000000000000     
  -1.0707373771982309E-002   3.5472117361755838E-002   0.0000000000000000     
  -1.1569158440620248E-002   4.0231918798593128E-002   0.0000000000000000     
  -1.2408717463171241E-002   4.5202905505248560E-002   0.0000000000000000     
  -1.3226050839635278E-002   5.0385077481722156E-002   0.0000000000000000     
  -1.4021158570012369E-002   5.5778434728013880E-002   0.0000000000000000     
  -1.3478753477034280E-002   3.5739024666477034E-002   0.0000000000000000     
  -1.4559950053230937E-002   4.0500725964662948E-002   0.0000000000000000     
  -1.5611923164957315E-002   4.5471138803929709E-002   0.0000000000000000     
  -1.6634672812213414E-002   5.0650263184277310E-002   0.0000000000000000     
  -1.7628198994999233E-002   5.6038099105705744E-002   0.0000000000000000     
  -1.6337512147821719E-002   3.6074175154515178E-002   0.0000000000000000     
  -1.7637211020822906E-002   4.0833986932464858E-002   0.0000000000000000     
  -1.8901155296664581E-002   4.5800895402970304E-002   0.0000000000000000     
  -2.0129344975346752E-002   5.0974900566031510E-002   0.0000000000000000     
  -2.1321780056869417E-002   5.6356002421648468E-002   0.0000000000000000     
  -1.9283649784344613E-002   3.6477568825870263E-002   0.0000000000000000     
  -2.0800941343396152E-002   4.1231701701998844E-002   0.0000000000000000     
  -2.2276413858293046E-002   4.6192175302370339E-002   0.0000000000000000     
  -2.3710067329035307E-002   5.1358989626984729E-002   0.0000000000000000     
  -2.5101901755622925E-002   5.6732144675842033E-002   0.0000000000000000     
  -2.2317166386602982E-002   3.6949205680542309E-002   0.0000000000000000     
  -2.4051141020950684E-002   4.1693870273264912E-002   0.0000000000000000     
  -2.5737698849842706E-002   4.6644978502129800E-002   0.0000000000000000     
  -2.7376839873279067E-002   5.1802530367136994E-002   0.0000000000000000     
  -2.8968564091259755E-002   5.7166525868286473E-002   0.0000000000000000     
  -1.4021158570012369E-002   5.5778434728013880E-002   0.0000000000000000     
  -1.4793164416854765E-002   6.1370009207655757E-002   0.0000000000000000     
  -1.5541192142714733E-002   6.7146832884179788E-002   0.0000000000000000     
  -1.6265241747592269E-002   7.3108905757585968E-002   0.0000000000000000     
  -1.6965313231487374E-002   7.9256227827874309E-002   0.0000000000000000     
  -1.7628198994999233E-002   5.6038099105705744E-002   0.0000000000000000     
  -1.8592355614160460E-002   6.1622776071584368E-002   0.0000000000000000     
  -1.9526996570542802E-002   6.7392423585282524E-002   0.0000000000000000     
  -2.0432121864146242E-002   7.3347041646800212E-002   0.0000000000000000     
  -2.1307731494970790E-002   7.9486630256137447E-002   0.0000000000000000     
  -2.1321780056869417E-002   5.6356002421648468E-002   0.0000000000000000     
  -2.2478585172100912E-002   6.1932775468889409E-002   0.0000000000000000     
  -2.3599884951909577E-002   6.7693794206822561E-002   0.0000000000000000     
  -2.4685679396295426E-002   7.3639058635447910E-002   0.0000000000000000     
  -2.5735968505258444E-002   7.9768568754765484E-002   0.0000000000000000     
  -2.5101901755622925E-002   5.6732144675842033E-002   0.0000000000000000     
  -2.6451853090676110E-002   6.2300007399570888E-002   0.0000000000000000     
  -2.7759857286815071E-002   6.8050944748799899E-002   0.0000000000000000     
  -2.9025914344039810E-002   7.3984956723529061E-002   0.0000000000000000     
  -3.0250024262350319E-002   8.0102043323758351E-002   0.0000000000000000     
  -2.8968564091259755E-002   5.7166525868286473E-002   0.0000000000000000     
  -3.0512159369886063E-002   6.2724471863628811E-002   0.0000000000000000     
  -3.2006913575259276E-002   6.8463875211214512E-002   0.0000000000000000     
  -3.3452826707379403E-002   7.4384735911043609E-002   0.0000000000000000     
  -3.4849898766246439E-002   8.0487053963116104E-002   0.0000000000000000     
  -1.6965313231487374E-002   7.9256227827874309E-002   0.0000000000000000     
  -1.7640101157745152E-002   8.5575521787596337E-002   0.0000000000000000     
  -1.8288300089710701E-002   9.2053510329303645E-002   0.0000000000000000     
  -1.8909910027384024E-002   9.8690193452996192E-002   0.0000000000000000     
  -1.9504930970765118E-002  0.10548557115867402        0.0000000000000000     
  -2.1307731494970790E-002   7.9486630256137447E-002   0.0000000000000000     
  -2.2151844866445048E-002   8.5797789173321412E-002   0.0000000000000000     
  -2.2962481381997628E-002   9.2267118158379249E-002   0.0000000000000000     
  -2.3739641041628522E-002   9.8894617211311014E-002   0.0000000000000000     
  -2.4483323845337728E-002  0.10568028633211661        0.0000000000000000     
  -2.5735968505258444E-002   7.9768568754765484E-002   0.0000000000000000     
  -2.6748522789309566E-002   8.6069187241618147E-002   0.0000000000000000     
  -2.7721112758959717E-002   9.2527776772848833E-002   0.0000000000000000     
  -2.8653738414208905E-002   9.9144337348457540E-002   0.0000000000000000     
  -2.9546399755057112E-002  0.10591886896844427        0.0000000000000000     
  -3.0250024262350319E-002   8.0102043323758351E-002   0.0000000000000000     
  -3.1430134926338678E-002   8.6389715992486585E-002   0.0000000000000000     
  -3.2564194220596969E-002   9.2835486172712395E-002   0.0000000000000000     
  -3.3652202145125154E-002   9.9439353864435837E-002   0.0000000000000000     
  -3.4694158699923261E-002  0.10620131906765691        0.0000000000000000     
  -3.4849898766246439E-002   8.0487053963116104E-002   0.0000000000000000     
  -3.6196681277532408E-002   8.6759375425926655E-002   0.0000000000000000     
  -3.7491725766909359E-002   9.3190246357969922E-002   0.0000000000000000     
  -3.8735032234377284E-002   9.9779666759245891E-002   0.0000000000000000     
  -3.9926600679936183E-002  0.10652763662975459        0.0000000000000000     
  -1.9504930970765118E-002  0.10548557115867402        0.0000000000000000     
  -2.0074361925456165E-002  0.11242830846152582        0.0000000000000000     
  -2.0619201897059351E-002  0.11950707037674042        0.0000000000000000     
  -2.1139450885574670E-002  0.12672185690431778        0.0000000000000000     
  -2.1635108891002126E-002  0.13407266804425785        0.0000000000000000     
  -2.4483323845337728E-002  0.10568028633211661        0.0000000000000000     
  -2.5195121204509636E-002  0.11261305500136995        0.0000000000000000     
  -2.5876624530528605E-002  0.11968185269964475        0.0000000000000000     
  -2.6527833823394641E-002  0.12688667942694101        0.0000000000000000     
  -2.7148749083107746E-002  0.13422753518325875        0.0000000000000000     
  -2.9546399755057112E-002  0.10591886896844427        0.0000000000000000     
  -3.0401020087490505E-002  0.11284024108885014        0.0000000000000000     
  -3.1219522717495205E-002  0.11989732316571634        0.0000000000000000     
  -3.2001907645071229E-002  0.12709011519904287        0.0000000000000000     
  -3.2748174870218562E-002  0.13441861718882972        0.0000000000000000     
  -3.4694158699923261E-002  0.10620131906765691        0.0000000000000000     
  -3.5692058574398770E-002  0.11310986672396645        0.0000000000000000     
  -3.6647896457959163E-002  0.12015348177495529        0.0000000000000000     
  -3.7561672350604425E-002  0.12733216422062343        0.0000000000000000     
  -3.8433386252334570E-002  0.13464591406097084        0.0000000000000000     
  -3.9926600679936183E-002  0.10652763662975459        0.0000000000000000     
  -4.1068236665234445E-002  0.11342193190671884        0.0000000000000000     
  -4.2161745751920478E-002  0.12045032852736151        0.0000000000000000     
  -4.3207127939994233E-002  0.12761282649168257        0.0000000000000000     
  -4.4204383229455767E-002  0.13490942579968204        0.0000000000000000     
  -2.1635108891002126E-002  0.13407266804425785        0.0000000000000000     
  -2.2103345419404775E-002  0.14154721720654032        0.0000000000000000     
  -2.2541329976845687E-002  0.14913321780114475        0.0000000000000000     
  -2.2949062563324851E-002  0.15683066982807115        0.0000000000000000     
  -2.3326543178842276E-002  0.16463957328731949        0.0000000000000000     
  -2.7148749083107746E-002  0.13422753518325875        0.0000000000000000     
  -2.7735653639878607E-002  0.14169183686803721        0.0000000000000000     
  -2.8284830823917917E-002  0.14926700138071558        0.0000000000000000     
  -2.8796280635225650E-002  0.15695302872129396        0.0000000000000000     
  -2.9270003073801832E-002  0.16474991888977225        0.0000000000000000     
  -3.2748174870218562E-002  0.13441861718882972        0.0000000000000000     
  -3.3453655646164170E-002  0.14187025724169031        0.0000000000000000     
  -3.4113681226134999E-002  0.14943246346423794        0.0000000000000000     
  -3.4728251610131051E-002  0.15710523585647271        0.0000000000000000     
  -3.5297366798152326E-002  0.16488857441839455        0.0000000000000000     
  -3.8433386252334570E-002  0.13464591406097084        0.0000000000000000     
  -3.9257351438261458E-002  0.14208247832749962        0.0000000000000000     
  -4.0027881183496948E-002  0.14962960405171180        0.0000000000000000     
  -4.0744975488041048E-002  0.15728729123360735        0.0000000000000000     
  -4.1408634351893757E-002  0.16505553987318636        0.0000000000000000     
  -4.4204383229455767E-002  0.13490942579968204        0.0000000000000000     
  -4.5146741016170451E-002  0.14232850012546513        0.0000000000000000     
  -4.6027430696003749E-002  0.14985842314313713        0.0000000000000000     
  -4.6846452268955639E-002  0.15749919485269795        0.0000000000000000     
  -4.7603805735026122E-002  0.16525081525414770        0.0000000000000000     
   0.0000000000000000        0.0000000000000000        0.0000000000000000     
  -1.7983812427246537E-003   1.2768705790985569E-003   0.0000000000000000     
  -3.6214609698264691E-003   2.9392155837798576E-003   0.0000000000000000     
  -5.4692391813054462E-003   4.9870350140439014E-003   0.0000000000000000     
  -7.3417158771615842E-003   7.4203288698906893E-003   0.0000000000000000     
   0.0000000000000000        0.0000000000000000        0.0000000000000000     
  -2.0694831468787440E-003   1.3550132884516900E-003   0.0000000000000000     
  -4.1641541906601966E-003   3.0941090071540298E-003   0.0000000000000000     
  -6.2840131313443588E-003   5.2172871561070189E-003   0.0000000000000000     
  -8.4290599689312278E-003   7.7245477353106570E-003   0.0000000000000000     
   0.0000000000000000        0.0000000000000000        0.0000000000000000     
  -2.3401262336471113E-003   1.4590814694551714E-003   0.0000000000000000     
  -4.7202401712042206E-003   3.3000264967092269E-003   0.0000000000000000     
  -7.1403418126713292E-003   5.5228350817621667E-003   0.0000000000000000     
  -9.6004311580484367E-003   8.1275072246139932E-003   0.0000000000000000     
   0.0000000000000000        0.0000000000000000        0.0000000000000000     
  -2.6103105030297544E-003   1.5890751221090010E-003   0.0000000000000000     
  -5.2897189114585411E-003   3.5569680524454497E-003   0.0000000000000000     
  -8.0382252252863585E-003   5.9036787910093464E-003   0.0000000000000000     
  -1.0855829444513208E-002   8.6292073378006918E-003   0.0000000000000000     
   0.0000000000000000        0.0000000000000000        0.0000000000000000     
  -2.8800359550266745E-003   1.7449942464131782E-003   0.0000000000000000     
  -5.8725904114231564E-003   3.8649336743626977E-003   0.0000000000000000     
  -8.9776633691894450E-003   6.3598182838485581E-003   0.0000000000000000     
  -1.2195254828325541E-002   9.2296480748707589E-003   0.0000000000000000     
  -7.3417158771615842E-003   7.4203288698906893E-003   0.0000000000000000     
  -9.2312645904257407E-003   1.0186666340076339E-002   0.0000000000000000     
  -1.1130258854128775E-002   1.3233616613356976E-002   0.0000000000000000     
  -1.3038698668270683E-002   1.6561179689732600E-002   0.0000000000000000     
  -1.4956584032851467E-002   2.0169355569203198E-002   0.0000000000000000     
  -8.4290599689312278E-003   7.7245477353106570E-003   0.0000000000000000     
  -1.0591021456469743E-002   1.0558468205255791E-002   0.0000000000000000     
  -1.2761624347008822E-002   1.3661626026433272E-002   0.0000000000000000     
  -1.4940868640548478E-002   1.7034021198843091E-002   0.0000000000000000     
  -1.7128754337088704E-002   2.0675653722485251E-002   0.0000000000000000     
  -9.6004311580484367E-003   8.1275072246139932E-003   0.0000000000000000     
  -1.2077000824118488E-002   1.1046689266418455E-002   0.0000000000000000     
  -1.4546543427664422E-002   1.4213027548329303E-002   0.0000000000000000     
  -1.7009058968686239E-002   1.7626522070346540E-002   0.0000000000000000     
  -1.9464547447183941E-002   2.1287172832470173E-002   0.0000000000000000     
  -1.0855829444513208E-002   8.6292073378006918E-003   0.0000000000000000     
  -1.3689202693371982E-002   1.1651329523564324E-002   0.0000000000000000     
  -1.6485016096095571E-002   1.4887821179045083E-002   0.0000000000000000     
  -1.9243269652683966E-002   1.8338682304242966E-002   0.0000000000000000     
  -2.1963963363137183E-002   2.2003912899157967E-002   0.0000000000000000     
  -1.2195254828325541E-002   9.2296480748707589E-003   0.0000000000000000     
  -1.5427627064230223E-002   1.2372388976693405E-002   0.0000000000000000     
  -1.8577042352302266E-002   1.5686006918580599E-002   0.0000000000000000     
  -2.1643500692541662E-002   1.9170501900532343E-002   0.0000000000000000     
  -2.4627002084948422E-002   2.2825873922548638E-002   0.0000000000000000     
  -1.4956584032851467E-002   2.0169355569203198E-002   0.0000000000000000     
  -1.6858576534811102E-002   2.4029457911925470E-002   0.0000000000000000     
  -1.8719337761089565E-002   2.8112800378056076E-002   0.0000000000000000     
  -2.0538867711686861E-002   3.2419382967595015E-002   0.0000000000000000     
  -2.2317166386602982E-002   3.6949205680542309E-002   0.0000000000000000     
  -1.7128754337088704E-002   2.0675653722485251E-002   0.0000000000000000     
  -1.9294099491981020E-002   2.4558679887296389E-002   0.0000000000000000     
  -2.1405722160576953E-002   2.8655255983213127E-002   0.0000000000000000     
  -2.3463622342876491E-002   3.2965382010235474E-002   0.0000000000000000     
  -2.5467800038879648E-002   3.7489057968363423E-002   0.0000000000000000     
  -1.9464547447183941E-002   2.1287172832470173E-002   0.0000000000000000     
  -2.1884824993752768E-002   2.5175964813271265E-002   0.0000000000000000     
  -2.4241707738987962E-002   2.9273882991320894E-002   0.0000000000000000     
  -2.6535195682889520E-002   3.3580927366619058E-002   0.0000000000000000     
  -2.8765288825457449E-002   3.8097097939165755E-002   0.0000000000000000     
  -2.1963963363137183E-002   2.2003912899157967E-002   0.0000000000000000     
  -2.4630753040126345E-002   2.5881312689850108E-002   0.0000000000000000     
  -2.7227294496322600E-002   2.9968681402379366E-002   0.0000000000000000     
  -2.9753587731725956E-002   3.4266019036745768E-002   0.0000000000000000     
  -3.2209632746336397E-002   3.8773325592949298E-002   0.0000000000000000     
  -2.4627002084948422E-002   2.2825873922548638E-002   0.0000000000000000     
  -2.7531883631101754E-002   2.6674723517032897E-002   0.0000000000000000     
  -3.0362482432580877E-002   3.0739651216388553E-002   0.0000000000000000     
  -3.3118798489385780E-002   3.5020657020615603E-002   0.0000000000000000     
  -3.5800831801516476E-002   3.9517740929714051E-002   0.0000000000000000     
  -2.2317166386602982E-002   3.6949205680542309E-002   0.0000000000000000     
  -2.4051141020950684E-002   4.1693870273264912E-002   0.0000000000000000     
  -2.5737698849842706E-002   4.6644978502129800E-002   0.0000000000000000     
  -2.7376839873279067E-002   5.1802530367136994E-002   0.0000000000000000     
  -2.8968564091259755E-002   5.7166525868286473E-002   0.0000000000000000     
  -2.5467800038879648E-002   3.7489057968363423E-002   0.0000000000000000     
  -2.7418574865470880E-002   4.2222613757203299E-002   0.0000000000000000     
  -2.9316266439534670E-002   4.7162379276361403E-002   0.0000000000000000     
  -3.1160874761070999E-002   5.2308354525837757E-002   0.0000000000000000     
  -3.2952399830079887E-002   5.7660539505632338E-002   0.0000000000000000     
  -2.8765288825457449E-002   3.8097097939165755E-002   0.0000000000000000     
  -3.0934007688941143E-002   4.2820053264754257E-002   0.0000000000000000     
  -3.3043372795590026E-002   4.7747451899177826E-002   0.0000000000000000     
  -3.5093384145404076E-002   5.2879293842436469E-002   0.0000000000000000     
  -3.7084041738383304E-002   5.8215579094530193E-002   0.0000000000000000     
  -3.2209632746336397E-002   3.8773325592949298E-002   0.0000000000000000     
  -3.4597439491361487E-002   4.3486188795917792E-002   0.0000000000000000     
  -3.6919017918008779E-002   4.8400196370579074E-002   0.0000000000000000     
  -3.9174368026278293E-002   5.3515348316933165E-002   0.0000000000000000     
  -4.1363489816170010E-002   5.8831644634980029E-002   0.0000000000000000     
  -3.5800831801516476E-002   3.9517740929714051E-002   0.0000000000000000     
  -3.8408870272731883E-002   4.4221020350693897E-002   0.0000000000000000     
  -4.0943201806790945E-002   4.9120612690565148E-002   0.0000000000000000     
  -4.3403826403693641E-002   5.4216517949327817E-002   0.0000000000000000     
  -4.5790744063439998E-002   5.9508736126981876E-002   0.0000000000000000     
  -2.8968564091259755E-002   5.7166525868286473E-002   0.0000000000000000     
  -3.0512159369886063E-002   6.2724471863628811E-002   0.0000000000000000     
  -3.2006913575259276E-002   6.8463875211214512E-002   0.0000000000000000     
  -3.3452826707379403E-002   7.4384735911043609E-002   0.0000000000000000     
  -3.4849898766246439E-002   8.0487053963116104E-002   0.0000000000000000     
  -3.2952399830079887E-002   5.7660539505632338E-002   0.0000000000000000     
  -3.4689520772625930E-002   6.3205923761754310E-002   0.0000000000000000     
  -3.6370916714773743E-002   6.8931496840212825E-002   0.0000000000000000     
  -3.7996587656523327E-002   7.4837258741007884E-002   0.0000000000000000     
  -3.9566533597874660E-002   8.0923209464139501E-002   0.0000000000000000     
  -3.7084041738383304E-002   5.8215579094530193E-002   0.0000000000000000     
  -3.9013954061790902E-002   6.3744117994638569E-002   0.0000000000000000     
  -4.0881729602890042E-002   6.9452720881941224E-002   0.0000000000000000     
  -4.2687368361680703E-002   7.5341387756438144E-002   0.0000000000000000     
  -4.4430870338162912E-002   8.1410118618129329E-002   0.0000000000000000     
  -4.1363489816170010E-002   5.8831644634980029E-002   0.0000000000000000     
  -4.3485459237380952E-002   6.4339054562281589E-002   0.0000000000000000     
  -4.5539352239608123E-002   7.0027547336399695E-002   0.0000000000000000     
  -4.7525168822851523E-002   7.5897122957334334E-002   0.0000000000000000     
  -4.9442908987111171E-002   8.1947781425085561E-002   0.0000000000000000     
  -4.5790744063439998E-002   5.9508736126981876E-002   0.0000000000000000     
  -4.8104036299396087E-002   6.4990733464683356E-002   0.0000000000000000     
  -5.0343784624928029E-002   7.0655976203588239E-002   0.0000000000000000     
  -5.2509989040035815E-002   7.6504464343696538E-002   0.0000000000000000     
  -5.4602649544719425E-002   8.2536197885008239E-002   0.0000000000000000     
  -3.4849898766246439E-002   8.0487053963116104E-002   0.0000000000000000     
  -3.6196681277532408E-002   8.6759375425926655E-002   0.0000000000000000     
  -3.7491725766909359E-002   9.3190246357969922E-002   0.0000000000000000     
  -3.8735032234377284E-002   9.9779666759245891E-002   0.0000000000000000     
  -3.9926600679936183E-002  0.10652763662975459        0.0000000000000000     
  -3.9566533597874660E-002   8.0923209464139501E-002   0.0000000000000000     
  -4.1079961726103134E-002   8.7178680965060637E-002   0.0000000000000000     
  -4.2536079228484083E-002   9.3593005199224324E-002   0.0000000000000000     
  -4.3934886105017494E-002  0.10016618216663051        0.0000000000000000     
  -4.5276382355703394E-002  0.10689821186727921        0.0000000000000000     
  -4.4430870338162912E-002   8.1410118618129329E-002   0.0000000000000000     
  -4.6111776155263233E-002   8.7648148033010770E-002   0.0000000000000000     
  -4.7729626435908279E-002   9.4044710567078513E-002   0.0000000000000000     
  -4.9284421180098008E-002  0.10059980622033249        0.0000000000000000     
  -5.0776160387832441E-002  0.10731343499277274        0.0000000000000000     
  -4.9442908987111171E-002   8.1947781425085561E-002   0.0000000000000000     
  -5.1292124565012732E-002   8.8167776629777025E-002   0.0000000000000000     
  -5.3072367389181946E-002   9.4545362461532473E-002   0.0000000000000000     
  -5.4783637459618811E-002  0.10108053892035183        0.0000000000000000     
  -5.6425934776323308E-002  0.10777330600623514        0.0000000000000000     
  -5.4602649544719425E-002   8.2536197885008239E-002   0.0000000000000000     
  -5.6621006955351612E-002   8.8737566755359432E-002   0.0000000000000000     
  -5.8564302088305112E-002   9.5094960882586219E-002   0.0000000000000000     
  -6.0432534943579898E-002  0.10160838026668856        0.0000000000000000     
  -6.2225705521175997E-002  0.10827782490766646        0.0000000000000000     
  -3.9926600679936183E-002  0.10652763662975459        0.0000000000000000     
  -4.1068236665234445E-002  0.11342193190671884        0.0000000000000000     
  -4.2161745751920478E-002  0.12045032852736151        0.0000000000000000     
  -4.3207127939994233E-002  0.12761282649168257        0.0000000000000000     
  -4.4204383229455767E-002  0.13490942579968204        0.0000000000000000     
  -4.5276382355703394E-002  0.10689821186727921        0.0000000000000000     
  -4.6562264823460819E-002  0.11377629254160389        0.0000000000000000     
  -4.7794230351208798E-002  0.12078762243003793        0.0000000000000000     
  -4.8972278938947338E-002  0.12793220153258134        0.0000000000000000     
  -5.0096410586676424E-002  0.13521002984923408        0.0000000000000000     
  -5.0776160387832441E-002  0.10731343499277274        0.0000000000000000     
  -5.2206853512541181E-002  0.11417280453311809        0.0000000000000000     
  -5.3578510007653832E-002  0.12116512249008735        0.0000000000000000     
  -5.4891129873170373E-002  0.12829038886368055        0.0000000000000000     
  -5.6144713109090846E-002  0.13554860365389759        0.0000000000000000     
  -5.6425934776323308E-002  0.10777330600623514        0.0000000000000000     
  -5.8002002732475529E-002  0.11461146788126148        0.0000000000000000     
  -5.9514584721255551E-002  0.12158282870750982        0.0000000000000000     
  -6.0963680742663381E-002  0.12868738848498018        0.0000000000000000     
  -6.2349290796699014E-002  0.13592514721367258        0.0000000000000000     
  -6.2225705521175997E-002  0.10827782490766646        0.0000000000000000     
  -6.3947712483263849E-002  0.11509228258603402        0.0000000000000000     
  -6.5602454492013976E-002  0.12204074108230531        0.0000000000000000     
  -6.7189931547426335E-002  0.12912320039648034        0.0000000000000000     
  -6.8710143649500940E-002  0.13633966052855911        0.0000000000000000     
  -4.4204383229455767E-002  0.13490942579968204        0.0000000000000000     
  -4.5146741016170451E-002  0.14232850012546513        0.0000000000000000     
  -4.6027430696003749E-002  0.14985842314313713        0.0000000000000000     
  -4.6846452268955639E-002  0.15749919485269795        0.0000000000000000     
  -4.7603805735026122E-002  0.16525081525414770        0.0000000000000000     
  -5.0096410586676424E-002  0.13521002984923408        0.0000000000000000     
  -5.1159395027773641E-002  0.14261006298656648        0.0000000000000000     
  -5.2154001995616560E-002  0.15012125655114875        0.0000000000000000     
  -5.3080231490205174E-002  0.15774361054298100        0.0000000000000000     
  -5.3938083511539468E-002  0.16547712496206313        0.0000000000000000     
  -5.6144713109090846E-002  0.13554860365389759        0.0000000000000000     
  -5.7332884120953477E-002  0.14292890726178306        0.0000000000000000     
  -5.8449267314296512E-002  0.15042044008838154        0.0000000000000000     
  -5.9493862689119971E-002  0.15802320213369295        0.0000000000000000     
  -6.0466670245423834E-002  0.16573719339771731        0.0000000000000000     
  -6.2349290796699014E-002  0.13592514721367258        0.0000000000000000     
  -6.3667208295709932E-002  0.14328503295111503        0.0000000000000000     
  -6.4913226652043604E-002  0.15075597375483540        0.0000000000000000     
  -6.6087345865700045E-002  0.15833796962483385        0.0000000000000000     
  -6.7189565936679227E-002  0.16603102056111027        0.0000000000000000     
  -6.8710143649500940E-002  0.13633966052855911        0.0000000000000000     
  -7.0162367552043040E-002  0.14367844005456223        0.0000000000000000     
  -7.1545880008857837E-002  0.15112785755051042        0.0000000000000000     
  -7.2860681019945375E-002  0.15868791301640367        0.0000000000000000     
  -7.4106770585305626E-002  0.16635860645224193        0.0000000000000000     
   0.0000000000000000        0.0000000000000000        0.0000000000000000     
  -2.8800359550266745E-003   1.7449942464131782E-003   0.0000000000000000     
  -5.8725904114231564E-003   3.8649336743626977E-003   0.0000000000000000     
  -8.9776633691894450E-003   6.3598182838485581E-003   0.0000000000000000     
  -1.2195254828325541E-002   9.2296480748707589E-003   0.0000000000000000     
   0.0000000000000000        0.0000000000000000        0.0000000000000000     
  -3.2831575137174025E-003   1.9995036612173184E-003   0.0000000000000000     
  -6.6768595001281362E-003   4.3312411738605887E-003   0.0000000000000000     
  -1.0181105959232203E-002   6.9952125379298125E-003   0.0000000000000000     
  -1.3795896891029599E-002   9.9914177534249880E-003   0.0000000000000000     
   0.0000000000000000        0.0000000000000000        0.0000000000000000     
  -3.9535301031814714E-003   2.4252681853710358E-003   0.0000000000000000     
  -7.9105310066035529E-003   5.0632083623387428E-003   0.0000000000000000     
  -1.1871002710266247E-002   7.9138205309031203E-003   0.0000000000000000     
  -1.5834945214169550E-002   1.0977104691064173E-002   0.0000000000000000     
   0.0000000000000000        0.0000000000000000        0.0000000000000000     
  -4.8911537234188791E-003   3.0222878188743306E-003   0.0000000000000000     
  -9.5736049308494057E-003   6.0608352397971575E-003   0.0000000000000000     
  -1.4047353622291576E-002   9.1156422627684860E-003   0.0000000000000000     
  -1.8312399797745391E-002   1.2186708887788311E-002   0.0000000000000000     
   0.0000000000000000        0.0000000000000000        0.0000000000000000     
  -6.0960283744296295E-003   3.7905625617272024E-003   0.0000000000000000     
  -1.1666081272865692E-002   7.3241218062358370E-003   0.0000000000000000     
  -1.6710158695308189E-002   1.0600677733525904E-002   0.0000000000000000     
  -2.1228260641757112E-002   1.3620230343597405E-002   0.0000000000000000     
  -1.2195254828325541E-002   9.2296480748707589E-003   0.0000000000000000     
  -1.5427627064230223E-002   1.2372388976693405E-002   0.0000000000000000     
  -1.8577042352302266E-002   1.5686006918580599E-002   0.0000000000000000     
  -2.1643500692541662E-002   1.9170501900532343E-002   0.0000000000000000     
  -2.4627002084948422E-002   2.2825873922548638E-002   0.0000000000000000     
  -1.3795896891029599E-002   9.9914177534249880E-003   0.0000000000000000     
  -1.7404130876075705E-002   1.3221905128626740E-002   0.0000000000000000     
  -2.0888706494925892E-002   1.6588722971815698E-002   0.0000000000000000     
  -2.4249623747580152E-002   2.0091871282991863E-002   0.0000000000000000     
  -2.7486882634038493E-002   2.3731350062155224E-002   0.0000000000000000     
  -1.5834945214169550E-002   1.0977104691064173E-002   0.0000000000000000     
  -1.9730571068290927E-002   1.4211915482185374E-002   0.0000000000000000     
  -2.3486092822607829E-002   1.7577107543630212E-002   0.0000000000000000     
  -2.7101510477120266E-002   2.1072680875398681E-002   0.0000000000000000     
  -3.0576824031828230E-002   2.4698635477490790E-002   0.0000000000000000     
  -1.8312399797745391E-002   1.2186708887788311E-002   0.0000000000000000     
  -2.2406947640875880E-002   1.5342420037369305E-002   0.0000000000000000     
  -2.6369201335348084E-002   1.8651160634024139E-002   0.0000000000000000     
  -3.0199160881162004E-002   2.2112930677752822E-002   0.0000000000000000     
  -3.3896826278317631E-002   2.5727730168555330E-002   0.0000000000000000     
  -2.1228260641757112E-002   1.3620230343597405E-002   0.0000000000000000     
  -2.5433260593830571E-002   1.6613418794178533E-002   0.0000000000000000     
  -2.9538032033146647E-002   1.9810882242997485E-002   0.0000000000000000     
  -3.3542574959705355E-002   2.3212620690054260E-002   0.0000000000000000     
  -3.7446889373506695E-002   2.6818634135348855E-002   0.0000000000000000     
  -2.4627002084948422E-002   2.2825873922548638E-002   0.0000000000000000     
  -2.7531883631101754E-002   2.6674723517032897E-002   0.0000000000000000     
  -3.0362482432580877E-002   3.0739651216388553E-002   0.0000000000000000     
  -3.3118798489385780E-002   3.5020657020615603E-002   0.0000000000000000     
  -3.5800831801516476E-002   3.9517740929714051E-002   0.0000000000000000     
  -2.7486882634038493E-002   2.3731350062155224E-002   0.0000000000000000     
  -3.0623625459255528E-002   2.7549651595350801E-002   0.0000000000000000     
  -3.3682994528185864E-002   3.1589268168623598E-002   0.0000000000000000     
  -3.6664989840829498E-002   3.5850199781973610E-002   0.0000000000000000     
  -3.9569611397186427E-002   4.0332446435400841E-002   0.0000000000000000     
  -3.0576824031828230E-002   2.4698635477490790E-002   0.0000000000000000     
  -3.3941387217164200E-002   2.8499551225334964E-002   0.0000000000000000     
  -3.7224553763560660E-002   3.2520007994359640E-002   0.0000000000000000     
  -4.0426323671017582E-002   3.6760005784564821E-002   0.0000000000000000     
  -4.3546696939535001E-002   4.1219544595950501E-002   0.0000000000000000     
  -3.3896826278317631E-002   2.5727730168555330E-002   0.0000000000000000     
  -3.7485168904827774E-002   2.9524422406985391E-002   0.0000000000000000     
  -4.0987160138705264E-002   3.3531870693596692E-002   0.0000000000000000     
  -4.4402799979950051E-002   3.7750075028389236E-002   0.0000000000000000     
  -4.7732088428562185E-002   4.2179035411363017E-002   0.0000000000000000     
  -3.7446889373506695E-002   2.6818634135348855E-002   0.0000000000000000     
  -4.1254970522246262E-002   3.0624265140302080E-002   0.0000000000000000     
  -4.4970813653619664E-002   3.4624856266334748E-002   0.0000000000000000     
  -4.8594418767626900E-002   3.8820407513446856E-002   0.0000000000000000     
  -5.2125785864267971E-002   4.3210918881638402E-002   0.0000000000000000     
  -3.5800831801516476E-002   3.9517740929714051E-002   0.0000000000000000     
  -3.8408870272731883E-002   4.4221020350693897E-002   0.0000000000000000     
  -4.0943201806790945E-002   4.9120612690565148E-002   0.0000000000000000     
  -4.3403826403693641E-002   5.4216517949327817E-002   0.0000000000000000     
  -4.5790744063439998E-002   5.9508736126981876E-002   0.0000000000000000     
  -3.9569611397186427E-002   4.0332446435400841E-002   0.0000000000000000     
  -4.2394933971555429E-002   4.5021605562444306E-002   0.0000000000000000     
  -4.5139032338235241E-002   4.9903274596643038E-002   0.0000000000000000     
  -4.7801906497225863E-002   5.4977453537997004E-002   0.0000000000000000     
  -5.0383556448527302E-002   6.0244142386506230E-002   0.0000000000000000     
  -4.3546696939535001E-002   4.1219544595950501E-002   0.0000000000000000     
  -4.6582264526335175E-002   4.5885002064530771E-002   0.0000000000000000     
  -4.9529617388640396E-002   5.0742755826319708E-002   0.0000000000000000     
  -5.2388755526450663E-002   5.5792805881317332E-002   0.0000000000000000     
  -5.5159678939765963E-002   6.1035152229523625E-002   0.0000000000000000     
  -4.7732088428562185E-002   4.2179035411363017E-002   0.0000000000000000     
  -5.0970861937071128E-002   4.6811209856953258E-002   0.0000000000000000     
  -5.4114956958006416E-002   5.1639056379595177E-002   0.0000000000000000     
  -5.7164373491368027E-002   5.6662574979288761E-002   0.0000000000000000     
  -6.0119111537155968E-002   6.1881765656034038E-002   0.0000000000000000     
  -5.2125785864267971E-002   4.3210918881638402E-002   0.0000000000000000     
  -5.5560726203763289E-002   4.7800228939711802E-002   0.0000000000000000     
  -5.8895051046333295E-002   5.2592176256469440E-002   0.0000000000000000     
  -6.2128760391977976E-002   5.7586760831911339E-002   0.0000000000000000     
  -6.5261854240697331E-002   6.2783982666037491E-002   0.0000000000000000     
  -4.5790744063439998E-002   5.9508736126981876E-002   0.0000000000000000     
  -4.8104036299396087E-002   6.4990733464683356E-002   0.0000000000000000     
  -5.0343784624928029E-002   7.0655976203588239E-002   0.0000000000000000     
  -5.2509989040035815E-002   7.6504464343696538E-002   0.0000000000000000     
  -5.4602649544719425E-002   8.2536197885008239E-002   0.0000000000000000     
  -5.0383556448527302E-002   6.0244142386506230E-002   0.0000000000000000     
  -5.2885402817309989E-002   6.5699656019633942E-002   0.0000000000000000     
  -5.5308866228744348E-002   7.1340309314843364E-002   0.0000000000000000     
  -5.7653946682830394E-002   7.7166102272134468E-002   0.0000000000000000     
  -5.9920644179568126E-002   8.3177034891507309E-002   0.0000000000000000     
  -5.5159678939765963E-002   6.1035152229523625E-002   0.0000000000000000     
  -5.7845276360596318E-002   6.6466323544923406E-002   0.0000000000000000     
  -6.0448436520951720E-002   7.2082848501501526E-002   0.0000000000000000     
  -6.2969159420832171E-002   7.7884727099257964E-002   0.0000000000000000     
  -6.5407445060237684E-002   8.3871959338192720E-002   0.0000000000000000     
  -6.0119111537155968E-002   6.1881765656034038E-002   0.0000000000000000     
  -6.2983656929255075E-002   6.7290736040551760E-002   0.0000000000000000     
  -6.5762495501550111E-002   7.2883593763562751E-002   0.0000000000000000     
  -6.8455627254041140E-002   7.8660338825066997E-002   0.0000000000000000     
  -7.1063052186728135E-002   8.4620971225064484E-002   0.0000000000000000     
  -6.5261854240697331E-002   6.2783982666037491E-002   0.0000000000000000     
  -6.8300544523286238E-002   6.8172893506519006E-002   0.0000000000000000     
  -7.1251043170539541E-002   7.3742545101027027E-002   0.0000000000000000     
  -7.4113350182457280E-002   7.9492937449561568E-002   0.0000000000000000     
  -7.6887465559039414E-002   8.5424070552122616E-002   0.0000000000000000     
  -5.4602649544719425E-002   8.2536197885008239E-002   0.0000000000000000     
  -5.6621006955351612E-002   8.8737566755359432E-002   0.0000000000000000     
  -5.8564302088305112E-002   9.5094960882586219E-002   0.0000000000000000     
  -6.0432534943579898E-002  0.10160838026668856        0.0000000000000000     
  -6.2225705521175997E-002  0.10827782490766646        0.0000000000000000     
  -5.9920644179568126E-002   8.3177034891507309E-002   0.0000000000000000     
  -6.2107453436415647E-002   8.9357838035156067E-002   0.0000000000000000     
  -6.4212869170831036E-002   9.5693242565274908E-002   0.0000000000000000     
  -6.6236891382814342E-002  0.10218324848186389        0.0000000000000000     
  -6.8179520072365565E-002  0.10882785578492295        0.0000000000000000     
  -6.5407445060237684E-002   8.3871959338192720E-002   0.0000000000000000     
  -6.7760494118340550E-002   9.0028910094564929E-002   0.0000000000000000     
  -7.0025507274313087E-002   9.6339944244633699E-002   0.0000000000000000     
  -7.2202484528155239E-002  0.10280506178839906        0.0000000000000000     
  -7.4291425879867062E-002  0.10942426272586098        0.0000000000000000     
  -7.1063052186728135E-002   8.4620971225064484E-002   0.0000000000000000     
  -7.3580129001126371E-002   9.0750782933586085E-002   0.0000000000000000     
  -7.6002216398751168E-002   9.7035065920662619E-002   0.0000000000000000     
  -7.8329314379602541E-002  0.10347382018629410        0.0000000000000000     
  -8.0561422943680502E-002  0.11006704573048051        0.0000000000000000     
  -7.6887465559039414E-002   8.5424070552122616E-002   0.0000000000000000     
  -7.9566358084773081E-002   9.1523456552219509E-002   0.0000000000000000     
  -8.2142996544145364E-002   9.7778607593361641E-002   0.0000000000000000     
  -8.4617380937156303E-002  0.10418952367554900        0.0000000000000000     
  -8.6989511263805858E-002  0.11075620479878159        0.0000000000000000     
  -6.2225705521175997E-002  0.10827782490766646        0.0000000000000000     
  -6.3947712483263849E-002  0.11509228258603402        0.0000000000000000     
  -6.5602454492013976E-002  0.12204074108230531        0.0000000000000000     
  -6.7189931547426335E-002  0.12912320039648034        0.0000000000000000     
  -6.8710143649500940E-002  0.13633966052855911        0.0000000000000000     
  -6.8179520072365565E-002  0.10882785578492295        0.0000000000000000     
  -7.0045628502926657E-002  0.11561725939524389        0.0000000000000000     
  -7.1840089937939583E-002  0.12254165423361835        0.0000000000000000     
  -7.3562904377404384E-002  0.12960104030004641        0.0000000000000000     
  -7.5214071821321019E-002  0.13679541759452801        0.0000000000000000     
  -7.4291425879867062E-002  0.10942426272586098        0.0000000000000000     
  -7.6297396529484321E-002  0.11618840905669922        0.0000000000000000     
  -7.8225461677042862E-002  0.12308836278059349        0.0000000000000000     
  -8.0075621322542617E-002  0.13012412389754385        0.0000000000000000     
  -8.1847875465983655E-002  0.13729569240755021        0.0000000000000000     
  -8.0561422943680502E-002  0.11006704573048051        0.0000000000000000     
  -8.2703016562936937E-002  0.11680573157040004        0.0000000000000000     
  -8.4758569709323786E-002  0.12368086672323074        0.0000000000000000     
  -8.6728082382841118E-002  0.13069245118897263        0.0000000000000000     
  -8.8611554583488877E-002  0.13784048496762577        0.0000000000000000     
  -8.6989511263805858E-002  0.11075620479878159        0.0000000000000000     
  -8.9262488603284423E-002  0.11746922693634630        0.0000000000000000     
  -9.1439414034782410E-002  0.12431916606153004        0.0000000000000000     
  -9.3520287558299817E-002  0.13130602217433282        0.0000000000000000     
  -9.5505109173836644E-002  0.13842979527475460        0.0000000000000000     
  -6.8710143649500940E-002  0.13633966052855911        0.0000000000000000     
  -7.0162367552043040E-002  0.14367844005456223        0.0000000000000000     
  -7.1545880008857837E-002  0.15112785755051042        0.0000000000000000     
  -7.2860681019945375E-002  0.15868791301640367        0.0000000000000000     
  -7.4106770585305626E-002  0.16635860645224193        0.0000000000000000     
  -7.5214071821321019E-002  0.13679541759452801        0.0000000000000000     
  -7.6794305536997273E-002  0.14411193591506793        0.0000000000000000     
  -7.8304318791740907E-002  0.15153774505967099        0.0000000000000000     
  -7.9744111585551891E-002  0.15907284502833707        0.0000000000000000     
  -8.1113683918430296E-002  0.16671723582106635        0.0000000000000000     
  -8.1847875465983655E-002  0.13729569240755021        0.0000000000000000     
  -8.3538965897617182E-002  0.14458832787557524        0.0000000000000000     
  -8.5145634407694543E-002  0.15198728986658144        0.0000000000000000     
  -8.6667880996215571E-002  0.15949257838056882        0.0000000000000000     
  -8.8105705663180420E-002  0.16710419341753735        0.0000000000000000     
  -8.8611554583488877E-002  0.13784048496762577        0.0000000000000000     
  -9.0396348633902793E-002  0.14510761593608409        0.0000000000000000     
  -9.2069826856718620E-002  0.15247649197124180        0.0000000000000000     
  -9.3631989251936359E-002  0.15994711307309881        0.0000000000000000     
  -9.5082835819556011E-002  0.16751947924165506        0.0000000000000000     
  -9.5505109173836644E-002  0.13842979527475460        0.0000000000000000     
  -9.7366453745854065E-002  0.14566980009659464        0.0000000000000000     
  -9.9076896138813292E-002  0.15300535137365212        0.0000000000000000     
 -0.10063643635271428       0.16043644910592703        0.0000000000000000     
 -0.10204507438755708       0.16796309329341935        0.0000000000000000     
 </DataArray>
 <DataArray  type="Float64" Name="stress" NumberOfComponents="3" format="ascii">
   13416825204.256138        4025047561.2768412        2894078193.4458895     
   11766582745.753786        1890482412.4567425        1715860236.3199146     
   10313628632.366425        413545080.68661070        810742179.67165303     
   9057962864.0940514       -405764434.03355026        178724023.50110570     
   7999585440.9366703       -567446131.70374584       -180194232.19172779     
   10539966554.216764        3161989966.2650294        2225839766.9895353     
   9667534014.6153297        1589577603.0683334        1446770572.9640460     
   8943745968.3521252        512646884.33240128        863189234.77922535     
   8368602415.4271507       -68802189.942767620        475095752.43507296     
   7942103355.8404016       -154769619.75717545        282490125.93159056     
   8337852560.3334761        2501355768.1000428        1712442232.2567260     
   8021481240.6699734        1424571580.8378553        1275770640.9255009     
   7805110562.5679398        681122865.44722557        956974860.79789793     
   7688740526.0273743        271009621.92815399        756054891.87392044     
   7672371131.0482750        194231850.28063679        673010734.15356493     
   6810483222.6062746        2043144966.7818823        1353885589.2474623     
   6828424423.9177217        1395464345.7653081        1202860440.2042780     
   6897722415.0138721        918973024.03108478        1092099057.7276719     
   7018377195.8947296        613671001.57921386        1021601441.8176455     
   7190388766.5602913        479558278.40969324        991367592.47419763     
   5957858541.0351572        1787357562.3105474        1150169837.9617431     
   6088363564.3585653        1502255897.8506901        1228039970.8003781     
   6221581525.6899185        1226197360.0839791        1268561825.5685475     
   6357512425.0292139        959181949.01041281        1271735402.2662494     
   6496156262.3764534        701209664.62999249        1237560700.8934867     
   7999585440.9366703       -567446131.70374584       -180194232.19172779     
   7917387826.3432827       -199975698.86999464       -78243835.149069518     
   7793702869.6688070        29203593.693459034       -8928622.0960074607     
   7628530570.9132395        120091745.98660851        27751406.967461899     
   7421870930.0765839        72688758.009462357        31796252.041336481     
   7942103355.8404016       -154769619.75717545        282490125.93159056     
   7739446727.9597712        16390838.781177521        281266050.68170112     
   7513403953.2294340        109597474.48717499        265318681.73015502     
   7263975031.6493902        124850287.36081600        234648019.07695442     
   6991159963.2196388        62149277.402100563        189254062.72209635     
   7672371131.0482750        194231850.28063679        673010734.15356493     
   7400432319.2745066        184435383.34182215        589730247.71441066     
   7123208555.8824167        157022411.00859594        509638357.86153692     
   6840699840.8720026        111992933.28096056        432735064.59494609     
   6552906174.2432652        49346950.158911467        359020367.91463524     
   7190388766.5602913        479558278.40969324        991367592.47419763     
   6900344600.2874947        304157934.81194210        847148755.94905782     
   6623116677.6277580        171478403.25772691        724030406.29813659     
   6358704998.5810795        81519683.747041941        622012543.52143502     
   6107109563.1474628        34281776.279893398        541095167.61895287     
   6496156262.3764534        701209664.62999249        1237560700.8934867     
   6239183570.9987316        375558493.19153857        1053521575.3856430     
   6013128318.4654560        152965451.23456335        908494827.03995490     
   5817990504.7766237        33430538.759065866        802480455.85642529     
   5653770129.9322348        16953755.765045404        735478461.83505118     
   7421870930.0765839        72688758.009462357        31796252.041336481     
   7217435261.8851051       -18440159.066263676        14990387.510143613     
   7025216746.1755171       -68845234.535697937        2875644.4335779147     
   6845215382.9478092       -78526468.398865223       -4547977.1883679815     
   6677431172.2019863       -47483860.655740261       -7280477.3556892714     
   6991159963.2196388        62149277.402100563        189254062.72209635     
   6807475713.1603537        2517355.5599279404        181128819.56644297     
   6631570912.7675266       -31183067.394051075        177006546.92703390     
   6463445562.0411625       -38951991.459835052        176887244.80386499     
   6303099660.9812450       -20789416.637440920        180770913.19693747     
   6552906174.2432652        49346950.158911467        359020367.91463524     
   6388007196.7779369        20622179.888821602        354398426.18319315     
   6226449966.1636400        3036565.7888345718        353091304.02960676     
   6068234482.4003725       -3409892.1410579681        355099001.45388389     
   5913360745.4881334        1282806.0991523266        360421518.45601541     
   6107109563.1474628        34281776.279893398        541095167.61895287     
   5959029712.7378550        35874313.920415878        534799207.36038584     
   5809853906.3638496        33813665.012945890        531129915.74129719     
   5659582144.0254478        28099829.557487249        530087292.76168293     
   5508214425.7226448        18732807.554029465        531671338.42154509     
   5653770129.9322348        16953755.765045404        735478461.83505118     
   5520543261.0401087        48273757.654710531        722331163.09802938     
   5381782733.3681612        61148230.278290510        711122382.06210208     
   5237488546.9163837        55577173.635785341        701852118.72726727     
   5087660701.6847858        31560587.727197886        694520373.09352660     
   6677431172.2019863       -47483860.655740261       -7280477.3556892714     
   6495307617.0837498       -10623193.325411797        96733.247147685353     
   6307639346.5598564        7755089.3194065094        11663703.347542819     
   6114426360.6303062        7650987.2786912918        27420432.945494208     
   5915668659.2950935       -10935499.447556019        47366922.041008897     
   6303099660.9812450       -20789416.637440920        180770913.19693747     
   6127437855.5878067       -386444.31246471405        177806507.42342028     
   5948503305.2329454        9107378.1411051750        179420848.48034859     
   5766296009.9166584        7692050.7232470512        185613936.36772195     
   5580815969.6389513       -4632426.5660095215        196385771.08554050     
   5913360745.4881334        1282806.0991523266        360421518.45601541     
   5745272082.1991596        5561501.1326575279        349766128.49108738     
   5576182644.3930063        6504281.1088814735        344078472.68948776     
   5406092432.0696640        4111146.0278022289        343358551.05122310     
   5235001445.2291260       -1617904.1105697155        347606363.57628548     
   5508214425.7226448        18732807.554029465        531671338.42154509     
   5348810296.9178219        7220643.0099825859        515975596.45014632     
   5190677364.0400467       -54201.777238130569        505636575.97496295     
   5033815627.0893145       -3091726.8076472282        500654276.99599349     
   4878225086.0656281       -1891932.0812342167        501028699.51324594     
   5087660701.6847858        31560587.727197886        694520373.09352660     
   4938052499.7437792        4590981.3194966316        676434911.30059457     
   4791987464.1740561       -10568070.517271042        664095158.33676732     
   4649465594.9756136       -13916567.783104658        657501114.20204294     
   4510486892.1484480       -5454510.4779996872        656652778.89641905     
   5915668659.2950935       -10935499.447556019        47366922.041008897     
   5741613309.1652679       -26693509.631047487        54011158.857777752     
   5570081424.6704264       -34039967.697926283        62200584.534990788     
   5401073005.8105736       -32974873.648183107        71935199.072657287     
   5234588052.5856962       -23498227.481842279        83215002.470768616     
   5580815969.6389513       -4632426.5660095215        196385771.08554050     
   5413358733.7236156       -14299539.979860544        201806748.86070582     
   5247361400.5059919       -19100311.068009377        209352418.68588173     
   5082823969.9860830       -19034739.830455303        219022780.56106377     
   4919746442.1638775       -14102826.267201900        230817834.48626155     
   5235001445.2291260       -1617904.1105697155        347606363.57628548     
   5075798046.9270296       -4697403.7351603508        350563258.88302791     
   4916990988.3853760       -6455770.8249468803        356224349.42934561     
   4758580269.6041565       -6893005.3799517155        364589635.21523273     
   4600565890.5833750       -6009107.4001631737        375659116.24069524     
   4878225086.0656281       -1891932.0812342167        501028699.51324594     
   4728931248.7755203        2112899.1030697823        500280688.92475146     
   4578970188.3085756        3893653.0312564373        502816376.76538485     
   4428341904.6647892        3450329.7033097744        508635763.03516108     
   4277046397.8441725        782929.11925053596        517738847.73406589     
   4510486892.1484480       -5454510.4779996872        656652778.89641905     
   4372758339.2690763        6131368.5348196030        650959038.98586333     
   4233299000.2755880        11947960.500598431        649128500.69400477     
   4092108875.1679912        11995265.419348001        651161164.02084219     
   3949187963.9462886        6273283.2910697460        657057028.96637475     
   5234588052.5856962       -23498227.481842279        83215002.470768616     
   5039141862.5581083       -20559530.071196079        79563571.076133400     
   4842590067.7428379       -21306181.952815533        81391684.439992607     
   4644932668.1399088       -25738183.126633167        88699342.562348768     
   4446169663.7493076       -33855533.592693806        101486545.44319679     
   4919746442.1638775       -14102826.267201900        230817834.48626155     
   4737547516.3516464       -13500337.735421896        224577498.75775236     
   4554816376.4343643       -14671896.220483780        223586946.63921463     
   4371553022.4120264       -17617501.722395420        227846178.13066697     
   4187757454.2846398       -22337154.241135120        237355193.23210102     
   4600565890.5833750       -6009107.4001631737        375659116.24069524     
   4430957768.5621891       -7939765.8745331764        367498831.97468108     
   4261390823.1185699       -9733169.0903685093        364358570.17014205     
   4091865054.2525172       -11389317.047639132        366238330.82708329     
   3922380461.9640293       -12908209.746366262        373138113.94549066     
   4277046397.8441725        782929.11925053596        517738847.73406589     
   4119372619.1897316       -3877814.4885442257        508327570.72693980     
   3962313407.7954707       -6490000.5624179840        503706555.03278148     
   3805868763.6613817       -7053629.1023743153        503875800.65158266     
   3650038686.7874804       -5568700.1083788872        508835307.58335328     
   3949187963.9462886        6273283.2910697460        657057028.96637475     
   3802792068.2342706       -1314483.5774683952        647063715.01452506     
   3657584130.4650488       -4942390.6366889477        641630901.22712588     
   3513564150.6386228       -4610437.8865907192        640758587.60418653     
   3370732128.7549906       -318625.32717347145        644446774.14569902     
   4446169663.7493076       -33855533.592693806        101486545.44319679     
   4259819302.5726132       -40291255.487998486        107137911.52877542     
   4073228064.1659451       -47529901.483229399        120875186.75349492     
   3886395948.5293036       -55571471.578364849        142698371.11733800     
   3699322955.6626844       -64415965.773426294        172607464.62032580     
   4187757454.2846398       -22337154.241135120        237355193.23210102     
   4022401497.4963775       -22864720.421017885        239530676.77056071     
   3856694372.1343770       -24562848.513394356        248406372.45742893     
   3690636078.1985931       -27431538.518354893        263982280.29269993     
   3524226615.6890640       -31470790.435822248        286258400.27639228     
   3922380461.9640293       -12908209.746366262        373138113.94549066     
   3774059775.3049932       -8715360.4885749817        371709041.70240754     
   3625277628.7284203       -6060710.9559221268        375594484.61701471     
   3476034022.2343016       -4944261.1484191418        384794442.68930721     
   3326328955.8226290       -5366011.0660858154        399308915.91927433     
   3650038686.7874804       -5568700.1083788872        508835307.58335328     
   3514794135.9984570        2156824.3093254566        503673006.32431602     
   3378977833.9480972        7976511.1892600060        502439523.23224878     
   3242589780.6364117        11890360.531436920        505134858.30713147     
   3105629976.0633936        13898372.335842133        511759011.54897588     
   3370732128.7549906       -318625.32717347145        644446774.14569902     
   3244604579.5767536        9751833.9726692438        635422570.63629591     
   3117794987.7934051        17548817.922145486        628941488.30312419     
   2990303353.4049306        23072326.521200657        625003527.14619529     
   2862129676.4113483        26322359.769897103        623608687.16548765     
   3699322955.6626844       -64415965.773426294        172607464.62032580     
   3398619157.1272249       -100988130.61404157        192968677.95458755     
   3102350678.2756228       -122775896.50844073        247249331.71378317     
   2810517519.1079197       -129779263.45653450        335449425.89789414     
   2523119679.6240759       -121998231.45840979        457568960.50694543     
   3524226615.6890640       -31470790.435822248        286258400.27639228     
   3306019222.5701413       -46407593.730113268        298530146.58839679     
   3091223543.8311253       -49972015.758060098        335348450.13134784     
   2879839579.4720082       -42164056.519638538        396713310.90525436     
   2671867329.4928246       -22983716.014838099        482624728.91011250     
   3326328955.8226290       -5366011.0660858154        399308915.91927433     
   3163838301.8517499       -6701352.6945841312        402296989.02104867     
   3003735756.9568076       -76330.736646175385        420458736.15981191     
   2846021321.1378016        14509054.807765722        453794157.33553916     
   2690694994.3947501        37054803.938660145        502303252.54824865     
   3105629976.0633936        13898372.335842133        511759011.54897588     
   2972076394.9720531        18130592.492543578        504269205.25256485     
   2839887317.6526914        26911158.555838227        502580189.79915231     
   2709062744.1052961        40240070.525695205        506691965.18874818     
   2579602674.3298707        58117328.402130127        516604531.42134237     
   2862129676.4113483        26322359.769897103        623608687.16548765     
   2730733501.9310575        28088241.831301451        604446795.28292620     
   2599678225.9187622        30990452.119363308        581712811.04938555     
   2468963848.3744798        35028990.634134412        555406734.46488345     
   2338590369.2981920        40203857.375560522        525528565.52940780     
   5957858541.0351572        1787357562.3105474        1150169837.9617431     
   6088363564.3585653        1502255897.8506901        1228039970.8003781     
   6221581525.6899185        1226197360.0839791        1268561825.5685475     
   6357512425.0292139        959181949.01041281        1271735402.2662494     
   6496156262.3764534        701209664.62999249        1237560700.8934867     
   5434573820.4643822        1630372146.1393147        1033599668.6181377     
   5489876126.6399612        1372486572.1160181        1113990768.3325014     
   5547367984.8651114        1121899504.9246278        1167601265.9028711     
   5607049395.1398325        878610944.56514323        1194431161.3292470     
   5668920357.4641266        642620891.03756547        1194480454.6116288     
   4895224365.7382040        1468567309.7214611        936479771.43521452     
   4905517314.5558729        1246955834.0717010        1018781221.0738729     
   4917476429.4647408        1030898245.3926075        1084869744.4950099     
   4931101710.4648075        820394543.68418050        1134745341.6986244     
   4946393157.5560760        615444728.94642067        1168408012.6847174     
   4339810176.8566217        1301943053.0569866        858810146.41297305     
   4335287128.1062994        1125663683.7177386        942411329.02449298     
   4331906859.4888048        953193581.48791790        1020367261.3449628     
   4329669371.0041409        784532746.36752522        1092677943.3743834     
   4328574662.6523037        619681178.35655987        1159343375.1127536     
   3768331253.8196344        1130499376.1458905        800590793.55141377     
   3779185567.2912431        1008610121.0541313        884881092.18436122     
   3790659274.9373083        888785513.21056008        974093816.45273054     
   3802752376.7578297        771025552.61517644        1068228966.3565220     
   3815464872.7528071        655330239.26798117        1167286541.8957357     
   6496156262.3764534        701209664.62999249        1237560700.8934867     
   6239183570.9987316        375558493.19153857        1053521575.3856430     
   6013128318.4654560        152965451.23456335        908494827.03995490     
   5817990504.7766237        33430538.759065866        802480455.85642529     
   5653770129.9322348        16953755.765045404        735478461.83505118     
   5668920357.4641266        642620891.03756547        1194480454.6116288     
   5518920515.3048668        383004432.79569864        1073718498.7684393     
   5393061782.6108332        203858339.43792033        980992192.88577318     
   5291344159.3820276        105182610.96423221        916301536.96363211     
   5213767645.6184492        86977247.374631166        879646531.00201321     
   4946393157.5560760        615444728.94642067        1168408012.6847174     
   4872004086.8963270        412454360.58545756        1103017508.8970962     
   4814979796.3225861        267346592.51119232        1054685927.8683659     
   4775320285.8348570        180121424.72362614        1023413269.5985271     
   4753025555.4331369        150778857.22275853        1009199534.0875791     
   4328574662.6523037        619681178.35655987        1159343375.1127536     
   4298434285.7731123        463908276.56081283        1141418605.7716141     
   4278882359.6007137        343430210.45437479        1129576031.9877329     
   4269918884.1351099        258246980.03724813        1123815653.7611105     
   4271543859.3762960        208358585.30942798        1124137471.0917447     
   3815464872.7528071        655330239.26798117        1167286541.8957357     
   3798211111.9352250        537366180.72176707        1188921789.3919921     
   3784769472.4452171        432109193.26747119        1205662505.2438741     
   3775139954.2827859        339559276.90509593        1217508689.4513805     
   3769322557.4479294        259716431.63463831        1224460342.0145123     
   5653770129.9322348        16953755.765045404        735478461.83505118     
   5520543261.0401087        48273757.654710531        722331163.09802938     
   5381782733.3681612        61148230.278290510        711122382.06210208     
   5237488546.9163837        55577173.635785341        701852118.72726727     
   5087660701.6847858        31560587.727197886        694520373.09352660     
   5213767645.6184492        86977247.374631166        879646531.00201321     
   5078192726.4771004        84649462.495190382        855769796.45758390     
   4940417643.1387625        74987796.959110022        835913225.58245134     
   4800442395.6034336        57992250.766394138        820076818.37661970     
   4658266983.8711128        33662823.917039156        808260574.84008229     
   4753025555.4331369        150778857.22275853        1009199534.0875791     
   4621050145.9517231        116587553.54696012        978482440.74904525     
   4490208066.8561497        86174017.823966742        953867157.04801643     
   4360499318.1464205        59538250.053783417        935353682.98448765     
   4231923899.8225327        36680250.236405611        922942018.55846238     
   4271543859.3762960        208358585.30942798        1124137471.0917447     
   4149115519.4639716        144088030.81001782        1090469095.9724150     
   4031154004.5203218        94706892.872858047        1064984176.4587924     
   3917659314.5453477        60215171.497952461        1047682712.5508765     
   3808631449.5390511        40612866.685302019        1038564704.2486691     
   3769322557.4479294        259716431.63463831        1224460342.0145123     
   3662388847.0138478        167150894.28436267        1191729762.1276925     
   3563255456.1312757        100586422.10578442        1169264283.8147845     
   3471922384.8002148        60023015.098909616        1157063907.0757868     
   3388389633.0206614        45460673.263728380        1155128631.9107010     
   5087660701.6847858        31560587.727197886        694520373.09352660     
   4938052499.7437792        4590981.3194966316        676434911.30059457     
   4791987464.1740561       -10568070.517271042        664095158.33676732     
   4649465594.9756136       -13916567.783104658        657501114.20204294     
   4510486892.1484480       -5454510.4779996872        656652778.89641905     
   4658266983.8711128        33662823.917039156        808260574.84008229     
   4524759608.5518122        12499479.531981707        794587640.49115896     
   4393825367.6759233       -86750.041711330414        786214341.93999100     
   4265464261.2434416       -4095864.8040497303        783140679.18657207     
   4139676289.2543635        472135.24496674538        785366652.23091018     
   4231923899.8225327        36680250.236405611        922942018.55846238     
   4113242856.7496567        20940819.561418295        912549907.73769665     
   3996164916.1923151        10545063.938208818        907011359.68333232     
   3880690078.1505051        5492983.3667743206        906326374.39537120     
   3766818342.6242294        5784577.8471169472        910494951.87381256     
   3808631449.5390511        40612866.685302019        1038564704.2486691     
   3703502244.3373070        29915001.407793999        1030321713.0402050     
   3599006109.7232270        21327371.422486544        1026486211.5667953     
   3495143045.6968021        14849976.729368448        1027058199.8284374     
   3391913052.2580400        10482817.328454256        1032037677.8251315     
   3388389633.0206614        45460673.263728380        1155128631.9107010     
   3295537771.3147674        39422025.071110606        1147903056.3986895     
   3202348948.2686605        32260172.411117792        1144638897.5903792     
   3108823163.8823366        23975115.283732653        1145336155.4857719     
   3014960418.1557989        14566853.688969970        1149994830.0848644     
   4510486892.1484480       -5454510.4779996872        656652778.89641905     
   4372758339.2690763        6131368.5348196030        650959038.98586333     
   4233299000.2755880        11947960.500598431        649128500.69400477     
   4092108875.1679912        11995265.419348001        651161164.02084219     
   3949187963.9462886        6273283.2910697460        657057028.96637475     
   4139676289.2543635        472135.24496674538        785366652.23091018     
   4010772154.2839804        6480795.0372862816        777533709.41991138     
   3880861154.3016386        9133238.1230714321        773912629.35571241     
   3749943289.3073335        8429464.5023174286        774503412.03830934     
   3618018559.3010688        4369474.1750316620        779306057.46770382     
   3766818342.6242294        5784577.8471169472        910494951.87381256     
   3647734800.2145567        6514870.8144540787        901367380.78154600     
   3528368313.8950706        6302017.4157531261        896800333.56418121     
   3408718883.6657743        5146017.6510131359        896793810.22171390     
   3288786509.5266676        3046871.5202374458        901347810.75414419     
   3391913052.2580400        10482817.328454256        1032037677.8251315     
   3283646277.0607929        6233595.8663182259        1022460053.0707749     
   3175820479.0558891        3454298.3786504269        1017791613.3194134     
   3068435658.2433205        2144924.8654452562        1018032358.5710567     
   2961491814.6230927        2305475.3266919851        1023182288.8256990     
   3014960418.1557989        14566853.688969970        1149994830.0848644     
   2918506584.8227010        5636970.1928875446        1140811726.2875848     
   2823217649.7840905        590081.01176571846        1136886468.6214116     
   2729093613.0399671       -573813.85440218449        1138219057.0863349     
   2636134474.5903311        2145285.5943902731        1144809491.6823654     
   3949187963.9462886        6273283.2910697460        657057028.96637475     
   3802792068.2342706       -1314483.5774683952        647063715.01452506     
   3657584130.4650488       -4942390.6366889477        641630901.22712588     
   3513564150.6386228       -4610437.8865907192        640758587.60418653     
   3370732128.7549906       -318625.32717347145        644446774.14569902     
   3618018559.3010688        4369474.1750316620        779306057.46770382     
   3484096094.8801522       -613141.67289376259        771083162.01902866     
   3350967327.2099414       -2950101.6851234436        767293524.85583162     
   3218632256.2904329       -2641405.8616853952        767937145.97811949     
   3087090882.1216249        312945.79742634296        773014025.38587976     
   3288786509.5266676        3046871.5202374458        901347810.75414419     
   3166973928.1712112        560342.22524034977        894435362.41786957     
   3045560782.3743672       -594735.20771110058        891828930.48810375     
   2924547072.1361375       -418360.77862191200        893528514.96484065     
   2803932797.4565187        1089465.5125107765        899534115.84808600     
   2961491814.6230927        2305475.3266919851        1023182288.8256990     
   2851425568.1074524        2205968.1169255972        1017120316.2110534     
   2741364495.9583387        2123708.7955731153        1015237118.1239402     
   2631308598.1757464        2058697.3626197577        1017532694.5643586     
   2521257874.7596731        2010933.8180685043        1024007045.5323076     
   2636134474.5903311        2145285.5943902731        1144809491.6823654     
   2537451014.6888752        4323736.0021673441        1139138023.3985763     
   2438378467.9618478        5205230.3247137070        1137518087.7633450     
   2338916834.4092526        4789768.5620318651        1139949684.7766705     
   2239066114.0310841        3077350.7141064405        1146432814.4385540     
   3370732128.7549906       -318625.32717347145        644446774.14569902     
   3244604579.5767536        9751833.9726692438        635422570.63629591     
   3117794987.7934051        17548817.922145486        628941488.30312419     
   2990303353.4049306        23072326.521200657        625003527.14619529     
   2862129676.4113483        26322359.769897103        623608687.16548765     
   3087090882.1216249        312945.79742634296        773014025.38587976     
   2967356355.9578633        7507972.8580466509        763814295.46474183     
   2847288762.2741623        13592774.852199435        757652715.66448784     
   2726888101.0705175        18567351.779874921        754529285.98510373     
   2606154372.3469296        22431703.641067386        754444006.42660224     
   2803932797.4565187        1089465.5125107765        899534115.84808600     
   2692005662.7205081        5833370.8578881025        890565997.11458230     
   2580094435.5497351        10630301.420707703        885131057.44660282     
   2468199115.9441886        15480257.200960994        883229296.84414935     
   2356319703.9038744        20383238.198654890        884860715.30721819     
   2521257874.7596731        2010933.8180685043        1024007045.5323076     
   2418552499.8646936        4728027.9721901417        1015677675.5858053     
   2316212007.6201181        8661397.6276607513        1011376513.6494762     
   2214236398.0259504        13811042.784487605        1011103559.7233214     
   2112625671.0821824        20176963.442647219        1014858813.8073341     
   2239066114.0310841        3077350.7141064405        1146432814.4385540     
   2146996867.3904102        4191944.2009496689        1139149330.8784242     
   2055641478.4853115        7686063.4730453491        1136389084.2731073     
   1964999947.3157949        13559708.530421019        1138152074.6226141     
   1875072273.8818548        21812879.373042345        1144438301.9269378     
   2862129676.4113483        26322359.769897103        623608687.16548765     
   2730733501.9310575        28088241.831301451        604446795.28292620     
   2599678225.9187622        30990452.119363308        581712811.04938555     
   2468963848.3744798        35028990.634134412        555406734.46488345     
   2338590369.2981920        40203857.375560522        525528565.52940780     
   2606154372.3469296        22431703.641067386        754444006.42660224     
   2467596809.2050591        20727555.875189185        738957449.64457083     
   2329226368.9886637        19647151.194234490        722335000.81858838     
   2191043051.6977592        19190489.598227262        704576659.94866347     
   2053046857.3323259        19357571.087146163        685682427.03479075     
   2356319703.9038744        20383238.198654890        884860715.30721819     
   2217561324.4062223        17297232.297235489        872870088.82609701     
   2078836292.2915220        14322384.338999152        862179770.60805440     
   1940144607.5597818        11458694.323957920        852789760.65309846     
   1801486270.2109981        8706162.2520999908        844700058.96121871     
   2112625671.0821824        20176963.442647219        1014858813.8073341     
   1980627047.5345356        17797271.097418547        1006184712.8275069     
   1848507995.8273258        15016151.553644061        1001247120.4177980     
   1716268515.9605491        11833604.811304450        1000046036.5782015     
   1583908607.9342041        8249630.8704140782        1002581461.3087063     
   1875072273.8818548        21812879.373042345        1144438301.9269378     
   1756793978.5900147        22227672.275761127        1138901321.6488044     
   1638241479.5960832        21728452.838166893        1139537050.2478166     
   1519414776.9000592        20315221.060280383        1146345487.7239623     
   1400313870.5019453        17987976.942081928        1159326634.0772462     
   3768331253.8196344        1130499376.1458905        800590793.55141377     
   3779185567.2912431        1008610121.0541313        884881092.18436122     
   3790659274.9373083        888785513.21056008        974093816.45273054     
   3802752376.7578297        771025552.61517644        1068228966.3565220     
   3815464872.7528071        655330239.26798117        1167286541.8957357     
   3207932283.8373389        962379685.15120161        756681453.83905756     
   3235972386.1644683        868139681.02254510        853051795.58725965     
   3263743192.6979427        773002024.24837220        951338952.90510905     
   3291244703.4377623        676966714.82868290        1051542925.7926049     
   3318476918.3839264        580033752.76347733        1153663714.2497492     
   2685757954.1198277        805727386.23594832        721941868.26442504     
   2722396387.9716926        736560395.87115872        829355448.16508532     
   2757876836.0617909        663533452.96714842        935680233.56961823     
   2792199298.3901238        586646557.52391768        1040916224.4780229     
   2825363774.9566898        505899709.54146636        1145063420.8902998     
   2201808264.6671019        660542479.40013063        696372036.82751620     
   2238457572.7129164        613872265.59997201        813792049.91783845     
   2273060205.0288534        560379799.36688900        927117658.44625831     
   2305616161.6149125        500065080.70088089        1036348862.4127750     
   2336125442.4710941        432928109.60194796        1141485661.8173890     
   1756083215.4791617        526824964.64374852        679971959.52833104     
   1784155940.3881397        500075290.20898545        806361600.84551895     
   1809293299.5991292        463541063.44759345        925651227.53502893     
   1831495293.1121299        417222284.35957253        1037840839.5968614     
   1850761920.9271419        361118952.94492269        1142930437.0310154     
   3815464872.7528071        655330239.26798117        1167286541.8957357     
   3798211111.9352250        537366180.72176707        1188921789.3919921     
   3784769472.4452171        432109193.26747119        1205662505.2438741     
   3775139954.2827859        339559276.90509593        1217508689.4513805     
   3769322557.4479294        259716431.63463831        1224460342.0145123     
   3318476918.3839264        580033752.76347733        1153663714.2497492     
   3294047307.1547523        472821645.50350034        1181937414.2049172     
   3273328356.1090117        377978405.52163219        1207104541.3448734     
   3256320065.2467031        295504032.81787336        1229165095.6696177     
   3243022434.5678267        225398527.39222407        1248119077.1791501     
   2825363774.9566898        505899709.54146636        1145063420.8902998     
   2798866767.1135335        410972089.70700926        1179857201.9695463     
   2775978958.3096652        328075133.33685029        1213332369.0627434     
   2756700348.5450883        257208840.43099225        1245488922.1698923     
   2741030937.8198009        198373210.98943257        1276326861.2909930     
   2336125442.4710941        432928109.60194796        1141485661.8173890     
   2312669491.8115649        351817513.33229434        1182681152.6858795     
   2292721279.0471802        282399376.71312773        1224345988.3974843     
   2276280804.1779456        224673699.74445325        1266480168.9522045     
   2263348067.2038555        178640482.42626524        1309083694.3500378     
   1850761920.9271419        361118952.94492269        1142930437.0310154     
   1835455481.2488477        295357916.37935346        1190409266.3539169     
   1823555318.3215570        240951135.65046293        1240145399.3490961     
   1815061432.1452703        197898610.75825250        1292138836.0165536     
   1809973822.7199876        166200341.70272082        1346389576.3562872     
   3769322557.4479294        259716431.63463831        1224460342.0145123     
   3662388847.0138478        167150894.28436267        1191729762.1276925     
   3563255456.1312757        100586422.10578442        1169264283.8147845     
   3471922384.8002148        60023015.098909616        1157063907.0757868     
   3388389633.0206614        45460673.263728380        1155128631.9107010     
   3243022434.5678267        225398527.39222407        1248119077.1791501     
   3165155559.0474529        150889609.66953790        1230869822.6425042     
   3093446613.1164441        96907123.911401629        1221547658.0899687     
   3027895596.7748022        63451070.117820382        1220152583.5215468     
   2968502510.0225248        50521448.288788557        1226684598.9372373     
   2741030937.8198009        198373210.98943257        1276326861.2909930     
   2685550864.0994248        139916902.96022248        1272642810.4820168     
   2634586330.0062709        96512393.688417315        1274547838.0673537     
   2588137335.5403376        68159683.174017072        1282041944.0470057     
   2546203880.7016273        54858771.417023420        1295125128.4209716     
   2263348067.2038555        178640482.42626524        1309083694.3500378     
   2223574762.1697659        134232774.15641725        1317048725.6462305     
   2186674606.8007555        99402231.436827302        1328264823.7469394     
   2152647601.0968237        74148854.267500639        1342731988.6521640     
   2121493745.0579677        58472642.648427963        1360450220.3619032     
   1809973822.7199876        166200341.70272082        1346389576.3562872     
   1779227253.2584767        133837223.25812489        1364087568.1351483     
   1749711443.4999003        105576637.15664035        1382698615.1287258     
   1721426393.4442561        81418583.398266077        1402222717.3370223     
   1694372103.0915463        61363061.983005106        1422659874.7600331     
   3388389633.0206614        45460673.263728380        1155128631.9107010     
   3295537771.3147674        39422025.071110606        1147903056.3986895     
   3202348948.2686605        32260172.411117792        1144638897.5903792     
   3108823163.8823366        23975115.283732653        1145336155.4857719     
   3014960418.1557989        14566853.688969970        1149994830.0848644     
   2968502510.0225248        50521448.288788557        1226684598.9372373     
   2885062755.9206438        40030819.780042052        1218711314.3729746     
   2801829683.3448911        30229129.691717625        1215044075.9502811     
   2718803292.2952638        21116378.023811817        1215682883.6691587     
   2635983582.7717624        12692564.776328564        1220627737.5296047     
   2546203880.7016273        54858771.417023420        1295125128.4209716     
   2473160889.7405248        40211559.253172398        1287038384.8151910     
   2400868223.1718926        28065428.397551894        1283602316.7888460     
   2329325880.9957252        18420378.850150108        1284816924.3419404     
   2258533863.2120266        11276410.610975623        1290682207.4744694     
   2121493745.0579677        58472642.648427963        1360450220.3619032     
   2059832172.7744102        39964243.490505099        1352884267.7253332     
   1999464567.7496619        25769068.528611541        1350313620.1060688     
   1940390929.9837234        15887117.762749195        1352738277.5041108     
   1882611259.4765909        10318391.192911983        1360158239.9194582     
   1694372103.0915463        61363061.983005106        1422659874.7600331     
   1645076605.0223005        39288872.492040694        1416248963.1034069     
   1597618717.0782030        23340050.084909320        1415177985.9019530     
   1551998439.2592545        13516594.761608005        1419446943.1556735     
   1508215771.5654576        9818506.5221407413        1429055834.8645678     
   3014960418.1557989        14566853.688969970        1149994830.0848644     
   2918506584.8227010        5636970.1928875446        1140811726.2875848     
   2823217649.7840905        590081.01176571846        1136886468.6214116     
   2729093613.0399671       -573813.85440218449        1138219057.0863349     
   2636134474.5903311        2145285.5943902731        1144809491.6823654     
   2635983582.7717624        12692564.776328564        1220627737.5296047     
   2553438172.6252718        6002910.9375910759        1213006477.8770623     
   2471775225.7409906        2254801.3062206507        1210309183.0852685     
   2390994742.1189179        1448235.8822084665        1212535853.1542220     
   2311096721.7590561        3583214.6655635834        1219686488.0839195     
   2258533863.2120266        11276410.610975623        1290682207.4744694     
   2188942929.7654171        6540802.4835655689        1284293284.4290047     
   2119952024.5487380        3805288.4559248686        1282494444.9739296     
   2051561147.5619893        3069868.5280519724        1285285689.1092496     
   1983770298.8051720        4334542.6999439001        1292667016.8349652     
   1882611259.4765909        10318391.192911983        1360158239.9194582     
   1825020856.2431350        7250644.8308073282        1354672145.9434092     
   1767748046.2073343        5241542.4608876705        1353442254.2873983     
   1710792829.3691814        4291084.0831266642        1356468564.9514287     
   1654155205.7286816        4399269.6975440979        1363751077.9354975     
   1508215771.5654576        9818506.5221407413        1429055834.8645678     
   1461671952.0584309        8132437.9793319702        1424143062.4202781     
   1415163290.7167783        6563563.3211029172        1423152611.0256743     
   1368689787.5405004        5111882.5474531651        1426084480.6807554     
   1322251442.5295904        3777395.6583673358        1432938671.3855188     
   2636134474.5903311        2145285.5943902731        1144809491.6823654     
   2537451014.6888752        4323736.0021673441        1139138023.3985763     
   2438378467.9618478        5205230.3247137070        1137518087.7633450     
   2338916834.4092526        4789768.5620318651        1139949684.7766705     
   2239066114.0310841        3077350.7141064405        1146432814.4385540     
   2311096721.7590561        3583214.6655635834        1219686488.0839195     
   2222888941.5328531        4286024.1873853207        1213028072.9956942     
   2134498099.3840361        4378627.3004875183        1210716872.9058681     
   2045924195.3125963        3861024.0048503876        1212752887.8144426     
   1957167229.3185391        2733214.3004821539        1219136117.7214117     
   1983770298.8051720        4334542.6999439001        1292667016.8349652     
   1906883004.9680588        3815153.3499759436        1285262017.3290765     
   1830018674.1112802        3372307.2677813768        1282499915.1714315     
   1753177306.2348261        3006004.4533380270        1284380710.3620248     
   1676358901.3387046        2716244.9066711664        1290904402.9008512     
   1654155205.7286816        4399269.6975440979        1363751077.9354975     
   1589433204.9944901        2911123.4899388552        1355839856.3987248     
   1524940192.1435738        2186270.2265836000        1352867214.5600324     
   1460676167.1759367        2224709.9074982405        1354833152.4194143     
   1396641130.0915797        3026442.5326746106        1361737669.9768784     
   1322251442.5295904        3777395.6583673358        1432938671.3855188     
   1270539541.6121404        1573934.6072524786        1424761590.2046354     
   1219262653.4809234        820516.17691415548        1421818771.0716705     
   1168420778.1359270        1517140.3673111200        1424110213.9866216     
   1118013915.5771654        3663807.1784878969        1431635918.9494898     
   2239066114.0310841        3077350.7141064405        1146432814.4385540     
   2146996867.3904102        4191944.2009496689        1139149330.8784242     
   2055641478.4853115        7686063.4730453491        1136389084.2731073     
   1964999947.3157949        13559708.530421019        1138152074.6226141     
   1875072273.8818548        21812879.373042345        1144438301.9269378     
   1957167229.3185391        2733214.3004821539        1219136117.7214117     
   1876990447.1406755        4673950.2561656237        1212903184.5189137     
   1797322764.5877607        8311684.9616826773        1211104415.6863432     
   1718164181.6597927        13646418.417021036        1213739811.2236843     
   1639514698.3567696        20678150.622175276        1220809371.1309474     
   1676358901.3387046        2716244.9066711664        1290904402.9008512     
   1607820090.5239372        5406775.4012880325        1285483135.5935934     
   1539585621.2234871        9111777.6102888584        1284406960.0713537     
   1471655493.4373546        13831251.533683360        1287675876.3341320     
   1404029707.1655338        19565197.171453118        1295289884.3819323     
   1396641130.0915797        3026442.5326746106        1361737669.9768784     
   1339485797.5401983        6390419.6363098025        1356889184.1024492     
   1282430048.3924985        10086341.418889403        1356296717.4281452     
   1225473882.6484818        14114207.880408704        1359960269.9539580     
   1168617300.3081517        18474019.020885348        1367879841.6798854     
   1118013915.5771654        3663807.1784878969        1431635918.9494898     
   1071987568.1894488        7624882.9612200260        1427121330.0454948     
   1025856046.0947894        11235376.387467980        1426773687.7567182     
   979619349.29318142        14495287.457228363        1430592992.0831554     
   933277477.78462338        17404616.170483708        1438579243.0248158     
   1875072273.8818548        21812879.373042345        1144438301.9269378     
   1756793978.5900147        22227672.275761127        1138901321.6488044     
   1638241479.5960832        21728452.838166893        1139537050.2478166     
   1519414776.9000592        20315221.060280383        1146345487.7239623     
   1400313870.5019453        17987976.942081928        1159326634.0772462     
   1639514698.3567696        20678150.622175276        1220809371.1309474     
   1537078342.9784858        21210347.057284534        1214992484.4388235     
   1434552575.3505578        21444502.660252690        1215161903.3725138     
   1331937395.4729788        21380617.431052506        1221317627.9320157     
   1229232803.3457549        21018691.369698524        1233459658.1173298     
   1404029707.1655338        19565197.171453118        1295289884.3819323     
   1316902710.9827437        20055022.923562229        1289408681.3036568     
   1229871094.0027487        20862779.351651013        1289327380.5998864     
   1142934856.2255447        21988466.455722034        1295045982.2705941     
   1056093997.6511407        23432084.235781252        1306564486.3157995     
   1168617300.3081517        18474019.020885348        1367879841.6798854     
   1096267082.6027813        18761699.874551356        1362149912.2433250     
   1024197035.5526572        19983282.912365794        1362033481.9299309     
   952407159.15776169        22138768.134278476        1367530550.7397010     
   880897453.41811240        25228155.540346414        1378641118.6726394     
   933277477.78462338        17404616.170483708        1438579243.0248158     
   875171457.83861244        17330377.910305262        1433216177.2578130     
   817530400.00028276        18806013.342399865        1433280207.3626487     
   760354304.26962554        21831522.466741771        1438771333.3393304     
   703643170.64665902        26406905.283377379        1449689555.1878498     
   1756083215.4791617        526824964.64374852        679971959.52833104     
   1784155940.3881397        500075290.20898545        806361600.84551895     
   1809293299.5991292        463541063.44759345        925651227.53502893     
   1831495293.1121299        417222284.35957253        1037840839.5968614     
   1850761920.9271419        361118952.94492269        1142930437.0310154     
   1326368467.7189875        397910540.31569624        669633659.32625246     
   1339646392.2615187        375515298.74530911        791762640.63343596     
   1350722792.5307457        345781642.93057501        908606151.77925134     
   1359597668.5266688        308709572.87149417        1020164192.7636988     
   1366271020.2492876        264299088.56806639        1126436763.5867779     
   890449682.54956114        267134904.76486832        662249159.18066287     
   894117219.48653007        250649419.88712248        780973628.80664086     
   896317073.57487941        229271658.84731191        896227172.73756063     
   897049244.81460941        203001621.64543658        1008009790.9734215     
   896313733.20572031        171839308.28149655        1116321483.5142241     
   448326859.97088242        134498057.99126473        657818459.09156239     
   447568422.06317377        125477653.63442561        773994565.36513352     
   446076142.73153013        114011111.19780377        888514290.40995598     
   443850021.97595185        100098430.68139946        1001377634.2260299     
   440890059.79643881        83739612.085212559        1112584596.8133540     
  -1.7048462001097910E-002  -5.1145386003293731E-003   656341559.05895102     
  -8.5502118206083923E-003  -1.2781682763478405E-002   770825450.30891430     
   6.9783350343665188E-004  -1.7949249572920947E-002   885467504.79643834     
   1.0695865553135397E-002  -2.0617077470618993E-002   1000267722.5215230     
   2.1443572650149019E-002  -2.0785988543934097E-002   1115226103.4841685     
   1850761920.9271419        361118952.94492269        1142930437.0310154     
   1835455481.2488477        295357916.37935346        1190409266.3539169     
   1823555318.3215570        240951135.65046293        1240145399.3490961     
   1815061432.1452703        197898610.75825250        1292138836.0165536     
   1809973822.7199876        166200341.70272082        1346389576.3562872     
   1366271020.2492876        264299088.56806639        1126436763.5867779     
   1360539369.6415718        216702764.88668913        1181808977.6299164     
   1357362426.5958295        177622133.07856023        1238097253.5433302     
   1356740191.1120622        147057193.14367890        1295301591.3270223     
   1358672663.1902702        125007945.08204806        1353421990.9809892     
   896313733.20572031        171839308.28149655        1116321483.5142241     
   896324752.23429203        141258061.65402290        1178593584.8903990     
   898038909.63580954        116353942.93636796        1240440506.3348486     
   901456205.41027260        97126952.128531963        1301862247.8475730     
   906576639.55768132        83577089.230514109        1362858809.4285729     
   440890059.79643881        83739612.085212559        1112584596.8133540     
   442811629.02700943        69023806.681356192        1180763088.1353645     
   445584767.44149691        57146565.223889232        1247175157.7236485     
   449209475.03990072        48107887.712809697        1311820805.5782070     
   453685751.82222098        41907774.148118600        1374700031.6990387     
   2.1443572650149019E-002  -2.0785988543934097E-002   1115226103.4841685     
   1.9723554291637801E-002  -3.1311903619385954E-002   1188317487.3648138     
   1.2891410695347306E-002  -5.8878322890275864E-002   1258301207.7097321     
   9.4654709894290839E-004 -0.10348701205728475        1325177264.5189226     
  -1.6110944995677751E-002 -0.16513796969069544        1388945657.7923853     
   1809973822.7199876        166200341.70272082        1346389576.3562872     
   1779227253.2584767        133837223.25812489        1364087568.1351483     
   1749711443.4999003        105576637.15664035        1382698615.1287258     
   1721426393.4442561        81418583.398266077        1402222717.3370223     
   1694372103.0915463        61363061.983005106        1422659874.7600331     
   1358672663.1902702        125007945.08204806        1353421990.9809892     
   1333234605.6698337        100022167.10851949        1372375629.4096031     
   1308719617.9287605        78113288.399536490        1392797220.1617727     
   1285127699.9670506        59281308.955097020        1414686763.2374952     
   1262458851.7847044        43526228.775201380        1438044258.6367745     
   906576639.55768132        83577089.230514109        1362858809.4285729     
   888032514.28928304        66444277.821342051        1382709122.9294424     
   870103768.87667859        51362732.598149061        1404582285.8627045     
   852790403.31986666        38332453.560933590        1428478298.2283585     
   836092417.61884975        27353440.709698498        1454397160.0264051     
   453685751.82222098        41907774.148118600        1374700031.6990387     
   443620979.11682552        33103555.396592885        1395088048.6946654     
   433863896.34365350        25324969.752479166        1418053812.2315216     
   424414503.50270540        18572017.215778261        1443597322.3096085     
   415272800.59398097        12844697.786489874        1471718578.9289250     
  -1.6110944995677751E-002 -0.16513796969069544        1388945657.7923853     
  0.15246058765278253      -0.16572891753995844        1409512406.7052710     
  0.32968561488880554      -0.13747470995833150        1433211799.2682250     
  0.51556606111167580       -8.0369539434749171E-002   1460043835.4812455     
  0.71009878380309654        5.5772465400584226E-003   1490008515.3443334     
   1694372103.0915463        61363061.983005106        1422659874.7600331     
   1645076605.0223005        39288872.492040694        1416248963.1034069     
   1597618717.0782030        23340050.084909320        1415177985.9019530     
   1551998439.2592545        13516594.761608005        1419446943.1556735     
   1508215771.5654576        9818506.5221407413        1429055834.8645678     
   1262458851.7847044        43526228.775201380        1438044258.6367745     
   1228137381.4662082        27765632.645700157        1435141442.0979056     
   1195194118.7471848        16599061.847774744        1436960190.9056413     
   1163629063.6276343        10026516.381425261        1443500505.0599830     
   1133442216.1075583        8047996.2466570735        1454762384.5609272     
   836092417.61884975        27353440.709698498        1454397160.0264051     
   814978206.16947901        17376407.277170390        1454466468.9920058     
   794782799.79390359        10462057.423961282        1458638974.1956403     
   775506198.49212682        6610391.1500804722        1466914675.6373129     
   757148402.26414728        5821408.4555242360        1479293573.3170204     
   415272800.59398097        12844697.786489874        1471718578.9289250     
   405599079.13211018        8121196.3864461333        1474224043.7857039     
   396384760.21836030        4929036.8134724796        1480214335.7719507     
   387629843.85273182        3268219.0675706863        1489689454.8876650     
   379334330.03522390        3138743.1487354934        1502649401.1328483     
  0.71009878380309654        5.5772465400584226E-003   1490008515.3443334     
  0.35410424592541290       -2.6466329128282950E-002   1494414166.4790039     
   2.0552103974713146E-002   1.6298775516045826E-002   1501686275.6345735     
 -0.29055268950879326       0.13388768116162875        1511824842.8110418     
 -0.57921282239334926       0.32629281602643667        1524829868.0084083     
   1508215771.5654576        9818506.5221407413        1429055834.8645678     
   1461671952.0584309        8132437.9793319702        1424143062.4202781     
   1415163290.7167783        6563563.3211029172        1423152611.0256743     
   1368689787.5405004        5111882.5474531651        1426084480.6807554     
   1322251442.5295904        3777395.6583673358        1432938671.3855188     
   1133442216.1075583        8047996.2466570735        1454762384.5609272     
   1097453473.5173533        6459181.4976408482        1449479514.6232116     
   1061491099.5299519        4958262.0913071036        1448371170.3886418     
   1025555094.1453521        3545238.0276418328        1451437351.8572230     
   989645457.36356139        2220109.3066751957        1458678059.0289524     
   757148402.26414728        5821408.4555242360        1479293573.3170204     
   732435321.31494427        4546022.9175508916        1473630351.3962145     
   707739819.40597630        3329234.1803632081        1472393859.8320198     
   683061896.53724408        2171042.2439592779        1475584098.6244364     
   658401552.70874858        1071447.1083462536        1483201067.7734683     
   379334330.03522390        3138743.1487354934        1502649401.1328483     
   366617495.45120311        2392962.2390560359        1496595572.7392867     
   353909450.34485322        1676479.5882800519        1495220679.3558006     
   341210194.71616769        989295.19638457894        1498524720.9823937     
   328519728.56515002        331409.06338238716        1506507697.6190586     
 -0.57921282239334926       0.32629281602643667        1524829868.0084083     
  -4.0738652378264835      -0.53782614808592710        1518375178.6524301     
  -7.6534188098775155       -1.6849486206465909        1516851628.9599919     
  -11.317877610380892       -3.1150885213817325        1520259218.9310930     
  -15.067232809403489       -4.8282167641256413        1528597948.5657322     
   1322251442.5295904        3777395.6583673358        1432938671.3855188     
   1270539541.6121404        1573934.6072524786        1424761590.2046354     
   1219262653.4809234        820516.17691415548        1421818771.0716705     
   1168420778.1359270        1517140.3673111200        1424110213.9866216     
   1118013915.5771654        3663807.1784878969        1431635918.9494898     
   989645457.36356139        2220109.3066751957        1458678059.0289524     
   951559085.98159921        776779.68874496222        1451340400.3637493     
   913798974.22744226        420982.16350227594        1449074241.2702668     
   876365122.10108507        1152716.7309223413        1451879581.7485061     
   839257529.60253859        2971983.3910452724        1459756421.7984681     
   658401552.70874858        1071447.1083462536        1483201067.7734683     
   633475675.21599340        248738.22970730066        1476575952.9391148     
   608767304.19262254        151050.91568204761        1474859575.2002892     
   584276439.63863003        778385.16624969244        1478051934.5569882     
   560003081.55402160        2130740.9814322293        1486153031.0092115     
   328519728.56515002        331409.06338238716        1506507697.6190586     
   316289309.31532925       -10189.769842430949        1500468247.9307337     
   304167643.37646574        10722.433457404375        1499174772.8617363     
   292154730.74856269        394145.67329171300        1502627272.4120700     
   280250571.43162042        1140079.9496623129        1510825746.5817304     
  -15.067232809403489       -4.8282167641256413        1528597948.5657322     
  -11.720395578970846       -4.3099103727298465        1523017285.3386068     
  -8.2210224433859302       -3.2831516580492011        1522019834.2546113     
  -4.5691162963962553       -1.7479493985470087        1525605595.3137505     
 -0.76467266584657367       0.29571148643323447        1533774568.5160186     
   1118013915.5771654        3663807.1784878969        1431635918.9494898     
   1071987568.1894488        7624882.9612200260        1427121330.0454948     
   1025856046.0947894        11235376.387467980        1426773687.7567182     
   979619349.29318142        14495287.457228363        1430592992.0831554     
   933277477.78462338        17404616.170483708        1438579243.0248158     
   839257529.60253859        2971983.3910452724        1459756421.7984681     
   803938643.59704852        5703052.7942537367        1455053376.8675752     
   768540876.51002812        8171185.2590259612        1454703741.7030761     
   733064228.34147525        10376380.785360008        1458707516.3049536     
   697508699.09138632        12318639.373235285        1467064700.6732221     
   560003081.55402160        2130740.9814322293        1486153031.0092115     
   535924408.79123521        3791629.5632743537        1481292205.9477484     
   511793148.57232875        5277226.6247121096        1480971253.8038328     
   487609300.89730245        6587532.1657515466        1485190174.5774670     
   463372865.76615345        7722546.1863831878        1493948968.2686536     
   280250571.43162042        1140079.9496623129        1510825746.5817304     
   267944863.77200887        1890613.2682706267        1505837817.2860038     
   255612862.28168783        2553500.4845127016        1505576224.0589941     
   243254566.96066025        3128741.5984023213        1510040966.9006996     
   230869977.80892473        3616336.6099281311        1519232045.8111217     
 -0.76467266584657367       0.29571148643323447        1533774568.5160186     
   8.5393647281533767        3.9092315922823344        1528690210.8823459     
   17.638103569270292        6.8384252701894903        1528518652.4685552     
   26.531554197218608        9.0833235164225261        1533259893.2746444     
   35.219704808253525        10.643889066833630        1542913933.3006158     
   933277477.78462338        17404616.170483708        1438579243.0248158     
   875171457.83861244        17330377.910305262        1433216177.2578130     
   817530400.00028276        18806013.342399865        1433280207.3626487     
   760354304.26962554        21831522.466741771        1438771333.3393304     
   703643170.64665902        26406905.283377379        1449689555.1878498     
   697508699.09138632        12318639.373235285        1467064700.6732221     
   653590871.02487981        12161465.702669114        1462787284.8078208     
   610021764.07494617        13166695.754011899        1464015905.7649012     
   566801378.24158549        15334329.527266681        1470750563.5444682     
   523929713.52479815        18664367.022428125        1482991258.1465051     
   463372865.76615345        7722546.1863831878        1493948968.2686536     
   433868775.15240520        7550100.7774003148        1490621587.8152301     
   404597164.66412753        8152589.1199888438        1492879185.1349297     
   375558034.30131131        9530011.2141145915        1500721760.2277477     
   346751384.06396198        11682367.059792936        1514149313.0936911     
   230869977.80892473        3616336.6099281311        1519232045.8111217     
   216005170.22119310        3496283.1345219314        1516719086.2800477     
   201256601.76782379        3763693.4403221756        1519870045.4727335     
   186624272.44880536        4418567.5272930115        1528684923.3891864     
   172108182.26414618        5460905.3954605386        1543163720.0293870     
   35.219704808253525        10.643889066833630        1542913933.3006158     
   56.231236791424067        12.774006989542535        1541079780.2022686     
   75.386032992986486        8.7150077218925208        1544988486.7783215     
   92.684071475360824       -1.5331856777745791        1554640053.0287721     
   108.12535427446429       -17.970564688344552        1570034478.9536216     
  -1.7048462001097910E-002  -5.1145386003293731E-003   656341559.05895102     
  -8.5502118206083923E-003  -1.2781682763478405E-002   770825450.30891430     
   6.9783350343665188E-004  -1.7949249572920947E-002   885467504.79643834     
   1.0695865553135397E-002  -2.0617077470618993E-002   1000267722.5215230     
   2.1443572650149019E-002  -2.0785988543934097E-002   1115226103.4841685     
  -448326860.00653762       -134498058.00196129        657818459.08432627     
  -447568422.08046198       -125477653.65284009        773994565.35798073     
  -446076142.72933567       -114011111.22021715        888514290.40218282     
  -443850021.95315921       -100098430.70409292        1001377634.2169328     
  -440890059.75193185       -83739612.104466468        1112584596.8022301     
  -890449682.58989131       -267134904.77696741        662249159.16918588     
  -894117219.50913250       -250649419.89992610        780973628.79488206     
  -896317073.57902241       -229271658.85838100        896227172.72411323     
  -897049244.79956114       -203001621.65233210        1008009790.9568790     
  -896313733.17074907       -171839308.28177971        1116321483.4931796     
  -1326368467.7671092       -397910540.33013278        669633659.31352961     
  -1339646392.2945616       -375515298.75403970        791762640.61961865     
  -1350722792.5483620       -345781642.93244070        908606151.76222932     
  -1359597668.5285103       -308709572.86533576        1020164192.7413617     
  -1366271020.2350075       -264299088.55272523        1126436763.5570159     
  -1756083215.5381918       -526824964.66145754        679971959.51735783     
  -1784155940.4367495       -500075290.21518099        806361600.83219016     
  -1809293299.6373544       -463541063.44239640        925651227.51653123     
  -1831495293.1400075       -417222284.34310377        1037840839.5703809     
  -1850761920.9447076       -361118952.91730320        1142930436.9937396     
   2.1443572650149019E-002  -2.0785988543934097E-002   1115226103.4841685     
   1.9723554291637801E-002  -3.1311903619385954E-002   1188317487.3648138     
   1.2891410695347306E-002  -5.8878322890275864E-002   1258301207.7097321     
   9.4654709894290839E-004 -0.10348701205728475        1325177264.5189226     
  -1.6110944995677751E-002 -0.16513796969069544        1388945657.7923853     
  -440890059.75193185       -83739612.104466468        1112584596.8022301     
  -442811628.98703855       -69023806.716230109        1180763088.1083710     
  -445584767.41455114       -57146565.302680388        1247175157.6786895     
  -449209475.03447002       -48107887.863817409        1311820805.5131855     
  -453685751.84679484       -41907774.399642348        1374700031.6118577     
  -896313733.17074907       -171839308.28177971        1116321483.4931796     
  -896324752.21094286       -141258061.66629109        1178593584.8396399     
  -898038909.63083637       -116353942.98313439        1240440506.2501824     
  -901456205.43042958       -97126952.232310057        1301862247.7248068     
  -906576639.60972285       -83577089.413819313        1362858809.2635138     
  -1366271020.2350075       -264299088.55272523        1126436763.5570159     
  -1360539369.6519895       -216702764.88149446        1181808977.5586202     
  -1357362426.6359644       -177622133.10024172        1238097253.4242108     
  -1356740191.1869328       -147057193.20896673        1295301591.1537883     
  -1358672663.3048944       -125007945.20766968        1353421990.7473528     
  -1850761920.9447076       -361118952.91730320        1142930436.9937396     
  -1835455481.3101785       -295357916.36184108        1190409266.2653112     
  -1823555318.4299355       -240951135.65400195        1240145399.2007744     
  -1815061432.3039792       -197898610.79378521        1292138835.8001292     
  -1809973822.9323106       -166200341.78119344        1346389576.0633757     
  -1.6110944995677751E-002 -0.16513796969069544        1388945657.7923853     
  0.15246058765278253      -0.16572891753995844        1409512406.7052710     
  0.32968561488880554      -0.13747470995833150        1433211799.2682250     
  0.51556606111167580       -8.0369539434749171E-002   1460043835.4812455     
  0.71009878380309654        5.5772465400584226E-003   1490008515.3443334     
  -453685751.84679484       -41907774.399642348        1374700031.6118577     
  -443620978.80891109       -33103555.628727213        1395088048.6103692     
  -433863895.68740505       -25324969.912403807        1418053812.1417825     
  -424414502.48227781       -18572017.250676170        1443597322.2060986     
  -415272799.19352806       -12844697.643542081        1471718578.8033164     
  -906576639.60972285       -83577089.413819313        1362858809.2635138     
  -888032514.03728592       -66444277.971825361        1382709122.7684469     
  -870103768.30625844       -51362732.667865127        1404582285.6891177     
  -852790402.41664100       -38332453.501936972        1428478298.0255244     
  -836092416.36843371       -27353440.474042535        1454397159.7776675     
  -1358672663.3048944       -125007945.20766968        1353421990.7473528     
  -1333234605.5326622       -100022167.19502455        1372375629.1795049     
  -1308719617.5268717       -78113288.403851032        1392797219.9102275     
  -1285127699.2875242       -59281308.834155321        1414686762.9395218     
  -1262458850.8146174       -43526228.485929310        1438044258.2673857     
  -1809973822.9323106       -166200341.78119344        1346389576.0633757     
  -1779227253.2950425       -133837223.29832494        1364087567.8435421     
  -1749711443.3492479       -105576637.12037092        1382698614.8051136     
  -1721426393.0949266       -81418583.247326255        1402222716.9480906     
  -1694372102.5320802       -61363061.679196417        1422659874.2724729     
  0.71009878380309654        5.5772465400584226E-003   1490008515.3443334     
  0.35410424592541290       -2.6466329128282950E-002   1494414166.4790039     
   2.0552103974713146E-002   1.6298775516045826E-002   1501686275.6345735     
 -0.29055268950879326       0.13388768116162875        1511824842.8110418     
 -0.57921282239334926       0.32629281602643667        1524829868.0084083     
  -415272799.19352806       -12844697.643542081        1471718578.8033164     
  -405599078.45551974       -8121196.3383602202        1474224043.6529045     
  -396384760.24293458       -4929036.7845896333        1480214335.6299274     
  -387629844.55577075       -3268218.9822241217        1489689454.7343881     
  -379334331.39403313       -3138742.9312787354        1502649400.9662857     
  -836092416.36843371       -27353440.474042535        1454397159.7776675     
  -814978205.66060102       -17376407.168891072        1454466468.7029939     
  -794782800.02605915       -10462057.441375852        1458638973.8622932     
  -775506199.46480644       -6610391.2914911807        1466914675.2555673     
  -757148403.97684455       -5821408.7192425728        1479293572.8828139     
  -1262458850.8146174       -43526228.485929310        1438044258.2673857     
  -1228137381.2611387       -27765632.518058181        1435141441.6292717     
  -1195194119.3288193       -16599061.954051137        1436960190.3316691     
  -1163629065.0176547       -10026516.793895364        1443500504.3745761     
  -1133442218.3276505       -8047997.0376057029        1454762383.7579968     
  -1694372102.5320802       -61363061.679196417        1422659874.2724729     
  -1645076605.2571344       -39288872.385862648        1416248962.4317396     
  -1597618718.1512148       -23340050.322617173        1415177985.0380552     
  -1551998441.2143188       -13516595.489449322        1419446942.0914183     
  -1508215774.4464493       -9818507.8863698840        1429055833.5918326     
 -0.57921282239334926       0.32629281602643667        1524829868.0084083     
  -4.0738652378264835      -0.53782614808592710        1518375178.6524301     
  -7.6534188098775155       -1.6849486206465909        1516851628.9599919     
  -11.317877610380892       -3.1150885213817325        1520259218.9310930     
  -15.067232809403489       -4.8282167641256413        1528597948.5657322     
  -379334331.39403313       -3138742.9312787354        1502649400.9662857     
  -366617503.87853551       -2392963.9749222547        1496595572.3400483     
  -353909465.96996617       -1676483.7083259076        1495220678.7148926     
  -341210217.66832012       -989302.13147400320        1498524720.0908196     
  -328519758.97359759       -331419.24436913431        1506507696.4678276     
  -757148403.97684455       -5821408.7192425728        1479293572.8828139     
  -732435330.20107961       -4546025.3673826158        1473630350.5439582     
  -707739835.55426240       -3329239.1120157838        1472393858.5437269     
  -683061920.03639483       -2171049.9531473815        1475584096.8821173     
  -658401583.64747441       -1071457.8907684684        1483201065.5591331     
  -1133442218.3276505       -8047997.0376057029        1454762383.7579968     
  -1097453483.0414960       -6459184.7152010798        1449479513.2641611     
  -1061491116.4063118       -4958267.8960292935        1448371168.4464903     
  -1025555118.4221028       -3545246.5801099539        1451437349.3049855     
  -989645489.08886373       -2220120.7674232125        1458678055.8396459     
  -1508215774.4464493       -9818507.8863698840        1429055833.5918326     
  -1461671962.3997862       -8132442.0183867216        1424143060.5006552     
  -1415163308.5261178       -6563570.0603814721        1423152608.4231853     
  -1368689812.8254476       -5111892.0123732090        1426084477.3594251     
  -1322251475.2977688       -3777407.8743360043        1432938667.3093679     
  -15.067232809403489       -4.8282167641256413        1528597948.5657322     
  -11.720395578970846       -4.3099103727298465        1523017285.3386068     
  -8.2210224433859302       -3.2831516580492011        1522019834.2546113     
  -4.5691162963962553       -1.7479493985470087        1525605595.3137505     
 -0.76467266584657367       0.29571148643323447        1533774568.5160186     
  -328519758.97359759       -331419.24436913431        1506507696.4678276     
  -316289332.95997834        10180.847491964698        1500468247.0362411     
  -304167659.97080320       -10729.142127826810        1499174772.2266877     
  -292154740.00607878       -394149.21325142682        1502627272.0391688     
  -280250573.06580055       -1140079.3658605218        1510825746.4736831     
  -658401583.64747441       -1071457.8907684684        1483201065.5591331     
  -633475699.31306565       -248747.52914705873        1476575951.2166061     
  -608767321.18008792       -151057.83895850182        1474859573.9750154     
  -584276449.24853992       -778388.82020303607        1478051933.8343606     
  -560003083.51841640       -2130740.4728655815        1486153030.7946405     
  -989645489.08886373       -2220120.7674232125        1458678055.8396459     
  -951559110.77966499       -776789.43984800577        1451340397.8797009     
  -913798991.84887815       -420989.37364584208        1449074239.4995947     
  -876365132.29649758       -1152720.5687986612        1451879580.6993251     
  -839257532.12252927       -2971983.0253264308        1459756421.4788930     
  -1322251475.2977688       -3777407.8743360043        1432938667.3093679     
  -1270539567.3597698       -1573944.8845939636        1424761587.0255284     
  -1219262671.9771667       -820523.74616765976        1421818768.8004251     
  -1168420789.1499577       -1517144.4590578675        1424110212.6340611     
  -1118013918.8781362       -3663807.0232387781        1431635918.5264385     
 -0.76467266584657367       0.29571148643323447        1533774568.5160186     
   8.5393647281533767        3.9092315922823344        1528690210.8823459     
   17.638103569270292        6.8384252701894903        1528518652.4685552     
   26.531554197218608        9.0833235164225261        1533259893.2746444     
   35.219704808253525        10.643889066833630        1542913933.3006158     
  -280250573.06580055       -1140079.3658605218        1510825746.4736831     
  -267944846.69184279       -1890605.3044794500        1505837816.6883216     
  -255612826.82055259       -2553486.2519927919        1505576223.0181236     
  -243254513.45193446       -3128722.2084114552        1510040965.4630957     
  -230869906.58598363       -3616313.1737219542        1519232044.0232348     
  -560003083.51841640       -2130740.4728655815        1486153030.7946405     
  -535924391.80229539       -3791621.4819640219        1481292204.8439858     
  -511793112.88621438       -5277211.8245317042        1480971251.9037809     
  -487609246.77017397       -6587511.5005681515        1485190171.9740322     
  -463372793.45417845       -7722520.5100848675        1493948965.0547371     
  -839257532.12252927       -2971983.0253264308        1459756421.4788930     
  -803938626.79199243       -5703044.6232153177        1455053375.3493395     
  -768540840.55887425       -8171169.8791638017        1454703739.1255276     
  -733064173.42316699       -10376358.793152660        1458707512.8074558     
  -697508625.38487589       -12318611.365191847        1467064696.3951216     
  -1118013918.8781362       -3663807.0232387781        1431635918.5264385     
  -1071987551.6609403       -7624874.7282534242        1427121328.2043855     
  -1025856009.8385330       -11235360.415897250        1426773684.6833625     
  -979619293.41091299       -14495264.086165190        1430592987.9633667     
  -933277402.37808168       -17404585.739061415        1438579238.0443971     
   35.219704808253525        10.643889066833630        1542913933.3006158     
   56.231236791424067        12.774006989542535        1541079780.2022686     
   75.386032992986486        8.7150077218925208        1544988486.7783215     
   92.684071475360824       -1.5331856777745791        1554640053.0287721     
   108.12535427446429       -17.970564688344552        1570034478.9536216     
  -230869906.58598363       -3616313.1737219542        1519232044.0232348     
  -216005056.69815147       -3496253.4799529314        1516719080.5065691     
  -201256449.04224977       -3763667.8926213011        1519870035.4748995     
  -186624083.61829019       -4418556.4117621630        1528684908.9282162     
  -172107960.42626297       -5460919.0373442918        1543163700.8665328     
  -463372793.45417845       -7722520.5100848675        1493948965.0547371     
  -433868660.94550484       -7550067.1293257177        1490621577.3487108     
  -404597011.04394728       -8152555.7722839117        1492879166.9382663     
  -375557843.74951094       -9529986.4389828444        1500721733.8233998     
  -346751159.06219786       -11682359.129419193        1514149278.0041215     
  -697508625.38487589       -12318611.365191847        1467064696.3951216     
  -653590756.51081407       -12161428.174076945        1462787270.7286851     
  -610021610.61905456       -13166654.923968196        1464015881.1684244     
  -566801187.70959723       -15334291.614863306        1470750527.7143266     
  -523929487.78244764       -18664338.246791869        1482991210.3664205     
  -933277402.37808168       -17404585.739061415        1438579238.0443971     
  -875171343.39408255       -17330336.614215851        1433216160.6464982     
  -817530247.76757252       -18805965.347668171        1433280178.1653695     
  -760354115.49854648       -21831471.939405739        1438771290.6009977     
  -703642946.58701694       -26406856.389453769        1449689497.9533966     
  -1756083215.5381918       -526824964.66145754        679971959.51735783     
  -1784155940.4367495       -500075290.21518099        806361600.83219016     
  -1809293299.6373544       -463541063.44239640        925651227.51653123     
  -1831495293.1400075       -417222284.34310377        1037840839.5703809     
  -1850761920.9447076       -361118952.91730320        1142930436.9937396     
  -2201808264.7354598       -660542479.42063797        696372036.82149374     
  -2238457572.7750640       -613872265.60221589        813792049.91170537     
  -2273060205.0853853       -560379799.35285115        927117658.43803132     
  -2305616161.6664228       -500065080.67254400        1036348862.4004719     
  -2336125442.5181785       -432928109.56129491        1141485661.7990270     
  -2685757954.1912351       -805727386.25737059        721941868.26676130     
  -2722396388.0387259       -736560395.86685503        829355448.16890407     
  -2757876836.1256032       -663533452.94096267        935680233.57376695     
  -2792199298.4518685       -586646557.47969365        1040916224.4813503     
  -2825363775.0175195       -505899709.48304766        1145063420.8916538     
  -3207932283.9055176       -962379685.17165530        756681453.85316014     
  -3235972386.2277360       -868139681.00909865        853051795.60378611     
  -3263743192.7580113       -773002024.20673084        951338952.92373836     
  -3291244703.4963427       -676966714.76455140        1051542925.8130163     
  -3318476918.4427309       -580033752.68256140        1153663714.2716203     
  -3768331253.8783073       -1130499376.1634922        800590793.58069062     
  -3779185567.3420939       -1008610121.0289468        884881092.21635199     
  -3790659274.9826069       -888785513.15015531        974093816.48794496     
  -3802752376.7998466       -771025552.52711844        1068228966.3954697     
  -3815464872.7938123       -655330239.15983617        1167286541.9389262     
  -1850761920.9447076       -361118952.91730320        1142930436.9937396     
  -1835455481.3101785       -295357916.36184108        1190409266.2653112     
  -1823555318.4299355       -240951135.65400195        1240145399.2007744     
  -1815061432.3039792       -197898610.79378521        1292138835.8001292     
  -1809973822.9323106       -166200341.78119344        1346389576.0633757     
  -2336125442.5181785       -432928109.56129491        1141485661.7990270     
  -2312669491.9226890       -351817513.30323136        1182681152.6196039     
  -2292721279.2239699       -282399376.70107388        1224345988.2764280     
  -2276280804.4220238       -224673699.75482577        1266480168.7694991     
  -2263348067.5168509       -178640482.46448553        1309083694.0988178     
  -2825363775.0175195       -505899709.48304766        1145063420.8916538     
  -2798866767.2543387       -410972089.66036355        1179857201.9283369     
  -2775978958.5304151       -328075133.30187070        1213332368.9736216     
  -2756700348.8457484       -257208840.40757036        1245488922.0275099     
  -2741030938.2003393       -198373210.97746217        1276326861.0899999     
  -3318476918.4427309       -580033752.68256140        1153663714.2716203     
  -3294047307.3051276       -472821645.43323648        1181937414.1915090     
  -3273328356.3492684       -377978405.45638931        1207104541.2923560     
  -3256320065.5751519       -295504032.75201774        1229165095.5741613     
  -3243022434.9827790       -225398527.32012486        1248119077.0369244     
  -3815464872.7938123       -655330239.15983617        1167286541.9389262     
  -3798211112.0750585       -537366180.62185359        1188921789.4091215     
  -3784769472.6805339       -432109193.16463172        1205662505.2326310     
  -3775139954.6102362       -339559276.78817081        1217508689.4094534     
  -3769322557.8641682       -259716431.49247074        1224460341.9395905     
  -1809973822.9323106       -166200341.78119344        1346389576.0633757     
  -1779227253.2950425       -133837223.29832494        1364087567.8435421     
  -1749711443.3492479       -105576637.12037092        1382698614.8051136     
  -1721426393.0949266       -81418583.247326255        1402222716.9480906     
  -1694372102.5320802       -61363061.679196417        1422659874.2724729     
  -2263348067.5168509       -178640482.46448553        1309083694.0988178     
  -2223574762.3793097       -134232774.16305935        1317048725.4247851     
  -2186674606.9001341       -99402231.389521122        1328264823.5345058     
  -2152647601.0793238       -74148854.143868208        1342731988.4279795     
  -2121493744.9168794       -58472642.426098704        1360450220.1052051     
  -2741030938.2003393       -198373210.97746217        1276326861.0899999     
  -2685550864.4129615       -139916902.91261113        1272642810.3337290     
  -2634586330.2508411       -96512393.598618627        1274547837.9635589     
  -2588137335.7139797       -68159683.035485864        1282041943.9794879     
  -2546203880.8023729       -54858771.223205805        1295125128.3815174     
  -3243022434.9827790       -225398527.32012486        1248119077.0369244     
  -3165155559.3959999       -150889609.54697800        1230869822.5703740     
  -3093446613.4013705       -96907123.747661591        1221547658.0922716     
  -3027895596.9988904       -63451069.922177672        1220152583.6026170     
  -2968502510.1885605       -50521448.070523739        1226684599.1014099     
  -3769322557.8641682       -259716431.49247074        1224460341.9395905     
  -3662388847.3284245       -167150894.06616008        1191729762.1347203     
  -3563255456.3517218       -100586421.83665311        1169264283.9206457     
  -3471922384.9340615       -60023014.803952932        1157063907.2973654     
  -3388389633.0754395       -45460672.968045831        1155128632.2648809     
  -1694372102.5320802       -61363061.679196417        1422659874.2724729     
  -1645076605.2571344       -39288872.385862648        1416248962.4317396     
  -1597618718.1512148       -23340050.322617173        1415177985.0380552     
  -1551998441.2143188       -13516595.489449322        1419446942.0914183     
  -1508215774.4464493       -9818507.8863698840        1429055833.5918326     
  -2121493744.9168794       -58472642.426098704        1360450220.1052051     
  -2059832173.4626956       -39964243.521942973        1352884267.2923169     
  -1999464569.3179281       -25769068.982507110        1350313619.4908350     
  -1940390932.4825757       -15887118.807787895        1352738276.7007585     
  -1882611262.9566367       -10318392.997786164        1360158238.9220901     
  -2546203880.8023729       -54858771.223205805        1295125128.3815174     
  -2473160890.6993585       -40211559.367352128        1287038384.5993531     
  -2400868225.0461507       -28065429.010851622        1283602316.3929524     
  -2329325883.8427482       -18420380.153699517        1284816923.7623158     
  -2258533867.0891504       -11276412.795898795        1290682206.7074420     
  -2968502510.1885605       -50521448.070523739        1226684599.1014099     
  -2885062756.9671230       -40030819.922093272        1218711314.3528478     
  -2801829685.3358817       -30229130.407649636        1215044075.7444050     
  -2718803295.2948360       -21116379.527185082        1215682883.2760861     
  -2635983586.8439822       -12692567.280706763        1220627736.9478858     
  -3388389633.0754395       -45460672.968045831        1155128632.2648809     
  -3295537772.2659879       -39422025.186162829        1147903056.5528007     
  -3202348950.1871204       -32260173.172897935        1144638897.5451965     
  -3108823166.8388400       -23975116.928249002        1145336155.2420712     
  -3014960422.2211409       -14566856.452214360        1149994829.6434252     
  -1508215774.4464493       -9818507.8863698840        1429055833.5918326     
  -1461671962.3997862       -8132442.0183867216        1424143060.5006552     
  -1415163308.5261178       -6563570.0603814721        1423152608.4231853     
  -1368689812.8254476       -5111892.0123732090        1426084477.3594251     
  -1322251475.2977688       -3777407.8743360043        1432938667.3093679     
  -1882611262.9566367       -10318392.997786164        1360158238.9220901     
  -1825020867.3478379       -7250649.4200420380        1354672144.3682351     
  -1767748064.9068472       -5241549.7349950075        1353442252.0692961     
  -1710792855.6336637       -4291093.9426337481        1356468562.0252728     
  -1654155239.5282836       -4399282.0429555178        1363751074.2361612     
  -2258533867.0891504       -11276412.795898795        1290682206.7074420     
  -2188942941.5147681       -6540807.5873708725        1284293283.1969645     
  -2119952044.1030014       -3805296.2542307377        1282494443.1826098     
  -2051561174.8538549       -3069878.7964885235        1285285686.6643767     
  -1983770333.7673225       -4334555.2141288519        1292667013.6422665     
  -2635983586.8439822       -12692567.280706763        1220627736.9478858     
  -2553438184.9005685       -6002916.5203567743        1213006476.9868395     
  -2471775246.1145797       -2254809.6180996895        1210309181.7631230     
  -2390994770.4860196       -1448246.5739310980        1212535851.2767372     
  -2311096758.0148873       -3583227.3878617287        1219686485.5276778     
  -3014960422.2211409       -14566856.452214360        1149994829.6434252     
  -2918506597.5052438       -5636976.2190034389        1140811725.7378638     
  -2823217670.9415817       -590089.82658767700        1136886467.8108394     
  -2729093642.5301619        573802.72502326965        1138219055.8623519     
  -2636134512.2709799       -2145298.5641527176        1144809489.8923986     
  -1322251475.2977688       -3777407.8743360043        1432938667.3093679     
  -1270539567.3597698       -1573944.8845939636        1424761587.0255284     
  -1219262671.9771667       -820523.74616765976        1421818768.8004251     
  -1168420789.1499577       -1517144.4590578675        1424110212.6340611     
  -1118013918.8781362       -3663807.0232387781        1431635918.5264385     
  -1654155239.5282836       -4399282.0429555178        1363751074.2361612     
  -1589433231.6345930       -2911133.6294332147        1355839853.7885723     
  -1524940211.4671531       -2186277.6367412210        1352867213.0734396     
  -1460676179.0259650       -2224714.0648909807        1354833152.0907691     
  -1396641134.3110254       -3026442.9138643146        1361737670.8405509     
  -1983770333.7673225       -4334555.2141288519        1292667013.6422665     
  -1906883032.5644584       -3815163.3707849979        1285262015.3315938     
  -1830018694.2587023       -3372314.5177968740        1282499914.4270999     
  -1753177318.8500497       -3006008.6551537514        1284380710.9287820     
  -1676358906.3385055       -2716245.7828720808        1290904404.8366458     
  -2311096758.0148873       -3583227.3878617287        1219686485.5276778     
  -2222888970.1493640       -4286034.1086472273        1213028071.6545920     
  -2134498120.3518052       -4378634.3893070221        1210716872.8614028     
  -2045924208.6222055       -3861028.2298331261        1212752889.1481109     
  -1957167234.9605722       -2733215.6302498579        1219136120.5147173     
  -2636134512.2709799       -2145298.5641527176        1144809489.8923986     
  -2537451044.3893137       -4323745.8430227041        1139138022.7575665     
  -2438378489.7464681       -5205237.2512917519        1137518088.3763521     
  -2338916848.3424377       -4789772.7889411449        1139949686.7487524     
  -2239066120.1772323       -3077352.4560124874        1146432817.8747694     
  -1118013918.8781362       -3663807.0232387781        1431635918.5264385     
  -1071987551.6609403       -7624874.7282534242        1427121328.2043855     
  -1025856009.8385330       -11235360.415897250        1426773684.6833625     
  -979619293.41091299       -14495264.086165190        1430592987.9633667     
  -933277402.37808168       -17404585.739061415        1438579238.0443971     
  -1396641134.3110254       -3026442.9138643146        1361737670.8405509     
  -1339485781.4437771       -6390412.2017980218        1356889183.5669308     
  -1282430011.9830110       -10086326.178006828        1356296715.7422280     
  -1225473825.9287338       -14114184.842510879        1359960267.3664441     
  -1168617223.2809398       -18473988.195290029        1367879838.4395776     
  -1676358906.3385055       -2716245.7828720808        1290904404.8366458     
  -1607820074.5415113       -5406768.6698027849        1285483136.2644751     
  -1539585584.1627026       -9111762.9506896734        1284406959.7891102     
  -1471655435.2020793       -13831228.625520349        1287675875.4105582     
  -1404029627.6596344       -19565165.694284618        1295289883.1288140     
  -1957167234.9605722       -2733215.6302498579        1219136120.5147173     
  -1876990430.9541447       -4673944.1322869062        1212903186.2970126     
  -1797322726.3776045       -8311670.7339309454        1211104416.8240123     
  -1718164121.2309413       -13646395.435174942        1213739812.0957100     
  -1639514615.5141604       -20678118.236024380        1220809372.1121087     
  -2239066120.1772323       -3077352.4560124874        1146432817.8747694     
  -2146996850.6816821       -4191938.5892320871        1139149333.6645532     
  -2055641438.6277180       -7686049.5277374983        1136389086.8469279     
  -1964999884.0153313       -13559685.271498442        1138152077.4218955     
  -1875072186.8445199       -21812845.820514321        1144438305.3894527     
  -933277402.37808168       -17404585.739061415        1438579238.0443971     
  -875171343.39408255       -17330336.614215851        1433216160.6464982     
  -817530247.76757252       -18805965.347668171        1433280178.1653695     
  -760354115.49854648       -21831471.939405739        1438771290.6009977     
  -703642946.58701694       -26406856.389453769        1449689497.9533966     
  -1168617223.2809398       -18473988.195290029        1367879838.4395776     
  -1096266968.1918311       -18761656.713581562        1362149896.8729107     
  -1024196884.1344187       -19983228.670860887        1362033453.7725973     
  -952406971.10868990       -22138704.067084074        1367530509.1386325     
  -880897229.11466026       -25228082.902301252        1378641062.9710140     
  -1404029627.6596344       -19565165.694284618        1295289883.1288140     
  -1316902594.8951669       -20054977.384633422        1289408668.4401405     
  -1229870940.8366010       -20862718.094648182        1289327355.7674022     
  -1142934665.4839201       -21988387.824291885        1295045945.1106014     
  -1056093768.8371421       -23431986.573600352        1306564436.4697413     
  -1639514615.5141604       -20678118.236024380        1220809372.1121087     
  -1537078223.5040903       -21210298.627359986        1214992475.3481863     
  -1434552417.8741217       -21444433.619033456        1215161884.1497903     
  -1331937198.6242526       -21380523.211028516        1221317598.5169272     
  -1229232565.7544761       -21018567.403355002        1233459618.4495742     
  -1875072186.8445199       -21812845.820514321        1144438305.3894527     
  -1756793854.0185957       -22227620.441757679        1138901317.5970507     
  -1638241315.2469864       -21728375.244036973        1139537038.9197588     
  -1519414570.5296612       -20315110.227281868        1146345469.3575745     
  -1400313619.8666518       -17987825.391562223        1159326608.9105055     
  -3768331253.8783073       -1130499376.1634922        800590793.58069062     
  -3779185567.3420939       -1008610121.0289468        884881092.21635199     
  -3790659274.9826069       -888785513.15015531        974093816.48794496     
  -3802752376.7998466       -771025552.52711844        1068228966.3954697     
  -3815464872.7938123       -655330239.15983617        1167286541.9389262     
  -4339810176.9017448       -1301943053.0705235        858810146.45639288     
  -4335287128.1440487       -1125663683.7008646        942411329.07011914     
  -4331906859.5201435       -953193581.44384813        1020367261.3947977     
  -4329669371.0300331       -784532746.29947507        1092677943.4304285     
  -4328574662.6737156       -619681178.26774383        1159343375.1770117     
  -4895224365.7679710       -1468567309.7303915        936479771.48730779     
  -4905517314.5744457       -1246955834.0613158        1018781221.1291878     
  -4917476429.4717817       -1030898245.3617711        1084869744.5570412     
  -4931101710.4599771       -820394543.63175786        1134745341.7708673     
  -4946393157.5390291       -615444728.87127483        1168408012.7706661     
  -5434573820.4769859       -1630372146.1430957        1033599668.6734351     
  -5489876126.6332893       -1372486572.1103005        1113990768.3935583     
  -5547367984.8375168       -1121899504.9039237        1167601265.9746749     
  -5607049395.0896702       -878610944.52396607        1194431161.4167857     
  -5668920357.3897505       -642620890.97042847        1194480454.7198894     
  -5957858541.0287905       -1787357562.3086374        1150169838.0147748     
  -6088363564.3205757       -1502255897.8478179        1228039970.8632300     
  -6221581525.6173515       -1226197360.0703058        1268561825.6476996     
  -6357512424.9191208       -959181948.97610188        1271735402.3681836     
  -6496156262.2258816       -701209664.56520438        1237560701.0246818     
  -3815464872.7938123       -655330239.15983617        1167286541.9389262     
  -3798211112.0750585       -537366180.62185359        1188921789.4091215     
  -3784769472.6805339       -432109193.16463172        1205662505.2326310     
  -3775139954.6102362       -339559276.78817081        1217508689.4094534     
  -3769322557.8641682       -259716431.49247074        1224460341.9395905     
  -4328574662.6737156       -619681178.26774383        1159343375.1770117     
  -4298434285.8988581       -463908276.48122907        1141418605.8202586     
  -4278882359.8280854       -343430210.37499046        1129576032.0190713     
  -4269918884.4613957       -258246979.94903088        1123815653.7734499     
  -4271543859.7987852       -208358585.20334148        1124137471.0833952     
  -4946393157.5390291       -615444728.87127483        1168408012.7706661     
  -4872004086.9873476       -412454360.52001309        1103017508.9771342     
  -4814979796.5196037       -267346592.44854140        1054685927.9414201     
  -4775320286.1357985       -180121424.65686226        1023413269.6635247     
  -4753025555.8359289       -150778857.14497089        1009199534.1434480     
  -5668920357.3897505       -642620890.97042847        1194480454.7198894     
  -5518920515.3405247       -383004432.73820186        1073718498.8797488     
  -5393061782.7550917       -203858339.38528395        980992192.99967861     
  -5291344159.6334496       -105182610.91166782        916301537.07967830     
  -5213767645.9756002       -86977247.317358017        879646531.11975002     
  -6496156262.2258816       -701209664.56520438        1237560701.0246818     
  -6239183570.9583912       -375558493.13579917        1053521575.5281019     
  -6013128318.5345459       -152965451.18521380        908494827.19384551     
  -5817990504.9543467       -33430538.713448763        802480456.02191043     
  -5653770130.2177944       -16953755.720502615        735478462.01230013     
  -3769322557.8641682       -259716431.49247074        1224460341.9395905     
  -3662388847.3284245       -167150894.06616008        1191729762.1347203     
  -3563255456.3517218       -100586421.83665311        1169264283.9206457     
  -3471922384.9340615       -60023014.803952932        1157063907.2973654     
  -3388389633.0754395       -45460672.968045831        1155128632.2648809     
  -4271543859.7987852       -208358585.20334148        1124137471.0833952     
  -4149115519.7375031       -144088030.62928510        1090469096.0441396     
  -4031154004.6586642       -94706892.663372993        1064984176.6304094     
  -3917659314.5622683       -60215171.305606365        1047682712.8422023     
  -3808631449.4483147       -40612866.555984020        1038564704.6795208     
  -4753025555.8359289       -150778857.14497089        1009199534.1434480     
  -4621050146.1498795       -116587553.39339828        978482440.87583768     
  -4490208066.8696775       -86174017.661313295        953867157.26848114     
  -4360499317.9953222       -59538249.948716879        935353683.32137871     
  -4231923899.5268121       -36680250.255606413        922942019.03452992     
  -5213767645.9756002       -86977247.317358017        879646531.11975002     
  -5078192726.5655584       -84649462.358501196        855769796.62981439     
  -4940417642.9847641       -74987796.830474138        835913225.83486307     
  -4800442395.2332211       -57992250.733278751        820076818.73489308     
  -4658266983.3109283       -33662824.066914797        808260575.32990766     
  -5653770130.2177944       -16953755.720502615        735478462.01230013     
  -5520543260.9845333       -48273757.524594784        722331163.30606961     
  -5381782733.0039253       -61148230.170860291        711122382.32955301     
  -5237488546.2759676       -55577173.659299374        701852119.08274639     
  -5087660700.8006620       -31560587.989908695        694520373.56565523     
  -3388389633.0754395       -45460672.968045831        1155128632.2648809     
  -3295537772.2659879       -39422025.186162829        1147903056.5528007     
  -3202348950.1871204       -32260173.172897935        1144638897.5451965     
  -3108823166.8388400       -23975116.928249002        1145336155.2420712     
  -3014960422.2211409       -14566856.452214360        1149994829.6434252     
  -3808631449.4483147       -40612866.555984020        1038564704.6795208     
  -3703502245.1427331       -29915001.713046312        1030321713.2335429     
  -3599006111.4574580       -21327372.271136522        1026486211.5275587     
  -3495143048.3924894       -14849978.230248690        1027058199.5615706     
  -3391913055.9478297       -10482819.590389967        1032037677.3355761     
  -4231923899.5268121       -36680250.255606413        922942019.03452992     
  -4113242857.3379073       -20940820.035455465        912549907.98331249     
  -3996164917.6590352       -10545064.848744154        907011359.70760524     
  -3880690080.4901943       -5492984.6954653263        906326374.20740962     
  -3766818345.8313785       -5784579.5756218433        910494951.48272502     
  -4658266983.3109283       -33662824.066914797        808260575.32990766     
  -4524759608.8515148       -12499480.153401375        794587640.80210733     
  -4393825368.7918530        86749.094275474548        786214342.08533370     
  -4265464263.1319475        4095863.6760988235        783140679.17958903     
  -4139676291.8717909       -472136.40791463852        785366652.08486879     
  -5087660700.8006620       -31560587.989908695        694520373.56565523     
  -4938052499.6835480       -4590982.0668640137        676434911.68993056     
  -4791987464.8559132        10568069.557919502        664095158.66074502     
  -4649465596.3177538        13916566.884453297        657501114.47810900     
  -4510486894.0690689        5454509.9127347469        656652779.14201105     
  -3014960422.2211409       -14566856.452214360        1149994829.6434252     
  -2918506597.5052438       -5636976.2190034389        1140811725.7378638     
  -2823217670.9415817       -590089.82658767700        1136886467.8108394     
  -2729093642.5301619        573802.72502326965        1138219055.8623519     
  -2636134512.2709799       -2145298.5641527176        1144809489.8923986     
  -3391913055.9478297       -10482819.590389967        1032037677.3355761     
  -3283646289.6431761       -6233601.1235787868        1022460052.6802435     
  -3175820500.4090147       -3454306.2250692844        1017791612.9068918     
  -3068435688.2453418       -2144934.8948644400        1018032358.0155241     
  -2961491853.1521654       -2305487.1329698563        1023182288.0061361     
  -3766818345.8313785       -5784579.5756218433        910494951.48272502     
  -3647734812.4995556       -6514875.2436816692        901367380.67299283     
  -3528368335.1564755       -6302024.2075560093        896800333.64868701     
  -3408718913.8021393       -5146026.4672408104        896793810.40980983     
  -3288786548.4365482       -3046882.0227427483        901347810.95635867     
  -4139676291.8717909       -472136.40791463852        785366652.08486879     
  -4010772166.0743828       -6480798.5793237686        777533709.71610987     
  -3880861175.1839705       -9133243.7740547657        773912630.03622210     
  -3749943319.2005515       -8429471.9921030998        774503413.04520988     
  -3618018598.1241302       -4369483.2334723473        779306058.74306858     
  -4510486894.0690689        5454509.9127347469        656652779.14201105     
  -4372758350.3676548       -6131371.1304912567        650959039.80959678     
  -4233299020.4914942       -11947964.924561977        649128502.06949961     
  -4092108904.4405785       -11995271.469448328        651161165.92172229     
  -3949188002.2149134       -6273290.7651717663        657057031.36626410     
  -2636134512.2709799       -2145298.5641527176        1144809489.8923986     
  -2537451044.3893137       -4323745.8430227041        1139138022.7575665     
  -2438378489.7464681       -5205237.2512917519        1137518088.3763521     
  -2338916848.3424377       -4789772.7889411449        1139949686.7487524     
  -2239066120.1772323       -3077352.4560124874        1146432817.8747694     
  -2961491853.1521654       -2305487.1329698563        1023182288.0061361     
  -2851425598.4008870       -2205976.7195155621        1017120316.5614682     
  -2741364518.1698055       -2123714.7067086697        1015237119.7185038     
  -2631308612.4589186       -2058701.0945509672        1017532697.4772383     
  -2521257881.2682252       -2010935.8830457926        1024007049.8376762     
  -3288786548.4365482       -3046882.0227427483        901347810.95635867     
  -3166973958.6782722       -560349.47574377060        894435363.70691800     
  -3045560804.7215710        594730.39934933186        891828932.90726244     
  -2924547086.5664382        418357.60254073143        893528518.55739415     
  -2803932804.2128811       -1089467.8661714792        899534120.65730989     
  -3618018598.1241302       -4369483.2334723473        779306058.74306858     
  -3484096125.2214751        613135.88827681541        771083164.19391370     
  -3350967349.4017673        2950098.0668783188        767293527.94263077     
  -3218632270.6650047        2641403.3023217916        767937149.98922038     
  -3087090889.0111866       -312948.40539026260        773014030.33367729     
  -3949188002.2149134       -6273290.7651717663        657057031.36626410     
  -3802792098.0304894        1314479.3725593090        647063718.02245867     
  -3657584152.2103925        4942388.2958743572        641630904.82460785     
  -3513564164.7546191        4610436.0047781467        640758591.77271509     
  -3370732135.6631646        318622.49927568436        644446778.86677516     
  -2239066120.1772323       -3077352.4560124874        1146432817.8747694     
  -2146996850.6816821       -4191938.5892320871        1139149333.6645532     
  -2055641438.6277180       -7686049.5277374983        1136389086.8469279     
  -1964999884.0153313       -13559685.271498442        1138152077.4218955     
  -1875072186.8445199       -21812845.820514321        1144438305.3894527     
  -2521257881.2682252       -2010935.8830457926        1024007049.8376762     
  -2418552482.7276940       -4728023.4750382900        1015677679.5514934     
  -2316211966.5956173       -8661385.7618820667        1011376517.6285756     
  -2214236332.8719959       -13811022.743580222        1011103564.0689268     
  -2112625581.5568361       -20176934.420142651        1014858818.8725417     
  -2803932804.2128811       -1089467.8661714792        899534120.65730989     
  -2692005645.2825761       -5833367.5134924650        890566001.83380771     
  -2580094393.7276130       -10630291.745264649        885131062.34424627     
  -2468199049.5479741       -15480240.561466098        883229302.18862379     
  -2356319612.7436724       -20383213.962116957        884860721.36694241     
  -3087090889.0111866       -312948.40539026260        773014030.33367729     
  -2967356338.3463421       -7507970.7046197653        763814300.51149821     
  -2847288720.0236993       -13592767.477871776        757652720.99393404     
  -2726888034.0432658       -18567338.725147605        754529291.78098249     
  -2606154280.4050450       -22431684.446450591        754444012.87264228     
  -3370732135.6631646        318622.49927568436        644446778.86677516     
  -3244604561.9189806       -9751833.0484040976        635422575.58456469     
  -3117794945.4838810       -17548812.959703088        628941493.57764339     
  -2990303286.3578696       -23072317.234616041        625003532.84600770     
  -2862129584.5409431       -26322345.873155117        623608693.38965619     
  -1875072186.8445199       -21812845.820514321        1144438305.3894527     
  -1756793854.0185957       -22227620.441757679        1138901317.5970507     
  -1638241315.2469864       -21728375.244036973        1139537038.9197588     
  -1519414570.5296612       -20315110.227281868        1146345469.3575745     
  -1400313619.8666518       -17987825.391562223        1159326608.9105055     
  -2112625581.5568361       -20176934.420142651        1014858818.8725417     
  -1980626920.1351247       -17797225.175331354        1006184712.7870872     
  -1848507828.2460158       -15016081.039180517        1001247115.6141915     
  -1716268305.8894987       -11833502.011668563        1000046027.3538591     
  -1583908353.0655799       -8249488.0928348899        1002581448.0060765     
  -2356319612.7436724       -20383213.962116957        884860721.36694241     
  -2217561194.7334676       -17297192.453434110        872870092.26375687     
  -2078836121.7341523       -14322320.981061697        862179771.87058127     
  -1940144393.7457254       -11458599.544981718        852789760.18740988     
  -1801486010.7681932       -8706028.1452131271        844700057.21424437     
  -2606154280.4050450       -22431684.446450591        754444012.87264228     
  -2467596677.8136320       -20727522.276091218        738957456.02705657     
  -2329226195.7114034       -19647095.069674611        722335007.68892467     
  -2191042834.0983639       -19190402.827213526        704576667.85824978     
  -2053046592.9745059       -19357445.548697829        685682436.53502655     
  -2862129584.5409431       -26322345.873155117        623608693.38965619     
  -2730733369.3756108       -28088214.643289089        604446804.07698905     
  -2599678050.1777668       -30990403.305032849        581712823.06922388     
  -2468963626.9473920       -35028911.858363628        555406750.36636126     
  -2338590099.6845036       -40203740.303294659        525528585.96840191     
  -5957858541.0287905       -1787357562.3086374        1150169838.0147748     
  -6088363564.3205757       -1502255897.8478179        1228039970.8632300     
  -6221581525.6173515       -1226197360.0703058        1268561825.6476996     
  -6357512424.9191208       -959181948.97610188        1271735402.3681836     
  -6496156262.2258816       -701209664.56520438        1237560701.0246818     
  -6810483222.5844107       -2043144966.7753232        1353885589.2955141     
  -6828424423.8496122       -1395464345.7553406        1202860440.2606001     
  -6897722414.8979197       -918973024.01237202        1092099057.7964664     
  -7018377195.7293329       -613671001.54641938        1021601441.9031128     
  -7190388766.3438473       -479558278.35748029        991367592.58053970     
  -8337852560.3048763       -2501355768.0914631        1712442232.2998400     
  -8021481240.5870228       -1424571580.8253753        1275770640.9737594     
  -7805110562.4303865       -681122865.43000913        956974860.85322499     
  -7688740525.8349667       -271009621.90536356        756054891.93823659     
  -7672371130.8007622       -194231850.25143862        673010734.22879446     
  -10539966554.190189       -3161989966.2570572        2225839767.0277519     
  -9667534014.5328045       -1589577603.0579219        1446770573.0027077     
  -8943745968.2147503       -512646884.32321453        863189234.81797516     
  -8368602415.2360239        68802189.947064877        475095752.47355467     
  -7942103355.5966263        154769619.75291824        282490125.96944684     
  -13416825204.240345       -4025047561.2721038        2894078193.4792509     
  -11766582745.686958       -1890482412.4529788        1715860236.3474450     
  -10313628632.251011       -413545080.69198942        810742179.69071722     
  -9057962863.9325047        405764434.01086617        178724023.50906754     
  -7999585440.7314367        567446131.65558767       -180194232.19750458     
  -6496156262.2258816       -701209664.56520438        1237560701.0246818     
  -6239183570.9583912       -375558493.13579917        1053521575.5281019     
  -6013128318.5345459       -152965451.18521380        908494827.19384551     
  -5817990504.9543467       -33430538.713448763        802480456.02191043     
  -5653770130.2177944       -16953755.720502615        735478462.01230013     
  -7190388766.3438473       -479558278.35748029        991367592.58053970     
  -6900344600.1744490       -304157934.78004527        847148756.06031132     
  -6623116677.6153650       -171478403.23698258        724030406.42198849     
  -6358704998.6665888       -81519683.728287697        622012543.66557157     
  -6107109563.3281240       -34281776.253966808        541095167.79106104     
  -7672371130.8007622       -194231850.25143862        673010734.22879446     
  -7400432319.1020746       -184435383.33776093        589730247.79047394     
  -7123208555.7803698       -157022411.01400661        509638357.95364296     
  -6840699840.8356380       -111992933.28017116        432735064.71830094     
  -6552906174.2678814       -49346950.136257172        359020368.08444887     
  -7942103355.5966263        154769619.75291824        282490125.96944684     
  -7739446727.7412729       -16390838.808947086        281266050.71859252     
  -7513403953.0295649       -109597474.51628923        265318681.78880888     
  -7263975031.4614935       -124850287.36909580        234648019.18009755     
  -6991159963.0370665       -62149277.367381096        189254062.89246106     
  -7999585440.7314367        567446131.65558767       -180194232.19750458     
  -7917387826.0920362        199975698.80639458       -78243835.155336455     
  -7793702869.3629456       -29203593.743824959       -8928622.0725127123     
  -7628530570.5441608       -120091745.99506235        27751407.050965894     
  -7421870929.6356812       -72688757.947327614        31796252.215100046     
  -5653770130.2177944       -16953755.720502615        735478462.01230013     
  -5520543260.9845333       -48273757.524594784        722331163.30606961     
  -5381782733.0039253       -61148230.170860291        711122382.32955301     
  -5237488546.2759676       -55577173.659299374        701852119.08274639     
  -5087660700.8006620       -31560587.989908695        694520373.56565523     
  -6107109563.3281240       -34281776.253966808        541095167.79106104     
  -5959029712.5170059       -35874313.785115242        534799207.53449494     
  -5809853905.7750940       -33813664.880280733        531129915.92973322     
  -5659582143.1023903       -28099829.539469957        530087292.97677898     
  -5508214424.4988899       -18732807.762675047        531671338.67562807     
  -6552906174.2678814       -49346950.136257172        359020368.08444887     
  -6388007196.3872147       -20622179.746953249        354398426.32489747     
  -6226449965.3923063       -3036565.6435177326        353091304.13924712     
  -6068234481.2831583        3409892.1740505695        355099001.52749491     
  -5913360744.0597677       -1282806.2942411900        360421518.48964214     
  -6991159963.0370665       -62149277.367381096        189254062.89246106     
  -6807475712.5951519       -2517355.4101114273        181128819.67728126     
  -6631570911.8555508        31183067.539439678        177006546.95809454     
  -6463445560.8182640        38951991.481277466        176887244.73489946     
  -6303099659.4832964        20789416.415392876        180770913.00769514     
  -7421870929.6356812       -72688757.947327614        31796252.215100046     
  -7217435261.1408262        18440159.225403309        14990387.591643805     
  -7025216745.1648369        68845234.668579102        2875644.3862720057     
  -6845215381.7077188        78526468.382191181       -4547977.4010088239     
  -6677431170.7694674        47483860.366244793       -7280477.7702089725     
  -5087660700.8006620       -31560587.989908695        694520373.56565523     
  -4938052499.6835480       -4590982.0668640137        676434911.68993056     
  -4791987464.8559132        10568069.557919502        664095158.66074502     
  -4649465596.3177538        13916566.884453297        657501114.47810900     
  -4510486894.0690689        5454509.9127347469        656652779.14201105     
  -5508214424.4988899       -18732807.762675047        531671338.67562807     
  -5348810296.5075092       -7220643.6688563824        515975596.66667056     
  -5190677364.3365974        54201.023397445679        505636576.13658154     
  -5033815627.9861526        3091726.3140892982        500654277.08536410     
  -4878225087.4561777        1891932.2032220364        501028699.51301306     
  -5913360744.0597677       -1282806.2942411900        360421518.48964214     
  -5745272081.6731882       -5561501.7733635902        349766128.56129646     
  -5576182644.6380682       -6504281.7573606968        344078472.74414110     
  -5406092432.9544077       -4111146.2462301254        343358551.03818214     
  -5235001446.6222153        1617904.7600293159        347606363.44341677     
  -6303099659.4832964        20789416.415392876        180770913.00769514     
  -6127437855.1805811        386443.61961531639        177806507.37379891     
  -5948503305.7603235       -9107378.7843506336        179420848.48342404     
  -5766296011.2225266       -7692050.7965123653        185613936.33656701     
  -5580815971.5671768        4632427.5831546783        196385770.93322939     
  -6677431170.7694674        47483860.366244793       -7280477.7702089725     
  -6495307617.0296946        10623192.510078192        96733.104185120494     
  -6307639347.7033710       -7755090.0575842857        11663703.354429297     
  -6114426362.7904978       -7650987.3367438316        27420432.980512269     
  -5915668662.2910681        10935500.672614574        47366921.982445486     
  -4510486894.0690689        5454509.9127347469        656652779.14201105     
  -4372758350.3676548       -6131371.1304912567        650959039.80959678     
  -4233299020.4914942       -11947964.924561977        649128502.06949961     
  -4092108904.4405785       -11995271.469448328        651161165.92172229     
  -3949188002.2149134       -6273290.7651717663        657057031.36626410     
  -4878225087.4561777        1891932.2032220364        501028699.51301306     
  -4728931259.2299252       -2112900.7385201454        500280689.40439284     
  -4578970207.8028240       -3893656.3440933228        502816377.77606708     
  -4428341933.1748667       -3450334.6134905815        508635764.62803078     
  -4277046435.3460631       -782935.54671764374        517738849.96028513     
  -5235001446.6222153        1617904.7600293159        347606363.44341677     
  -5075798057.0483446        4697402.9666092396        350563259.08904457     
  -4916991007.2475243        6455768.5963575840        356224350.10293627     
  -4758580297.2197504        6893001.6492903233        364589636.48509312     
  -4600565926.9650211        6009102.1253948212        375659118.23551142     
  -5580815971.5671768        4632427.5831546783        196385770.93322939     
  -5413358743.8229103        14299539.984898329        201806748.86355016     
  -5247361418.8255882        19100309.896817923        209352419.05011529     
  -5082823996.5752144        19034737.318901062        219022781.49291340     
  -4919746477.0717993        14102822.251147509        230817836.19194362     
  -5915668662.2910681        10935500.672614574        47366921.982445486     
  -5741613319.5536261        26693510.316338778        54011158.727914959     
  -5570081442.5370283        34039967.557243347        62200584.617595538     
  -5401073031.2412758        32974872.395326853        71935199.651482821     
  -5234588085.6663761        23498224.830580711        83215003.829581678     
  -3949188002.2149134       -6273290.7651717663        657057031.36626410     
  -3802792098.0304894        1314479.3725593090        647063718.02245867     
  -3657584152.2103925        4942388.2958743572        641630904.82460785     
  -3513564164.7546191        4610436.0047781467        640758591.77271509     
  -3370732135.6631646        318622.49927568436        644446778.86677516     
  -4277046435.3460631       -782935.54671764374        517738849.96028513     
  -4119372648.2650833        3877811.1577463150        508327573.21057874     
  -3962313428.8715281        6489998.9041385651        503706557.79687476     
  -3805868777.1653891        7053627.6924748421        503875803.71915704     
  -3650038693.1466703        5568697.5227472782        508835310.97743464     
  -4600565926.9650211        6009102.1253948212        375659118.23551142     
  -4430957796.4445238        7939763.5594742298        367498833.86963165     
  -4261390842.9345441        9733168.2918424606        364358572.02978289     
  -4091865066.4350805        11389316.322491884        366238332.71596617     
  -3922380466.9461279        12908207.651428461        373138115.92818093     
  -4919746477.0717993        14102822.251147509        230817836.19194362     
  -4737547542.5688143        13500336.577751398        224577499.99960825     
  -4554816394.3994465        14671896.458973885        223586947.52334407     
  -4371553032.5636854        17617501.894832850        227846178.76314181     
  -4187757457.0615387        22337152.885316133        237355193.71901354     
  -5234588085.6663761        23498224.830580711        83215003.829581678     
  -5039141886.6379404        20559530.212581396        79563571.600504979     
  -4842590083.2662201        21306183.405553102        81391684.277543068     
  -4644932675.5512018        25738184.409507036        88699341.860681206     
  -4446169663.4928923        33855533.224434376        101486544.34993541     
  -3370732135.6631646        318622.49927568436        644446778.86677516     
  -3244604561.9189806       -9751833.0484040976        635422575.58456469     
  -3117794945.4838810       -17548812.959703088        628941493.57764339     
  -2990303286.3578696       -23072317.234616041        625003532.84600770     
  -2862129584.5409431       -26322345.873155117        623608693.38965619     
  -3650038693.1466703        5568697.5227472782        508835310.97743464     
  -3514794118.0214076       -2156823.5678329468        503673010.14459133     
  -3378977791.6391397       -7976507.1350724697        502439527.30103761     
  -3242589713.9998803       -11890353.179001689        505134862.44677573     
  -3105629885.1036220       -13898361.699598908        511759015.58180302     
  -3922380466.9461279        12908207.651428461        373138115.92818093     
  -3774059756.9712009        8715361.0585341454        371709044.20513695     
  -3625277587.1731915        6060713.8759136200        375594487.18537992     
  -3476033957.5521030        4944266.1035618782        384794444.86891794     
  -3326328868.1079407        5366017.7414586544        399308917.25574374     
  -4187757457.0615387        22337152.885316133        237355193.71901354     
  -4022401478.7683768        22864720.830673456        239530677.76619282     
  -3856694332.0860429        24562850.073259592        248406373.23066655     
  -3690636017.0145526        27431540.613031149        263982280.11243516     
  -3524226533.5538998        31470792.450024128        286258398.41149896     
  -4446169663.4928923        33855533.224434376        101486544.34993541     
  -4259819283.4129138        40291255.748631001        107137910.82776822     
  -4073228026.3776836        47529901.456980467        120875185.43690193     
  -3886395892.3872089        55571470.349481344        142698368.17732728     
  -3699322881.4415016        64415962.426103592        172607459.04904902     
  -2862129584.5409431       -26322345.873155117        623608693.38965619     
  -2730733369.3756108       -28088214.643289089        604446804.07698905     
  -2599678050.1777668       -30990403.305032849        581712823.06922388     
  -2468963626.9473920       -35028911.858363628        555406750.36636126     
  -2338590099.6845036       -40203740.303294659        525528585.96840191     
  -3105629885.1036220       -13898361.699598908        511759015.58180302     
  -2972076262.8036871       -18130570.668630481        504269213.37924755     
  -2839887142.4000025       -26911119.291841149        502580202.25199902     
  -2709062523.8925810       -40240007.569237113        506691982.20005852     
  -2579602407.2814031       -58117235.500818253        516604553.22342175     
  -3326328868.1079407        5366017.7414586544        399308917.25574374     
  -3163838173.6151066        6701368.0910164118        402296995.24640542     
  -3003735586.9473009        76359.023813962936        420458747.08277380     
  -2846021108.1045189       -14509009.460145473        453794172.76485568     
  -2690694737.0867815       -37054737.360878706        502303272.29264450     
  -3524226533.5538998        31470792.450024128        286258398.41149896     
  -3306019101.8098621        46407601.635679960        298530149.67846459     
  -3091223383.8196411        49972031.641955614        335348457.56155151     
  -2879839379.5832062        42164082.468926430        396713322.06075364     
  -2671867089.1005845        22983754.116546631        482624743.17605889     
  -3699322881.4415016        64415962.426103592        172607459.04904902     
  -3398619047.3879871        100988129.96529317        192968676.67543256     
  -3102350533.0170293        122775898.56261575        247249333.68832359     
  -2810517338.3286724        129779268.21795821        335449430.08774215     
  -2523119463.3228779        121998238.93139172        457568965.87366790     
 </DataArray>
 <DataArray  type="Float64" Name="VM" NumberOfComponents="1" format="ascii">
   12935838304.221788     
   11340829095.823019     
   10210225921.147932     
   9272678255.3914146     
   8303740484.6773787     
   10130394613.562811     
   9322022881.6373959     
   8826307395.2027454     
   8443409632.5904579     
   8035518507.2435303     
   7982355892.6897135     
   7734931380.2005463     
   7669083558.8636961     
   7669505292.2121677     
   7666264819.8611650     
   6491635936.2939529     
   6586842775.4086676     
   6757389004.8226728     
   6961195624.0677967     
   7171602708.5236597     
   5657788781.8925714     
   5890917595.0160255     
   6116412111.7043934     
   6331817739.5707397     
   6536913881.1863079     
   8303740484.6773787     
   8020390996.0725508     
   7779157557.1826963     
   7569351858.9774132     
   7386000147.7914047     
   8035518507.2435303     
   7746597967.1561565     
   7473351489.2159882     
   7213819415.7579823     
   6968008031.3430090     
   7666264819.8611650     
   7380979518.0787754     
   7101087702.1766958     
   6826667239.4021988     
   6557921575.4141006     
   7171602708.5236597     
   6910966367.5226917     
   6658229342.9648600     
   6409533049.3092222     
   6161732859.6729364     
   6536913881.1863079     
   6328902002.9676743     
   6143077263.8240738     
   5965530756.2376604     
   5787256446.4937687     
   7386000147.7914047     
   7226719628.4622555     
   7059892881.5960426     
   6884819001.7549849     
   6701311140.6566019     
   6968008031.3430090     
   6813443918.7054358     
   6654283720.3130121     
   6490244768.8484697     
   6321279116.6218586     
   6557921575.4141006     
   6407192936.0906887     
   6254902220.1679401     
   6101021167.6677208     
   5945583425.4965324     
   6161732859.6729364     
   6012950736.3436718     
   5865610819.4846182     
   5719755586.1786051     
   5575447604.7498989     
   5787256446.4937687     
   5637155116.9659443     
   5491386266.8880939     
   5349867239.5310984     
   5212657054.7264652     
   6701311140.6566019     
   6500625725.9881430     
   6303797751.1243629     
   6110789024.2835407     
   5921712331.6639528     
   6321279116.6218586     
   6135365368.0270185     
   5952073148.9404373     
   5771415060.4815559     
   5593485780.7779751     
   5945583425.4965324     
   5774360477.6215925     
   5604708388.1299229     
   5436663713.5208673     
   5270313371.2823954     
   5575447604.7498989     
   5419399812.6004400     
   5264068567.6883821     
   5109484966.6326847     
   4955744355.1372395     
   5212657054.7264652     
   5072908990.7303658     
   4933250930.2015066     
   4793678309.8534336     
   4654320881.7225733     
   5921712331.6639528     
   5755766791.7880058     
   5588217777.3221664     
   5419068247.8555164     
   5248356123.3694611     
   5593485780.7779751     
   5431780894.7085466     
   5269428624.6298008     
   5106478727.8781729     
   4943006867.5246811     
   5270313371.2823954     
   5114320555.7464542     
   4958757141.1784601     
   4803718499.4031010     
   4649327610.7791338     
   4955744355.1372395     
   4806625195.3451996     
   4659144465.5676079     
   4513432807.5302324     
   4369661133.4838715     
   4654320881.7225733     
   4512813435.7347183     
   4374298494.7865238     
   4238920332.4815559     
   4106887187.6077051     
   5248356123.3694611     
   5051333178.4238701     
   4855325266.3014402     
   4660388051.8000259     
   4466653879.4860001     
   4943006867.5246811     
   4760231336.7274332     
   4578577142.3963270     
   4398129567.1790762     
   4219048055.1683369     
   4649327610.7791338     
   4480379083.1194572     
   4312689975.2185478     
   4146382089.4939036     
   3981653196.3771639     
   4369661133.4838715     
   4214310232.2307906     
   4060399728.9302816     
   3908094734.5240912     
   3757642812.5923843     
   4106887187.6077051     
   3965135849.3347960     
   3825061299.9588499     
   3686877821.2510676     
   3550893425.6171336     
   4466653879.4860001     
   4284128025.6257434     
   4102545370.2757106     
   3922272667.0328469     
   3743903740.5312939     
   4219048055.1683369     
   4055161220.4084878     
   3892883685.7575955     
   3732538936.1222358     
   3574619624.7767324     
   3981653196.3771639     
   3832883806.1674657     
   3686171459.3929167     
   3541782556.6780806     
   3400100743.4196839     
   3757642812.5923843     
   3620395167.4927378     
   3485389332.0632238     
   3352828355.2613964     
   3222989197.7692342     
   3550893425.6171336     
   3421578387.3428054     
   3294380384.4558730     
   3169438664.6698546     
   3046933627.1557636     
   3743903740.5312939     
   3466372989.8957872     
   3194361318.5843997     
   2935673215.4657559     
   2704984415.0596404     
   3574619624.7767324     
   3369377079.9615688     
   3170175171.9668884     
   2981413068.1776185     
   2810621391.1535711     
   3400100743.4196839     
   3242938221.2505450     
   3090795112.4669528     
   2945597088.0970011     
   2810415469.0083661     
   3222989197.7692342     
   3089100775.9635196     
   2957536148.7341127     
   2828751947.7066927     
   2703414265.5454369     
   3046933627.1557636     
   2911539230.3560252     
   2773786485.3787022     
   2633619965.9994755     
   2491012190.1382165     
   5657788781.8925714     
   5890917595.0160255     
   6116412111.7043934     
   6331817739.5707397     
   6536913881.1863079     
   5151437953.3158770     
   5311365578.2563705     
   5467928200.9930954     
   5618233044.6167316     
   5760816230.9591284     
   4643482329.4319201     
   4755605226.4928427     
   4868853550.0014935     
   4980592667.5606441     
   5088897497.4652939     
   4134185164.6911964     
   4224473372.2190814     
   4320682500.8419180     
   4421153283.2110386     
   4524429058.9710484     
   3625064137.7200203     
   3719792569.1790643     
   3825771904.8362007     
   3942933700.0086432     
   4071180912.5120769     
   6536913881.1863079     
   6328902002.9676743     
   6143077263.8240738     
   5965530756.2376604     
   5787256446.4937687     
   5760816230.9591284     
   5652434809.1754103     
   5560062053.7576094     
   5474637387.1158943     
   5390620836.6294365     
   5088897497.4652939     
   5054404610.5026627     
   5030439684.2915859     
   5011797504.6608982     
   4995275921.4676886     
   4524429058.9710484     
   4539402852.5295439     
   4559068668.4465694     
   4580948591.0535612     
   4603318647.3193769     
   4071180912.5120769     
   4112753934.7849731     
   4151702164.2539172     
   4187132743.3616910     
   4218317146.7002563     
   5787256446.4937687     
   5637155116.9659443     
   5491386266.8880939     
   5349867239.5310984     
   5212657054.7264652     
   5390620836.6294365     
   5249987280.7074060     
   5112644265.4778576     
   4978634330.7755070     
   4848054200.1945066     
   4995275921.4676886     
   4868390271.7706184     
   4744685746.6966114     
   4624126095.2562313     
   4506746411.3129272     
   4603318647.3193769     
   4495047454.4201784     
   4390896015.8013983     
   4290535519.3449268     
   4193863781.3808560     
   4218317146.7002563     
   4133947193.0612297     
   4055863515.0600038     
   3983195101.1550670     
   3915632640.1691709     
   5212657054.7264652     
   5072908990.7303658     
   4933250930.2015066     
   4793678309.8534336     
   4654320881.7225733     
   4848054200.1945066     
   4723468764.3002586     
   4600052337.5401230     
   4477901391.8558464     
   4357220197.6669388     
   4506746411.3129272     
   4396738864.4752064     
   4288975896.5299330     
   4183628996.4867978     
   4080951801.4668398     
   4193863781.3808560     
   4097648350.3777976     
   4004692787.4873619     
   3915212417.7752686     
   3829482020.3219185     
   3915632640.1691709     
   3832133975.5086598     
   3752781074.5686245     
   3677799152.1944504     
   3607456771.2793207     
   4654320881.7225733     
   4512813435.7347183     
   4374298494.7865238     
   4238920332.4815559     
   4106887187.6077051     
   4357220197.6669388     
   4227767530.2532620     
   4101529490.2743368     
   3978706111.3918591     
   3859562454.8269019     
   4080951801.4668398     
   3964799687.3310294     
   3852264184.8919673     
   3743603477.3958845     
   3639146755.2947783     
   3829482020.3219185     
   3728025816.3121629     
   3630781833.1960382     
   3538063039.9745083     
   3450263384.9442616     
   3607456771.2793207     
   3522160574.2733827     
   3441863571.7768035     
   3366919383.5710592     
   3297775102.3680825     
   4106887187.6077051     
   3965135849.3347960     
   3825061299.9588499     
   3686877821.2510676     
   3550893425.6171336     
   3859562454.8269019     
   3731590806.4869285     
   3606257684.2683253     
   3483860598.9456015     
   3364790657.7713799     
   3639146755.2947783     
   3525335932.8030248     
   3415161586.0509295     
   3308984570.6986656     
   3207252782.0907741     
   3450263384.9442616     
   3350812393.4068627     
   3255976223.5000792     
   3166147574.3432040     
   3081792744.5023742     
   3297775102.3680825     
   3212570837.7232580     
   3132868737.4137573     
   3059053428.9728432     
   2991564930.8429265     
   3550893425.6171336     
   3421578387.3428054     
   3294380384.4558730     
   3169438664.6698546     
   3046933627.1557636     
   3364790657.7713799     
   3245491968.2211790     
   3129001185.1831312     
   3015555620.7609124     
   2905450152.3528104     
   3207252782.0907741     
   3100088455.9319811     
   2996655483.1493125     
   2897295312.8019433     
   2802421105.7744789     
   3081792744.5023742     
   2988776837.9437175     
   2900603180.0213261     
   2817701879.7369499     
   2740580814.5214529     
   2991564930.8429265     
   2914377570.6031966     
   2843248428.3517580     
   2778656917.8295283     
   2721155671.6610923     
   3046933627.1557636     
   2911539230.3560252     
   2773786485.3787022     
   2633619965.9994755     
   2491012190.1382165     
   2905450152.3528104     
   2770648070.5399842     
   2635378983.3964705     
   2499655086.1317687     
   2363496411.1898804     
   2802421105.7744789     
   2676794038.4511542     
   2553831129.6995988     
   2433888247.9565315     
   2317390583.4113865     
   2740580814.5214529     
   2631572441.8604465     
   2529216718.2086968     
   2434272835.0658650     
   2347610835.0894408     
   2721155671.6610923     
   2634209250.0735364     
   2558191721.7181859     
   2494091148.5086651     
   2442975321.8284812     
   3625064137.7200203     
   3719792569.1790643     
   3825771904.8362007     
   3942933700.0086432     
   4071180912.5120769     
   3138065614.7575669     
   3255610519.1693687     
   3382574326.2692180     
   3518485482.5141616     
   3662884039.7277298     
   2694829095.8931966     
   2830590985.4600830     
   2973669491.5005589     
   3122982029.7607293     
   3277617271.3474455     
   2298845395.4469037     
   2449525860.9017348     
   2604936208.6987810     
   2763155755.9402623     
   2922756063.6916490     
   1955328597.0362179     
   2119370781.5733066     
   2284780384.7203698     
   2448601563.8068624     
   2608879324.6852450     
   4071180912.5120769     
   4112753934.7849731     
   4151702164.2539172     
   4187132743.3616910     
   4218317146.7002563     
   3662884039.7277298     
   3702396420.6155782     
   3740535107.4897585     
   3776404081.4710574     
   3809255861.5384297     
   3277617271.3474455     
   3320916464.7122302     
   3364444845.2382898     
   3407379266.3780813     
   3449041344.3340478     
   2922756063.6916490     
   2975698613.4401913     
   3030829343.4469204     
   3087463067.9477820     
   3145064651.3374720     
   2608879324.6852450     
   2676796495.8377919     
   2749164520.0786457     
   2825470233.6718211     
   2905357843.4793973     
   4218317146.7002563     
   4133947193.0612297     
   4055863515.0600038     
   3983195101.1550670     
   3915632640.1691709     
   3809255861.5384297     
   3756129638.5113163     
   3708849143.2749133     
   3666929444.1903095     
   3630268838.3233294     
   3449041344.3340478     
   3422698554.2064476     
   3401397670.6451406     
   3384905999.8934126     
   3373207578.1118450     
   3145064651.3374720     
   3141286136.1112733     
   3141166762.5756645     
   3144608238.5383821     
   3151599565.4383149     
   2905357843.4793973     
   2920212298.2016978     
   2936575265.9288826     
   2954397969.5427847     
   2973646540.2739477     
   3915632640.1691709     
   3832133975.5086598     
   3752781074.5686245     
   3677799152.1944504     
   3607456771.2793207     
   3630268838.3233294     
   3558857955.6141915     
   3492200283.6876540     
   3430536486.6828637     
   3374153134.9879651     
   3373207578.1118450     
   3314829635.4929571     
   3261974742.5593886     
   3214880229.8478465     
   3173832997.4283218     
   3151599565.4383149     
   3106939589.3432035     
   3068719420.3843684     
   3037144165.9456754     
   3012473637.5490127     
   2973646540.2739477     
   2942867788.9761643     
   2919559558.8321028     
   2903858294.2569623     
   2895963488.6787858     
   3607456771.2793207     
   3522160574.2733827     
   3441863571.7768035     
   3366919383.5710592     
   3297775102.3680825     
   3374153134.9879651     
   3304377191.0210013     
   3240161947.2936473     
   3181842990.3754025     
   3129825095.5491600     
   3173832997.4283218     
   3118561240.3485146     
   3069286568.8640671     
   3026300125.7584295     
   2989937908.8626494     
   3012473637.5490127     
   2970341897.5801787     
   2934469749.2502003     
   2905083521.2861176     
   2882433473.8294077     
   2895963488.6787858     
   2865172675.8094306     
   2840692128.4600825     
   2822674639.8652701     
   2811282302.9691539     
   3297775102.3680825     
   3212570837.7232580     
   3132868737.4137573     
   3059053428.9728432     
   2991564930.8429265     
   3129825095.5491600     
   3057128976.3845496     
   2990695767.8803086     
   2930909425.2037992     
   2878200878.5207677     
   2989937908.8626494     
   2929955231.4861579     
   2877016932.8701601     
   2831478601.6884747     
   2793731496.5906796     
   2882433473.8294077     
   2834887034.7931376     
   2795149824.0250449     
   2763521095.7460370     
   2740324286.8319564     
   2811282302.9691539     
   2775267595.1488056     
   2747782291.2312970     
   2729048636.9629264     
   2719304426.6460376     
   2991564930.8429265     
   2914377570.6031966     
   2843248428.3517580     
   2778656917.8295283     
   2721155671.6610923     
   2878200878.5207677     
   2815625051.3048577     
   2759677724.0655217     
   2710778593.0595884     
   2669393276.0244546     
   2793731496.5906796     
   2744780907.5195985     
   2702865565.4723101     
   2668320416.4907365     
   2641503312.7435026     
   2740324286.8319564     
   2703543588.8356786     
   2674026157.8953114     
   2652011437.0691638     
   2637746085.1163883     
   2719304426.6460376     
   2692780640.4276676     
   2673580081.1681857     
   2661851469.5214872     
   2657742867.6055608     
   2721155671.6610923     
   2634209250.0735364     
   2558191721.7181859     
   2494091148.5086651     
   2442975321.8284812     
   2669393276.0244546     
   2599822678.1639247     
   2541159783.6115336     
   2494170595.0593700     
   2459651680.6047730     
   2641503312.7435026     
   2587653122.4924660     
   2544495022.0533609     
   2512585218.8673749     
   2492482573.9887414     
   2637746085.1163883     
   2597680279.4162230     
   2567940361.0298014     
   2548902474.0508866     
   2540934349.3261285     
   2657742867.6055608     
   2629331512.5281782     
   2610787542.4677486     
   2602345949.3763161     
   2604232980.5426402     
   1955328597.0362179     
   2119370781.5733066     
   2284780384.7203698     
   2448601563.8068624     
   2608879324.6852450     
   1653794978.1377928     
   1820239192.5228992     
   1988380566.6064200     
   2155525816.5258274     
   2319919324.1752300     
   1393597269.6073461     
   1570961552.0982451     
   1749319617.1884191     
   1926669606.0079424     
   2101762614.5577798     
   1207047217.1079972     
   1398965710.8709481     
   1590439484.7548490     
   1780692378.3067069     
   1969266325.3300478     
   1136816927.4090722     
   1335108843.7021985     
   1533674706.7586699     
   1732514516.5784855     
   1931628273.1616464     
   2608879324.6852450     
   2676796495.8377919     
   2749164520.0786457     
   2825470233.6718211     
   2905357843.4793973     
   2319919324.1752300     
   2406909263.0042586     
   2496305109.0392509     
   2587715207.9367008     
   2680863064.6458693     
   2101762614.5577798     
   2205444925.4904065     
   2309025704.5947056     
   2412268056.9343495     
   2515004910.5018730     
   1969266325.3300478     
   2086357182.1049745     
   2200610255.8259692     
   2311950362.8288889     
   2420325307.5524726     
   1931628273.1616464     
   2058226263.6384449     
   2179441622.9785352     
   2295274351.1819153     
   2405724448.2485867     
   2905357843.4793973     
   2920212298.2016978     
   2936575265.9288826     
   2954397969.5427847     
   2973646540.2739477     
   2680863064.6458693     
   2702667300.6009684     
   2726952992.0220251     
   2753706473.2508574     
   2782923046.3010397     
   2515004910.5018730     
   2543553707.9631810     
   2575574107.8403850     
   2611069138.4921532     
   2650045666.4789467     
   2420325307.5524726     
   2453980842.9707127     
   2492091789.5906081     
   2534661721.8239689     
   2581695016.5047650     
   2405724448.2485867     
   2441347102.3122163     
   2482395654.3397727     
   2528870104.3312526     
   2580770452.2866569     
   2973646540.2739477     
   2942867788.9761643     
   2919559558.8321028     
   2903858294.2569623     
   2895963488.6787858     
   2782923046.3010397     
   2766565600.7438564     
   2757442507.1046605     
   2755639146.7691455     
   2761274139.8487668     
   2650045666.4789467     
   2645136697.9978342     
   2646952410.0992613     
   2655530673.6431971     
   2670922752.5160003     
   2581695016.5047650     
   2584819570.2747588     
   2593895683.7036161     
   2608931722.7296028     
   2629939052.6772804     
   2580770452.2866569     
   2588401263.8923297     
   2600996926.4279628     
   2618557439.8935561     
   2641082804.2891083     
   2895963488.6787858     
   2865172675.8094306     
   2840692128.4600825     
   2822674639.8652701     
   2811282302.9691539     
   2761274139.8487668     
   2738672997.3341618     
   2723024408.5031824     
   2714433852.9461117     
   2713011422.5253234     
   2670922752.5160003     
   2654790337.5118275     
   2646201341.4682870     
   2645210881.5806599     
   2651875663.0923491     
   2629939052.6772804     
   2617810485.3951707     
   2613755158.3071566     
   2617788539.2565084     
   2629926382.3212566     
   2641082804.2891083     
   2629902954.3774800     
   2627264088.9023209     
   2633166207.8636303     
   2647609311.2614059     
   2811282302.9691539     
   2775267595.1488056     
   2747782291.2312970     
   2729048636.9629264     
   2719304426.6460376     
   2713011422.5253234     
   2687730086.6928983     
   2670972204.9461560     
   2662868737.8365312     
   2663556683.6819234     
   2651875663.0923491     
   2634760626.2689624     
   2626049884.9586864     
   2625802227.0212245     
   2634078067.2989049     
   2629926382.3212566     
   2618063604.9094076     
   2614400446.1309986     
   2618951230.9159427     
   2631730511.3015275     
   2647609311.2614059     
   2637943319.0120931     
   2636215683.0565481     
   2642426403.3947792     
   2656575480.0267763     
   2719304426.6460376     
   2692780640.4276676     
   2673580081.1681857     
   2661851469.5214872     
   2657742867.6055608     
   2663556683.6819234     
   2644485952.2321653     
   2633045933.0647902     
   2629328266.4879231     
   2633422541.8539648     
   2634078067.2989049     
   2620663488.4634781     
   2615164773.2784114     
   2617625574.4341955     
   2628087934.4998078     
   2631730511.3015275     
   2621818841.9934258     
   2620108976.2672262     
   2626612392.0068140     
   2641340028.8583493     
   2656575480.0267763     
   2647769114.2814045     
   2647471966.3922529     
   2655684036.3593187     
   2672405324.1826043     
   2657742867.6055608     
   2629331512.5281782     
   2610787542.4677486     
   2602345949.3763161     
   2604232980.5426402     
   2633422541.8539648     
   2615075568.0782652     
   2606586975.4430137     
   2608089163.6267457     
   2619706300.7253704     
   2628087934.4998078     
   2617418865.8447127     
   2616587778.0323720     
   2625652869.4453826     
   2644667568.9261131     
   2641340028.8583493     
   2635759018.2683578     
   2640033291.9051261     
   2654177144.7754197     
   2678203498.9585252     
   2672405324.1826043     
   2669228477.8274078     
   2675998556.2090101     
   2692715559.3274088     
   2719379487.1826043     
   1136816927.4090722     
   1335108843.7021985     
   1533674706.7586699     
   1732514516.5784855     
   1931628273.1616464     
   1207047217.1066287     
   1398965710.8625374     
   1590439484.7397480     
   1780692378.2847662     
   1969266325.3008389     
   1393597269.6113420     
   1570961552.0901685     
   1749319617.1682169     
   1926669605.9748857     
   2101762614.5107262     
   1653794978.1528275     
   1820239192.5243673     
   1988380566.5932109     
   2155525816.4962020     
   2319919324.1270499     
   1955328597.0666518     
   2119370781.5921333     
   2284780384.7252836     
   2448601563.7950211     
   2608879324.6534739     
   1931628273.1616464     
   2058226263.6384449     
   2179441622.9785352     
   2295274351.1819153     
   2405724448.2485867     
   1969266325.3008389     
   2086357182.0487747     
   2200610255.7384915     
   2311950362.7056804     
   2420325307.3890963     
   2101762614.5107262     
   2205444925.3985806     
   2309025704.4497075     
   2412268056.7274990     
   2515004910.2244892     
   2319919324.1270499     
   2406909262.9056582     
   2496305108.8780546     
   2587715207.7002821     
   2680863064.3214631     
   2608879324.6534739     
   2676796495.7623215     
   2749164519.9441981     
   2825470233.4623675     
   2905357843.1784225     
   2405724448.2485867     
   2441347102.3122163     
   2482395654.3397727     
   2528870104.3312526     
   2580770452.2866569     
   2420325307.3890963     
   2453980842.7555079     
   2492091789.3142056     
   2534661721.4773169     
   2581695016.0789547     
   2515004910.2244892     
   2543553707.5935969     
   2575574107.3589869     
   2611069137.8796496     
   2650045665.7160983     
   2680863064.3214631     
   2702667300.1671824     
   2726952991.4485631     
   2753706472.5074191     
   2782923045.3570075     
   2905357843.1784225     
   2920212297.8040900     
   2936575265.3942056     
   2954397968.8300829     
   2973646539.3414440     
   2580770452.2866569     
   2588401263.8923297     
   2600996926.4279628     
   2618557439.8935561     
   2641082804.2891083     
   2581695016.0789547     
   2584819569.9460535     
   2593895683.4663620     
   2608931722.5772905     
   2629939052.6023798     
   2650045665.7160983     
   2645136697.3819351     
   2646952409.6148787     
   2655530673.2731171     
   2670922752.2413845     
   2782923045.3570075     
   2766565599.9515972     
   2757442506.4352965     
   2755639146.1908765     
   2761274139.3277435     
   2973646539.3414440     
   2942867788.1644144     
   2919559558.0955868     
   2903858293.5455351     
   2895963487.9395514     
   2641082804.2891083     
   2629902954.3774800     
   2627264088.9023209     
   2633166207.8636303     
   2647609311.2614059     
   2629939052.6023798     
   2617810485.7668490     
   2613755159.0416274     
   2617788540.2633567     
   2629926383.5048513     
   2670922752.2413845     
   2654790338.2028627     
   2646201342.9732881     
   2645210883.7343111     
   2651875665.7178826     
   2761274139.3277435     
   2738672998.3445120     
   2723024410.8466606     
   2714433856.4038053     
   2713011426.8597970     
   2895963487.9395514     
   2865172677.1891475     
   2840692131.7371373     
   2822674644.7911811     
   2811282309.2698774     
   2647609311.2614059     
   2637943319.0120931     
   2636215683.0565481     
   2642426403.3947792     
   2656575480.0267763     
   2629926383.5048513     
   2618063605.6890235     
   2614400446.5789084     
   2618951231.1091866     
   2631730511.3199439     
   2651875665.7178826     
   2634760628.0484395     
   2626049886.0296955     
   2625802227.5323997     
   2634078067.4062037     
   2713011426.8597970     
   2687730089.7213993     
   2670972206.8593016     
   2662868738.8436809     
   2663556684.0063205     
   2811282309.2698774     
   2775267599.6860261     
   2747782294.2330084     
   2729048638.6843500     
   2719304427.3645062     
   2656575480.0267763     
   2647769114.2814045     
   2647471966.3922529     
   2655684036.3593187     
   2672405324.1826043     
   2631730511.3199439     
   2621818839.6253891     
   2620108971.7110376     
   2626612385.4784923     
   2641340020.5888748     
   2634078067.4062037     
   2620663483.9445004     
   2615164764.5209131     
   2617625561.8608689     
   2628087918.5635424     
   2663556684.0063205     
   2644485945.8597555     
   2633045920.5517526     
   2629328248.4428020     
   2633422518.9321618     
   2719304427.3645062     
   2692780632.5593114     
   2673580065.4094834     
   2661851446.6385593     
   2657742838.4295392     
   2672405324.1826043     
   2669228477.8274078     
   2675998556.2090101     
   2692715559.3274088     
   2719379487.1826043     
   2641340020.5888748     
   2635759000.2491646     
   2640033264.0413976     
   2654177107.0409894     
   2678203451.3937755     
   2628087918.5635424     
   2617418831.8879213     
   2616587725.8460793     
   2625652798.9425902     
   2644667480.1377783     
   2633422518.9321618     
   2615075520.6128736     
   2606586903.0441017     
   2608089066.0604863     
   2619706177.9109716     
   2657742838.4295392     
   2629331454.2491779     
   2610787454.4287667     
   2602345831.0837708     
   2604232831.6675472     
   1955328597.0666518     
   2119370781.5921333     
   2284780384.7252836     
   2448601563.7950211     
   2608879324.6534739     
   2298845395.4931536     
   2449525860.9441643     
   2604936208.7363501     
   2763155755.9714332     
   2922756063.7145076     
   2694829095.9512963     
   2830590985.5201387     
   2973669491.5628371     
   3122982029.8249240     
   3277617271.4127688     
   3138065614.8228288     
   3255610519.2399077     
   3382574326.3466043     
   3518485482.5992794     
   3662884039.8208556     
   3625064137.7876015     
   3719792569.2526274     
   3825771904.9186125     
   3942933700.1019578     
   4071180912.6176248     
   2608879324.6534739     
   2676796495.7623215     
   2749164519.9441981     
   2825470233.4623675     
   2905357843.1784225     
   2922756063.7145076     
   2975698613.4488206     
   3030829343.4291487     
   3087463067.8909450     
   3145064651.2285495     
   3277617271.4127688     
   3320916464.7921495     
   3364444845.3242645     
   3407379266.4615526     
   3449041344.4064612     
   3662884039.8208556     
   3702396420.7492089     
   3740535107.6589780     
   3776404081.6714525     
   3809255861.7660460     
   4071180912.6176248     
   4112753934.9529138     
   4151702164.4825668     
   4187132743.6502986     
   4218317147.0488987     
   2905357843.1784225     
   2920212297.8040900     
   2936575265.3942056     
   2954397968.8300829     
   2973646539.3414440     
   3145064651.2285495     
   3141286135.9745193     
   3141166762.3887544     
   3144608238.2788324     
   3151599565.0829296     
   3449041344.4064612     
   3422698554.2973704     
   3401397670.7466545     
   3384905999.9978871     
   3373207578.2116251     
   3809255861.7660460     
   3756129638.7738280     
   3708849143.5751228     
   3666929444.5317225     
   3630268838.7105680     
   4218317147.0488987     
   4133947193.4274745     
   4055863515.4540458     
   3983195101.5879254     
   3915632640.6542101     
   2973646539.3414440     
   2942867788.1644144     
   2919559558.0955868     
   2903858293.5455351     
   2895963487.9395514     
   3151599565.0829296     
   3106939589.2194214     
   3068719420.4433937     
   3037144166.1338239     
   3012473637.8091207     
   3373207578.2116251     
   3314829635.9099007     
   3261974743.2430305     
   3214880230.7427807     
   3173832998.4750266     
   3630268838.7105680     
   3558857956.3799987     
   3492200284.7805352     
   3430536488.0465217     
   3374153136.5614891     
   3915632640.6542101     
   3832133976.4119954     
   3752781075.8376336     
   3677799153.7719207     
   3607456773.1030412     
   2895963487.9395514     
   2865172677.1891475     
   2840692131.7371373     
   2822674644.7911811     
   2811282309.2698774     
   3012473637.8091207     
   2970341900.8357210     
   2934469755.2511258     
   2905083529.7463021     
   2882433484.4260850     
   3173832998.4750266     
   3118561245.2805147     
   3069286577.4290805     
   3026300137.6608582     
   2989937923.7597561     
   3374153136.5614891     
   3304377197.3682551     
   3240161958.1824679     
   3181843005.5267019     
   3129825114.6290417     
   3607456773.1030412     
   3522160581.7509794     
   3441863584.7126727     
   3366919401.7234201     
   3297775125.4370089     
   2811282309.2698774     
   2775267599.6860261     
   2747782294.2330084     
   2729048638.6843500     
   2719304427.3645062     
   2882433484.4260850     
   2834887043.1386318     
   2795149830.3856592     
   2763521100.4259510     
   2740324290.1709456     
   2989937923.7597561     
   2929955243.5520663     
   2877016942.3810487     
   2831478608.9676843     
   2793731502.0097451     
   3129825114.6290417     
   3057128991.9825854     
   2990695780.2566113     
   2930909434.6722946     
   2878200885.4533262     
   3297775125.4370089     
   3212570856.6071401     
   3132868752.3347831     
   3059053440.2104583     
   2991564938.7403269     
   2719304427.3645062     
   2692780632.5593114     
   2673580065.4094834     
   2661851446.6385593     
   2657742838.4295392     
   2740324290.1709456     
   2703543581.8974838     
   2674026141.5342689     
   2652011412.2298927     
   2637746052.8317437     
   2793731502.0097451     
   2744780901.0741568     
   2702865548.1478553     
   2668320389.3846564     
   2641503277.0673256     
   2878200885.4533262     
   2815625044.8567185     
   2759677705.3256502     
   2710778563.2491651     
   2669393236.5051274     
   2991564938.7403269     
   2914377563.6320786     
   2843248407.6785479     
   2778656884.7697763     
   2721155627.6947393     
   2657742838.4295392     
   2629331454.2491779     
   2610787454.4287667     
   2602345831.0837708     
   2604232831.6675472     
   2637746052.8317437     
   2597680216.1621313     
   2567940266.8181849     
   2548902349.0562162     
   2540934193.8810306     
   2641503277.0673256     
   2587653055.8687468     
   2544494925.2021732     
   2512585092.6732206     
   2492482419.4970860     
   2669393236.5051274     
   2599822609.1913190     
   2541159686.7050700     
   2494170471.9209638     
   2459651533.1214337     
   2721155627.6947393     
   2634209179.1122756     
   2558191626.2166495     
   2494091031.1594577     
   2442975185.5765076     
   3625064137.7876015     
   3719792569.2526274     
   3825771904.9186125     
   3942933700.1019578     
   4071180912.6176248     
   4134185164.7556763     
   4224473372.2874885     
   4320682500.9175577     
   4421153283.2968979     
   4524429059.0697851     
   4643482329.4882288     
   4755605226.5477486     
   4868853550.0583677     
   4980592667.6229534     
   5088897497.5363884     
   5151437953.3596659     
   5311365578.2902317     
   5467928201.0201836     
   5618233044.6405315     
   5760816230.9829731     
   5657788781.9196177     
   5890917595.0216646     
   6116412111.6913147     
   6331817739.5419855     
   6536913881.1445055     
   4071180912.6176248     
   4112753934.9529138     
   4151702164.4825668     
   4187132743.6502986     
   4218317147.0488987     
   4524429059.0697851     
   4539402852.7084303     
   4559068668.7059708     
   4580948591.3937187     
   4603318647.7401562     
   5088897497.5363884     
   5054404610.6652861     
   5030439684.5475330     
   5011797505.0114574     
   4995275921.9133892     
   5760816230.9829731     
   5652434809.2966232     
   5560062053.9787788     
   5474637387.4391451     
   5390620837.0563984     
   6536913881.1445055     
   6328902003.0244112     
   6143077263.9820414     
   5965530756.4992619     
   5787256446.8615274     
   4218317147.0488987     
   4133947193.4274745     
   4055863515.4540458     
   3983195101.5879254     
   3915632640.6542101     
   4603318647.7401562     
   4495047454.7980947     
   4390896016.1434317     
   4290535519.6587849     
   4193863781.6764479     
   4995275921.9133892     
   4868390272.1019878     
   4744685746.9162674     
   4624126095.3673420     
   4506746411.3200674     
   5390620837.0563984     
   5249987280.9403830     
   5112644265.5142479     
   4978634330.6133242     
   4848054199.8322220     
   5787256446.8615274     
   5637155117.0543270     
   5491386266.6885052     
   5349867239.0361013     
   5212657053.9283190     
   3915632640.6542101     
   3832133976.4119954     
   3752781075.8376336     
   3677799153.7719207     
   3607456773.1030412     
   4193863781.6764479     
   4097648351.1129346     
   4004692788.6343012     
   3915212419.3023701     
   3829482022.1937003     
   4506746411.3200674     
   4396738864.9575825     
   4288975897.4881673     
   4183628997.9188795     
   4080951803.3678031     
   4848054199.8322220     
   4723468764.4478865     
   4600052338.2280588     
   4477901393.1137075     
   4357220199.5222578     
   5212657053.9283190     
   5072908990.4644346     
   4933250930.5274115     
   4793678310.8323240     
   4654320883.4143534     
   3607456773.1030412     
   3522160581.7509794     
   3441863584.7126727     
   3366919401.7234201     
   3297775125.4370089     
   3829482022.1937003     
   3728025824.7563772     
   3630781848.0922585     
   3538063061.1625543     
   3450263412.2142248     
   4080951803.3678031     
   3964799696.5192347     
   3852264201.3080888     
   3743603500.9491944     
   3639146785.8556676     
   4357220199.5222578     
   4227767539.9182043     
   4101529507.7342391     
   3978706136.6089578     
   3859562487.7353516     
   4654320883.4143534     
   4512813445.5837450     
   4374298512.8069448     
   4238920358.6717453     
   4106887221.9473672     
   3297775125.4370089     
   3212570856.6071401     
   3132868752.3347831     
   3059053440.2104583     
   2991564938.7403269     
   3450263412.2142248     
   3350812415.8400669     
   3255976241.2007570     
   3166147587.4690394     
   3081792753.2733593     
   3639146785.8556676     
   3525335957.9320951     
   3415161605.7319608     
   3308984584.9597263     
   3207252791.0148287     
   3859562487.7353516     
   3731590833.4651842     
   3606257705.1845450     
   3483860613.6995440     
   3364790666.3059616     
   4106887221.9473672     
   3965135877.3708234     
   3825061321.4543209     
   3686877835.9866934     
   3550893433.4031196     
   2991564938.7403269     
   2914377563.6320786     
   2843248407.6785479     
   2778656884.7697763     
   2721155627.6947393     
   3081792753.2733593     
   2988776829.9452610     
   2900603156.1877947     
   2817701841.1509318     
   2740580762.4384427     
   3207252791.0148287     
   3100088446.3187881     
   2996655455.6858158     
   2897295268.3029370     
   2802421045.2100706     
   3364790666.3059616     
   3245491956.6819830     
   3129001154.0229239     
   3015555570.5290165     
   2905450083.7188649     
   3550893433.4031196     
   3421578373.8159356     
   3294380349.8696313     
   3169438609.3415122     
   3046933551.4828944     
   2721155627.6947393     
   2634209179.1122756     
   2558191626.2166495     
   2494091031.1594577     
   2442975185.5765076     
   2740580762.4384427     
   2631572363.3298063     
   2529216615.8720551     
   2434272711.8379874     
   2347610694.2003474     
   2802421045.2100706     
   2676793951.0536747     
   2553831018.0532494     
   2433888114.8607936     
   2317390431.9254994     
   2905450083.7188649     
   2770647973.8289971     
   2635378860.9279408     
   2499654940.2841864     
   2363496244.4031482     
   3046933551.4828944     
   2911539124.6362066     
   2773786351.5426583     
   2633619805.8267484     
   2491012005.1984940     
   5657788781.9196177     
   5890917595.0216646     
   6116412111.6913147     
   6331817739.5419855     
   6536913881.1445055     
   6491635936.3058968     
   6586842775.3791857     
   6757389004.7525568     
   6961195623.9596014     
   7171602708.3806705     
   7982355892.6938610     
   7734931380.1502123     
   7669083558.7577553     
   7669505292.0523157     
   7666264819.6502743     
   10130394613.566158     
   9322022881.5804710     
   8826307395.0830212     
   8443409632.4089060     
   8035518507.0020485     
   12935838304.231239     
   11340829095.773075     
   10210225921.035730     
   9272678255.2184639     
   8303740484.4465370     
   6536913881.1445055     
   6328902003.0244112     
   6143077263.9820414     
   5965530756.4992619     
   5787256446.8615274     
   7171602708.3806705     
   6910966367.4677391     
   6658229343.0028791     
   6409533049.4445372     
   6161732859.9095392     
   7666264819.6502743     
   7380979517.9282103     
   7101087702.0926962     
   6826667239.3898983     
   6557921575.4776449     
   8035518507.0020485     
   7746597966.9282961     
   7473351489.0085516     
   7213819415.5764446     
   6968008031.1916342     
   8303740484.4465370     
   8020390995.7886047     
   7779157556.8517160     
   7569351858.6051693     
   7386000147.3833809     
   5787256446.8615274     
   5637155117.0543270     
   5491386266.6885052     
   5349867239.0361013     
   5212657053.9283190     
   6161732859.9095392     
   6012950736.2381554     
   5865610819.0192823     
   5719755585.3361549     
   5575447603.5132809     
   6557921575.4776449     
   6407192935.7955446     
   6254902219.4911280     
   6101021166.5854778     
   5945583423.9852037     
   6968008031.1916342     
   6813443918.2244606     
   6654283719.4776192     
   6490244767.6321182     
   6321279114.9980841     
   7386000147.3833809     
   7226719627.7983646     
   7059892880.6527529     
   6884819000.5068989     
   6701311139.0791798     
   5212657053.9283190     
   5072908990.4644346     
   4933250930.5274115     
   4793678310.8323240     
   4654320883.4143534     
   5575447603.5132809     
   5419399811.9333229     
   5264068567.6556988     
   5109484967.2993603     
   4955744356.5663195     
   5945583423.9852037     
   5774360476.7931604     
   5604708388.0618238     
   5436663714.2893953     
   5270313372.9628277     
   6321279114.9980841     
   6135365367.2699728     
   5952073149.1469288     
   5771415061.7458878     
   5593485783.1948509     
   6701311139.0791798     
   6500625725.5254154     
   6303797751.8995028     
   6110789026.4151669     
   5921712335.2723980     
   4654320883.4143534     
   4512813445.5837450     
   4374298512.8069448     
   4238920358.6717453     
   4106887221.9473672     
   4955744356.5663195     
   4806625204.9742994     
   4659144483.4203272     
   4513432833.6253862     
   4369661167.8344049     
   5270313372.9628277     
   5114320565.4564581     
   4958757158.9313717     
   4803718525.2149982     
   4649327644.6697178     
   5593485783.1948509     
   5431780904.7897234     
   5269428642.3619041     
   5106478753.2542744     
   4943006900.5470419     
   5921712335.2723980     
   5755766802.5162334     
   5588217795.1169872     
   5419068272.6702223     
   5248356155.1680250     
   4106887221.9473672     
   3965135877.3708234     
   3825061321.4543209     
   3686877835.9866934     
   3550893433.4031196     
   4369661167.8344049     
   4214310259.9323044     
   4060399749.7309771     
   3908094748.1845183     
   3757642818.8933711     
   4649327644.6697178     
   4480379110.0363693     
   4312689994.8961935     
   4146382101.6737413     
   3981653200.8119240     
   4943006900.5470419     
   4760231362.4532499     
   4578577160.5458784     
   4398129577.4744072     
   4219048057.3341093     
   5248356155.1680250     
   5051333202.5904655     
   4855325282.5408344     
   4660388059.8135366     
   4466653878.9691935     
   3550893433.4031196     
   3421578373.8159356     
   3294380349.8696313     
   3169438609.3415122     
   3046933551.4828944     
   3757642818.8933711     
   3620395151.9993362     
   3485389294.8099504     
   3352828296.3342843     
   3222989117.3173676     
   3981653200.8119240     
   3832883789.1042399     
   3686171420.7157712     
   3541782496.3003769     
   3400100661.2855911     
   4219048057.3341093     
   4055161202.1608973     
   3892883646.8857617     
   3732538876.4129667     
   3574619544.0005169     
   4466653878.9691935     
   4284128006.5640974     
   4102545332.4088826     
   3922272610.0594449     
   3743903664.0735035     
   3046933551.4828944     
   2911539124.6362066     
   2773786351.5426583     
   2633619805.8267484     
   2491012005.1984940     
   3222989117.3173676     
   3089100663.5402732     
   2957536006.0923824     
   2828751776.7699080     
   2703414068.4226174     
   3400100661.2855911     
   3242938105.8683691     
   3090794965.4476938     
   2945596911.6049714     
   2810415265.9374084     
   3574619544.0005169     
   3369376965.4491234     
   3170175025.0317569     
   2981412891.0380859     
   2810621187.4170046     
   3743903664.0735035     
   3466372880.1524019     
   3194361176.2532802     
   2935673042.3236895     
   2704984214.9691172     
 </DataArray>
 <DataArray  type="Float64" Name="strain" NumberOfComponents="3" format="ascii">
  0.20348851559788475        0.0000000000000000       0.12541005504932187     
  0.18665730036694606       -2.7324873521156555E-002   7.4353943573862963E-002
  0.16982608513600733       -4.4675725150388604E-002   3.5132161119104964E-002
  0.15299486990506861       -5.2052554887696098E-002   7.7447076850479142E-003
  0.13616365467412989       -4.9455362733079114E-002  -7.8084167283082040E-003
  0.15985615940562092        0.0000000000000000        9.6453056569546530E-002
  0.15317767889491382       -2.1844710021937754E-002   6.2693391495108663E-002
  0.14649919838420675       -3.6174615102887275E-002   3.7404866840433100E-002
  0.13982071787349967       -4.2989715242848545E-002   2.0587482605519829E-002
  0.13314223736279257       -4.2290010441821596E-002   1.2241238790368925E-002
  0.12645743049839106        0.0000000000000000        7.4205830064458134E-002
  0.12656849610697696       -1.6364546522718945E-002   5.5283394440105035E-002
  0.12667956171556288       -2.7673505055385940E-002   4.1468910634575577E-002
  0.12679062732414881       -3.3926875598000977E-002   3.2762378647869884E-002
  0.12690169293273473       -3.5124658150564099E-002   2.9163798479987815E-002
  0.10329232887619516        0.0000000000000000        5.8668375534056696E-002
  0.10682975200313548       -1.0884383023500137E-002   5.2123952408852044E-002
  0.11036717513007577       -1.9172395007884611E-002   4.7324292501532444E-002
  0.11390459825701608       -2.4864035953153417E-002   4.4269395812097975E-002
  0.11744202138395639       -2.7959305859306567E-002   4.2959262340548567E-002
   9.0360854539033225E-002   0.0000000000000000        4.9840692978342205E-002
   9.3961446583389313E-002  -5.4042195242813285E-003   5.3215065401349716E-002
   9.7562038627745415E-002  -1.0671284960383276E-002   5.4971012441303729E-002
  0.10116263067210150       -1.5801196308305857E-002   5.5108534098204147E-002
  0.10476322271645759       -2.0793953568049056E-002   5.3627630372051094E-002
  0.13616365467412989       -4.9455362733079114E-002  -7.8084167283082040E-003
  0.13295634226673803       -4.2919867446216328E-002  -3.3905661897930123E-003
  0.12974902985934617       -3.8481787786786389E-002  -3.8690695749365664E-004
  0.12654171745195428       -3.6141123754789388E-002   1.2025609685900156E-003
  0.12333440504456242       -3.5897875350225206E-002   1.3778375884579142E-003
  0.13314223736279257       -4.2290010441821596E-002   1.2241238790368925E-002
  0.12890882460542363       -3.8424052993445895E-002   1.2188195529540383E-002
  0.12467541184805470       -3.5740395191360921E-002   1.1497142874973384E-002
  0.12044199909068576       -3.4239037035566688E-002   1.0168080826668025E-002
  0.11620858633331682       -3.3919978526063183E-002   8.2010093846241749E-003
  0.12690169293273473       -3.5124658150564099E-002   2.9163798479987815E-002
  0.12241836173786599       -3.3928238540675497E-002   2.5554977400957794E-002
  0.11793503054299730       -3.2999002595935488E-002   2.2084328840666599E-002
  0.11345169934812858       -3.2336950316344010E-002   1.8751852799114330E-002
  0.10896836815325986       -3.1942081701901132E-002   1.5557549276300861E-002
  0.11744202138395639       -2.7959305859306567E-002   4.2959262340548567E-002
  0.11348495366406521       -2.9432424087905102E-002   3.6709779424459174E-002
  0.10952788594417399       -3.0257610000510009E-002   3.1374650939585920E-002
  0.10557081822428278       -3.0434863597121366E-002   2.6953876885928853E-002
  0.10161375050439159       -2.9964184877739095E-002   2.3447457263487959E-002
  0.10476322271645759       -2.0793953568049056E-002   5.3627630372051094E-002
  0.10210860038402117       -2.4936609635134679E-002   4.5652601600044529E-002
   9.9453978051584777E-002  -2.7516217405084555E-002   3.9368109171731377E-002
   9.6799355719148397E-002  -2.8532776877898687E-002   3.4774153087111764E-002
   9.4144733386712018E-002  -2.7986288053577085E-002   3.1870733346185551E-002
  0.12333440504456242       -3.5897875350225206E-002   1.3778375884579142E-003
  0.12038278849341641       -3.6394512293863257E-002   6.4958345877288992E-004
  0.11743117194227044       -3.6273504306472554E-002   1.2461125878837631E-004
  0.11447955539112448       -3.5534851388053464E-002  -1.9707901149594587E-004
  0.11152793883997847       -3.4178553538605605E-002  -3.1548735207986844E-004
  0.11620858633331682       -3.3919978526063183E-002   8.2010093846241749E-003
  0.11344534177487293       -3.3995422639802972E-002   7.8489155145458622E-003
  0.11068209721642905       -3.3677572353738493E-002   7.6702837001714694E-003
  0.10791885265798522       -3.2966427667869731E-002   7.6651139415008160E-003
  0.10515560809954130       -3.1861988582196910E-002   7.8334062385339576E-003
  0.10896836815325986       -3.1942081701901132E-002   1.5557549276300861E-002
  0.10636367571352151       -3.1596332985742659E-002   1.5357265134605037E-002
  0.10375898327378316       -3.1081640401004293E-002   1.5300623174616293E-002
  0.10115429083404483       -3.0398003947686162E-002   1.5387623396334968E-002
   9.8549598394306465E-002  -2.9545423625788131E-002   1.5618265799760667E-002
  0.10161375050439159       -2.9964184877739095E-002   2.3447457263487959E-002
   9.9137790309362178E-002  -2.9197243331682346E-002   2.3174632318950054E-002
   9.6661830114332770E-002  -2.8485708448270149E-002   2.3015629682122878E-002
   9.4185869919303361E-002  -2.7829580227502454E-002   2.2970449353006260E-002
   9.1709909724273925E-002  -2.7228858669379394E-002   2.3039091331600287E-002
   9.4144733386712018E-002  -2.7986288053577085E-002   3.1870733346185551E-002
   9.1767685562394924E-002  -2.6798153677622033E-002   3.1301017067581274E-002
   8.9390637738077899E-002  -2.5889776495535963E-002   3.0815303222691090E-002
   8.7013589913760805E-002  -2.5261156507318829E-002   3.0413591811514915E-002
   8.4636542089443767E-002  -2.4912293712970629E-002   3.0095882834052817E-002
  0.11152793883997847       -3.4178553538605605E-002  -3.1548735207986844E-004
  0.10830824291802288       -3.2653591307508945E-002   4.1917740430663653E-006
  0.10508854699606723       -3.1408945244142505E-002   5.0542714506018882E-004
  0.10186885107411164       -3.0444615348506676E-002   1.1882187609714157E-003
   9.8649155152155998E-002  -2.9760601620601401E-002   2.0525666217770522E-003
  0.10515560809954130       -3.1861988582196910E-002   7.8334062385339576E-003
  0.10212589648135911       -3.0643630016480114E-002   7.7049486550148788E-003
   9.9096184863176909E-002  -2.9590726890479646E-002   7.7749034341484391E-003
   9.6066473244994732E-002  -2.8703279204195839E-002   8.0432705759346176E-003
   9.3036761626812570E-002  -2.7981286957628249E-002   8.5100500803734214E-003
   9.8549598394306465E-002  -2.9545423625788131E-002   1.5618265799760667E-002
   9.5726727197656042E-002  -2.8633668725451505E-002   1.5156532234613787E-002
   9.2903856001005702E-002  -2.7772508536817009E-002   1.4910067149877804E-002
   9.0080984804355377E-002  -2.6961943059884946E-002   1.4878870545553001E-002
   8.7258113607704940E-002  -2.6201972294655124E-002   1.5062942421639039E-002
   9.1709909724273925E-002  -2.7228858669379394E-002   2.3039091331600287E-002
   8.9110735066913777E-002  -2.6623707434422730E-002   2.2358942512839673E-002
   8.6511560409553642E-002  -2.5954290183154205E-002   2.1910918292248394E-002
   8.3912385752193480E-002  -2.5220606915574026E-002   2.1695018669826385E-002
   8.1313211094833304E-002  -2.4422657631682040E-002   2.1711243645573992E-002
   8.4636542089443767E-002  -2.4912293712970629E-002   3.0095882834052817E-002
   8.2277920089132178E-002  -2.4613746143393955E-002   2.9312179489692433E-002
   7.9919298088820617E-002  -2.4136071829491464E-002   2.8777456861259917E-002
   7.7560676088509084E-002  -2.3479270771263147E-002   2.8491714948755194E-002
   7.5202054088197468E-002  -2.2643342968708902E-002   2.8454953752178158E-002
   9.8649155152155998E-002  -2.9760601620601401E-002   2.0525666217770522E-003
   9.5827022700909703E-002  -2.9152958373010462E-002   2.3404835505037025E-003
   9.3004890249663408E-002  -2.8417739918317572E-002   2.6953586631829340E-003
   9.0182757798417140E-002  -2.7554946256522588E-002   3.1171919598151493E-003
   8.7360625347170817E-002  -2.6564577387625854E-002   3.6059834403999735E-003
   9.3036761626812570E-002  -2.7981286957628249E-002   8.5100500803734214E-003
   9.0294143261959559E-002  -2.7305119334949085E-002   8.7449591172972518E-003
   8.7551524897106575E-002  -2.6555145520330115E-002   9.0719381430548751E-003
   8.4808906532253661E-002  -2.5731365513771337E-002   9.4909871576460969E-003
   8.2066288167400636E-002  -2.4833779315272753E-002   1.0002106161071334E-002
   8.7258113607704940E-002  -2.6201972294655124E-002   1.5062942421639039E-002
   8.4620121134126286E-002  -2.5457280296887819E-002   1.5191074551597877E-002
   8.1982128660547673E-002  -2.4692551122342664E-002   1.5436388475271644E-002
   7.9344136186969033E-002  -2.3907784771019978E-002   1.5798884192660085E-002
   7.6706143713390407E-002  -2.3102981242919596E-002   1.6278561703763461E-002
   8.1313211094833304E-002  -2.4422657631682040E-002   2.1711243645573992E-002
   7.8804956317409997E-002  -2.3609441258826441E-002   2.1678829853405898E-002
   7.6296701539986633E-002  -2.2829956724355265E-002   2.1788709659833344E-002
   7.3788446762563270E-002  -2.2084204028268783E-002   2.2040883064856982E-002
   7.1280191985139962E-002  -2.1372183170566689E-002   2.2435350068476190E-002
   7.5202054088197468E-002  -2.2643342968708902E-002   2.8454953752178158E-002
   7.2848648811810496E-002  -2.1761602220765050E-002   2.8208225022720745E-002
   7.0495243535423469E-002  -2.0967362326367964E-002   2.8128901696740205E-002
   6.8141838259036441E-002  -2.0260623285517487E-002   2.8216983774236495E-002
   6.5788432982649470E-002  -1.9641385098213615E-002   2.8472471255209575E-002
   8.7360625347170817E-002  -2.6564577387625854E-002   3.6059834403999735E-003
   8.4088495359657789E-002  -2.5538368147310475E-002   3.4477547466324476E-003
   8.0816365372144705E-002  -2.4568053371261112E-002   3.5269729923996795E-003
   7.7544235384631649E-002  -2.3653633059476764E-002   3.8436381777017803E-003
   7.4272105397118593E-002  -2.2795107211958099E-002   4.3977503025385278E-003
   8.2066288167400636E-002  -2.4833779315272753E-002   1.0002106161071334E-002
   7.9026626961204549E-002  -2.3912743210681930E-002   9.7316916128359354E-003
   7.5986965755008490E-002  -2.3018613485846551E-002   9.6887676876993012E-003
   7.2947304548812417E-002  -2.2151390140766725E-002   9.8733343856622358E-003
   6.9907643342616343E-002  -2.1311073175442119E-002   1.0285391706724378E-002
   7.6706143713390407E-002  -2.3102981242919596E-002   1.6278561703763461E-002
   7.3888994972075822E-002  -2.2287118274053164E-002   1.5924949385569515E-002
   7.1071846230761335E-002  -2.1469173600432323E-002   1.5788871374039490E-002
   6.8254697489446819E-002  -2.0649147222056574E-002   1.5870327669173609E-002
   6.5437548748132318E-002  -1.9827039138926250E-002   1.6169318270971261E-002
   7.1280191985139962E-002  -2.1372183170566689E-002   2.2435350068476190E-002
   6.8675599392271580E-002  -2.0661493337424397E-002   2.2027528064834059E-002
   6.6071006799403267E-002  -1.9919733715017651E-002   2.1827284051420530E-002
   6.3466414206534899E-002  -1.9146904303346479E-002   2.1834618028235248E-002
   6.0861821613666565E-002  -1.8343005102410381E-002   2.2049529995278642E-002
   6.5788432982649470E-002  -1.9641385098213615E-002   2.8472471255209575E-002
   6.3386440221791851E-002  -1.9035868400795825E-002   2.8039427650629417E-002
   6.0984447460934260E-002  -1.8370293829603396E-002   2.7804005719842123E-002
   5.8582454700076669E-002  -1.7644661384636294E-002   2.7766205462848081E-002
   5.6180461939219051E-002  -1.6858971065894512E-002   2.7926026879646959E-002
   7.4272105397118593E-002  -2.2795107211958099E-002   4.3977503025385278E-003
   7.1198444653650217E-002  -2.1970617437663043E-002   4.6426428329136016E-003
   6.8124783910181896E-002  -2.1158305345550216E-002   5.2379247593181133E-003
   6.5051123166713548E-002  -2.0358170935619264E-002   6.1835960817513136E-003
   6.1977462423245200E-002  -1.9570214207870529E-002   7.4796568002141184E-003
   6.9907643342616343E-002  -2.1311073175442119E-002   1.0285391706724378E-002
   6.7154348560378052E-002  -2.0493086161165519E-002   1.0379662660057631E-002
   6.4401053778139927E-002  -1.9692852669228461E-002   1.0764276139821921E-002
   6.1647758995901664E-002  -1.8910372699632215E-002   1.1439232146016998E-002
   5.8894464213663511E-002  -1.8145646252375691E-002   1.2404530678643666E-002
   6.5437548748132318E-002  -1.9827039138926250E-002   1.6169318270971261E-002
   6.2944573057526099E-002  -1.9015554884667885E-002   1.6107391807104326E-002
   6.0451597366919949E-002  -1.8227399992907470E-002   1.6275761000070638E-002
   5.7958621676313792E-002  -1.7462574463645162E-002   1.6674425849869980E-002
   5.5465645985707579E-002  -1.6721078296881242E-002   1.7303386356501887E-002
   6.0861821613666565E-002  -1.8343005102410381E-002   2.2049529995278642E-002
   5.8569118145094322E-002  -1.7538023608170195E-002   2.1825830274053694E-002
   5.6276414676521988E-002  -1.6761947316586152E-002   2.1772379340064114E-002
   5.3983711207949675E-002  -1.6014776227658109E-002   2.1889177193309031E-002
   5.1691007739377348E-002  -1.5296510341386266E-002   2.2176223833788956E-002
   5.6180461939219051E-002  -1.6858971065894512E-002   2.7926026879646959E-002
   5.4027983823082548E-002  -1.6060492331672616E-002   2.7534978060906157E-002
   5.1875505706946018E-002  -1.5296494640264599E-002   2.7254131159802047E-002
   4.9723027590809502E-002  -1.4566977991671306E-002   2.7083486176335131E-002
   4.7570549474672985E-002  -1.3871942385891789E-002   2.7023043110504463E-002
   6.1977462423245200E-002  -1.9570214207870529E-002   7.4796568002141184E-003
   5.7148593271857284E-002  -1.8676231295870149E-002   8.3619760446987934E-003
   5.2319724120469258E-002  -1.7558018333185460E-002   1.0714137707597271E-002
   4.7490854969081342E-002  -1.6215575319815177E-002   1.4536141788908746E-002
   4.2661985817693315E-002  -1.4648902255760543E-002   1.9827988288634302E-002
   5.8894464213663511E-002  -1.8145646252375691E-002   1.2404530678643666E-002
   5.5332358344819588E-002  -1.7303556008352594E-002   1.2936306352163862E-002
   5.1770252475975720E-002  -1.6288984648456628E-002   1.4531766172358407E-002
   4.8208146607131658E-002  -1.5101932172687349E-002   1.7190910139227689E-002
   4.4646040738287929E-002  -1.3742398581044757E-002   2.0913738252771541E-002
   5.5465645985707579E-002  -1.6721078296881242E-002   1.7303386356501887E-002
   5.2764145127668749E-002  -1.5930880720835150E-002   1.7432869524245442E-002
   5.0062644269630030E-002  -1.5019950963728143E-002   1.8219878566925182E-002
   4.7361143411591200E-002  -1.3988289025559580E-002   1.9664413484540032E-002
   4.4659642553552537E-002  -1.2835894906329415E-002   2.1766474277090775E-002
   5.1691007739377348E-002  -1.5296510341386266E-002   2.2176223833788956E-002
   4.9443953620404830E-002  -1.4558205433317872E-002   2.1851665560944478E-002
   4.7196899501432327E-002  -1.3750917278999485E-002   2.1778474891296602E-002
   4.4949845382459788E-002  -1.2874645878431559E-002   2.1956651824845755E-002
   4.2702791263487194E-002  -1.1929391231613851E-002   2.2386196361591504E-002
   4.7570549474672985E-002  -1.3871942385891789E-002   2.7023043110504463E-002
   4.5371783823027784E-002  -1.3185530145800262E-002   2.6192694462260135E-002
   4.3173018171382554E-002  -1.2481883594271090E-002   2.5207555145473376E-002
   4.0974252519737325E-002  -1.1761002731303493E-002   2.4067625160144948E-002
   3.8775486868092068E-002  -1.1022887556898286E-002   2.2772904506274338E-002
   9.0360854539033225E-002   0.0000000000000000        4.9840692978342205E-002
   9.3961446583389313E-002  -5.4042195242813285E-003   5.3215065401349716E-002
   9.7562038627745415E-002  -1.0671284960383276E-002   5.4971012441303729E-002
  0.10116263067210150       -1.5801196308305857E-002   5.5108534098204147E-002
  0.10476322271645759       -2.0793953568049056E-002   5.3627630372051094E-002
   8.2424369610376469E-002   0.0000000000000000        4.4789318973452633E-002
   8.4635502583419259E-002  -4.5746044312661707E-003   4.8272933294408397E-002
   8.6846635556462048E-002  -9.0385148422484282E-003   5.0596054855791078E-002
   8.9057768529504824E-002  -1.3391731232946773E-002   5.1758683657600703E-002
   9.1268901502547614E-002  -1.7634253603361211E-002   5.1760819699837243E-002
   7.4244236213696094E-002   0.0000000000000000        4.0580790095525961E-002
   7.5523842738906041E-002  -3.7449893382510121E-003   4.4147186246534492E-002
   7.6803449264115975E-002  -7.4057447241135770E-003   4.7011022261450430E-002
   7.8083055789325895E-002  -1.0982266157587697E-002   4.9172298140273726E-002
   7.9362662314535828E-002  -1.4474553638673369E-002   5.0631013883004422E-002
   6.5820454348992100E-002   0.0000000000000000        3.7215106344562168E-002
   6.6626467049849633E-002  -2.9153742452358538E-003   4.0837824257728028E-002
   6.7432479750707167E-002  -5.7729746059787266E-003   4.4215914658281723E-002
   6.8238492451564714E-002  -8.5728010822286142E-003   4.7349377546223280E-002
   6.9044505152422275E-002  -1.1314853673985523E-002   5.0238212921552658E-002
   5.7153024016264459E-002   0.0000000000000000        3.4692267720561262E-002
   5.7943375516250062E-002  -2.0857591522206956E-003   3.8344847327988985E-002
   5.8733727016235672E-002  -4.1402044878438762E-003   4.2210732046284991E-002
   5.9524078516221282E-002  -6.1633360068695398E-003   4.6289921875449287E-002
   6.0314430016206885E-002  -8.1551537092976831E-003   5.0582416815481882E-002
  0.10476322271645759       -2.0793953568049056E-002   5.3627630372051094E-002
  0.10210860038402117       -2.4936609635134679E-002   4.5652601600044529E-002
   9.9453978051584777E-002  -2.7516217405084555E-002   3.9368109171731377E-002
   9.6799355719148397E-002  -2.8532776877898687E-002   3.4774153087111764E-002
   9.4144733386712018E-002  -2.7986288053577085E-002   3.1870733346185551E-002
   9.1268901502547614E-002  -1.7634253603361211E-002   5.1760819699837243E-002
   9.0066986424435946E-002  -2.1211195363262686E-002   4.6527801613299037E-002
   8.8865071346324293E-002  -2.3567669922422162E-002   4.2509661691716841E-002
   8.7663156268212639E-002  -2.4703677280839605E-002   3.9706399935090723E-002
   8.6461241190100985E-002  -2.4619217438515056E-002   3.8118016343420574E-002
   7.9362662314535828E-002  -1.4474553638673369E-002   5.0631013883004422E-002
   7.9137796312011496E-002  -1.7485781091390679E-002   4.7797425385540833E-002
   7.8912930309487150E-002  -1.9619122439759728E-002   4.5703056874295857E-002
   7.8688064306962818E-002  -2.0874577683780513E-002   4.4347908349269508E-002
   7.8463198304438486E-002  -2.1252146823453041E-002   4.3731979810461764E-002
   6.9044505152422275E-002  -1.1314853673985523E-002   5.0238212921552658E-002
   6.9321030046747806E-002  -1.3760366819518680E-002   4.9461472916769944E-002
   6.9597554941073364E-002  -1.5670574957097325E-002   4.8948294719468426E-002
   6.9874079835398936E-002  -1.7045478086721418E-002   4.8698678329648123E-002
   7.0150604729724453E-002  -1.7885076208391013E-002   4.8712623747308934E-002
   6.0314430016206885E-002  -8.1551537092976831E-003   5.0582416815481882E-002
   6.0616687628644916E-002  -1.0034952547646674E-002   5.1519944206986329E-002
   6.0918945241082934E-002  -1.1722027474434901E-002   5.2245375227234540E-002
   6.1221202853520951E-002  -1.3216378489662329E-002   5.2758709876226488E-002
   6.1523460465958968E-002  -1.4518005593329011E-002   5.3059948153962200E-002
   9.4144733386712018E-002  -2.7986288053577085E-002   3.1870733346185551E-002
   9.1767685562394924E-002  -2.6798153677622033E-002   3.1301017067581274E-002
   8.9390637738077899E-002  -2.5889776495535963E-002   3.0815303222691090E-002
   8.7013589913760805E-002  -2.5261156507318829E-002   3.0413591811514915E-002
   8.4636542089443767E-002  -2.4912293712970629E-002   3.0095882834052817E-002
   8.6461241190100985E-002  -2.4619217438515056E-002   3.8118016343420574E-002
   8.4213298128809067E-002  -2.3980139257465668E-002   3.7083357846495302E-002
   8.1965355067517162E-002  -2.3452291599708647E-002   3.6222906441906226E-002
   7.9717412006225272E-002  -2.3035674465243936E-002   3.5536662129653521E-002
   7.7469468944933353E-002  -2.2730287854071579E-002   3.5024624909736901E-002
   7.8463198304438486E-002  -2.1252146823453041E-002   4.3731979810461764E-002
   7.6434564664793925E-002  -2.1162124837309282E-002   4.2400905765791960E-002
   7.4405931025149336E-002  -2.1014806703881304E-002   4.1334243472080714E-002
   7.2377297385504760E-002  -2.0810192423169047E-002   4.0531992929327798E-002
   7.0348663745860185E-002  -2.0548281995172571E-002   3.9994154137533371E-002
   7.0150604729724453E-002  -1.7885076208391013E-002   4.8712623747308934E-002
   6.8431485170349429E-002  -1.8344110417152892E-002   4.7253660825471319E-002
   6.6712365610974406E-002  -1.8577321808053975E-002   4.6149314313214340E-002
   6.4993246051599368E-002  -1.8584710381094199E-002   4.5399584210537983E-002
   6.3274126492224345E-002  -1.8366276136273556E-002   4.5004470517442330E-002
   6.1523460465958968E-002  -1.4518005593329011E-002   5.3059948153962200E-002
   6.0204059645475656E-002  -1.5526095996996531E-002   5.1641623025533344E-002
   5.8884658824992345E-002  -1.6139836912226639E-002   5.0668118965307332E-002
   5.7565258004509033E-002  -1.6359228339019247E-002   5.0139435973284095E-002
   5.6245857184025708E-002  -1.6184270277374499E-002   5.0055574049463716E-002
   8.4636542089443767E-002  -2.4912293712970629E-002   3.0095882834052817E-002
   8.2277920089132178E-002  -2.4613746143393955E-002   2.9312179489692433E-002
   7.9919298088820617E-002  -2.4136071829491464E-002   2.8777456861259917E-002
   7.7560676088509084E-002  -2.3479270771263147E-002   2.8491714948755194E-002
   7.5202054088197468E-002  -2.2643342968708902E-002   2.8454953752178158E-002
   7.7469468944933353E-002  -2.2730287854071579E-002   3.5024624909736901E-002
   7.5350162744870303E-002  -2.2415473383892701E-002   3.4432131087950221E-002
   7.3230856544807293E-002  -2.1970572672408144E-002   3.4069288150732943E-002
   7.1111550344744270E-002  -2.1395585719618034E-002   3.3936096098084789E-002
   6.8992244144681220E-002  -2.0690512525522370E-002   3.4032554930006106E-002
   7.0348663745860185E-002  -2.0548281995172571E-002   3.9994154137533371E-002
   6.8449343514687178E-002  -2.0217200624391307E-002   3.9543829335300186E-002
   6.6550023283514212E-002  -1.9805073515324765E-002   3.9303825586277735E-002
   6.4650703052341219E-002  -1.9311900667972955E-002   3.9274142890466088E-002
   6.2751382821168239E-002  -1.8737682082335866E-002   3.9454781247865209E-002
   6.3274126492224345E-002  -1.8366276136273556E-002   4.5004470517442330E-002
   6.1575462398582817E-002  -1.8018927864889969E-002   4.4647274231742216E-002
   5.9876798304941352E-002  -1.7639574358241358E-002   4.4481069167894467E-002
   5.8178134211299859E-002  -1.7228215616327872E-002   4.4505855325898958E-002
   5.6479470117658394E-002  -1.6784851639149292E-002   4.4721632705755701E-002
   5.6245857184025708E-002  -1.6184270277374499E-002   5.0055574049463716E-002
   5.4728519396557235E-002  -1.5820655105388659E-002   4.9742465777276548E-002
   5.3211181609088755E-002  -1.5474075201158007E-002   4.9601018895583097E-002
   5.1693843821620275E-002  -1.5144530564682804E-002   4.9631233404383454E-002
   5.0176506034151802E-002  -1.4832021195962830E-002   4.9833109303677459E-002
   7.5202054088197468E-002  -2.2643342968708902E-002   2.8454953752178158E-002
   7.2848648811810496E-002  -2.1761602220765050E-002   2.8208225022720745E-002
   7.0495243535423469E-002  -2.0967362326367964E-002   2.8128901696740205E-002
   6.8141838259036441E-002  -2.0260623285517487E-002   2.8216983774236495E-002
   6.5788432982649470E-002  -1.9641385098213615E-002   2.8472471255209575E-002
   6.8992244144681220E-002  -2.0690512525522370E-002   3.4032554930006106E-002
   6.6813798596213239E-002  -1.9945847520798463E-002   3.3693127408196161E-002
   6.4635353047745286E-002  -1.9252085136123670E-002   3.3536213938747540E-002
   6.2456907499277306E-002  -1.8609225371498041E-002   3.3561814521660072E-002
   6.0278461950809326E-002  -1.8017268226921485E-002   3.3769929156933831E-002
   6.2751382821168239E-002  -1.8737682082335866E-002   3.9454781247865209E-002
   6.0763005649503675E-002  -1.8130092820831882E-002   3.9059253167200325E-002
   5.8774628477839083E-002  -1.7536807945879467E-002   3.8861347787781185E-002
   5.6786251306174505E-002  -1.6957827457478654E-002   3.8861065109607601E-002
   5.4797874134509941E-002  -1.6393151355629382E-002   3.9058405132679580E-002
   5.6479470117658394E-002  -1.6784851639149292E-002   4.4721632705755701E-002
   5.4696269971681623E-002  -1.6314338120865326E-002   4.4306602299733579E-002
   5.2913069825704900E-002  -1.5821530755635273E-002   4.4104303243841250E-002
   5.1129869679728115E-002  -1.5306429543459180E-002   4.4114735538079125E-002
   4.9346669533751421E-002  -1.4769034484337265E-002   4.4337899182446953E-002
   5.0176506034151802E-002  -1.4832021195962830E-002   4.9833109303677459E-002
   4.8613591562747249E-002  -1.4498583420898714E-002   4.9435174805795346E-002
   4.7050677091342683E-002  -1.4106253565391025E-002   4.9265080306927833E-002
   4.5487762619938130E-002  -1.3655031629439873E-002   4.9322825807074519E-002
   4.3924848148533563E-002  -1.3144917613045148E-002   4.9608411306235833E-002
   6.5788432982649470E-002  -1.9641385098213615E-002   2.8472471255209575E-002
   6.3386440221791851E-002  -1.9035868400795825E-002   2.8039427650629417E-002
   6.0984447460934260E-002  -1.8370293829603396E-002   2.7804005719842123E-002
   5.8582454700076669E-002  -1.7644661384636294E-002   2.7766205462848081E-002
   5.6180461939219051E-002  -1.6858971065894512E-002   2.7926026879646959E-002
   6.0278461950809326E-002  -1.8017268226921485E-002   3.3769929156933831E-002
   5.8071333956367002E-002  -1.7430699502282321E-002   3.3413603687491245E-002
   5.5864205961924637E-002  -1.6804004997468432E-002   3.3249386077086038E-002
   5.3657077967482314E-002  -1.6137184712480254E-002   3.3277276325718509E-002
   5.1449949973039949E-002  -1.5430238647317684E-002   3.3497274433388124E-002
   5.4797874134509941E-002  -1.6393151355629382E-002   3.9058405132679580E-002
   5.2780097091727325E-002  -1.5825530603768720E-002   3.8758865704774347E-002
   5.0762320048944681E-002  -1.5237716165333690E-002   3.8645920321151161E-002
   4.8744543006162065E-002  -1.4629708040324384E-002   3.8719568981809761E-002
   4.6726765963379421E-002  -1.4001506228740745E-002   3.8979811686750396E-002
   4.9346669533751421E-002  -1.4769034484337265E-002   4.4337899182446953E-002
   4.7512729627872910E-002  -1.4220361705255168E-002   4.4075213702478980E-002
   4.5678789721994448E-002  -1.3671427333198809E-002   4.3993608452037411E-002
   4.3844849816116006E-002  -1.3122231368168402E-002   4.4093083431122206E-002
   4.2010909910237537E-002  -1.2572773810163890E-002   4.4373638639733329E-002
   4.3924848148533563E-002  -1.3144917613045148E-002   4.9608411306235833E-002
   4.2269231564803750E-002  -1.2615192806741587E-002   4.9362647680604971E-002
   4.0613614981073895E-002  -1.2105138501064011E-002   4.9292450469744953E-002
   3.8957998397344047E-002  -1.1614754696012398E-002   4.9397819673655724E-002
   3.7302381813614199E-002  -1.1144041391586978E-002   4.9678755292337340E-002
   5.6180461939219051E-002  -1.6858971065894512E-002   2.7926026879646959E-002
   5.4027983823082548E-002  -1.6060492331672616E-002   2.7534978060906157E-002
   5.1875505706946018E-002  -1.5296494640264599E-002   2.7254131159802047E-002
   4.9723027590809502E-002  -1.4566977991671306E-002   2.7083486176335131E-002
   4.7570549474672985E-002  -1.3871942385891789E-002   2.7023043110504463E-002
   5.1449949973039949E-002  -1.5430238647317684E-002   3.3497274433388124E-002
   4.9418399401674154E-002  -1.4711648898821872E-002   3.3098619470138813E-002
   4.7386848830308373E-002  -1.4009897563834153E-002   3.2831617678794472E-002
   4.5355298258942585E-002  -1.3324984642354671E-002   3.2696269059354494E-002
   4.3323747687576825E-002  -1.2656910134383526E-002   3.2692573611819431E-002
   4.6726765963379421E-002  -1.4001506228740745E-002   3.8979811686750396E-002
   4.4837594191052363E-002  -1.3362805465971073E-002   3.8591193208298569E-002
   4.2948422418725381E-002  -1.2723300487403548E-002   3.8355679156019458E-002
   4.1059250646398343E-002  -1.2082991293038260E-002   3.8273269529913140E-002
   3.9170078874071299E-002  -1.1441877882875123E-002   3.8343964329979455E-002
   4.2010909910237537E-002  -1.2572773810163890E-002   4.4373638639733329E-002
   4.0285568191217279E-002  -1.2013962033120301E-002   4.4012699275384898E-002
   3.8560226472197000E-002  -1.1436703410972911E-002   4.3826315591477302E-002
   3.6834884753176741E-002  -1.0840997943721627E-002   4.3814487588010598E-002
   3.5109543034156469E-002  -1.0226845631366790E-002   4.3977215264984479E-002
   3.7302381813614199E-002  -1.1144041391586978E-002   4.9678755292337340E-002
   3.5762321402168756E-002  -1.0665118600269557E-002   4.9363137671398383E-002
   3.4222260990723299E-002  -1.0150106334542469E-002   4.9243526985167985E-002
   3.2682200579277808E-002  -9.5990045944052901E-003   4.9319923233646618E-002
   3.1142140167832372E-002  -9.0118133798585687E-003   4.9592326416833976E-002
   4.7570549474672985E-002  -1.3871942385891789E-002   2.7023043110504463E-002
   4.5371783823027784E-002  -1.3185530145800262E-002   2.6192694462260135E-002
   4.3173018171382554E-002  -1.2481883594271090E-002   2.5207555145473376E-002
   4.0974252519737325E-002  -1.1761002731303493E-002   2.4067625160144948E-002
   3.8775486868092068E-002  -1.1022887556898286E-002   2.2772904506274338E-002
   4.3323747687576825E-002  -1.2656910134383526E-002   3.2692573611819431E-002
   4.1022975707375037E-002  -1.1992524781438807E-002   3.2021489484598070E-002
   3.8722203727173221E-002  -1.1318679325039410E-002   3.1301183368805496E-002
   3.6421431746971517E-002  -1.0635373765185009E-002   3.0531655264442084E-002
   3.4120659766769701E-002  -9.9426081018758605E-003   2.9712905171507598E-002
   3.9170078874071299E-002  -1.1441877882875123E-002   3.8343964329979455E-002
   3.6872869245284191E-002  -1.0799519417077186E-002   3.7824370515797540E-002
   3.4575659616497043E-002  -1.0155475055807626E-002   3.7361123393015692E-002
   3.2278449987709908E-002  -9.5097447990662772E-003   3.6954222961634267E-002
   2.9981240358922800E-002  -8.8623286468533236E-003   3.6603669221652813E-002
   3.5109543034156469E-002  -1.0226845631366790E-002   4.3977215264984479E-002
   3.2921464436755171E-002  -9.6065140527157034E-003   4.3601337555858634E-002
   3.0733385839353877E-002  -8.9922707865758948E-003   4.3387375218104582E-002
   2.8545307241952630E-002  -8.3841158329476702E-003   4.3335328251722066E-002
   2.6357228644551332E-002  -7.7820491918307866E-003   4.3445196656710608E-002
   3.1142140167832372E-002  -9.0118133798585687E-003   4.9592326416833976E-002
   2.9168761281788108E-002  -8.4135086883540544E-003   4.9352390604781526E-002
   2.7195382395743886E-002  -7.8290665173443019E-003   4.9379938844072047E-002
   2.5222003509699588E-002  -7.2584868668289573E-003   4.9674971134705037E-002
   2.3248624623655345E-002  -6.7017697368083606E-003   5.0237487476680664E-002
   5.7153024016264459E-002   0.0000000000000000        3.4692267720561262E-002
   5.7943375516250062E-002  -2.0857591522206956E-003   3.8344847327988985E-002
   5.8733727016235672E-002  -4.1402044878438762E-003   4.2210732046284991E-002
   5.9524078516221282E-002  -6.1633360068695398E-003   4.6289921875449287E-002
   6.0314430016206885E-002  -8.1551537092976831E-003   5.0582416815481882E-002
   4.8653639638199637E-002   0.0000000000000000        3.2789529666359160E-002
   4.9592174697628409E-002  -1.7108672471132565E-003   3.6965577808781250E-002
   5.0530709757057188E-002  -3.4353488926835117E-003   4.1224687959221393E-002
   5.1469244816485960E-002  -5.1734449367107655E-003   4.5566860117679547E-002
   5.2407779875914724E-002  -6.9251553791950093E-003   4.9992094284155797E-002
   4.0733995637484054E-002   0.0000000000000000        3.1284147624791751E-002
   4.1690471153505750E-002  -1.3359753420058183E-003   3.5938736087153700E-002
   4.2646946669527439E-002  -2.7304932975231481E-003   4.0546143454683457E-002
   4.3603422185549141E-002  -4.1835538665519903E-003   4.5106369727380996E-002
   4.4559897701570830E-002  -5.6951570490923415E-003   4.9619414905246330E-002
   3.3394092014117714E-002   0.0000000000000000        3.0176121595859036E-002
   3.4238264883882076E-002  -9.6108343689837962E-004   3.5264322163106335E-002
   3.5082437753646445E-002  -2.0256377023627850E-003   4.0175098532671191E-002
   3.5926610623410807E-002  -3.1936627963932156E-003   4.4908450704553585E-002
   3.6770783493175162E-002  -4.4651587189896702E-003   4.9464378678753522E-002
   2.6633928768100619E-002   0.0000000000000000        2.9465451579561014E-002
   2.7235555888757403E-002  -5.8619153179094094E-004   3.4942336036639154E-002
   2.7837183009414186E-002  -1.3207821072024218E-003   4.0111553193184588E-002
   2.8438810130070970E-002  -2.2037717262344408E-003   4.4973103049197327E-002
   2.9040437250727753E-002  -3.2351603888869998E-003   4.9526985604677339E-002
   6.0314430016206885E-002  -8.1551537092976831E-003   5.0582416815481882E-002
   6.0616687628644916E-002  -1.0034952547646674E-002   5.1519944206986329E-002
   6.0918945241082934E-002  -1.1722027474434901E-002   5.2245375227234540E-002
   6.1221202853520951E-002  -1.3216378489662329E-002   5.2758709876226488E-002
   6.1523460465958968E-002  -1.4518005593329011E-002   5.3059948153962200E-002
   5.2407779875914724E-002  -6.9251553791950093E-003   4.9992094284155797E-002
   5.2536680225061708E-002  -8.5898757773820895E-003   5.1217287948879746E-002
   5.2665580574208698E-002  -1.0067001688517855E-002   5.2307863458277849E-002
   5.2794480923355681E-002  -1.1356533112602292E-002   5.3263820812350100E-002
   5.2923381272502658E-002  -1.2458470049635399E-002   5.4085160011096506E-002
   4.4559897701570830E-002  -5.6951570490923415E-003   4.9619414905246330E-002
   4.4592919003357177E-002  -7.1447990071175135E-003   5.1127145418680346E-002
   4.4625940305143504E-002  -8.4119759026008208E-003   5.2577735992718880E-002
   4.4658961606929844E-002  -9.4966877355422367E-003   5.3971186627362000E-002
   4.4691982908716184E-002  -1.0398934505941794E-002   5.5307497322609693E-002
   3.6770783493175162E-002  -4.4651587189896702E-003   4.9464378678753522E-002
   3.6785403963531277E-002  -5.6997222368529192E-003   5.1249516616388109E-002
   3.6800024433887371E-002  -6.7569501166837740E-003   5.3054992830557653E-002
   3.6814644904243493E-002  -7.6368423584821732E-003   5.4880807321262194E-002
   3.6829265374599601E-002  -8.3393989622481922E-003   5.6726960088501636E-002
   2.9040437250727753E-002  -3.2351603888869998E-003   4.9526985604677339E-002
   2.9114135105584030E-002  -4.2546454665883474E-003   5.1584401542003069E-002
   2.9187832960440301E-002  -5.1019243307667359E-003   5.3739633971794168E-002
   2.9261530815296578E-002  -5.7769969814221427E-003   5.5992682894050655E-002
   2.9335228670152855E-002  -6.2798634185545904E-003   5.8343548308772447E-002
   6.1523460465958968E-002  -1.4518005593329011E-002   5.3059948153962200E-002
   6.0204059645475656E-002  -1.5526095996996531E-002   5.1641623025533344E-002
   5.8884658824992345E-002  -1.6139836912226639E-002   5.0668118965307332E-002
   5.7565258004509033E-002  -1.6359228339019247E-002   5.0139435973284095E-002
   5.6245857184025708E-002  -1.6184270277374499E-002   5.0055574049463716E-002
   5.2923381272502658E-002  -1.2458470049635399E-002   5.4085160011096506E-002
   5.1998144602443189E-002  -1.3310950967411632E-002   5.3337692314508516E-002
   5.1072907932383727E-002  -1.3852114333725527E-002   5.2933731850565310E-002
   5.0147671262324264E-002  -1.4081960148577004E-002   5.2873278619267029E-002
   4.9222434592264802E-002  -1.4000488411966147E-002   5.3156332620613617E-002
   4.4691982908716184E-002  -1.0398934505941794E-002   5.5307497322609693E-002
   4.4059596553522630E-002  -1.1095805937826747E-002   5.5147855120887400E-002
   4.3427210198329097E-002  -1.1564391755224401E-002   5.5230406316251993E-002
   4.2794823843135543E-002  -1.1804691958134737E-002   5.5555150908703575E-002
   4.2162437487942003E-002  -1.1816706546557747E-002   5.6122088898242106E-002
   3.6829265374599601E-002  -8.3393989622481922E-003   5.6726960088501636E-002
   3.6388415498714015E-002  -8.8806609082418761E-003   5.7072111444669990E-002
   3.5947565622828456E-002  -9.2766691767233230E-003   5.7558142362367379E-002
   3.5506715746942891E-002  -9.5274237676924410E-003   5.8185052841593775E-002
   3.5065865871057318E-002  -9.6329246811493706E-003   5.8952842882349143E-002
   2.9335228670152855E-002  -6.2798634185545904E-003   5.8343548308772447E-002
   2.8984601438017323E-002  -6.6655158786569704E-003   5.9110461285856425E-002
   2.8633974205881804E-002  -6.9889465982221621E-003   5.9916939988911455E-002
   2.8283346973746272E-002  -7.2501555772501794E-003   6.0762984417937635E-002
   2.7932719741610747E-002  -7.4491428157409806E-003   6.1648594572934770E-002
   5.6245857184025708E-002  -1.6184270277374499E-002   5.0055574049463716E-002
   5.4728519396557235E-002  -1.5820655105388659E-002   4.9742465777276548E-002
   5.3211181609088755E-002  -1.5474075201158007E-002   4.9601018895583097E-002
   5.1693843821620275E-002  -1.5144530564682804E-002   4.9631233404383454E-002
   5.0176506034151802E-002  -1.4832021195962830E-002   4.9833109303677459E-002
   4.9222434592264802E-002  -1.4000488411966147E-002   5.3156332620613617E-002
   4.7884225166443854E-002  -1.3758133449935851E-002   5.2810823622828899E-002
   4.6546015740622934E-002  -1.3505329588529163E-002   5.2651909957845522E-002
   4.5207806314802007E-002  -1.3242076827746124E-002   5.2679591625663547E-002
   4.3869596888981066E-002  -1.2968375167586671E-002   5.2893868626282869E-002
   4.2162437487942003E-002  -1.1816706546557747E-002   5.6122088898242106E-002
   4.1018290366076217E-002  -1.1695611794483085E-002   5.5771663341991615E-002
   3.9874143244210451E-002  -1.1536583975900265E-002   5.5622767060849995E-002
   3.8729996122344672E-002  -1.1339623090809457E-002   5.5675400054817414E-002
   3.7585849000478899E-002  -1.1104729139210540E-002   5.5929562323893678E-002
   3.5065865871057318E-002  -9.6329246811493706E-003   5.8952842882349143E-002
   3.4130714995454309E-002  -9.6330901390302981E-003   5.8624984934764444E-002
   3.3195564119851306E-002  -9.5678383632714498E-003   5.8513590204596316E-002
   3.2260413244248311E-002  -9.4371693538727978E-003   5.8618658691844808E-002
   3.1325262368645287E-002  -9.2410831108344221E-003   5.8940190396509856E-002
   2.7932719741610747E-002  -7.4491428157409806E-003   6.1648594572934770E-002
   2.7221499054578137E-002  -7.5705684835774903E-003   6.1370788401147638E-002
   2.6510278367545503E-002  -7.5990927506425256E-003   6.1324379389084631E-002
   2.5799057680512869E-002  -7.5347156169361393E-003   6.1509367536745851E-002
   2.5087836993480259E-002  -7.3774370824582769E-003   6.1925752844131265E-002
   5.0176506034151802E-002  -1.4832021195962830E-002   4.9833109303677459E-002
   4.8613591562747249E-002  -1.4498583420898714E-002   4.9435174805795346E-002
   4.7050677091342683E-002  -1.4106253565391025E-002   4.9265080306927833E-002
   4.5487762619938130E-002  -1.3655031629439873E-002   4.9322825807074519E-002
   4.3924848148533563E-002  -1.3144917613045148E-002   4.9608411306235833E-002
   4.3869596888981066E-002  -1.2968375167586671E-002   5.2893868626282869E-002
   4.2527288322399909E-002  -1.2667142347499841E-002   5.2563614041339371E-002
   4.1184979755818744E-002  -1.2321296106934609E-002   5.2446731267028299E-002
   3.9842671189237594E-002  -1.1930836445891116E-002   5.2543220303349625E-002
   3.8500362622656450E-002  -1.1495763364369221E-002   5.2853081150303183E-002
   3.7585849000478899E-002  -1.1104729139210540E-002   5.5929562323893678E-002
   3.6449678150339129E-002  -1.0835701274100995E-002   5.5652708991923538E-002
   3.5313507300199345E-002  -1.0536338648478277E-002   5.5574759282203623E-002
   3.4177336450059562E-002  -1.0206641262342414E-002   5.5695713194734153E-002
   3.3041165599919813E-002  -9.8466091156934610E-003   5.6015570729515157E-002
   3.1325262368645287E-002  -9.2410831108344221E-003   5.8940190396509856E-002
   3.0380761046564880E-002  -9.0042602007022188E-003   5.8702459657547737E-002
   2.9436259724484465E-002  -8.7513811900218758E-003   5.8649164352453931E-002
   2.8491758402404057E-002  -8.4824460787937955E-003   5.8780304481228576E-002
   2.7547257080323642E-002  -8.1974548670176728E-003   5.9095880043871556E-002
   2.5087836993480259E-002  -7.3774370824582769E-003   6.1925752844131265E-002
   2.4320537011077191E-002  -7.1728191273032899E-003   6.1712866038212050E-002
   2.3553237028674123E-002  -6.9664237315655089E-003   6.1669946477779222E-002
   2.2785937046271076E-002  -6.7582508952449497E-003   6.1796994162832734E-002
   2.2018637063868002E-002  -6.5483006183418291E-003   6.2094009093372482E-002
   4.3924848148533563E-002  -1.3144917613045148E-002   4.9608411306235833E-002
   4.2269231564803750E-002  -1.2615192806741587E-002   4.9362647680604971E-002
   4.0613614981073895E-002  -1.2105138501064011E-002   4.9292450469744953E-002
   3.8957998397344047E-002  -1.1614754696012398E-002   4.9397819673655724E-002
   3.7302381813614199E-002  -1.1144041391586978E-002   4.9678755292337340E-002
   3.8500362622656450E-002  -1.1495763364369221E-002   5.2853081150303183E-002
   3.7026718904610623E-002  -1.1043010971207842E-002   5.2564549829813415E-002
   3.5553075186564830E-002  -1.0599513375245388E-002   5.2464397825920953E-002
   3.4079431468519022E-002  -1.0165270576482142E-002   5.2552625138625846E-002
   3.2605787750473236E-002  -9.7402825749179911E-003   5.2829231767927837E-002
   3.3041165599919813E-002  -9.8466091156934610E-003   5.6015570729515157E-002
   3.1762307649384432E-002  -9.4708291356740276E-003   5.5694687417593321E-002
   3.0483449698849096E-002  -9.0938882494267098E-003   5.5574996324095363E-002
   2.9204591748313746E-002  -8.7157864569518302E-003   5.5656497449021076E-002
   2.7925733797778386E-002  -8.3365237582490037E-003   5.5939190792370225E-002
   2.7547257080323642E-002  -8.1974548670176728E-003   5.9095880043871556E-002
   2.6475997799125142E-002  -7.8986473001401367E-003   5.8753060443944738E-002
   2.5404738517926646E-002  -7.5882631236081424E-003   5.8624245964268074E-002
   2.4333479236728121E-002  -7.2663023374213796E-003   5.8709436604841285E-002
   2.3262219955529621E-002  -6.9327649415799886E-003   5.9008632365664733E-002
   2.2018637063868002E-002  -6.5483006183418291E-003   6.2094009093372482E-002
   2.1167789353832747E-002  -6.3264654646064955E-003   6.1739668908867534E-002
   2.0316941643797486E-002  -6.0826379977893807E-003   6.1612146746439056E-002
   1.9466093933762228E-002  -5.8168182178911162E-003   6.1711442606086936E-002
   1.8615246223726983E-002  -5.5290061249110289E-003   6.2037556487811230E-002
   3.7302381813614199E-002  -1.1144041391586978E-002   4.9678755292337340E-002
   3.5762321402168756E-002  -1.0665118600269557E-002   4.9363137671398383E-002
   3.4222260990723299E-002  -1.0150106334542469E-002   4.9243526985167985E-002
   3.2682200579277808E-002  -9.5990045944052901E-003   4.9319923233646618E-002
   3.1142140167832372E-002  -9.0118133798585687E-003   4.9592326416833976E-002
   3.2605787750473236E-002  -9.7402825749179911E-003   5.2829231767927837E-002
   3.1259804367730432E-002  -9.3070530647672844E-003   5.2559137995819599E-002
   2.9913820984987599E-002  -8.8480857402440938E-003   5.2481191346408204E-002
   2.8567837602244774E-002  -8.3633806013486134E-003   5.2595391819692992E-002
   2.7221854219501948E-002  -7.8529376480809265E-003   5.2901739415674387E-002
   2.7925733797778386E-002  -8.3365237582490037E-003   5.5939190792370225E-002
   2.6769967631725851E-002  -7.9489875292648865E-003   5.5704269209055718E-002
   2.5614201465673340E-002  -7.5460651459459543E-003   5.5657634936425324E-002
   2.4458435299620829E-002  -7.1277566082920511E-003   5.5799287974479049E-002
   2.3302669133568300E-002  -6.6940619163034509E-003   5.6129228323217067E-002
   2.3262219955529621E-002  -6.9327649415799886E-003   5.9008632365664733E-002
   2.2292811194155090E-002  -6.5909219937624955E-003   5.8798531311106128E-002
   2.1323402432780528E-002  -6.2440445516476692E-003   5.8772857755219621E-002
   2.0353993671405991E-002  -5.8921326152355982E-003   5.8931611698004850E-002
   1.9384584910031435E-002  -5.5351861845260031E-003   5.9274793139461705E-002
   1.8615246223726983E-002  -5.5290061249110289E-003   6.2037556487811230E-002
   1.7828335055018046E-002  -5.2328564582602433E-003   6.1841924301971440E-002
   1.7041423886309151E-002  -4.9420239573494812E-003   6.1826859802791123E-002
   1.6254512717600214E-002  -4.6565086221787670E-003   6.1992362990270070E-002
   1.5467601548891305E-002  -4.3763104527483887E-003   6.2338433864408682E-002
   3.1142140167832372E-002  -9.0118133798585687E-003   4.9592326416833976E-002
   2.9168761281788108E-002  -8.4135086883540544E-003   4.9352390604781526E-002
   2.7195382395743886E-002  -7.8290665173443019E-003   4.9379938844072047E-002
   2.5222003509699588E-002  -7.2584868668289573E-003   4.9674971134705037E-002
   2.3248624623655345E-002  -6.7017697368083606E-003   5.0237487476680664E-002
   2.7221854219501948E-002  -7.8529376480809265E-003   5.2901739415674387E-002
   2.5511920647688341E-002  -7.3318859306043538E-003   5.2649674325682350E-002
   2.3801987075874699E-002  -6.8153544990819104E-003   5.2657015812808933E-002
   2.2092053504061054E-002  -6.3033433535140196E-003   5.2923763877054011E-002
   2.0382119932247422E-002  -5.7958524939004663E-003   5.3449918518417627E-002
   2.3302669133568300E-002  -6.6940619163034509E-003   5.6129228323217067E-002
   2.1848103401761250E-002  -6.2502631728543478E-003   5.5874376189825131E-002
   2.0393537669954224E-002  -5.8016424808195605E-003   5.5870853159328410E-002
   1.8938971938147135E-002  -5.3481998401990229E-003   5.6118659231725744E-002
   1.7484406206340106E-002  -4.8899352509926830E-003   5.6617794407017974E-002
   1.9384584910031435E-002  -5.5351861845260031E-003   5.9274793139461705E-002
   1.8177309544006929E-002  -5.1686404151047166E-003   5.9026496197210752E-002
   1.6970034177982457E-002  -4.7879304625571897E-003   5.9021450883630339E-002
   1.5762758811957968E-002  -4.3930563268841667E-003   5.9259657198720381E-002
   1.4555483445933475E-002  -3.9840180080847887E-003   5.9741115142481038E-002
   1.5467601548891305E-002  -4.3763104527483887E-003   6.2338433864408682E-002
   1.4499539074425347E-002  -4.0870176573546413E-003   6.2106034347838568E-002
   1.3531476599959381E-002  -3.7742184442947496E-003   6.2108808985714775E-002
   1.2563414125493385E-002  -3.4379128135690988E-003   6.2346757778037651E-002
   1.1595351651027430E-002  -3.0781007651770054E-003   6.2819880724806820E-002
   2.6633928768100619E-002   0.0000000000000000        2.9465451579561014E-002
   2.7235555888757403E-002  -5.8619153179094094E-004   3.4942336036639154E-002
   2.7837183009414186E-002  -1.3207821072024218E-003   4.0111553193184588E-002
   2.8438810130070970E-002  -2.2037717262344408E-003   4.4973103049197327E-002
   2.9040437250727753E-002  -3.2351603888869998E-003   4.9526985604677339E-002
   2.0116588427071310E-002   0.0000000000000000        2.9017458570804271E-002
   2.0449863377298767E-002  -4.3964364888577495E-004   3.4309714427448894E-002
   2.0783138327526221E-002  -9.9058658047747848E-004   3.9372933243767561E-002
   2.1116413277753675E-002  -1.6528287947751071E-003   4.4207115019760282E-002
   2.1449688227981132E-002  -2.4263702917786661E-003   4.8812259755427044E-002
   1.3505153518668343E-002   0.0000000000000000        2.8697463564495391E-002
   1.3648706558673222E-002  -2.9309576598060896E-004   3.3842190581621107E-002
   1.3792259598678098E-002  -6.6039105375253256E-004   3.8836510818627629E-002
   1.3935812638682973E-002  -1.1018858633157699E-003   4.3680424275514933E-002
   1.4079365678687856E-002  -1.6175801946703254E-003   4.8373930952283040E-002
   6.7996240428917169E-003   0.0000000000000000        2.8505466560634369E-002
   6.8320854328807676E-003  -1.4654788307544211E-004   3.3539764499155786E-002
   6.8645468228698166E-003  -3.3019552702758794E-004   3.8502285917764757E-002
   6.8970082128588664E-003  -5.5094293185643448E-004   4.3393030816461294E-002
   6.9294696028479172E-003  -8.0879009756198474E-004   4.8211999195245346E-002
  -2.5856834034998499E-013   0.0000000000000000        2.8441467559221209E-002
  -7.8595116526081199E-014  -1.7027698695493143E-013   3.3402436180052952E-002
   1.0137680625521561E-013  -3.0264332706586572E-013   3.8370258541178995E-002
   2.8134981323868491E-013  -3.9709728560932689E-013   4.3344934642599330E-002
   4.6132282022215421E-013  -4.5365100564964678E-013   4.8326464484313970E-002
   2.9040437250727753E-002  -3.2351603888869998E-003   4.9526985604677339E-002
   2.9114135105584030E-002  -4.2546454665883474E-003   5.1584401542003069E-002
   2.9187832960440301E-002  -5.1019243307667359E-003   5.3739633971794168E-002
   2.9261530815296578E-002  -5.7769969814221427E-003   5.5992682894050655E-002
   2.9335228670152855E-002  -6.2798634185545904E-003   5.8343548308772447E-002
   2.1449688227981132E-002  -2.4263702917786661E-003   4.8812259755427044E-002
   2.1592142336259418E-002  -3.1909841000963730E-003   5.1211722363963041E-002
   2.1734596444537693E-002  -3.8264432483364782E-003   5.3650880986877647E-002
   2.1877050552815976E-002  -4.3327477364989960E-003   5.6129735624170965E-002
   2.2019504661094265E-002  -4.7098975645838842E-003   5.8648286275842863E-002
   1.4079365678687856E-002  -1.6175801946703254E-003   4.8373930952283040E-002
   1.4232455562301419E-002  -2.1273227336044117E-003   5.1072388678583956E-002
   1.4385545445914987E-002  -2.5509621659062483E-003   5.3752421941176770E-002
   1.4538635329528551E-002  -2.8884984915758310E-003   5.6414030740061495E-002
   1.4691725213142118E-002  -3.1399317106131711E-003   5.9057215075238159E-002
   6.9294696028479172E-003  -8.0879009756198474E-004   4.8211999195245346E-002
   7.0350747837100427E-003  -1.0636613671124438E-003   5.1166400485865793E-002
   7.1406799645721691E-003  -1.2754810834759976E-003   5.4044256834691433E-002
   7.2462851454342964E-003  -1.4442492466526752E-003   5.6845568241722308E-002
   7.3518903262964237E-003  -1.5699658566424614E-003   5.9570334706958349E-002
   4.6132282022215421E-013  -4.5365100564964678E-013   4.8326464484313970E-002
   4.8528542295755983E-013  -6.2048283178128827E-013   5.1493757785808600E-002
   5.0924845937383445E-013  -1.0457624349813344E-012   5.4526385667421726E-002
   5.3321084526880558E-013  -1.7295162697827937E-012   5.7424348129153313E-002
   5.5717409852551469E-013  -2.6717447698665353E-012   6.0187645171003369E-002
   2.9335228670152855E-002  -6.2798634185545904E-003   5.8343548308772447E-002
   2.8984601438017323E-002  -6.6655158786569704E-003   5.9110461285856425E-002
   2.8633974205881804E-002  -6.9889465982221621E-003   5.9916939988911455E-002
   2.8283346973746272E-002  -7.2501555772501794E-003   6.0762984417937635E-002
   2.7932719741610747E-002  -7.4491428157409806E-003   6.1648594572934770E-002
   2.2019504661094265E-002  -4.7098975645838842E-003   5.8648286275842863E-002
   2.1720465925621300E-002  -4.9991369098738442E-003   5.9469610607749468E-002
   2.1421427190148327E-002  -5.2417099496515282E-003   6.0354546207010154E-002
   2.1122388454675359E-002  -5.4376166839169692E-003   6.1303093073624797E-002
   2.0823349719202400E-002  -5.5868571126701655E-003   6.2315251207593562E-002
   1.4691725213142118E-002  -3.1399317106131711E-003   5.9057215075238159E-002
   1.4468320515714674E-002  -3.3327579410907145E-003   5.9917395326942506E-002
   1.4244915818287230E-002  -3.4944733010809081E-003   6.0865232387383866E-002
   1.4021511120859776E-002  -3.6250777905837729E-003   6.1900726256562198E-002
   1.3798106423432337E-002  -3.7245714095992741E-003   6.3023876934477557E-002
   7.3518903262964237E-003  -1.5699658566424614E-003   5.9570334706958349E-002
   7.2281652082974608E-003  -1.6663789723075795E-003   6.0453815443435505E-002
   7.1044400902984953E-003  -1.7472366525102812E-003   6.1448998530032606E-002
   6.9807149722995315E-003  -1.8125388972505558E-003   6.2555883966749701E-002
   6.8569898543005669E-003  -1.8622857065284069E-003   6.3774471753586748E-002
   5.5717409852551469E-013  -2.6717447698665353E-012   6.0187645171003369E-002
   3.3696543819128344E-012  -3.5244515639298868E-012   6.1078870957228415E-002
   6.1821337979384161E-012  -3.9396732404162194E-012   6.2105844634956414E-002
   8.9946153823683428E-012  -3.9173226294708652E-012   6.3268566204187304E-002
   1.1807093497351318E-011  -3.4575398100145094E-012   6.4567035664921113E-002
   2.7932719741610747E-002  -7.4491428157409806E-003   6.1648594572934770E-002
   2.7221499054578137E-002  -7.5705684835774903E-003   6.1370788401147638E-002
   2.6510278367545503E-002  -7.5990927506425256E-003   6.1324379389084631E-002
   2.5799057680512869E-002  -7.5347156169361393E-003   6.1509367536745851E-002
   2.5087836993480259E-002  -7.3774370824582769E-003   6.1925752844131265E-002
   2.0823349719202400E-002  -5.5868571126701655E-003   6.2315251207593562E-002
   2.0330128194541636E-002  -5.6779263632360383E-003   6.2189462490909245E-002
   1.9836906669880874E-002  -5.6993195629396788E-003   6.2268274939244458E-002
   1.9343685145220113E-002  -5.6510367117810845E-003   6.2551688552599266E-002
   1.8850463620559352E-002  -5.5330778097601729E-003   6.3039703330973515E-002
   1.3798106423432337E-002  -3.7245714095992741E-003   6.3023876934477557E-002
   1.3496088066438797E-002  -3.7852842428945550E-003   6.3026880322986922E-002
   1.3194069709445255E-002  -3.7995463752368303E-003   6.3207688881811080E-002
   1.2892051352451712E-002  -3.7673578066259599E-003   6.3566302610950226E-002
   1.2590032995458168E-002  -3.6887185370619996E-003   6.4102721510404220E-002
   6.8569898543005669E-003  -1.8622857065284069E-003   6.3774471753586748E-002
   6.7193786702696053E-003  -1.8926421225531152E-003   6.3883041897380505E-002
   6.5817674862386436E-003  -1.8997731875339272E-003   6.4142621216784532E-002
   6.4441563022076776E-003  -1.8836789014708146E-003   6.4553209711798815E-002
   6.3065451181767204E-003  -1.8443592643638609E-003   6.5114807382423423E-002
   1.1807093497351318E-011  -3.4575398100145094E-012   6.4567035664921113E-002
   6.0340690777316297E-012  -2.2116267150984470E-012   6.4757947214090172E-002
   2.6104118866498993E-013   1.6888573872719803E-013   6.5073071944164854E-002
  -5.5119832309546979E-012   3.6842248002377787E-012   6.5512409855145143E-002
  -1.1285011120021338E-011   8.3342777124073564E-012   6.6075960947031026E-002
   2.5087836993480259E-002  -7.3774370824582769E-003   6.1925752844131265E-002
   2.4320537011077191E-002  -7.1728191273032899E-003   6.1712866038212050E-002
   2.3553237028674123E-002  -6.9664237315655089E-003   6.1669946477779222E-002
   2.2785937046271076E-002  -6.7582508952449497E-003   6.1796994162832734E-002
   2.2018637063868002E-002  -6.5483006183418291E-003   6.2094009093372482E-002
   1.8850463620559352E-002  -5.5330778097601729E-003   6.3039703330973515E-002
   1.8258595317801017E-002  -5.3796143426260851E-003   6.2810778967005834E-002
   1.7666727015042665E-002  -5.2248177961279757E-003   6.2762750716841148E-002
   1.7074858712284327E-002  -5.0686881702660634E-003   6.2895618580479665E-002
   1.6482990409525979E-002  -4.9112254650398868E-003   6.3209382557921273E-002
   1.2590032995458168E-002  -3.6887185370619996E-003   6.4102721510404220E-002
   1.2184525240661317E-002  -3.5864095579488733E-003   6.3857315227169295E-002
   1.1779017485864456E-002  -3.4832118606904945E-003   6.3803733926054193E-002
   1.1373509731067604E-002  -3.3791254452868987E-003   6.3941977607058914E-002
   1.0968001976270746E-002  -3.2741503117379722E-003   6.4272046270183625E-002
   6.3065451181767204E-003  -1.8443592643638609E-003   6.5114807382423423E-002
   6.0983267796581048E-003  -1.7932047732717483E-003   6.4852474818702419E-002
   5.8901084411394867E-003  -1.7416059252529318E-003   6.4792896105418024E-002
   5.6818901026208721E-003  -1.6895627203077621E-003   6.4936071242570392E-002
   5.4736717641022557E-003  -1.6370751584360438E-003   6.5282000230159204E-002
  -1.1285011120021338E-011   8.3342777124073564E-012   6.6075960947031026E-002
  -6.5208623223345086E-011   1.1405557054366966E-011   6.5796257741605302E-002
  -1.1913223706139231E-010   1.0184617038611066E-011   6.5730237254932988E-002
  -1.7305585089943953E-010   4.6712460288755864E-012   6.5877899487014030E-002
  -2.2697946300276328E-010  -5.1341153550765739E-012   6.6239244437848399E-002
   2.2018637063868002E-002  -6.5483006183418291E-003   6.2094009093372482E-002
   2.1167789353832747E-002  -6.3264654646064955E-003   6.1739668908867534E-002
   2.0316941643797486E-002  -6.0826379977893807E-003   6.1612146746439056E-002
   1.9466093933762228E-002  -5.8168182178911162E-003   6.1711442606086936E-002
   1.8615246223726983E-002  -5.5290061249110289E-003   6.2037556487811230E-002
   1.6482990409525979E-002  -4.9112254650398868E-003   6.3209382557921273E-002
   1.5855434201249595E-002  -4.7448491017622468E-003   6.2891417349095799E-002
   1.5227877992973194E-002  -4.5619785017455075E-003   6.2793217121711556E-002
   1.4600321784696805E-002  -4.3626136649900522E-003   6.2914781875768599E-002
   1.3972765576420416E-002  -4.1467545914952719E-003   6.3256111611266957E-002
   1.0968001976270746E-002  -3.2741503117379722E-003   6.4272046270183625E-002
   1.0556684229118020E-002  -3.1632327389181786E-003   6.3984957960694977E-002
   1.0145366481965299E-002  -3.0413190057017453E-003   6.3910581592012530E-002
   9.7340487348125844E-003  -2.9084091120889881E-003   6.4048917164136160E-002
   9.3227309876598649E-003  -2.7645030580795704E-003   6.4399964677065838E-002
   5.4736717641022557E-003  -1.6370751584360438E-003   6.5282000230159204E-002
   5.2715394374380333E-003  -1.5816163760740201E-003   6.5020290743665124E-002
   5.0694071107738083E-003  -1.5206595096580386E-003   6.4964240157341910E-002
   4.8672747841095867E-003  -1.4542045591879518E-003   6.5113848471189700E-002
   4.6651424574453617E-003  -1.3822515246637301E-003   6.5469115685208315E-002
  -2.2697946300276328E-010  -5.1341153550765739E-012   6.6239244437848399E-002
  -1.7379037445253154E-010  -1.3229861650643215E-011   6.5997415698006295E-002
  -1.2060128243285284E-010  -1.3614082083890366E-011   6.5954192817699819E-002
  -6.7412191280535882E-011  -6.2869084938022013E-012   6.6109575796929193E-002
  -1.4223101862942400E-011   8.7518881031201090E-012   6.6463564635694139E-002
   1.8615246223726983E-002  -5.5290061249110289E-003   6.2037556487811230E-002
   1.7828335055018046E-002  -5.2328564582602433E-003   6.1841924301971440E-002
   1.7041423886309151E-002  -4.9420239573494812E-003   6.1826859802791123E-002
   1.6254512717600214E-002  -4.6565086221787670E-003   6.1992362990270070E-002
   1.5467601548891305E-002  -4.3763104527483887E-003   6.2338433864408682E-002
   1.3972765576420416E-002  -4.1467545914952719E-003   6.3256111611266957E-002
   1.3370462129312873E-002  -3.9246423380810136E-003   6.3052312997594923E-002
   1.2768158682205339E-002  -3.7065179615663746E-003   6.3037162140466632E-002
   1.2165855235097786E-002  -3.4923814619513757E-003   6.3210659039881323E-002
   1.1563551787990262E-002  -3.2822328392363431E-003   6.3572803695839619E-002
   9.3227309876598649E-003  -2.7645030580795704E-003   6.4399964677065838E-002
   8.9131153320375495E-003  -2.6164282179016035E-003   6.4189328924402433E-002
   8.5034996764152514E-003  -2.4710119657831084E-003   6.4175420998166088E-002
   8.0938840207929498E-003  -2.3282543017239862E-003   6.4358240898356900E-002
   7.6842683651706413E-003  -2.1881552257243808E-003   6.4737788624974993E-002
   4.6651424574453617E-003  -1.3822515246637301E-003   6.5469115685208315E-002
   4.4562946631921275E-003  -1.3082140977222004E-003   6.5252972082393501E-002
   4.2474468689389002E-003  -1.2355059699998942E-003   6.5241636375889742E-002
   4.0385990746856591E-003  -1.1641271414965957E-003   6.5435108565696981E-002
   3.8297512804324379E-003  -1.0940776122124879E-003   6.5833388651815275E-002
  -1.4223101862942400E-011   8.7518881031201090E-012   6.6463564635694139E-002
   1.2277658750781129E-010   2.2457036230605354E-011   6.6243242471568320E-002
   2.5977626647022412E-010   2.5783236656806707E-011   6.6235808273637398E-002
   3.9677595237153085E-010   1.8730954287615731E-011   6.6441262041901261E-002
   5.3377563480339063E-010   1.2996270726262082E-012   6.6859603776360021E-002
   1.5467601548891305E-002  -4.3763104527483887E-003   6.2338433864408682E-002
   1.4499539074425347E-002  -4.0870176573546413E-003   6.2106034347838568E-002
   1.3531476599959381E-002  -3.7742184442947496E-003   6.2108808985714775E-002
   1.2563414125493385E-002  -3.4379128135690988E-003   6.2346757778037651E-002
   1.1595351651027430E-002  -3.0781007651770054E-003   6.2819880724806820E-002
   1.1563551787990262E-002  -3.2822328392363431E-003   6.3572803695839619E-002
   1.0832373855234653E-002  -3.0652632600799146E-003   6.3387449008338898E-002
   1.0101195922479045E-002  -2.8306638911411997E-003   6.3440689249812388E-002
   9.3700179897234261E-003  -2.5784347324201498E-003   6.3732524420260284E-002
   8.6388400569678281E-003  -2.3085757839168553E-003   6.4262954519681892E-002
   7.6842683651706413E-003  -2.1881552257243808E-003   6.4737788624974993E-002
   7.1933957486530857E-003  -2.0435088628053544E-003   6.4593602138659972E-002
   6.7025231321355145E-003  -1.8871093379874901E-003   6.4691431355846957E-002
   6.2116505156179494E-003  -1.7189566512713136E-003   6.5031276276535738E-002
   5.7207778991004016E-003  -1.5390508026565941E-003   6.5613136900726621E-002
   3.8297512804324379E-003  -1.0940776122124879E-003   6.5833388651815275E-002
   3.5826047546806085E-003  -1.0217544655305999E-003   6.5724493738802070E-002
   3.3354582289287856E-003  -9.4355478483374930E-004   6.5861035303818455E-002
   3.0883117031769575E-003  -8.5947857012247646E-004   6.6243013346864749E-002
   2.8411651774251333E-003  -7.6952582139638848E-004   6.6870427867940105E-002
   5.3377563480339063E-010   1.2996270726262082E-012   6.6859603776360021E-002
   8.7331724490935514E-010  -6.8256067464744774E-011   6.6780123808764968E-002
   1.2128588446069788E-009  -2.3168003626672373E-010   6.6949501093727271E-002
   1.5524004529782198E-009  -4.8897345200638043E-010   6.7367735631246789E-002
   1.8919420613494609E-009  -8.4013618284473068E-010   6.8034827421323607E-002
  -2.5856834034998499E-013   0.0000000000000000        2.8441467559221209E-002
  -7.8595116526081199E-014  -1.7027698695493143E-013   3.3402436180052952E-002
   1.0137680625521561E-013  -3.0264332706586572E-013   3.8370258541178995E-002
   2.8134981323868491E-013  -3.9709728560932689E-013   4.3344934642599330E-002
   4.6132282022215421E-013  -4.5365100564964678E-013   4.8326464484313970E-002
  -6.7996240434324874E-003   0.0000000000000000        2.8505466560320804E-002
  -6.8320854330768330E-003   1.4654788285497523E-004   3.3539764498845832E-002
  -6.8645468227211759E-003   3.3019552664305916E-004   3.8502285917427923E-002
  -6.8970082123655223E-003   5.5094293136424746E-004   4.3393030816067088E-002
  -6.9294696020098653E-003   8.0879009701855138E-004   4.8211999194763308E-002
  -1.3505153519280019E-002   0.0000000000000000        2.8697463563998053E-002
  -1.3648706558985911E-002   2.9309576588022745E-004   3.3842190581111556E-002
  -1.3792259598691802E-002   6.6039105358876166E-004   3.8836510818044907E-002
  -1.3935812638397691E-002   1.1018858631256035E-003   4.3680424274798089E-002
  -1.4079365678103585E-002   1.6175801944907503E-003   4.8373930951371116E-002
  -2.0116588427801157E-002   0.0000000000000000        2.9017458570252952E-002
  -2.0449863377805827E-002   4.3964364890547924E-004   3.4309714426850144E-002
  -2.0783138327810494E-002   9.9058658053446415E-004   3.9372933243029935E-002
  -2.1116413277815160E-002   1.6528287948869556E-003   4.4207115018792341E-002
  -2.1449688227819834E-002   2.4263702919629510E-003   4.8812259754137353E-002
  -2.6633928768995910E-002   0.0000000000000000        2.9465451579085505E-002
  -2.7235555889536585E-002   5.8619153193073103E-004   3.4942336036061575E-002
  -2.7837183010077260E-002   1.3207821074801666E-003   4.0111553192383020E-002
  -2.8438810130617938E-002   2.2037717266483077E-003   4.4973103048049842E-002
  -2.9040437251158610E-002   3.2351603894351516E-003   4.9526985603062047E-002
   4.6132282022215421E-013  -4.5365100564964678E-013   4.8326464484313970E-002
   4.8528542295755983E-013  -6.2048283178128827E-013   5.1493757785808600E-002
   5.0924845937383445E-013  -1.0457624349813344E-012   5.4526385667421726E-002
   5.3321084526880558E-013  -1.7295162697827937E-012   5.7424348129153313E-002
   5.5717409852551469E-013  -2.6717447698665353E-012   6.0187645171003369E-002
  -6.9294696020098653E-003   8.0879009701855138E-004   4.8211999194763308E-002
  -7.0350747828694920E-003   1.0636613663313576E-003   5.1166400484696076E-002
  -7.1406799637291178E-003   1.2754810820280829E-003   5.4044256832743207E-002
  -7.2462851445887462E-003   1.4442492441087266E-003   5.6845568238904701E-002
  -7.3518903254483695E-003   1.5699658525732685E-003   5.9570334703180496E-002
  -1.4079365678103585E-002   1.6175801944907503E-003   4.8373930951371116E-002
  -1.4232455561850925E-002   2.1273227332831955E-003   5.1072388676384396E-002
  -1.4385545445598268E-002   2.5509621651019420E-003   5.3752421937507906E-002
  -1.4538635329345609E-002   2.8884984899469803E-003   5.6414030734741633E-002
  -1.4691725213092950E-002   3.1399317078182921E-003   5.9057215068085596E-002
  -2.1449688227819834E-002   2.4263702919629510E-003   4.8812259754137353E-002
  -2.1592142336459015E-002   3.1909841002350382E-003   5.1211722360873541E-002
  -2.1734596445098200E-002   3.8264432481757943E-003   5.3650880981715797E-002
  -2.1877050553737377E-002   4.3327477357852180E-003   5.6129735616664164E-002
  -2.2019504662376559E-002   4.7098975630633106E-003   5.8648286265718622E-002
  -2.9040437251158610E-002   3.2351603894351516E-003   4.9526985603062047E-002
  -2.9114135106693768E-002   4.2546454671868730E-003   5.1584401538163488E-002
  -2.9187832962228911E-002   5.1019243312496430E-003   5.3739633965366893E-002
  -2.9261530817764062E-002   5.7769969816234756E-003   5.5992682884672268E-002
  -2.9335228673299209E-002   6.2798634183083291E-003   5.8343548296079614E-002
   5.5717409852551469E-013  -2.6717447698665353E-012   6.0187645171003369E-002
   3.3696543819128344E-012  -3.5244515639298868E-012   6.1078870957228415E-002
   6.1821337979384161E-012  -3.9396732404162194E-012   6.2105844634956414E-002
   8.9946153823683428E-012  -3.9173226294708652E-012   6.3268566204187304E-002
   1.1807093497351318E-011  -3.4575398100145094E-012   6.4567035664921113E-002
  -7.3518903254483695E-003   1.5699658525732685E-003   5.9570334703180496E-002
  -7.2281652020048824E-003   1.6663789668991021E-003   6.0453815439782663E-002
  -7.1044400785613988E-003   1.7472366465636283E-003   6.1448998526143911E-002
  -6.9807149551179160E-003   1.8125388915667864E-003   6.2555883962264275E-002
  -6.8569898316744246E-003   1.8622857019086059E-003   6.3774471748143713E-002
  -1.4691725213092950E-002   3.1399317078182921E-003   5.9057215068085596E-002
  -1.4468320510762304E-002   3.3327579373226730E-003   5.9917395319966031E-002
  -1.4244915808431650E-002   3.4944732970668734E-003   6.0865232379861765E-002
  -1.4021511106101000E-002   3.6250777870509227E-003   6.1900726247772722E-002
  -1.3798106403770350E-002   3.7245714072747932E-003   6.3023876923698929E-002
  -2.2019504662376559E-002   4.7098975630633106E-003   5.8648286265718622E-002
  -2.1720465922902579E-002   4.9991369077462353E-003   5.9469610597778541E-002
  -2.1421427183428605E-002   5.2417099475701740E-003   6.0354546196109859E-002
  -2.1122388443954625E-002   5.4376166825350321E-003   6.1303093060712611E-002
  -2.0823349704480645E-002   5.5868571126409319E-003   6.2315251191586714E-002
  -2.9335228673299209E-002   6.2798634183083291E-003   5.8343548296079614E-002
  -2.8984601438425753E-002   6.6655158781697976E-003   5.9110461273220158E-002
  -2.8633974203552279E-002   6.9889465980733922E-003   5.9916939974888256E-002
  -2.8283346968678812E-002   7.2501555780191962E-003   6.0762984401083922E-002
  -2.7932719733805352E-002   7.4491428180071262E-003   6.1648594551807157E-002
   1.1807093497351318E-011  -3.4575398100145094E-012   6.4567035664921113E-002
   6.0340690777316297E-012  -2.2116267150984470E-012   6.4757947214090172E-002
   2.6104118866498993E-013   1.6888573872719803E-013   6.5073071944164854E-002
  -5.5119832309546979E-012   3.6842248002377787E-012   6.5512409855145143E-002
  -1.1285011120021338E-011   8.3342777124073564E-012   6.6075960947031026E-002
  -6.8569898316744246E-003   1.8622857019086059E-003   6.3774471748143713E-002
  -6.7193786592335278E-003   1.8926421199715951E-003   6.3883041891625858E-002
  -6.5817674867926284E-003   1.8997731881381791E-003   6.4142621210630191E-002
  -6.4441563143517247E-003   1.8836789064084515E-003   6.4553209705156822E-002
  -6.3065451419108253E-003   1.8443592747821869E-003   6.5114807375205710E-002
  -1.3798106403770350E-002   3.7245714072747932E-003   6.3023876923698929E-002
  -1.3496088058498895E-002   3.7852842421548204E-003   6.3026880310463065E-002
  -1.3194069713227440E-002   3.7995463761073649E-003   6.3207688867366038E-002
  -1.2892051367955985E-002   3.7673578091325126E-003   6.3566302594407917E-002
  -1.2590033022684528E-002   3.6887185412301793E-003   6.4102721491588605E-002
  -2.0823349704480645E-002   5.5868571126409319E-003   6.2315251191586714E-002
  -2.0330128191762022E-002   5.6779263643380578E-003   6.2189462470601781E-002
  -1.9836906679043396E-002   5.6993195640765767E-003   6.2268274914372326E-002
  -1.9343685166324769E-002   5.6510367118566846E-003   6.2551688522898302E-002
  -1.8850463653606146E-002   5.5330778076781578E-003   6.3039703296179861E-002
  -2.7932719733805352E-002   7.4491428180071262E-003   6.1648594551807157E-002
  -2.7221499059022929E-002   7.5705684865212952E-003   6.1370788372042046E-002
  -2.6510278384240495E-002   7.5990927520457885E-003   6.1324379351649055E-002
  -2.5799057709458069E-002   7.5347156145807725E-003   6.1509367490628131E-002
  -2.5087837034675636E-002   7.3774370741260809E-003   6.1925752788979410E-002
  -1.1285011120021338E-011   8.3342777124073564E-012   6.6075960947031026E-002
  -6.5208623223345086E-011   1.1405557054366966E-011   6.5796257741605302E-002
  -1.1913223706139231E-010   1.0184617038611066E-011   6.5730237254932988E-002
  -1.7305585089943953E-010   4.6712460288755864E-012   6.5877899487014030E-002
  -2.2697946300276328E-010  -5.1341153550765739E-012   6.6239244437848399E-002
  -6.3065451419108253E-003   1.8443592747821869E-003   6.5114807375205710E-002
  -6.0983269114343137E-003   1.7932047864773065E-003   6.4852474801402091E-002
  -5.8901086809578064E-003   1.7416059347110657E-003   6.4792896077645351E-002
  -5.6818904504812983E-003   1.6895627194837004E-003   6.4936071203935519E-002
  -5.4736722200047806E-003   1.6370751407951689E-003   6.5282000180272526E-002
  -1.2590033022684528E-002   3.6887185412301793E-003   6.4102721491588605E-002
  -1.2184525376514415E-002   3.5864095615490213E-003   6.3857315190238184E-002
  -1.1779017730344295E-002   3.4832118592377156E-003   6.3803733870228169E-002
  -1.1373510084174176E-002   3.3791254342961843E-003   6.3941977531558419E-002
  -1.0968002438004065E-002   3.2741502867245642E-003   6.4272046174229103E-002
  -1.8850463653606146E-002   5.5330778076781578E-003   6.3039703296179861E-002
  -1.8258595460448928E-002   5.3796143366207951E-003   6.2810778908113651E-002
  -1.7666727267291717E-002   5.2248177837644037E-003   6.2762750632681247E-002
  -1.7074859074134498E-002   5.0686881491086811E-003   6.2895618469882703E-002
  -1.6482990880977280E-002   4.9112254326539317E-003   6.3209382419717991E-002
  -2.5087837034675636E-002   7.3774370741260809E-003   6.1925752788979410E-002
  -2.4320537163237836E-002   7.1728191116924855E-003   6.1712865955028395E-002
  -2.3553237291800054E-002   6.9664237082908975E-003   6.1669946365004696E-002
  -2.2785937420362262E-002   6.7582508639210184E-003   6.1796994018908424E-002
  -2.2018637548924466E-002   6.5483005785832438E-003   6.2094008916739274E-002
  -2.2697946300276328E-010  -5.1341153550765739E-012   6.6239244437848399E-002
  -1.7379037445253154E-010  -1.3229861650643215E-011   6.5997415698006295E-002
  -1.2060128243285284E-010  -1.3614082083890366E-011   6.5954192817699819E-002
  -6.7412191280535882E-011  -6.2869084938022013E-012   6.6109575796929193E-002
  -1.4223101862942400E-011   8.7518881031201090E-012   6.6463564635694139E-002
  -5.4736722200047806E-003   1.6370751407951689E-003   6.5282000180272526E-002
  -5.2715397869037657E-003   1.5816163455914245E-003   6.5020290704903783E-002
  -5.0694073538027472E-003   1.5206594808185522E-003   6.4964240129823131E-002
  -4.8672749207017228E-003   1.4542045464762034E-003   6.5113848455030654E-002
  -4.6651424876007069E-003   1.3822515425646609E-003   6.5469115680526269E-002
  -1.0968002438004065E-002   3.2741502867245642E-003   6.4272046174229103E-002
  -1.0556684584238692E-002   3.1632327044128772E-003   6.3984957886052934E-002
  -1.0145366730473339E-002   3.0413189752511310E-003   6.3910581538917335E-002
  -9.7340488767079826E-003   2.9084090992393154E-003   6.4048917132822292E-002
  -9.3227310229426121E-003   2.7645030763776557E-003   6.4399964667767762E-002
  -1.6482990880977280E-002   4.9112254326539317E-003   6.3209382419717991E-002
  -1.5855434565795176E-002   4.7448490632341911E-003   6.2891417241453709E-002
  -1.5227878250613074E-002   4.5619784696836266E-003   6.2793217044982433E-002
  -1.4600321935430966E-002   4.3626136520025106E-003   6.2914781830304092E-002
  -1.3972765620248857E-002   4.1467546101905395E-003   6.3256111597418702E-002
  -2.2018637548924466E-002   6.5483005785832438E-003   6.2094008916739274E-002
  -2.1167789731573194E-002   6.3264654220556160E-003   6.1739668771106232E-002
  -2.0316941914221939E-002   6.0826379641163719E-003   6.1612146648018423E-002
  -1.9466094096870671E-002   5.8168182047654907E-003   6.1711442547475986E-002
  -1.8615246279519410E-002   5.5290061440033678E-003   6.2037556469479005E-002
  -1.4223101862942400E-011   8.7518881031201090E-012   6.6463564635694139E-002
   1.2277658750781129E-010   2.2457036230605354E-011   6.6243242471568320E-002
   2.5977626647022412E-010   2.5783236656806707E-011   6.6235808273637398E-002
   3.9677595237153085E-010   1.8730954287615731E-011   6.6441262041901261E-002
   5.3377563480339063E-010   1.2996270726262082E-012   6.6859603776360021E-002
  -4.6651424876007069E-003   1.3822515425646609E-003   6.5469115680526269E-002
  -4.4562944183416490E-003   1.3082141450512230E-003   6.5252972056493941E-002
  -4.2474463490825790E-003   1.2355060299028831E-003   6.5241636330785363E-002
  -4.0385982798235168E-003   1.1641271971194814E-003   6.5435108503400813E-002
  -3.8297502105644511E-003   1.0940776467012192E-003   6.5833388574340179E-002
  -9.3227310229426121E-003   2.7645030763776557E-003   6.4399964667767762E-002
  -8.9131150892951035E-003   2.6164282676454098E-003   6.4189328876572721E-002
  -8.5034991556475811E-003   2.4710120340222103E-003   6.4175420915830506E-002
  -8.0938832220000586E-003   2.3282543755080674E-003   6.4358240785541393E-002
  -7.6842672883525500E-003   2.1881552921028113E-003   6.4737788485705272E-002
  -1.3972765620248857E-002   4.1467546101905395E-003   6.3256111597418702E-002
  -1.3370461890083798E-002   3.9246423902397076E-003   6.3052312931804716E-002
  -1.2768158159918752E-002   3.7065180381416415E-003   6.3037162028772867E-002
  -1.2165854429753686E-002   3.4923815538966240E-003   6.3210658888323085E-002
  -1.1563550699588638E-002   3.2822329375045145E-003   6.3572803510455272E-002
  -1.8615246279519410E-002   5.5290061440033678E-003   6.2037556469479005E-002
  -1.7828334820707739E-002   5.2328565128338111E-003   6.1841924222190037E-002
  -1.7041423361896065E-002   4.9420240422610451E-003   6.1826859669612377E-002
  -1.6254511903084391E-002   4.6565087322851459E-003   6.1992362811745888E-002
  -1.5467600444272721E-002   4.3763105829060511E-003   6.2338433648590541E-002
   5.3377563480339063E-010   1.2996270726262082E-012   6.6859603776360021E-002
   8.7331724490935514E-010  -6.8256067464744774E-011   6.6780123808764968E-002
   1.2128588446069788E-009  -2.3168003626672373E-010   6.6949501093727271E-002
   1.5524004529782198E-009  -4.8897345200638043E-010   6.7367735631246789E-002
   1.8919420613494609E-009  -8.4013618284473068E-010   6.8034827421323607E-002
  -3.8297502105644511E-003   1.0940776467012192E-003   6.5833388574340179E-002
  -3.5826030109027598E-003   1.0217543921582084E-003   6.5724493488618002E-002
  -3.3354558112410563E-003   9.4355444700089386E-004   6.5861034870578983E-002
  -3.0883086115793589E-003   8.5947781122874822E-004   6.6243012720222705E-002
  -2.8411614119176615E-003   7.6952448484224334E-004   6.6870427037549751E-002
  -7.6842672883525500E-003   2.1881552921028113E-003   6.4737788485705272E-002
  -7.1933940134451188E-003   2.0435088525720957E-003   6.4593601685110802E-002
  -6.7025207385377024E-003   1.8871091256816713E-003   6.4691430567324876E-002
  -6.2116474636302686E-003   1.7189561114311740E-003   6.5031275132347327E-002
  -5.7207741887228686E-003   1.5390498098206695E-003   6.5613135380178600E-002
  -1.1563550699588638E-002   3.2822329375045145E-003   6.3572803510455272E-002
  -1.0832372134309851E-002   3.0652633129861218E-003   6.3387448398243021E-002
  -1.0101193569031068E-002   2.8306638043624696E-003   6.3440688183965060E-002
  -9.3700150037523047E-003   2.5784344116335980E-003   6.3732522867620822E-002
  -8.6388364384735010E-003   2.3085751347990402E-003   6.4262952449211555E-002
  -1.5467600444272721E-002   4.3763105829060511E-003   6.2338433648590541E-002
  -1.4499537373496962E-002   4.0870177734001478E-003   6.2106033628014923E-002
  -1.3531474302721200E-002   3.7742184830433928E-003   6.2108807720499343E-002
  -1.2563411231945413E-002   3.4379127118359699E-003   6.2346755926043232E-002
  -1.1595348161169680E-002   3.0781004597775219E-003   6.2819878244647187E-002
  -2.6633928768995910E-002   0.0000000000000000        2.9465451579085505E-002
  -2.7235555889536585E-002   5.8619153193073103E-004   3.4942336036061575E-002
  -2.7837183010077260E-002   1.3207821074801666E-003   4.0111553192383020E-002
  -2.8438810130617938E-002   2.2037717266483077E-003   4.4973103048049842E-002
  -2.9040437251158610E-002   3.2351603894351516E-003   4.9526985603062047E-002
  -3.3394092015154475E-002   0.0000000000000000        3.0176121595598064E-002
  -3.4238264884906652E-002   9.6108343717172130E-004   3.5264322162840568E-002
  -3.5082437754658830E-002   2.0256377028794051E-003   4.0175098532314692E-002
  -3.5926610624410993E-002   3.1936627971230463E-003   4.4908450704020449E-002
  -3.6770783494163170E-002   4.4651587199026448E-003   4.9464378677957832E-002
  -4.0733995638567069E-002   0.0000000000000000        3.1284147624892990E-002
  -4.1690471154644491E-002   1.3359753424127120E-003   3.5938736087319179E-002
  -4.2646946670721914E-002   2.7304932982786401E-003   4.0546143454863237E-002
  -4.3603422186799343E-002   4.1835538675977831E-003   4.5106369727525179E-002
  -4.4559897702876758E-002   5.6951570503701379E-003   4.9619414905304998E-002
  -4.8653639639233685E-002   0.0000000000000000        3.2789529666970275E-002
  -4.9592174698750109E-002   1.7108672476537033E-003   3.6965577809497399E-002
  -5.0530709758266533E-002   3.4353488936778752E-003   4.1224687960028664E-002
  -5.1469244817782950E-002   5.1734449380725226E-003   4.5566860118564041E-002
  -5.2407779877299374E-002   6.9251553808376311E-003   4.9992094285103546E-002
  -5.7153024017154330E-002   0.0000000000000000        3.4692267721829928E-002
  -5.7943375517223505E-002   2.0857591528946930E-003   3.8344847329375251E-002
  -5.8733727017292674E-002   4.1402044890771136E-003   4.2210732047810950E-002
  -5.9524078517361849E-002   6.1633360085472603E-003   4.6289921877137021E-002
  -6.0314430017431024E-002   8.1551537113051242E-003   5.0582416817353475E-002
  -2.9040437251158610E-002   3.2351603894351516E-003   4.9526985603062047E-002
  -2.9114135106693768E-002   4.2546454671868730E-003   5.1584401538163488E-002
  -2.9187832962228911E-002   5.1019243312496430E-003   5.3739633965366893E-002
  -2.9261530817764062E-002   5.7769969816234756E-003   5.5992682884672268E-002
  -2.9335228673299209E-002   6.2798634183083291E-003   5.8343548296079614E-002
  -3.6770783494163170E-002   4.4651587199026448E-003   4.9464378677957832E-002
  -3.6785403965528658E-002   5.6997222378929206E-003   5.1249516613516163E-002
  -3.6800024436894126E-002   6.7569501177686163E-003   5.3054992825311877E-002
  -3.6814644908259600E-002   7.6368423595296895E-003   5.4880807313344965E-002
  -3.6829265379625088E-002   8.3393989631761617E-003   5.6726960077615435E-002
  -4.4559897702876758E-002   5.6951570503701379E-003   4.9619414905304998E-002
  -4.4592919005937162E-002   7.1447990085989690E-003   5.1127145416894594E-002
  -4.4625940308997560E-002   8.4119759042875619E-003   5.2577735988856934E-002
  -4.4658961612057957E-002   9.4966877374359042E-003   5.3971186621192102E-002
  -4.4691982915118347E-002   1.0398934508043994E-002   5.5307497313900000E-002
  -5.2407779877299374E-002   6.9251553808376311E-003   4.9992094285103546E-002
  -5.2536680227919283E-002   8.5898757793050305E-003   5.1217287948298724E-002
  -5.2665580578539199E-002   1.0067001690806522E-002   5.2307863456002093E-002
  -5.2794480929159116E-002   1.1356533115342132E-002   5.3263820808213659E-002
  -5.2923381279779025E-002   1.2458470052911813E-002   5.4085160004933387E-002
  -6.0314430017431024E-002   8.1551537113051242E-003   5.0582416817353475E-002
  -6.0616687631475041E-002   1.0034952550011066E-002   5.1519944207728603E-002
  -6.0918945245519072E-002   1.1722027477325474E-002   5.2245375226747340E-002
  -6.1221202859563083E-002   1.3216378493248334E-002   5.2758709874409650E-002
  -6.1523460473607114E-002   1.4518005597779660E-002   5.3059948150715588E-002
  -2.9335228673299209E-002   6.2798634183083291E-003   5.8343548296079614E-002
  -2.8984601438425753E-002   6.6655158781697976E-003   5.9110461273220158E-002
  -2.8633974203552279E-002   6.9889465980733922E-003   5.9916939974888256E-002
  -2.8283346968678812E-002   7.2501555780191962E-003   6.0762984401083922E-002
  -2.7932719733805352E-002   7.4491428180071262E-003   6.1648594551807157E-002
  -3.6829265379625088E-002   8.3393989631761617E-003   5.6726960077615435E-002
  -3.6388415502173192E-002   8.8806609091788904E-003   5.7072111435074020E-002
  -3.5947565624721289E-002   9.2766691780086508E-003   5.7558142353161923E-002
  -3.5506715747269393E-002   9.5274237696654843E-003   5.8185052831879115E-002
  -3.5065865869817497E-002   9.6329246841494187E-003   5.8952842871225555E-002
  -4.4691982915118347E-002   1.0398934508043994E-002   5.5307497313900000E-002
  -4.4059596558986301E-002   1.1095805940187956E-002   5.5147855114461589E-002
  -4.3427210202854262E-002   1.1564391757943895E-002   5.5230406311754215E-002
  -4.2794823846722230E-002   1.1804691961311800E-002   5.5555150905777811E-002
  -4.2162437490590184E-002   1.1816706550291767E-002   5.6122088896532418E-002
  -5.2923381279779025E-002   1.2458470052911813E-002   5.4085160004933387E-002
  -5.1998144608865114E-002   1.3310950971197034E-002   5.3337692311382877E-002
  -5.1072907937951204E-002   1.3852114337879161E-002   5.2933731850665106E-002
  -5.0147671267037286E-002   1.4081960152958158E-002   5.2873278622780073E-002
  -4.9222434596123389E-002   1.4000488416434073E-002   5.3156332627727759E-002
  -6.1523460473607114E-002   1.4518005597779660E-002   5.3059948150715588E-002
  -6.0204059651809610E-002   1.5526096002206120E-002   5.1641623025837878E-002
  -5.8884658830012100E-002   1.6139836917814392E-002   5.0668118969894649E-002
  -5.7565258008214590E-002   1.6359228344604425E-002   5.0139435982885831E-002
  -5.6245857186417100E-002   1.6184270282576435E-002   5.0055574064811509E-002
  -2.7932719733805352E-002   7.4491428180071262E-003   6.1648594551807157E-002
  -2.7221499059022929E-002   7.5705684865212952E-003   6.1370788372042046E-002
  -2.6510278384240495E-002   7.5990927520457885E-003   6.1324379351649055E-002
  -2.5799057709458069E-002   7.5347156145807725E-003   6.1509367490628131E-002
  -2.5087837034675636E-002   7.3774370741260809E-003   6.1925752788979410E-002
  -3.5065865869817497E-002   9.6329246841494187E-003   5.8952842871225555E-002
  -3.4130715006768550E-002   9.6330901419477630E-003   5.8624984916000399E-002
  -3.3195564143719596E-002   9.5678383635478537E-003   5.8513590177936184E-002
  -3.2260413280670655E-002   9.4371693489497463E-003   5.8618658657032870E-002
  -3.1325262417621680E-002   9.2410830981534131E-003   5.8940190353290567E-002
  -4.2162437490590184E-002   1.1816706550291767E-002   5.6122088896532418E-002
  -4.1018290381485883E-002   1.1695611797374258E-002   5.5771663332638638E-002
  -3.9874143272381583E-002   1.1536583975049891E-002   5.5622767043694607E-002
  -3.8729996163277304E-002   1.1339623083318748E-002   5.5675400029700353E-002
  -3.7585849054173018E-002   1.1104729122180773E-002   5.5929562290655821E-002
  -4.9222434596123389E-002   1.4000488416434073E-002   5.3156332627727759E-002
  -4.7884225183174915E-002   1.3758133452800726E-002   5.2810823621956743E-002
  -4.6546015770226448E-002   1.3505329586551915E-002   5.2651909948924221E-002
  -4.5207806357278009E-002   1.3242076817687763E-002   5.2679591608630394E-002
  -4.3869596944329507E-002   1.2968375146208133E-002   5.2893868601075054E-002
  -5.6245857186417100E-002   1.6184270282576435E-002   5.0055574064811509E-002
  -5.4728519411835652E-002   1.5820655108227229E-002   4.9742465783954692E-002
  -5.3211181637254190E-002   1.5474075198053973E-002   4.9601018893625184E-002
  -5.1693843862672756E-002   1.5144530552056718E-002   4.9631233393823089E-002
  -5.0176506088091280E-002   1.4832021170235465E-002   4.9833109284548427E-002
  -2.5087837034675636E-002   7.3774370741260809E-003   6.1925752788979410E-002
  -2.4320537163237836E-002   7.1728191116924855E-003   6.1712865955028395E-002
  -2.3553237291800054E-002   6.9664237082908975E-003   6.1669946365004696E-002
  -2.2785937420362262E-002   6.7582508639210184E-003   6.1796994018908424E-002
  -2.2018637548924466E-002   6.5483005785832438E-003   6.2094008916739274E-002
  -3.1325262417621680E-002   9.2410830981534131E-003   5.8940190353290567E-002
  -3.0380761208697087E-002   9.0042601797384880E-003   5.8702459589290185E-002
  -2.9436259999772479E-002   8.7513811622843204E-003   5.8649164256336164E-002
  -2.8491758790847893E-002   8.4824460457910891E-003   5.8780304354428492E-002
  -2.7547257581923282E-002   8.1974548302588268E-003   5.9095879883566987E-002
  -3.7585849054173018E-002   1.1104729122180773E-002   5.5929562290655821E-002
  -3.6449678320642609E-002   1.0835701247784324E-002   5.5652708938535127E-002
  -3.5313507587112200E-002   1.0536338616277827E-002   5.5574759204579757E-002
  -3.4177336853581805E-002   1.0206641227661132E-002   5.5695713088789657E-002
  -3.3041166120051396E-002   9.8466090819344654E-003   5.6015570591164882E-002
  -4.3869596944329507E-002   1.2968375146208133E-002   5.2893868601075054E-002
  -4.2527288499074355E-002   1.2667142315830229E-002   5.2563614002763048E-002
  -4.1184980053819160E-002   1.2321296070271236E-002   5.2446731209735337E-002
  -3.9842671608564001E-002   1.1930836409531244E-002   5.2543220221991947E-002
  -3.8500363163308821E-002   1.1495763333610076E-002   5.2853081039532700E-002
  -5.0176506088091280E-002   1.4832021170235465E-002   4.9833109284548427E-002
  -4.8613591743992379E-002   1.4498583383876162E-002   4.9435174781974095E-002
  -4.7050677399893430E-002   1.4106253524264784E-002   4.9265080271803041E-002
  -4.5487763055794481E-002   1.3655031591401197E-002   4.9322825754035252E-002
  -4.3924848711695566E-002   1.3144917585285687E-002   4.9608411228670601E-002
  -2.2018637548924466E-002   6.5483005785832438E-003   6.2094008916739274E-002
  -2.1167789731573194E-002   6.3264654220556160E-003   6.1739668771106232E-002
  -2.0316941914221939E-002   6.0826379641163719E-003   6.1612146648018423E-002
  -1.9466094096870671E-002   5.8168182047654907E-003   6.1711442547475986E-002
  -1.8615246279519410E-002   5.5290061440033678E-003   6.2037556469479005E-002
  -2.7547257581923282E-002   8.1974548302588268E-003   5.9095879883566987E-002
  -2.6475998192429386E-002   7.8986472643490790E-003   5.8753060330838131E-002
  -2.5404738802935513E-002   7.5882630967234119E-003   5.8624245899849048E-002
  -2.4333479413441630E-002   7.2663023273816432E-003   5.8709436590599989E-002
  -2.3262220023947771E-002   6.9327649563240556E-003   5.9008632403090538E-002
  -3.3041166120051396E-002   9.8466090819344654E-003   5.6015570591164882E-002
  -3.1762308059220382E-002   9.4708291066425421E-003   5.5694687331035726E-002
  -3.0483449998389384E-002   9.0938882293302298E-003   5.5574996291840997E-002
  -2.9204591937558394E-002   8.7157864499976846E-003   5.5656497473580556E-002
  -2.7925733876727400E-002   8.3365237686446603E-003   5.5939190876254652E-002
  -3.8500363163308821E-002   1.1495763333610076E-002   5.2853081039532700E-002
  -3.7026719331946165E-002   1.1043010948936033E-002   5.2564549771698992E-002
  -3.5553075500583550E-002   1.0599513361937242E-002   5.2464397823994119E-002
  -3.4079431669220929E-002   1.0165270572613809E-002   5.2552625196418137E-002
  -3.2605787837858287E-002   9.7402825809653620E-003   5.2829231888971089E-002
  -4.3924848711695566E-002   1.3144917585285687E-002   4.9608411228670601E-002
  -4.2269232010606783E-002   1.2615192791229524E-002   4.9362647652827885E-002
  -4.0613615309518007E-002   1.2105138494544143E-002   4.9292450496308593E-002
  -3.8957998608429259E-002   1.1614754695229837E-002   4.9397819759112602E-002
  -3.7302381907340476E-002   1.1144041393285953E-002   4.9678755441240008E-002
  -1.8615246279519410E-002   5.5290061440033678E-003   6.2037556469479005E-002
  -1.7828334820707739E-002   5.2328565128338111E-003   6.1841924222190037E-002
  -1.7041423361896065E-002   4.9420240422610451E-003   6.1826859669612377E-002
  -1.6254511903084391E-002   4.6565087322851459E-003   6.1992362811745888E-002
  -1.5467600444272721E-002   4.3763105829060511E-003   6.2338433648590541E-002
  -2.3262220023947771E-002   6.9327649563240556E-003   5.9008632403090538E-002
  -2.2292810963053959E-002   6.5909220371889177E-003   5.8798531287900330E-002
  -2.1323401902160151E-002   6.2440446236149416E-003   5.8772857682163213E-002
  -2.0353992841266346E-002   5.8921327156018222E-003   5.8931611585879250E-002
  -1.9384583780372545E-002   5.5351863131498646E-003   5.9274792999048365E-002
  -2.7925733876727400E-002   8.3365237686446603E-003   5.5939190876254652E-002
  -2.6769967399009508E-002   7.9489875615441768E-003   5.5704269238127255E-002
  -2.5614200921291595E-002   7.5460652049686855E-003   5.5657634924194774E-002
  -2.4458434443573721E-002   7.1277566989183909E-003   5.5799287934457521E-002
  -2.3302667965855818E-002   6.6940620433934284E-003   5.6129228268915268E-002
  -3.2605787837858287E-002   9.7402825809653620E-003   5.2829231888971089E-002
  -3.1259804128574313E-002   9.3070530858992764E-003   5.2559138072870548E-002
  -2.9913820419290419E-002   8.8480857863225057E-003   5.2481191395707200E-002
  -2.8567836710006480E-002   8.3633806822351244E-003   5.2595391857480772E-002
  -2.7221853000722551E-002   7.8529377736370615E-003   5.2901739458191377E-002
  -3.7302381907340476E-002   1.1144041393285953E-002   4.9678755441240008E-002
  -3.5762321151748544E-002   1.0665118610254543E-002   4.9363137792130640E-002
  -3.4222260396156612E-002   1.0150106367676298E-002   4.9243527096700213E-002
  -3.2682199640564701E-002   9.5990046655516845E-003   4.9319923354948808E-002
  -3.1142138884972762E-002   9.0118135038806946E-003   4.9592326566876288E-002
  -1.5467600444272721E-002   4.3763105829060511E-003   6.2338433648590541E-002
  -1.4499537373496962E-002   4.0870177734001478E-003   6.2106033628014923E-002
  -1.3531474302721200E-002   3.7742184830433928E-003   6.2108807720499343E-002
  -1.2563411231945413E-002   3.4379127118359699E-003   6.2346755926043232E-002
  -1.1595348161169680E-002   3.0781004597775219E-003   6.2819878244647187E-002
  -1.9384583780372545E-002   5.5351863131498646E-003   5.9274792999048365E-002
  -1.8177307852962610E-002   5.1686405623994625E-003   5.9026495531159462E-002
  -1.6970031925552673E-002   4.7879306094910784E-003   5.9021449663479220E-002
  -1.5762755998142745E-002   4.3930564544253821E-003   5.9259655396007416E-002
  -1.4555480070732832E-002   3.9840180972016137E-003   5.9741112728743939E-002
  -2.3302667965855818E-002   6.6940620433934284E-003   5.6129228268915268E-002
  -2.1848101694662947E-002   6.2502633513986106E-003   5.5874375632406090E-002
  -2.0393535423470107E-002   5.8016427359388681E-003   5.5870852083254090E-002
  -1.8938969152277212E-002   5.3482001970147370E-003   5.6118657621459400E-002
  -1.7484402881084368E-002   4.8899357346257055E-003   5.6617792247022125E-002
  -2.7221853000722551E-002   7.8529377736370615E-003   5.2901739458191377E-002
  -2.5511918898598041E-002   7.3318861403977864E-003   5.2649673931754737E-002
  -2.3801984796473524E-002   6.8153548623867168E-003   5.2657014979824251E-002
  -2.2092050694349066E-002   6.3033439396041205E-003   5.2923762602400184E-002
  -2.0382116592224494E-002   5.7958533720497973E-003   5.3449916799481551E-002
  -3.1142138884972762E-002   9.0118135038806946E-003   4.9592326566876288E-002
  -2.9168759464767810E-002   8.4135089293970178E-003   4.9352390429205528E-002
  -2.7195380044562921E-002   7.8290669888343156E-003   4.9379938353189545E-002
  -2.5222000624357945E-002   7.2584876821936081E-003   4.9674970338828228E-002
  -2.3248621204153053E-002   6.7017710094738892E-003   5.0237486386121910E-002
  -5.7153024017154330E-002   0.0000000000000000        3.4692267721829928E-002
  -5.7943375517223505E-002   2.0857591528946930E-003   3.8344847329375251E-002
  -5.8733727017292674E-002   4.1402044890771136E-003   4.2210732047810950E-002
  -5.9524078517361849E-002   6.1633360085472603E-003   4.6289921877137021E-002
  -6.0314430017431024E-002   8.1551537113051242E-003   5.0582416817353475E-002
  -6.5820454349676469E-002   0.0000000000000000        3.7215106346443691E-002
  -6.6626467050563146E-002   2.9153742457058325E-003   4.0837824259705162E-002
  -6.7432479751449823E-002   5.7729746068699156E-003   4.4215914660441231E-002
  -6.8238492452336513E-002   8.5728010834922493E-003   4.7349377548651900E-002
  -6.9044505153223204E-002   1.1314853675572847E-002   5.0238212924337174E-002
  -7.4244236214147566E-002   0.0000000000000000        4.0580790097783336E-002
  -7.5523842739267530E-002   3.7449893385169703E-003   4.4147186248931471E-002
  -7.6803449264387494E-002   7.4057447246627210E-003   4.7011022264138447E-002
  -7.8083055789507486E-002   1.0982266158437250E-002   4.9172298143404250E-002
  -7.9362662314627436E-002   1.4474553639840564E-002   5.0631013886728866E-002
  -8.2424369610567622E-002   0.0000000000000000        4.4789318975848855E-002
  -8.4635502583336658E-002   4.5746044313281081E-003   4.8272933297054191E-002
  -8.6846635556105667E-002   9.0385148424555230E-003   5.0596054858902582E-002
  -8.9057768528874676E-002   1.3391731233382250E-002   5.1758683661394043E-002
  -9.1268901501643698E-002   1.7634253604108280E-002   5.1760819704528546E-002
  -9.0360854538936664E-002   0.0000000000000000        4.9840692980640242E-002
  -9.3961446582770503E-002   5.4042195241392477E-003   5.3215065404073301E-002
  -9.7562038626604328E-002   1.0671284960248330E-002   5.4971012444733652E-002
 -0.10116263067043818        1.5801196308327242E-002   5.5108534102621294E-002
 -0.10476322271427201        2.0793953568376003E-002   5.3627630377736213E-002
  -6.0314430017431024E-002   8.1551537113051242E-003   5.0582416817353475E-002
  -6.0616687631475041E-002   1.0034952550011066E-002   5.1519944207728603E-002
  -6.0918945245519072E-002   1.1722027477325474E-002   5.2245375226747340E-002
  -6.1221202859563083E-002   1.3216378493248334E-002   5.2758709874409650E-002
  -6.1523460473607114E-002   1.4518005597779660E-002   5.3059948150715588E-002
  -6.9044505153223204E-002   1.1314853675572847E-002   5.0238212924337174E-002
  -6.9321030049241492E-002   1.3760366821473807E-002   4.9461472918877876E-002
  -6.9597554945259807E-002   1.5670574959557253E-002   4.8948294720826423E-002
  -6.9874079841278108E-002   1.7045478089823131E-002   4.8698678330182828E-002
  -7.0150604737296382E-002   1.7885076212271568E-002   4.8712623746947133E-002
  -7.9362662314627436E-002   1.4474553639840564E-002   5.0631013886728866E-002
  -7.9137796313855729E-002   1.7485781092936518E-002   4.7797425389009149E-002
  -7.8912930313084023E-002   1.9619122441788994E-002   4.5703056877461540E-002
  -7.8688064312312331E-002   2.0874577686397958E-002   4.4347908352086074E-002
  -7.8463198311540625E-002   2.1252146826763463E-002   4.3731979812882744E-002
  -9.1268901501643698E-002   1.7634253604108280E-002   5.1760819704528546E-002
  -9.0066986425317741E-002   2.1211195364399259E-002   4.6527801618122450E-002
  -8.8865071348991784E-002   2.3567669924020727E-002   4.2509661696652740E-002
  -8.7663156272665826E-002   2.4703677282972784E-002   3.9706399940119395E-002
  -8.6461241196339869E-002   2.4619217441255364E-002   3.8118016348522500E-002
 -0.10476322271427201        2.0793953568376003E-002   5.3627630377736213E-002
 -0.10210860038362751        2.4936609635861966E-002   4.5652601606217751E-002
  -9.9453978052983033E-002   2.7516217406252499E-002   3.9368109178399974E-002
  -9.6799355722338540E-002   2.8532776879547590E-002   3.4774153094282785E-002
  -9.4144733391694074E-002   2.7986288055747266E-002   3.1870733353866337E-002
  -6.1523460473607114E-002   1.4518005597779660E-002   5.3059948150715588E-002
  -6.0204059651809610E-002   1.5526096002206120E-002   5.1641623025837878E-002
  -5.8884658830012100E-002   1.6139836917814392E-002   5.0668118969894649E-002
  -5.7565258008214590E-002   1.6359228344604425E-002   5.0139435982885831E-002
  -5.6245857186417100E-002   1.6184270282576435E-002   5.0055574064811509E-002
  -7.0150604737296382E-002   1.7885076212271568E-002   4.8712623746947133E-002
  -6.8431485175811962E-002   1.8344110421532767E-002   4.7253660828579389E-002
  -6.6712365614327543E-002   1.8577321812237105E-002   4.6149314320651072E-002
  -6.4993246052843109E-002   1.8584710384384570E-002   4.5399584223162100E-002
  -6.3274126491358662E-002   1.8366276137975174E-002   4.5004470536112569E-002
  -7.8463198311540625E-002   2.1252146826763463E-002   4.3731979812882744E-002
  -7.6434564668864349E-002   2.1162124840859432E-002   4.2400905771286301E-002
  -7.4405931026188060E-002   2.1014806706659835E-002   4.1334243481634184E-002
  -7.2377297383511785E-002   2.0810192424164663E-002   4.0531992943926412E-002
  -7.0348663740835496E-002   2.0548281993373954E-002   3.9994154158162966E-002
  -8.6461241196339869E-002   2.4619217441255364E-002   3.8118016348522500E-002
  -8.4213298130966799E-002   2.3980139260186106E-002   3.7083357853958623E-002
  -8.1965355065593687E-002   2.3452291601082580E-002   3.6222906452844067E-002
  -7.9717412000220630E-002   2.3035674463944795E-002   3.5536662145178699E-002
  -7.7469468934847560E-002   2.2730287848772728E-002   3.5024624930962665E-002
  -9.4144733391694074E-002   2.7986288055747266E-002   3.1870733353866337E-002
  -9.1767685562119256E-002   2.6798153679512757E-002   3.1301017076596348E-002
  -8.9390637732544451E-002   2.5889776495505286E-002   3.0815303234280632E-002
  -8.7013589902969632E-002   2.5261156503724846E-002   3.0413591826919009E-002
  -8.4636542073394827E-002   2.4912293704171501E-002   3.0095882854511730E-002
  -5.6245857186417100E-002   1.6184270282576435E-002   5.0055574064811509E-002
  -5.4728519411835652E-002   1.5820655108227229E-002   4.9742465783954692E-002
  -5.3211181637254190E-002   1.5474075198053973E-002   4.9601018893625184E-002
  -5.1693843862672756E-002   1.5144530552056718E-002   4.9631233393823089E-002
  -5.0176506088091280E-002   1.4832021170235465E-002   4.9833109284548427E-002
  -6.3274126491358662E-002   1.8366276137975174E-002   4.5004470536112569E-002
  -6.1575462410480321E-002   1.8018927863829561E-002   4.4647274240120195E-002
  -5.9876798329601952E-002   1.7639574352768347E-002   4.4481069166194209E-002
  -5.8178134248723583E-002   1.7228215604791635E-002   4.4505855314334729E-002
  -5.6479470167845214E-002   1.6784851619899316E-002   4.4721632684541629E-002
  -7.0348663740835496E-002   2.0548281993373954E-002   3.9994154158162966E-002
  -6.8449343522121175E-002   2.0217200619431944E-002   3.9543829345943540E-002
  -6.6550023303406869E-002   1.9805073507482774E-002   3.9303825587329561E-002
  -6.4650703084692576E-002   1.9311900657526550E-002   3.9274142882321082E-002
  -6.2751382865978200E-002   1.8737682069563194E-002   3.9454781230918085E-002
  -7.7469468934847560E-002   2.2730287848772728E-002   3.5024624930962665E-002
  -7.5350162746758237E-002   2.2415473375034217E-002   3.4432131101424651E-002
  -7.3230856558668914E-002   2.1970572662197187E-002   3.4069288157031127E-002
  -7.1111550370579618E-002   2.1395585710261386E-002   3.3936096097782191E-002
  -6.8992244182490281E-002   2.0690512519227044E-002   3.4032554923677648E-002
  -8.4636542073394827E-002   2.4912293704171501E-002   3.0095882854511730E-002
  -8.2277920084391484E-002   2.4613746130636674E-002   2.9312179506563660E-002
  -7.9919298095388142E-002   2.4136071816911554E-002   2.8777456875298951E-002
  -7.7560676106384827E-002   2.3479270762996322E-002   2.8491714960718055E-002
  -7.5202054117381484E-002   2.2643342968890923E-002   2.8454953762820479E-002
  -5.0176506088091280E-002   1.4832021170235465E-002   4.9833109284548427E-002
  -4.8613591743992379E-002   1.4498583383876162E-002   4.9435174781974095E-002
  -4.7050677399893430E-002   1.4106253524264784E-002   4.9265080271803041E-002
  -4.5487763055794481E-002   1.3655031591401197E-002   4.9322825754035252E-002
  -4.3924848711695566E-002   1.3144917585285687E-002   4.9608411228670601E-002
  -5.6479470167845214E-002   1.6784851619899316E-002   4.4721632684541629E-002
  -5.4696270155101707E-002   1.6314338096156233E-002   4.4306602282810553E-002
  -5.2913070142358229E-002   1.5821530731627252E-002   4.4104303225965313E-002
  -5.1129870129614709E-002   1.5306429526312301E-002   4.4114735514006048E-002
  -4.9346670116871244E-002   1.4769034480211329E-002   4.4337899146932563E-002
  -6.2751382865978200E-002   1.8737682069563194E-002   3.9454781230918085E-002
  -6.0763005832107517E-002   1.8130092808436415E-002   3.9059253162496359E-002
  -5.8774628798236812E-002   1.7536807938989776E-002   3.8861347791443103E-002
  -5.6786251764366122E-002   1.6957827461223349E-002   3.8861065117758428E-002
  -5.4797874730495424E-002   1.6393151375137027E-002   3.9058405141442210E-002
  -6.8992244182490281E-002   2.0690512519227044E-002   3.4032554923677648E-002
  -6.6813798775009758E-002   1.9945847520716514E-002   3.3693127421031428E-002
  -6.4635353367529236E-002   1.9252085146352273E-002   3.3536213968236292E-002
  -6.2456907960048672E-002   1.8609225396134368E-002   3.3561814565292426E-002
  -6.0278462552568142E-002   1.8017268270062781E-002   3.3769929212199637E-002
  -7.5202054117381484E-002   2.2643342968890923E-002   2.8454953762820479E-002
  -7.2848648983808453E-002   2.1761602232996752E-002   2.8208225058415859E-002
  -7.0495243850235423E-002   2.0967362353714769E-002   2.8128901756344984E-002
  -6.8141838716662392E-002   2.0260623331045419E-002   2.8216983856607966E-002
  -6.5788433583089362E-002   1.9641385164988368E-002   2.8472471359204776E-002
  -4.3924848711695566E-002   1.3144917585285687E-002   4.9608411228670601E-002
  -4.2269232010606783E-002   1.2615192791229524E-002   4.9362647652827885E-002
  -4.0613615309518007E-002   1.2105138494544143E-002   4.9292450496308593E-002
  -3.8957998608429259E-002   1.1614754695229837E-002   4.9397819759112602E-002
  -3.7302381907340476E-002   1.1144041393285953E-002   4.9678755441240008E-002
  -4.9346670116871244E-002   1.4769034480211329E-002   4.4337899146932563E-002
  -4.7512730089750536E-002   1.4220361713345842E-002   4.4075213717663625E-002
  -4.5678790062629884E-002   1.3671427345737217E-002   4.3993608521135166E-002
  -4.3844850035509218E-002   1.3122231377385409E-002   4.4093083557346993E-002
  -4.2010910008388518E-002   1.2572773808290361E-002   4.4373638826299300E-002
  -5.4797874730495424E-002   1.6393151375137027E-002   3.9058405141442210E-002
  -5.2780097563925821E-002   1.5825530635462298E-002   3.8758865760633116E-002
  -5.0762320397356266E-002   1.5237716196930345E-002   3.8645920425981375E-002
  -4.8744543230786676E-002   1.4629708059541204E-002   3.8719569137487080E-002
  -4.6726766064217162E-002   1.4001506223294879E-002   3.8979811895150096E-002
  -6.0278462552568142E-002   1.8017268270062781E-002   3.3769929212199637E-002
  -5.8071334433132636E-002   1.7430699557578658E-002   3.3413603781736259E-002
  -5.5864206313697179E-002   1.6804005048123474E-002   3.3249386210847331E-002
  -5.3657078194261687E-002   1.6137184741697053E-002   3.3277276499532882E-002
  -5.1449950074826153E-002   1.5430238638299426E-002   3.3497274647792681E-002
  -6.5788433583089362E-002   1.9641385164988368E-002   2.8472471359204776E-002
  -6.3386440697370955E-002   1.9035868479695101E-002   2.8039427780973208E-002
  -6.0984447811652576E-002   1.8370293899316534E-002   2.7804005875733007E-002
  -5.8582454925934210E-002   1.7644661423852733E-002   2.7766205643484324E-002
  -5.6180462040215789E-002   1.6858971053303751E-002   2.7926027084226923E-002
  -3.7302381907340476E-002   1.1144041393285953E-002   4.9678755441240008E-002
  -3.5762321151748544E-002   1.0665118610254543E-002   4.9363137792130640E-002
  -3.4222260396156612E-002   1.0150106367676298E-002   4.9243527096700213E-002
  -3.2682199640564701E-002   9.5990046655516845E-003   4.9319923354948808E-002
  -3.1142138884972762E-002   9.0118135038806946E-003   4.9592326566876288E-002
  -4.2010910008388518E-002   1.2572773808290361E-002   4.4373638826299300E-002
  -4.0285567928086373E-002   1.2013962022387831E-002   4.4012699447231379E-002
  -3.8560225847784207E-002   1.1436703403613385E-002   4.3826315763904944E-002
  -3.6834883767482028E-002   1.0840997951966976E-002   4.3814487776320160E-002
  -3.5109541687179890E-002   1.0226845667448470E-002   4.3977215484476806E-002
  -4.6726766064217162E-002   1.4001506223294879E-002   3.8979811895150096E-002
  -4.4837593917142142E-002   1.3362805434521341E-002   3.8591193412798333E-002
  -4.2948421770067226E-002   1.2723300439550320E-002   3.8355679368250670E-002
  -4.1059249622992240E-002   1.2082991238382104E-002   3.8273269761507030E-002
  -3.9170077475917289E-002   1.1441877831016412E-002   3.8343964592567503E-002
  -5.1449950074826153E-002   1.5430238638299426E-002   3.3497274647792681E-002
  -4.9418399118915934E-002   1.4711648846654712E-002   3.3098619688831592E-002
  -4.7386848163005632E-002   1.4009897475487303E-002   3.2831617909737140E-002
  -4.5355297207095358E-002   1.3324984524797202E-002   3.2696269310509243E-002
  -4.3323746251185159E-002   1.2656909994584381E-002   3.2692573891147832E-002
  -5.6180462040215789E-002   1.6858971053303751E-002   2.7926027084226923E-002
  -5.4027983533407653E-002   1.6060492258788167E-002   2.7534978275331135E-002
  -5.1875505026599503E-002   1.5296494511424355E-002   2.7254131388364550E-002
  -4.9723026519791415E-002   1.4566977811212415E-002   2.7083486423327002E-002
  -4.7570548012983271E-002   1.3871942158152128E-002   2.7023043380218437E-002
  -3.1142138884972762E-002   9.0118135038806946E-003   4.9592326566876288E-002
  -2.9168759464767810E-002   8.4135089293970178E-003   4.9352390429205528E-002
  -2.7195380044562921E-002   7.8290669888343156E-003   4.9379938353189545E-002
  -2.5222000624357945E-002   7.2584876821936081E-003   4.9674970338828228E-002
  -2.3248621204153053E-002   6.7017710094738892E-003   5.0237486386121910E-002
  -3.5109541687179890E-002   1.0226845667448470E-002   4.3977215484476806E-002
  -3.2921462543042089E-002   9.6065141810867671E-003   4.3601337554107111E-002
  -3.0733383398904364E-002   8.9922711239104058E-003   4.3387375009948298E-002
  -2.8545304254766635E-002   8.3841164959196843E-003   4.3335327852000560E-002
  -2.6357225110628824E-002   7.7820502971139849E-003   4.3445196080263315E-002
  -3.9170077475917289E-002   1.1441877831016412E-002   3.8343964592567503E-002
  -3.6872867283290617E-002   1.0799519432776766E-002   3.7824370664762796E-002
  -3.4575657090663896E-002   1.0155475258986399E-002   3.7361123447725186E-002
  -3.2278446898037182E-002   9.5097453096455974E-003   3.6954222941454430E-002
  -2.9981236705410488E-002   8.8623295847540806E-003   3.6603669145950590E-002
  -4.3323746251185159E-002   1.2656909994584381E-002   3.2692573891147832E-002
  -4.1022973685513414E-002   1.1992524684466641E-002   3.2021489761172452E-002
  -3.8722201119841683E-002   1.1318679394062441E-002   3.1301183666520072E-002
  -3.6421428554169993E-002   1.0635374123371592E-002   3.0531655607190823E-002
  -3.4120655988498276E-002   9.9426088723942319E-003   2.9712905583184485E-002
  -4.7570548012983271E-002   1.3871942158152128E-002   2.7023043380218437E-002
  -4.5371781749710405E-002   1.3185529936156570E-002   2.6192694843336195E-002
  -4.3173015486437621E-002   1.2481883529138288E-002   2.5207555666333037E-002
  -4.0974249223164713E-002   1.1761002937097566E-002   2.4067625849208990E-002
  -3.8775482959891916E-002   1.1022888160034272E-002   2.2772905391964082E-002
  -9.0360854538936664E-002   0.0000000000000000        4.9840692980640242E-002
  -9.3961446582770503E-002   5.4042195241392477E-003   5.3215065404073301E-002
  -9.7562038626604328E-002   1.0671284960248330E-002   5.4971012444733652E-002
 -0.10116263067043818        1.5801196308327242E-002   5.5108534102621294E-002
 -0.10476322271427201        2.0793953568376003E-002   5.3627630377736213E-002
 -0.10329232887586356        0.0000000000000000        5.8668375536138948E-002
 -0.10682975200205018        1.0884383023325721E-002   5.2123952411292675E-002
 -0.11036717512823679        1.9172395007616728E-002   4.7324292504513539E-002
 -0.11390459825442345        2.4864035952873009E-002   4.4269395815801554E-002
 -0.11744202138061006        2.7959305859094570E-002   4.2959262345156721E-002
 -0.12645743049795730        0.0000000000000000        7.4205830066326403E-002
 -0.12656849610565685        1.6364546522512194E-002   5.5283394442196244E-002
 -0.12667956171335640        2.7673505054985115E-002   4.1468910636973083E-002
 -0.12679062732105595        3.3926875597418769E-002   3.2762378650656919E-002
 -0.12690169292875550        3.5124658149813165E-002   2.9163798483247759E-002
 -0.15985615940521788        0.0000000000000000        9.6453056571202594E-002
 -0.15317767889359049        2.1844710021698667E-002   6.2693391496784004E-002
 -0.14649919838196312        3.6174615102353522E-002   3.7404866842112257E-002
 -0.13982071787033573        4.2989715241964536E-002   2.0587482607187371E-002
 -0.13314223735870837        4.2290010440531774E-002   1.2241238792009362E-002
 -0.20348851559764525        0.0000000000000000       0.12541005505076755     
 -0.18665730036585107        2.7324873520885144E-002   7.4353943575055953E-002
 -0.16982608513405689        4.4675725149721894E-002   3.5132161119931081E-002
 -0.15299486990226274        5.2052554886510297E-002   7.7447076853929264E-003
 -0.13616365467046856        4.9455362731250320E-002  -7.8084167285585315E-003
 -0.10476322271427201        2.0793953568376003E-002   5.3627630377736213E-002
 -0.10210860038362751        2.4936609635861966E-002   4.5652601606217751E-002
  -9.9453978052983033E-002   2.7516217406252499E-002   3.9368109178399974E-002
  -9.6799355722338540E-002   2.8532776879547590E-002   3.4774153094282785E-002
  -9.4144733391694074E-002   2.7986288055747266E-002   3.1870733353866337E-002
 -0.11744202138061006        2.7959305859094570E-002   4.2959262345156721E-002
 -0.11348495366234060        2.9432424087871494E-002   3.6709779429280158E-002
 -0.10952788594407117        3.0257610000793779E-002   3.1374650944952835E-002
 -0.10557081822580171        3.0434863597861482E-002   2.6953876892174770E-002
 -0.10161375050753223        2.9964184879074506E-002   2.3447457270945979E-002
 -0.12690169292875550        3.5124658149813165E-002   2.9163798483247759E-002
 -0.12241836173501244        3.3928238539881028E-002   2.5554977404253870E-002
 -0.11793503054126946        3.2999002595335065E-002   2.2084328844657861E-002
 -0.11345169934752644        3.2336950316175339E-002   1.8751852804459707E-002
 -0.10896836815378340        3.1942081702401787E-002   1.5557549283659450E-002
 -0.13314223735870837        4.2290010440531774E-002   1.2241238792009362E-002
 -0.12890882460164316        3.8424052991890584E-002   1.2188195531139008E-002
 -0.12467541184457798        3.5740395189876338E-002   1.1497142877515052E-002
 -0.12044199908751274        3.4239037034489203E-002   1.0168080831137561E-002
 -0.11620858633044753        3.3919978525728978E-002   8.2010093920066463E-003
 -0.13616365467046856        4.9455362731250320E-002  -7.8084167285585315E-003
 -0.13295634226223257        4.2919867443900091E-002  -3.3905661900645798E-003
 -0.12974902985399664        3.8481787784417645E-002  -3.8690695647555090E-004
 -0.12654171744576070        3.6141123752803102E-002   1.2025609722085221E-003
 -0.12333440503752471        3.5897875349056280E-002   1.3778375959876688E-003
  -9.4144733391694074E-002   2.7986288055747266E-002   3.1870733353866337E-002
  -9.1767685562119256E-002   2.6798153679512757E-002   3.1301017076596348E-002
  -8.9390637732544451E-002   2.5889776495505286E-002   3.0815303234280632E-002
  -8.7013589902969632E-002   2.5261156503724846E-002   3.0413591826919009E-002
  -8.4636542073394827E-002   2.4912293704171501E-002   3.0095882854511730E-002
 -0.10161375050753223        2.9964184879074506E-002   2.3447457270945979E-002
  -9.9137790306357859E-002   2.9197243332833109E-002   2.3174632326494780E-002
  -9.6661830105183505E-002   2.8485708447537457E-002   2.3015629690288440E-002
  -9.4185869904009165E-002   2.7829580223187454E-002   2.2970449362327089E-002
  -9.1709909702834783E-002   2.7228858659783195E-002   2.3039091342610549E-002
 -0.10896836815378340        3.1942081702401787E-002   1.5557549283659450E-002
 -0.10636367570771880        3.1596332986153518E-002   1.5357265140745558E-002
 -0.10375898326165418        3.1081640399569569E-002   1.5300623179367374E-002
 -0.10115429081558955        3.0398003942649965E-002   1.5387623399524779E-002
  -9.8549598369524927E-002   2.9545423615394820E-002   1.5618265801217827E-002
 -0.11620858633044753        3.3919978525728978E-002   8.2010093920066463E-003
 -0.11344534176620197        3.3995422639473902E-002   7.8489155193488553E-003
 -0.11068209720195638        3.3677572351601751E-002   7.6702837015174300E-003
 -0.10791885263771080        3.2966427662112614E-002   7.6651139385123107E-003
 -0.10515560807346525        3.1861988571006368E-002   7.8334062303334565E-003
 -0.12333440503752471        3.5897875349056280E-002   1.3778375959876688E-003
 -0.12038278848180745        3.6394512292794182E-002   6.4958346230456487E-004
 -0.11743117192609019        3.6273504303633845E-002   1.2461125673845358E-004
 -0.11447955537037294        3.5534851381575111E-002  -1.9707902071038237E-004
 -0.11152793881465567        3.4178553526618083E-002  -3.1548737004238880E-004
  -8.4636542073394827E-002   2.4912293704171501E-002   3.0095882854511730E-002
  -8.2277920084391484E-002   2.4613746130636674E-002   2.9312179506563660E-002
  -7.9919298095388142E-002   2.4136071816911554E-002   2.8777456875298951E-002
  -7.7560676106384827E-002   2.3479270762996322E-002   2.8491714960718055E-002
  -7.5202054117381484E-002   2.2643342968890923E-002   2.8454953762820479E-002
  -9.1709909702834783E-002   2.7228858659783195E-002   2.3039091342610549E-002
  -8.9110735056780882E-002   2.6623707421389940E-002   2.2358942522222390E-002
  -8.6511560410726940E-002   2.5954290172072944E-002   2.1910918299251868E-002
  -8.3912385764672984E-002   2.5220606911832252E-002   2.1695018673699110E-002
  -8.1313211118619069E-002   2.4422657640667922E-002   2.1711243645563899E-002
  -9.8549598369524927E-002   2.9545423615394820E-002   1.5618265801217827E-002
  -9.5726727185686311E-002   2.8633668712143213E-002   1.5156532237656180E-002
  -9.2903856001847668E-002   2.7772508527234330E-002   1.4910067152246114E-002
  -9.0080984818008983E-002   2.6961943060668205E-002   1.4878870544987892E-002
  -8.7258113634170395E-002   2.6201972312444893E-002   1.5062942415881395E-002
 -0.10515560807346525        3.1861988571006368E-002   7.8334062303334565E-003
 -0.10212589647110777        3.0643630002896497E-002   7.7049486528646197E-003
  -9.9096184868750298E-002   2.9590726882395772E-002   7.7749034342817084E-003
  -9.6066473266392879E-002   2.8703279209504093E-002   8.0432705745845708E-003
  -9.3036761664035392E-002   2.7981286984221795E-002   8.5100500737732739E-003
 -0.11152793881465567        3.4178553526618083E-002  -3.1548737004238880E-004
 -0.10830824291304531        3.2653591293649781E-002   4.1917678480218878E-006
 -0.10508854701143494        3.1408945237557120E-002   5.0542714535860289E-004
 -0.10186885110982458        3.0444615358340091E-002   1.1882187624888650E-003
  -9.8649155208214212E-002   2.9760601655998919E-002   2.0525666192393044E-003
  -7.5202054117381484E-002   2.2643342968890923E-002   2.8454953762820479E-002
  -7.2848648983808453E-002   2.1761602232996752E-002   2.8208225058415859E-002
  -7.0495243850235423E-002   2.0967362353714769E-002   2.8128901756344984E-002
  -6.8141838716662392E-002   2.0260623331045419E-002   2.8216983856607966E-002
  -6.5788433583089362E-002   1.9641385164988368E-002   2.8472471359204776E-002
  -8.1313211118619069E-002   2.4422657640667922E-002   2.1711243645563899E-002
  -7.8804956483472827E-002   2.3609441283840960E-002   2.1678829874190356E-002
  -7.6296701848326598E-002   2.2829956766612564E-002   2.1788709703629575E-002
  -7.3788447213180328E-002   2.2084204088982824E-002   2.2040883133881334E-002
  -7.1280192578034141E-002   2.1372183250951693E-002   2.2435350164945689E-002
  -8.7258113634170395E-002   2.6201972312444893E-002   1.5062942415881395E-002
  -8.4620121298972117E-002   2.5457280334685209E-002   1.5191074560525264E-002
  -8.1982128963773854E-002   2.4692551179510247E-002   1.5436388504460573E-002
  -7.9344136628575618E-002   2.3907784846920258E-002   1.5798884247687370E-002
  -7.6706144293377326E-002   2.3102981336915018E-002   1.6278561790205495E-002
  -9.3036761664035392E-002   2.7981286984221795E-002   8.5100500737732739E-003
  -9.0294143430306326E-002   2.7305119385529521E-002   8.7449591174205074E-003
  -8.7551525196577218E-002   2.6555145592408236E-002   9.0719381588383295E-003
  -8.4808906962848082E-002   2.5731365604857760E-002   9.4909871980262475E-003
  -8.2066288729119058E-002   2.4833779422878122E-002   1.0002106234984223E-002
  -9.8649155208214212E-002   2.9760601655998919E-002   2.0525666192393044E-003
  -9.5827022877475465E-002   2.9152958436373777E-002   2.3404835448763150E-003
  -9.3004890546736690E-002   2.8417740005305864E-002   2.6953586667624735E-003
  -9.0182758215997902E-002   2.7554946362795159E-002   3.1171919848975889E-003
  -8.7360625885259169E-002   2.6564577508841558E-002   3.6059834992818729E-003
  -6.5788433583089362E-002   1.9641385164988368E-002   2.8472471359204776E-002
  -6.3386440697370955E-002   1.9035868479695101E-002   2.8039427780973208E-002
  -6.0984447811652576E-002   1.8370293899316534E-002   2.7804005875733007E-002
  -5.8582454925934210E-002   1.7644661423852733E-002   2.7766205643484324E-002
  -5.6180462040215789E-002   1.6858971053303751E-002   2.7926027084226923E-002
  -7.1280192578034141E-002   2.1372183250951693E-002   2.2435350164945689E-002
  -6.8675599860206799E-002   2.0661493427287861E-002   2.2027528172458413E-002
  -6.6071007142379498E-002   1.9919733792759950E-002   2.1827284171197905E-002
  -6.3466414424552198E-002   1.9146904347368193E-002   2.1834618161163472E-002
  -6.0861821706724911E-002   1.8343005091112474E-002   2.2049530142355500E-002
  -7.6706144293377326E-002   2.3102981336915018E-002   1.6278561790205495E-002
  -7.3888995425206105E-002   2.2287118374880524E-002   1.5924949467684038E-002
  -7.1071846557034954E-002   2.1469173686203429E-002   1.5788871454623925E-002
  -6.8254697688863802E-002   2.0649147270883600E-002   1.5870327751025200E-002
  -6.5437548820692609E-002   1.9827039128921115E-002   1.6169318356887841E-002
  -8.2066288729119058E-002   2.4833779422878122E-002   1.0002106234984223E-002
  -7.9026627392369000E-002   2.3912743322473264E-002   9.7316916666496910E-003
  -7.5986966055618971E-002   2.3018613579646793E-002   9.6887677260115764E-003
  -7.2947304718868927E-002   2.2151390194398976E-002   9.8733344130694789E-003
  -6.9907643382118898E-002   2.1311073166729630E-002   1.0285391727823921E-002
  -8.7360625885259169E-002   2.6564577508841558E-002   3.6059834992818729E-003
  -8.4088495761695248E-002   2.5538368270066059E-002   3.4477547693552157E-003
  -8.0816365638131438E-002   2.4568053473090323E-002   3.5269729853601994E-003
  -7.7544235514567572E-002   2.3653633117914463E-002   3.8436381472961856E-003
  -7.4272105391003707E-002   2.2795107204538367E-002   4.3977502551638681E-003
  -5.6180462040215789E-002   1.6858971053303751E-002   2.7926027084226923E-002
  -5.4027983533407653E-002   1.6060492258788167E-002   2.7534978275331135E-002
  -5.1875505026599503E-002   1.5296494511424355E-002   2.7254131388364550E-002
  -4.9723026519791415E-002   1.4566977811212415E-002   2.7083486423327002E-002
  -4.7570548012983271E-002   1.3871942158152128E-002   2.7023043380218437E-002
  -6.0861821706724911E-002   1.8343005091112474E-002   2.2049530142355500E-002
  -5.8569117849184296E-002   1.7538023530643154E-002   2.1825830439598959E-002
  -5.6276413991643640E-002   1.6761947172611161E-002   2.1772379516378296E-002
  -5.3983710134102997E-002   1.6014776017016039E-002   2.1889177372693615E-002
  -5.1691006276562368E-002   1.5296510063858126E-002   2.2176224008544798E-002
  -6.5437548820692609E-002   1.9827039128921115E-002   1.6169318356887841E-002
  -6.2944572754812689E-002   1.9015554802498238E-002   1.6107391915555935E-002
  -6.0451596688932754E-002   1.8227399833797849E-002   1.6275761111366464E-002
  -5.7958620623052862E-002   1.7462574222819882E-002   1.6674425944319778E-002
  -5.5465644557172969E-002   1.6721077969564013E-002   1.7303386414415561E-002
  -6.9907643382118898E-002   2.1311073166729630E-002   1.0285391727823921E-002
  -6.7154348250292983E-002   2.0493086074353108E-002   1.0379662703201689E-002
  -6.4401053118467014E-002   1.9692852494984540E-002   1.0764276173328884E-002
  -6.1647757986641030E-002   1.8910372428623284E-002   1.1439232138205524E-002
  -5.8894462854815116E-002   1.8145645875269900E-002   1.2404530597831621E-002
  -7.4272105391003707E-002   2.2795107204538367E-002   4.3977502551638681E-003
  -7.1198444335625055E-002   2.1970617346208421E-002   4.6426428025366229E-003
  -6.8124783280246293E-002   2.1158305156171425E-002   5.2379247022657505E-003
  -6.5051122224867558E-002   2.0358170634427401E-002   6.1835959543508484E-003
  -6.1977461169488879E-002   1.9570213780975898E-002   7.4796565587921249E-003
  -4.7570548012983271E-002   1.3871942158152128E-002   2.7023043380218437E-002
  -4.5371781749710405E-002   1.3185529936156570E-002   2.6192694843336195E-002
  -4.3173015486437621E-002   1.2481883529138288E-002   2.5207555666333037E-002
  -4.0974249223164713E-002   1.1761002937097566E-002   2.4067625849208990E-002
  -3.8775482959891916E-002   1.1022888160034272E-002   2.2772905391964082E-002
  -5.1691006276562368E-002   1.5296510063858126E-002   2.2176224008544798E-002
  -4.9443951526718294E-002   1.4558205136207925E-002   2.1851665913100726E-002
  -4.7196896776874164E-002   1.3750917057135992E-002   2.1778475430919958E-002
  -4.4949842027030167E-002   1.2874645826642286E-002   2.1956652562002535E-002
  -4.2702787277185961E-002   1.1929391444726711E-002   2.2386197306348277E-002
  -5.5465644557172969E-002   1.6721077969564013E-002   1.7303386414415561E-002
  -5.2764143067373523E-002   1.5930880336259140E-002   1.7432869794010902E-002
  -5.0062641577574084E-002   1.5019950585133404E-002   1.8219879040253531E-002
  -4.7361140087774589E-002   1.3988288716186837E-002   1.9664414153143746E-002
  -4.4659638597975296E-002   1.2835894729419262E-002   2.1766475132681262E-002
  -5.8894462854815116E-002   1.8145645875269900E-002   1.2404530597831621E-002
  -5.5332356371676106E-002   1.7303555536310647E-002   1.2936306486066800E-002
  -5.1770249888537123E-002   1.6288984113130796E-002   1.4531766494333898E-002
  -4.8208143405398071E-002   1.5101931605731473E-002   1.7190910622632657E-002
  -4.4646036922259144E-002   1.3742398014112034E-002   2.0913738870962553E-002
  -6.1977461169488879E-002   1.9570213780975898E-002   7.4796565587921249E-003
  -5.7148591439626251E-002   1.8676230736361488E-002   8.3619759892687440E-003
  -5.2319721709763567E-002   1.7558017641128743E-002   1.0714137793160688E-002
  -4.7490851979900994E-002   1.6215574495275997E-002   1.4536141970468826E-002
  -4.2661982250038255E-002   1.4648901298804251E-002   1.9827988521192275E-002
 </DataArray>
 </PointData>
 </Piece>
 <Piece  NumberOfPoints="          1600 "  NumberOfCells="         1024 ">
 <Points>
 <DataArray  type="Float64" NumberOfComponents="3"  format="ascii" >
  0.50000000000000000        0.0000000000000000        0.0000000000000000     
  0.53125000000000000        0.0000000000000000        0.0000000000000000     
  0.56250000000000000        0.0000000000000000        0.0000000000000000     
  0.59375000000000000        0.0000000000000000        0.0000000000000000     
  0.62500000000000000        0.0000000000000000        0.0000000000000000     
  0.50000000000000000        3.1250000000000000E-002   0.0000000000000000     
  0.53125000000000000        3.1250000000000000E-002   0.0000000000000000     
  0.56250000000000000        3.1250000000000000E-002   0.0000000000000000     
  0.59375000000000000        3.1250000000000000E-002   0.0000000000000000     
  0.62500000000000000        3.1250000000000000E-002   0.0000000000000000     
  0.50000000000000000        6.2500000000000000E-002   0.0000000000000000     
  0.53125000000000000        6.2500000000000000E-002   0.0000000000000000     
  0.56250000000000000        6.2500000000000000E-002   0.0000000000000000     
  0.59375000000000000        6.2500000000000000E-002   0.0000000000000000     
  0.62500000000000000        6.2500000000000000E-002   0.0000000000000000     
  0.50000000000000000        9.3750000000000000E-002   0.0000000000000000     
  0.53125000000000000        9.3750000000000000E-002   0.0000000000000000     
  0.56250000000000000        9.3750000000000000E-002   0.0000000000000000     
  0.59375000000000000        9.3750000000000000E-002   0.0000000000000000     
  0.62500000000000000        9.3750000000000000E-002   0.0000000000000000     
  0.50000000000000000       0.12500000000000000        0.0000000000000000     
  0.53125000000000000       0.12500000000000000        0.0000000000000000     
  0.56250000000000000       0.12500000000000000        0.0000000000000000     
  0.59375000000000000       0.12500000000000000        0.0000000000000000     
  0.62500000000000000       0.12500000000000000        0.0000000000000000     
  0.62500000000000000        0.0000000000000000        0.0000000000000000     
  0.65625000000000000        0.0000000000000000        0.0000000000000000     
  0.68750000000000000        0.0000000000000000        0.0000000000000000     
  0.71875000000000000        0.0000000000000000        0.0000000000000000     
  0.75000000000000000        0.0000000000000000        0.0000000000000000     
  0.62500000000000000        3.1250000000000000E-002   0.0000000000000000     
  0.65625000000000000        3.1250000000000000E-002   0.0000000000000000     
  0.68750000000000000        3.1250000000000000E-002   0.0000000000000000     
  0.71875000000000000        3.1250000000000000E-002   0.0000000000000000     
  0.75000000000000000        3.1250000000000000E-002   0.0000000000000000     
  0.62500000000000000        6.2500000000000000E-002   0.0000000000000000     
  0.65625000000000000        6.2500000000000000E-002   0.0000000000000000     
  0.68750000000000000        6.2500000000000000E-002   0.0000000000000000     
  0.71875000000000000        6.2500000000000000E-002   0.0000000000000000     
  0.75000000000000000        6.2500000000000000E-002   0.0000000000000000     
  0.62500000000000000        9.3750000000000000E-002   0.0000000000000000     
  0.65625000000000000        9.3750000000000000E-002   0.0000000000000000     
  0.68750000000000000        9.3750000000000000E-002   0.0000000000000000     
  0.71875000000000000        9.3750000000000000E-002   0.0000000000000000     
  0.75000000000000000        9.3750000000000000E-002   0.0000000000000000     
  0.62500000000000000       0.12500000000000000        0.0000000000000000     
  0.65625000000000000       0.12500000000000000        0.0000000000000000     
  0.68750000000000000       0.12500000000000000        0.0000000000000000     
  0.71875000000000000       0.12500000000000000        0.0000000000000000     
  0.75000000000000000       0.12500000000000000        0.0000000000000000     
  0.75000000000000000        0.0000000000000000        0.0000000000000000     
  0.78125000000000000        0.0000000000000000        0.0000000000000000     
  0.81250000000000000        0.0000000000000000        0.0000000000000000     
  0.84375000000000000        0.0000000000000000        0.0000000000000000     
  0.87500000000000000        0.0000000000000000        0.0000000000000000     
  0.75000000000000000        3.1250000000000000E-002   0.0000000000000000     
  0.78125000000000000        3.1250000000000000E-002   0.0000000000000000     
  0.81250000000000000        3.1250000000000000E-002   0.0000000000000000     
  0.84375000000000000        3.1250000000000000E-002   0.0000000000000000     
  0.87500000000000000        3.1250000000000000E-002   0.0000000000000000     
  0.75000000000000000        6.2500000000000000E-002   0.0000000000000000     
  0.78125000000000000        6.2500000000000000E-002   0.0000000000000000     
  0.81250000000000000        6.2500000000000000E-002   0.0000000000000000     
  0.84375000000000000        6.2500000000000000E-002   0.0000000000000000     
  0.87500000000000000        6.2500000000000000E-002   0.0000000000000000     
  0.75000000000000000        9.3750000000000000E-002   0.0000000000000000     
  0.78125000000000000        9.3750000000000000E-002   0.0000000000000000     
  0.81250000000000000        9.3750000000000000E-002   0.0000000000000000     
  0.84375000000000000        9.3750000000000000E-002   0.0000000000000000     
  0.87500000000000000        9.3750000000000000E-002   0.0000000000000000     
  0.75000000000000000       0.12500000000000000        0.0000000000000000     
  0.78125000000000000       0.12500000000000000        0.0000000000000000     
  0.81250000000000000       0.12500000000000000        0.0000000000000000     
  0.84375000000000000       0.12500000000000000        0.0000000000000000     
  0.87500000000000000       0.12500000000000000        0.0000000000000000     
  0.87500000000000000        0.0000000000000000        0.0000000000000000     
  0.90625000000000000        0.0000000000000000        0.0000000000000000     
  0.93750000000000000        0.0000000000000000        0.0000000000000000     
  0.96875000000000000        0.0000000000000000        0.0000000000000000     
   1.0000000000000000        0.0000000000000000        0.0000000000000000     
  0.87500000000000000        3.1250000000000000E-002   0.0000000000000000     
  0.90625000000000000        3.1250000000000000E-002   0.0000000000000000     
  0.93750000000000000        3.1250000000000000E-002   0.0000000000000000     
  0.96875000000000000        3.1250000000000000E-002   0.0000000000000000     
   1.0000000000000000        3.1250000000000000E-002   0.0000000000000000     
  0.87500000000000000        6.2500000000000000E-002   0.0000000000000000     
  0.90625000000000000        6.2500000000000000E-002   0.0000000000000000     
  0.93750000000000000        6.2500000000000000E-002   0.0000000000000000     
  0.96875000000000000        6.2500000000000000E-002   0.0000000000000000     
   1.0000000000000000        6.2500000000000000E-002   0.0000000000000000     
  0.87500000000000000        9.3750000000000000E-002   0.0000000000000000     
  0.90625000000000000        9.3750000000000000E-002   0.0000000000000000     
  0.93750000000000000        9.3750000000000000E-002   0.0000000000000000     
  0.96875000000000000        9.3750000000000000E-002   0.0000000000000000     
   1.0000000000000000        9.3750000000000000E-002   0.0000000000000000     
  0.87500000000000000       0.12500000000000000        0.0000000000000000     
  0.90625000000000000       0.12500000000000000        0.0000000000000000     
  0.93750000000000000       0.12500000000000000        0.0000000000000000     
  0.96875000000000000       0.12500000000000000        0.0000000000000000     
   1.0000000000000000       0.12500000000000000        0.0000000000000000     
   1.0000000000000000        0.0000000000000000        0.0000000000000000     
   1.0312500000000000        0.0000000000000000        0.0000000000000000     
   1.0625000000000000        0.0000000000000000        0.0000000000000000     
   1.0937500000000000        0.0000000000000000        0.0000000000000000     
   1.1250000000000000        0.0000000000000000        0.0000000000000000     
   1.0000000000000000        3.1250000000000000E-002   0.0000000000000000     
   1.0312500000000000        3.1250000000000000E-002   0.0000000000000000     
   1.0625000000000000        3.1250000000000000E-002   0.0000000000000000     
   1.0937500000000000        3.1250000000000000E-002   0.0000000000000000     
   1.1250000000000000        3.1250000000000000E-002   0.0000000000000000     
   1.0000000000000000        6.2500000000000000E-002   0.0000000000000000     
   1.0312500000000000        6.2500000000000000E-002   0.0000000000000000     
   1.0625000000000000        6.2500000000000000E-002   0.0000000000000000     
   1.0937500000000000        6.2500000000000000E-002   0.0000000000000000     
   1.1250000000000000        6.2500000000000000E-002   0.0000000000000000     
   1.0000000000000000        9.3750000000000000E-002   0.0000000000000000     
   1.0312500000000000        9.3750000000000000E-002   0.0000000000000000     
   1.0625000000000000        9.3750000000000000E-002   0.0000000000000000     
   1.0937500000000000        9.3750000000000000E-002   0.0000000000000000     
   1.1250000000000000        9.3750000000000000E-002   0.0000000000000000     
   1.0000000000000000       0.12500000000000000        0.0000000000000000     
   1.0312500000000000       0.12500000000000000        0.0000000000000000     
   1.0625000000000000       0.12500000000000000        0.0000000000000000     
   1.0937500000000000       0.12500000000000000        0.0000000000000000     
   1.1250000000000000       0.12500000000000000        0.0000000000000000     
   1.1250000000000000        0.0000000000000000        0.0000000000000000     
   1.1562500000000000        0.0000000000000000        0.0000000000000000     
   1.1875000000000000        0.0000000000000000        0.0000000000000000     
   1.2187500000000000        0.0000000000000000        0.0000000000000000     
   1.2500000000000000        0.0000000000000000        0.0000000000000000     
   1.1250000000000000        3.1250000000000000E-002   0.0000000000000000     
   1.1562500000000000        3.1250000000000000E-002   0.0000000000000000     
   1.1875000000000000        3.1250000000000000E-002   0.0000000000000000     
   1.2187500000000000        3.1250000000000000E-002   0.0000000000000000     
   1.2500000000000000        3.1250000000000000E-002   0.0000000000000000     
   1.1250000000000000        6.2500000000000000E-002   0.0000000000000000     
   1.1562500000000000        6.2500000000000000E-002   0.0000000000000000     
   1.1875000000000000        6.2500000000000000E-002   0.0000000000000000     
   1.2187500000000000        6.2500000000000000E-002   0.0000000000000000     
   1.2500000000000000        6.2500000000000000E-002   0.0000000000000000     
   1.1250000000000000        9.3750000000000000E-002   0.0000000000000000     
   1.1562500000000000        9.3750000000000000E-002   0.0000000000000000     
   1.1875000000000000        9.3750000000000000E-002   0.0000000000000000     
   1.2187500000000000        9.3750000000000000E-002   0.0000000000000000     
   1.2500000000000000        9.3750000000000000E-002   0.0000000000000000     
   1.1250000000000000       0.12500000000000000        0.0000000000000000     
   1.1562500000000000       0.12500000000000000        0.0000000000000000     
   1.1875000000000000       0.12500000000000000        0.0000000000000000     
   1.2187500000000000       0.12500000000000000        0.0000000000000000     
   1.2500000000000000       0.12500000000000000        0.0000000000000000     
   1.2500000000000000        0.0000000000000000        0.0000000000000000     
   1.2812500000000000        0.0000000000000000        0.0000000000000000     
   1.3125000000000000        0.0000000000000000        0.0000000000000000     
   1.3437500000000000        0.0000000000000000        0.0000000000000000     
   1.3750000000000000        0.0000000000000000        0.0000000000000000     
   1.2500000000000000        3.1250000000000000E-002   0.0000000000000000     
   1.2812500000000000        3.1250000000000000E-002   0.0000000000000000     
   1.3125000000000000        3.1250000000000000E-002   0.0000000000000000     
   1.3437500000000000        3.1250000000000000E-002   0.0000000000000000     
   1.3750000000000000        3.1250000000000000E-002   0.0000000000000000     
   1.2500000000000000        6.2500000000000000E-002   0.0000000000000000     
   1.2812500000000000        6.2500000000000000E-002   0.0000000000000000     
   1.3125000000000000        6.2500000000000000E-002   0.0000000000000000     
   1.3437500000000000        6.2500000000000000E-002   0.0000000000000000     
   1.3750000000000000        6.2500000000000000E-002   0.0000000000000000     
   1.2500000000000000        9.3750000000000000E-002   0.0000000000000000     
   1.2812500000000000        9.3750000000000000E-002   0.0000000000000000     
   1.3125000000000000        9.3750000000000000E-002   0.0000000000000000     
   1.3437500000000000        9.3750000000000000E-002   0.0000000000000000     
   1.3750000000000000        9.3750000000000000E-002   0.0000000000000000     
   1.2500000000000000       0.12500000000000000        0.0000000000000000     
   1.2812500000000000       0.12500000000000000        0.0000000000000000     
   1.3125000000000000       0.12500000000000000        0.0000000000000000     
   1.3437500000000000       0.12500000000000000        0.0000000000000000     
   1.3750000000000000       0.12500000000000000        0.0000000000000000     
   1.3750000000000000        0.0000000000000000        0.0000000000000000     
   1.4062500000000000        0.0000000000000000        0.0000000000000000     
   1.4375000000000000        0.0000000000000000        0.0000000000000000     
   1.4687500000000000        0.0000000000000000        0.0000000000000000     
   1.5000000000000000        0.0000000000000000        0.0000000000000000     
   1.3750000000000000        3.1250000000000000E-002   0.0000000000000000     
   1.4062500000000000        3.1250000000000000E-002   0.0000000000000000     
   1.4375000000000000        3.1250000000000000E-002   0.0000000000000000     
   1.4687500000000000        3.1250000000000000E-002   0.0000000000000000     
   1.5000000000000000        3.1250000000000000E-002   0.0000000000000000     
   1.3750000000000000        6.2500000000000000E-002   0.0000000000000000     
   1.4062500000000000        6.2500000000000000E-002   0.0000000000000000     
   1.4375000000000000        6.2500000000000000E-002   0.0000000000000000     
   1.4687500000000000        6.2500000000000000E-002   0.0000000000000000     
   1.5000000000000000        6.2500000000000000E-002   0.0000000000000000     
   1.3750000000000000        9.3750000000000000E-002   0.0000000000000000     
   1.4062500000000000        9.3750000000000000E-002   0.0000000000000000     
   1.4375000000000000        9.3750000000000000E-002   0.0000000000000000     
   1.4687500000000000        9.3750000000000000E-002   0.0000000000000000     
   1.5000000000000000        9.3750000000000000E-002   0.0000000000000000     
   1.3750000000000000       0.12500000000000000        0.0000000000000000     
   1.4062500000000000       0.12500000000000000        0.0000000000000000     
   1.4375000000000000       0.12500000000000000        0.0000000000000000     
   1.4687500000000000       0.12500000000000000        0.0000000000000000     
   1.5000000000000000       0.12500000000000000        0.0000000000000000     
  0.50000000000000000       0.12500000000000000        0.0000000000000000     
  0.53125000000000000       0.12500000000000000        0.0000000000000000     
  0.56250000000000000       0.12500000000000000        0.0000000000000000     
  0.59375000000000000       0.12500000000000000        0.0000000000000000     
  0.62500000000000000       0.12500000000000000        0.0000000000000000     
  0.50000000000000000       0.15625000000000000        0.0000000000000000     
  0.53125000000000000       0.15625000000000000        0.0000000000000000     
  0.56250000000000000       0.15625000000000000        0.0000000000000000     
  0.59375000000000000       0.15625000000000000        0.0000000000000000     
  0.62500000000000000       0.15625000000000000        0.0000000000000000     
  0.50000000000000000       0.18750000000000000        0.0000000000000000     
  0.53125000000000000       0.18750000000000000        0.0000000000000000     
  0.56250000000000000       0.18750000000000000        0.0000000000000000     
  0.59375000000000000       0.18750000000000000        0.0000000000000000     
  0.62500000000000000       0.18750000000000000        0.0000000000000000     
  0.50000000000000000       0.21875000000000000        0.0000000000000000     
  0.53125000000000000       0.21875000000000000        0.0000000000000000     
  0.56250000000000000       0.21875000000000000        0.0000000000000000     
  0.59375000000000000       0.21875000000000000        0.0000000000000000     
  0.62500000000000000       0.21875000000000000        0.0000000000000000     
  0.50000000000000000       0.25000000000000000        0.0000000000000000     
  0.53125000000000000       0.25000000000000000        0.0000000000000000     
  0.56250000000000000       0.25000000000000000        0.0000000000000000     
  0.59375000000000000       0.25000000000000000        0.0000000000000000     
  0.62500000000000000       0.25000000000000000        0.0000000000000000     
  0.62500000000000000       0.12500000000000000        0.0000000000000000     
  0.65625000000000000       0.12500000000000000        0.0000000000000000     
  0.68750000000000000       0.12500000000000000        0.0000000000000000     
  0.71875000000000000       0.12500000000000000        0.0000000000000000     
  0.75000000000000000       0.12500000000000000        0.0000000000000000     
  0.62500000000000000       0.15625000000000000        0.0000000000000000     
  0.65625000000000000       0.15625000000000000        0.0000000000000000     
  0.68750000000000000       0.15625000000000000        0.0000000000000000     
  0.71875000000000000       0.15625000000000000        0.0000000000000000     
  0.75000000000000000       0.15625000000000000        0.0000000000000000     
  0.62500000000000000       0.18750000000000000        0.0000000000000000     
  0.65625000000000000       0.18750000000000000        0.0000000000000000     
  0.68750000000000000       0.18750000000000000        0.0000000000000000     
  0.71875000000000000       0.18750000000000000        0.0000000000000000     
  0.75000000000000000       0.18750000000000000        0.0000000000000000     
  0.62500000000000000       0.21875000000000000        0.0000000000000000     
  0.65625000000000000       0.21875000000000000        0.0000000000000000     
  0.68750000000000000       0.21875000000000000        0.0000000000000000     
  0.71875000000000000       0.21875000000000000        0.0000000000000000     
  0.75000000000000000       0.21875000000000000        0.0000000000000000     
  0.62500000000000000       0.25000000000000000        0.0000000000000000     
  0.65625000000000000       0.25000000000000000        0.0000000000000000     
  0.68750000000000000       0.25000000000000000        0.0000000000000000     
  0.71875000000000000       0.25000000000000000        0.0000000000000000     
  0.75000000000000000       0.25000000000000000        0.0000000000000000     
  0.75000000000000000       0.12500000000000000        0.0000000000000000     
  0.78125000000000000       0.12500000000000000        0.0000000000000000     
  0.81250000000000000       0.12500000000000000        0.0000000000000000     
  0.84375000000000000       0.12500000000000000        0.0000000000000000     
  0.87500000000000000       0.12500000000000000        0.0000000000000000     
  0.75000000000000000       0.15625000000000000        0.0000000000000000     
  0.78125000000000000       0.15625000000000000        0.0000000000000000     
  0.81250000000000000       0.15625000000000000        0.0000000000000000     
  0.84375000000000000       0.15625000000000000        0.0000000000000000     
  0.87500000000000000       0.15625000000000000        0.0000000000000000     
  0.75000000000000000       0.18750000000000000        0.0000000000000000     
  0.78125000000000000       0.18750000000000000        0.0000000000000000     
  0.81250000000000000       0.18750000000000000        0.0000000000000000     
  0.84375000000000000       0.18750000000000000        0.0000000000000000     
  0.87500000000000000       0.18750000000000000        0.0000000000000000     
  0.75000000000000000       0.21875000000000000        0.0000000000000000     
  0.78125000000000000       0.21875000000000000        0.0000000000000000     
  0.81250000000000000       0.21875000000000000        0.0000000000000000     
  0.84375000000000000       0.21875000000000000        0.0000000000000000     
  0.87500000000000000       0.21875000000000000        0.0000000000000000     
  0.75000000000000000       0.25000000000000000        0.0000000000000000     
  0.78125000000000000       0.25000000000000000        0.0000000000000000     
  0.81250000000000000       0.25000000000000000        0.0000000000000000     
  0.84375000000000000       0.25000000000000000        0.0000000000000000     
  0.87500000000000000       0.25000000000000000        0.0000000000000000     
  0.87500000000000000       0.12500000000000000        0.0000000000000000     
  0.90625000000000000       0.12500000000000000        0.0000000000000000     
  0.93750000000000000       0.12500000000000000        0.0000000000000000     
  0.96875000000000000       0.12500000000000000        0.0000000000000000     
   1.0000000000000000       0.12500000000000000        0.0000000000000000     
  0.87500000000000000       0.15625000000000000        0.0000000000000000     
  0.90625000000000000       0.15625000000000000        0.0000000000000000     
  0.93750000000000000       0.15625000000000000        0.0000000000000000     
  0.96875000000000000       0.15625000000000000        0.0000000000000000     
   1.0000000000000000       0.15625000000000000        0.0000000000000000     
  0.87500000000000000       0.18750000000000000        0.0000000000000000     
  0.90625000000000000       0.18750000000000000        0.0000000000000000     
  0.93750000000000000       0.18750000000000000        0.0000000000000000     
  0.96875000000000000       0.18750000000000000        0.0000000000000000     
   1.0000000000000000       0.18750000000000000        0.0000000000000000     
  0.87500000000000000       0.21875000000000000        0.0000000000000000     
  0.90625000000000000       0.21875000000000000        0.0000000000000000     
  0.93750000000000000       0.21875000000000000        0.0000000000000000     
  0.96875000000000000       0.21875000000000000        0.0000000000000000     
   1.0000000000000000       0.21875000000000000        0.0000000000000000     
  0.87500000000000000       0.25000000000000000        0.0000000000000000     
  0.90625000000000000       0.25000000000000000        0.0000000000000000     
  0.93750000000000000       0.25000000000000000        0.0000000000000000     
  0.96875000000000000       0.25000000000000000        0.0000000000000000     
   1.0000000000000000       0.25000000000000000        0.0000000000000000     
   1.0000000000000000       0.12500000000000000        0.0000000000000000     
   1.0312500000000000       0.12500000000000000        0.0000000000000000     
   1.0625000000000000       0.12500000000000000        0.0000000000000000     
   1.0937500000000000       0.12500000000000000        0.0000000000000000     
   1.1250000000000000       0.12500000000000000        0.0000000000000000     
   1.0000000000000000       0.15625000000000000        0.0000000000000000     
   1.0312500000000000       0.15625000000000000        0.0000000000000000     
   1.0625000000000000       0.15625000000000000        0.0000000000000000     
   1.0937500000000000       0.15625000000000000        0.0000000000000000     
   1.1250000000000000       0.15625000000000000        0.0000000000000000     
   1.0000000000000000       0.18750000000000000        0.0000000000000000     
   1.0312500000000000       0.18750000000000000        0.0000000000000000     
   1.0625000000000000       0.18750000000000000        0.0000000000000000     
   1.0937500000000000       0.18750000000000000        0.0000000000000000     
   1.1250000000000000       0.18750000000000000        0.0000000000000000     
   1.0000000000000000       0.21875000000000000        0.0000000000000000     
   1.0312500000000000       0.21875000000000000        0.0000000000000000     
   1.0625000000000000       0.21875000000000000        0.0000000000000000     
   1.0937500000000000       0.21875000000000000        0.0000000000000000     
   1.1250000000000000       0.21875000000000000        0.0000000000000000     
   1.0000000000000000       0.25000000000000000        0.0000000000000000     
   1.0312500000000000       0.25000000000000000        0.0000000000000000     
   1.0625000000000000       0.25000000000000000        0.0000000000000000     
   1.0937500000000000       0.25000000000000000        0.0000000000000000     
   1.1250000000000000       0.25000000000000000        0.0000000000000000     
   1.1250000000000000       0.12500000000000000        0.0000000000000000     
   1.1562500000000000       0.12500000000000000        0.0000000000000000     
   1.1875000000000000       0.12500000000000000        0.0000000000000000     
   1.2187500000000000       0.12500000000000000        0.0000000000000000     
   1.2500000000000000       0.12500000000000000        0.0000000000000000     
   1.1250000000000000       0.15625000000000000        0.0000000000000000     
   1.1562500000000000       0.15625000000000000        0.0000000000000000     
   1.1875000000000000       0.15625000000000000        0.0000000000000000     
   1.2187500000000000       0.15625000000000000        0.0000000000000000     
   1.2500000000000000       0.15625000000000000        0.0000000000000000     
   1.1250000000000000       0.18750000000000000        0.0000000000000000     
   1.1562500000000000       0.18750000000000000        0.0000000000000000     
   1.1875000000000000       0.18750000000000000        0.0000000000000000     
   1.2187500000000000       0.18750000000000000        0.0000000000000000     
   1.2500000000000000       0.18750000000000000        0.0000000000000000     
   1.1250000000000000       0.21875000000000000        0.0000000000000000     
   1.1562500000000000       0.21875000000000000        0.0000000000000000     
   1.1875000000000000       0.21875000000000000        0.0000000000000000     
   1.2187500000000000       0.21875000000000000        0.0000000000000000     
   1.2500000000000000       0.21875000000000000        0.0000000000000000     
   1.1250000000000000       0.25000000000000000        0.0000000000000000     
   1.1562500000000000       0.25000000000000000        0.0000000000000000     
   1.1875000000000000       0.25000000000000000        0.0000000000000000     
   1.2187500000000000       0.25000000000000000        0.0000000000000000     
   1.2500000000000000       0.25000000000000000        0.0000000000000000     
   1.2500000000000000       0.12500000000000000        0.0000000000000000     
   1.2812500000000000       0.12500000000000000        0.0000000000000000     
   1.3125000000000000       0.12500000000000000        0.0000000000000000     
   1.3437500000000000       0.12500000000000000        0.0000000000000000     
   1.3750000000000000       0.12500000000000000        0.0000000000000000     
   1.2500000000000000       0.15625000000000000        0.0000000000000000     
   1.2812500000000000       0.15625000000000000        0.0000000000000000     
   1.3125000000000000       0.15625000000000000        0.0000000000000000     
   1.3437500000000000       0.15625000000000000        0.0000000000000000     
   1.3750000000000000       0.15625000000000000        0.0000000000000000     
   1.2500000000000000       0.18750000000000000        0.0000000000000000     
   1.2812500000000000       0.18750000000000000        0.0000000000000000     
   1.3125000000000000       0.18750000000000000        0.0000000000000000     
   1.3437500000000000       0.18750000000000000        0.0000000000000000     
   1.3750000000000000       0.18750000000000000        0.0000000000000000     
   1.2500000000000000       0.21875000000000000        0.0000000000000000     
   1.2812500000000000       0.21875000000000000        0.0000000000000000     
   1.3125000000000000       0.21875000000000000        0.0000000000000000     
   1.3437500000000000       0.21875000000000000        0.0000000000000000     
   1.3750000000000000       0.21875000000000000        0.0000000000000000     
   1.2500000000000000       0.25000000000000000        0.0000000000000000     
   1.2812500000000000       0.25000000000000000        0.0000000000000000     
   1.3125000000000000       0.25000000000000000        0.0000000000000000     
   1.3437500000000000       0.25000000000000000        0.0000000000000000     
   1.3750000000000000       0.25000000000000000        0.0000000000000000     
   1.3750000000000000       0.12500000000000000        0.0000000000000000     
   1.4062500000000000       0.12500000000000000        0.0000000000000000     
   1.4375000000000000       0.12500000000000000        0.0000000000000000     
   1.4687500000000000       0.12500000000000000        0.0000000000000000     
   1.5000000000000000       0.12500000000000000        0.0000000000000000     
   1.3750000000000000       0.15625000000000000        0.0000000000000000     
   1.4062500000000000       0.15625000000000000        0.0000000000000000     
   1.4375000000000000       0.15625000000000000        0.0000000000000000     
   1.4687500000000000       0.15625000000000000        0.0000000000000000     
   1.5000000000000000       0.15625000000000000        0.0000000000000000     
   1.3750000000000000       0.18750000000000000        0.0000000000000000     
   1.4062500000000000       0.18750000000000000        0.0000000000000000     
   1.4375000000000000       0.18750000000000000        0.0000000000000000     
   1.4687500000000000       0.18750000000000000        0.0000000000000000     
   1.5000000000000000       0.18750000000000000        0.0000000000000000     
   1.3750000000000000       0.21875000000000000        0.0000000000000000     
   1.4062500000000000       0.21875000000000000        0.0000000000000000     
   1.4375000000000000       0.21875000000000000        0.0000000000000000     
   1.4687500000000000       0.21875000000000000        0.0000000000000000     
   1.5000000000000000       0.21875000000000000        0.0000000000000000     
   1.3750000000000000       0.25000000000000000        0.0000000000000000     
   1.4062500000000000       0.25000000000000000        0.0000000000000000     
   1.4375000000000000       0.25000000000000000        0.0000000000000000     
   1.4687500000000000       0.25000000000000000        0.0000000000000000     
   1.5000000000000000       0.25000000000000000        0.0000000000000000     
  0.50000000000000000       0.25000000000000000        0.0000000000000000     
  0.53125000000000000       0.25000000000000000        0.0000000000000000     
  0.56250000000000000       0.25000000000000000        0.0000000000000000     
  0.59375000000000000       0.25000000000000000        0.0000000000000000     
  0.62500000000000000       0.25000000000000000        0.0000000000000000     
  0.50000000000000000       0.28125000000000000        0.0000000000000000     
  0.53125000000000000       0.28125000000000000        0.0000000000000000     
  0.56250000000000000       0.28125000000000000        0.0000000000000000     
  0.59375000000000000       0.28125000000000000        0.0000000000000000     
  0.62500000000000000       0.28125000000000000        0.0000000000000000     
  0.50000000000000000       0.31250000000000000        0.0000000000000000     
  0.53125000000000000       0.31250000000000000        0.0000000000000000     
  0.56250000000000000       0.31250000000000000        0.0000000000000000     
  0.59375000000000000       0.31250000000000000        0.0000000000000000     
  0.62500000000000000       0.31250000000000000        0.0000000000000000     
  0.50000000000000000       0.34375000000000000        0.0000000000000000     
  0.53125000000000000       0.34375000000000000        0.0000000000000000     
  0.56250000000000000       0.34375000000000000        0.0000000000000000     
  0.59375000000000000       0.34375000000000000        0.0000000000000000     
  0.62500000000000000       0.34375000000000000        0.0000000000000000     
  0.50000000000000000       0.37500000000000000        0.0000000000000000     
  0.53125000000000000       0.37500000000000000        0.0000000000000000     
  0.56250000000000000       0.37500000000000000        0.0000000000000000     
  0.59375000000000000       0.37500000000000000        0.0000000000000000     
  0.62500000000000000       0.37500000000000000        0.0000000000000000     
  0.62500000000000000       0.25000000000000000        0.0000000000000000     
  0.65625000000000000       0.25000000000000000        0.0000000000000000     
  0.68750000000000000       0.25000000000000000        0.0000000000000000     
  0.71875000000000000       0.25000000000000000        0.0000000000000000     
  0.75000000000000000       0.25000000000000000        0.0000000000000000     
  0.62500000000000000       0.28125000000000000        0.0000000000000000     
  0.65625000000000000       0.28125000000000000        0.0000000000000000     
  0.68750000000000000       0.28125000000000000        0.0000000000000000     
  0.71875000000000000       0.28125000000000000        0.0000000000000000     
  0.75000000000000000       0.28125000000000000        0.0000000000000000     
  0.62500000000000000       0.31250000000000000        0.0000000000000000     
  0.65625000000000000       0.31250000000000000        0.0000000000000000     
  0.68750000000000000       0.31250000000000000        0.0000000000000000     
  0.71875000000000000       0.31250000000000000        0.0000000000000000     
  0.75000000000000000       0.31250000000000000        0.0000000000000000     
  0.62500000000000000       0.34375000000000000        0.0000000000000000     
  0.65625000000000000       0.34375000000000000        0.0000000000000000     
  0.68750000000000000       0.34375000000000000        0.0000000000000000     
  0.71875000000000000       0.34375000000000000        0.0000000000000000     
  0.75000000000000000       0.34375000000000000        0.0000000000000000     
  0.62500000000000000       0.37500000000000000        0.0000000000000000     
  0.65625000000000000       0.37500000000000000        0.0000000000000000     
  0.68750000000000000       0.37500000000000000        0.0000000000000000     
  0.71875000000000000       0.37500000000000000        0.0000000000000000     
  0.75000000000000000       0.37500000000000000        0.0000000000000000     
  0.75000000000000000       0.25000000000000000        0.0000000000000000     
  0.78125000000000000       0.25000000000000000        0.0000000000000000     
  0.81250000000000000       0.25000000000000000        0.0000000000000000     
  0.84375000000000000       0.25000000000000000        0.0000000000000000     
  0.87500000000000000       0.25000000000000000        0.0000000000000000     
  0.75000000000000000       0.28125000000000000        0.0000000000000000     
  0.78125000000000000       0.28125000000000000        0.0000000000000000     
  0.81250000000000000       0.28125000000000000        0.0000000000000000     
  0.84375000000000000       0.28125000000000000        0.0000000000000000     
  0.87500000000000000       0.28125000000000000        0.0000000000000000     
  0.75000000000000000       0.31250000000000000        0.0000000000000000     
  0.78125000000000000       0.31250000000000000        0.0000000000000000     
  0.81250000000000000       0.31250000000000000        0.0000000000000000     
  0.84375000000000000       0.31250000000000000        0.0000000000000000     
  0.87500000000000000       0.31250000000000000        0.0000000000000000     
  0.75000000000000000       0.34375000000000000        0.0000000000000000     
  0.78125000000000000       0.34375000000000000        0.0000000000000000     
  0.81250000000000000       0.34375000000000000        0.0000000000000000     
  0.84375000000000000       0.34375000000000000        0.0000000000000000     
  0.87500000000000000       0.34375000000000000        0.0000000000000000     
  0.75000000000000000       0.37500000000000000        0.0000000000000000     
  0.78125000000000000       0.37500000000000000        0.0000000000000000     
  0.81250000000000000       0.37500000000000000        0.0000000000000000     
  0.84375000000000000       0.37500000000000000        0.0000000000000000     
  0.87500000000000000       0.37500000000000000        0.0000000000000000     
  0.87500000000000000       0.25000000000000000        0.0000000000000000     
  0.90625000000000000       0.25000000000000000        0.0000000000000000     
  0.93750000000000000       0.25000000000000000        0.0000000000000000     
  0.96875000000000000       0.25000000000000000        0.0000000000000000     
   1.0000000000000000       0.25000000000000000        0.0000000000000000     
  0.87500000000000000       0.28125000000000000        0.0000000000000000     
  0.90625000000000000       0.28125000000000000        0.0000000000000000     
  0.93750000000000000       0.28125000000000000        0.0000000000000000     
  0.96875000000000000       0.28125000000000000        0.0000000000000000     
   1.0000000000000000       0.28125000000000000        0.0000000000000000     
  0.87500000000000000       0.31250000000000000        0.0000000000000000     
  0.90625000000000000       0.31250000000000000        0.0000000000000000     
  0.93750000000000000       0.31250000000000000        0.0000000000000000     
  0.96875000000000000       0.31250000000000000        0.0000000000000000     
   1.0000000000000000       0.31250000000000000        0.0000000000000000     
  0.87500000000000000       0.34375000000000000        0.0000000000000000     
  0.90625000000000000       0.34375000000000000        0.0000000000000000     
  0.93750000000000000       0.34375000000000000        0.0000000000000000     
  0.96875000000000000       0.34375000000000000        0.0000000000000000     
   1.0000000000000000       0.34375000000000000        0.0000000000000000     
  0.87500000000000000       0.37500000000000000        0.0000000000000000     
  0.90625000000000000       0.37500000000000000        0.0000000000000000     
  0.93750000000000000       0.37500000000000000        0.0000000000000000     
  0.96875000000000000       0.37500000000000000        0.0000000000000000     
   1.0000000000000000       0.37500000000000000        0.0000000000000000     
   1.0000000000000000       0.25000000000000000        0.0000000000000000     
   1.0312500000000000       0.25000000000000000        0.0000000000000000     
   1.0625000000000000       0.25000000000000000        0.0000000000000000     
   1.0937500000000000       0.25000000000000000        0.0000000000000000     
   1.1250000000000000       0.25000000000000000        0.0000000000000000     
   1.0000000000000000       0.28125000000000000        0.0000000000000000     
   1.0312500000000000       0.28125000000000000        0.0000000000000000     
   1.0625000000000000       0.28125000000000000        0.0000000000000000     
   1.0937500000000000       0.28125000000000000        0.0000000000000000     
   1.1250000000000000       0.28125000000000000        0.0000000000000000     
   1.0000000000000000       0.31250000000000000        0.0000000000000000     
   1.0312500000000000       0.31250000000000000        0.0000000000000000     
   1.0625000000000000       0.31250000000000000        0.0000000000000000     
   1.0937500000000000       0.31250000000000000        0.0000000000000000     
   1.1250000000000000       0.31250000000000000        0.0000000000000000     
   1.0000000000000000       0.34375000000000000        0.0000000000000000     
   1.0312500000000000       0.34375000000000000        0.0000000000000000     
   1.0625000000000000       0.34375000000000000        0.0000000000000000     
   1.0937500000000000       0.34375000000000000        0.0000000000000000     
   1.1250000000000000       0.34375000000000000        0.0000000000000000     
   1.0000000000000000       0.37500000000000000        0.0000000000000000     
   1.0312500000000000       0.37500000000000000        0.0000000000000000     
   1.0625000000000000       0.37500000000000000        0.0000000000000000     
   1.0937500000000000       0.37500000000000000        0.0000000000000000     
   1.1250000000000000       0.37500000000000000        0.0000000000000000     
   1.1250000000000000       0.25000000000000000        0.0000000000000000     
   1.1562500000000000       0.25000000000000000        0.0000000000000000     
   1.1875000000000000       0.25000000000000000        0.0000000000000000     
   1.2187500000000000       0.25000000000000000        0.0000000000000000     
   1.2500000000000000       0.25000000000000000        0.0000000000000000     
   1.1250000000000000       0.28125000000000000        0.0000000000000000     
   1.1562500000000000       0.28125000000000000        0.0000000000000000     
   1.1875000000000000       0.28125000000000000        0.0000000000000000     
   1.2187500000000000       0.28125000000000000        0.0000000000000000     
   1.2500000000000000       0.28125000000000000        0.0000000000000000     
   1.1250000000000000       0.31250000000000000        0.0000000000000000     
   1.1562500000000000       0.31250000000000000        0.0000000000000000     
   1.1875000000000000       0.31250000000000000        0.0000000000000000     
   1.2187500000000000       0.31250000000000000        0.0000000000000000     
   1.2500000000000000       0.31250000000000000        0.0000000000000000     
   1.1250000000000000       0.34375000000000000        0.0000000000000000     
   1.1562500000000000       0.34375000000000000        0.0000000000000000     
   1.1875000000000000       0.34375000000000000        0.0000000000000000     
   1.2187500000000000       0.34375000000000000        0.0000000000000000     
   1.2500000000000000       0.34375000000000000        0.0000000000000000     
   1.1250000000000000       0.37500000000000000        0.0000000000000000     
   1.1562500000000000       0.37500000000000000        0.0000000000000000     
   1.1875000000000000       0.37500000000000000        0.0000000000000000     
   1.2187500000000000       0.37500000000000000        0.0000000000000000     
   1.2500000000000000       0.37500000000000000        0.0000000000000000     
   1.2500000000000000       0.25000000000000000        0.0000000000000000     
   1.2812500000000000       0.25000000000000000        0.0000000000000000     
   1.3125000000000000       0.25000000000000000        0.0000000000000000     
   1.3437500000000000       0.25000000000000000        0.0000000000000000     
   1.3750000000000000       0.25000000000000000        0.0000000000000000     
   1.2500000000000000       0.28125000000000000        0.0000000000000000     
   1.2812500000000000       0.28125000000000000        0.0000000000000000     
   1.3125000000000000       0.28125000000000000        0.0000000000000000     
   1.3437500000000000       0.28125000000000000        0.0000000000000000     
   1.3750000000000000       0.28125000000000000        0.0000000000000000     
   1.2500000000000000       0.31250000000000000        0.0000000000000000     
   1.2812500000000000       0.31250000000000000        0.0000000000000000     
   1.3125000000000000       0.31250000000000000        0.0000000000000000     
   1.3437500000000000       0.31250000000000000        0.0000000000000000     
   1.3750000000000000       0.31250000000000000        0.0000000000000000     
   1.2500000000000000       0.34375000000000000        0.0000000000000000     
   1.2812500000000000       0.34375000000000000        0.0000000000000000     
   1.3125000000000000       0.34375000000000000        0.0000000000000000     
   1.3437500000000000       0.34375000000000000        0.0000000000000000     
   1.3750000000000000       0.34375000000000000        0.0000000000000000     
   1.2500000000000000       0.37500000000000000        0.0000000000000000     
   1.2812500000000000       0.37500000000000000        0.0000000000000000     
   1.3125000000000000       0.37500000000000000        0.0000000000000000     
   1.3437500000000000       0.37500000000000000        0.0000000000000000     
   1.3750000000000000       0.37500000000000000        0.0000000000000000     
   1.3750000000000000       0.25000000000000000        0.0000000000000000     
   1.4062500000000000       0.25000000000000000        0.0000000000000000     
   1.4375000000000000       0.25000000000000000        0.0000000000000000     
   1.4687500000000000       0.25000000000000000        0.0000000000000000     
   1.5000000000000000       0.25000000000000000        0.0000000000000000     
   1.3750000000000000       0.28125000000000000        0.0000000000000000     
   1.4062500000000000       0.28125000000000000        0.0000000000000000     
   1.4375000000000000       0.28125000000000000        0.0000000000000000     
   1.4687500000000000       0.28125000000000000        0.0000000000000000     
   1.5000000000000000       0.28125000000000000        0.0000000000000000     
   1.3750000000000000       0.31250000000000000        0.0000000000000000     
   1.4062500000000000       0.31250000000000000        0.0000000000000000     
   1.4375000000000000       0.31250000000000000        0.0000000000000000     
   1.4687500000000000       0.31250000000000000        0.0000000000000000     
   1.5000000000000000       0.31250000000000000        0.0000000000000000     
   1.3750000000000000       0.34375000000000000        0.0000000000000000     
   1.4062500000000000       0.34375000000000000        0.0000000000000000     
   1.4375000000000000       0.34375000000000000        0.0000000000000000     
   1.4687500000000000       0.34375000000000000        0.0000000000000000     
   1.5000000000000000       0.34375000000000000        0.0000000000000000     
   1.3750000000000000       0.37500000000000000        0.0000000000000000     
   1.4062500000000000       0.37500000000000000        0.0000000000000000     
   1.4375000000000000       0.37500000000000000        0.0000000000000000     
   1.4687500000000000       0.37500000000000000        0.0000000000000000     
   1.5000000000000000       0.37500000000000000        0.0000000000000000     
  0.50000000000000000       0.37500000000000000        0.0000000000000000     
  0.53125000000000000       0.37500000000000000        0.0000000000000000     
  0.56250000000000000       0.37500000000000000        0.0000000000000000     
  0.59375000000000000       0.37500000000000000        0.0000000000000000     
  0.62500000000000000       0.37500000000000000        0.0000000000000000     
  0.50000000000000000       0.40625000000000000        0.0000000000000000     
  0.53125000000000000       0.40625000000000000        0.0000000000000000     
  0.56250000000000000       0.40625000000000000        0.0000000000000000     
  0.59375000000000000       0.40625000000000000        0.0000000000000000     
  0.62500000000000000       0.40625000000000000        0.0000000000000000     
  0.50000000000000000       0.43750000000000000        0.0000000000000000     
  0.53125000000000000       0.43750000000000000        0.0000000000000000     
  0.56250000000000000       0.43750000000000000        0.0000000000000000     
  0.59375000000000000       0.43750000000000000        0.0000000000000000     
  0.62500000000000000       0.43750000000000000        0.0000000000000000     
  0.50000000000000000       0.46875000000000000        0.0000000000000000     
  0.53125000000000000       0.46875000000000000        0.0000000000000000     
  0.56250000000000000       0.46875000000000000        0.0000000000000000     
  0.59375000000000000       0.46875000000000000        0.0000000000000000     
  0.62500000000000000       0.46875000000000000        0.0000000000000000     
  0.50000000000000000       0.50000000000000000        0.0000000000000000     
  0.53125000000000000       0.50000000000000000        0.0000000000000000     
  0.56250000000000000       0.50000000000000000        0.0000000000000000     
  0.59375000000000000       0.50000000000000000        0.0000000000000000     
  0.62500000000000000       0.50000000000000000        0.0000000000000000     
  0.62500000000000000       0.37500000000000000        0.0000000000000000     
  0.65625000000000000       0.37500000000000000        0.0000000000000000     
  0.68750000000000000       0.37500000000000000        0.0000000000000000     
  0.71875000000000000       0.37500000000000000        0.0000000000000000     
  0.75000000000000000       0.37500000000000000        0.0000000000000000     
  0.62500000000000000       0.40625000000000000        0.0000000000000000     
  0.65625000000000000       0.40625000000000000        0.0000000000000000     
  0.68750000000000000       0.40625000000000000        0.0000000000000000     
  0.71875000000000000       0.40625000000000000        0.0000000000000000     
  0.75000000000000000       0.40625000000000000        0.0000000000000000     
  0.62500000000000000       0.43750000000000000        0.0000000000000000     
  0.65625000000000000       0.43750000000000000        0.0000000000000000     
  0.68750000000000000       0.43750000000000000        0.0000000000000000     
  0.71875000000000000       0.43750000000000000        0.0000000000000000     
  0.75000000000000000       0.43750000000000000        0.0000000000000000     
  0.62500000000000000       0.46875000000000000        0.0000000000000000     
  0.65625000000000000       0.46875000000000000        0.0000000000000000     
  0.68750000000000000       0.46875000000000000        0.0000000000000000     
  0.71875000000000000       0.46875000000000000        0.0000000000000000     
  0.75000000000000000       0.46875000000000000        0.0000000000000000     
  0.62500000000000000       0.50000000000000000        0.0000000000000000     
  0.65625000000000000       0.50000000000000000        0.0000000000000000     
  0.68750000000000000       0.50000000000000000        0.0000000000000000     
  0.71875000000000000       0.50000000000000000        0.0000000000000000     
  0.75000000000000000       0.50000000000000000        0.0000000000000000     
  0.75000000000000000       0.37500000000000000        0.0000000000000000     
  0.78125000000000000       0.37500000000000000        0.0000000000000000     
  0.81250000000000000       0.37500000000000000        0.0000000000000000     
  0.84375000000000000       0.37500000000000000        0.0000000000000000     
  0.87500000000000000       0.37500000000000000        0.0000000000000000     
  0.75000000000000000       0.40625000000000000        0.0000000000000000     
  0.78125000000000000       0.40625000000000000        0.0000000000000000     
  0.81250000000000000       0.40625000000000000        0.0000000000000000     
  0.84375000000000000       0.40625000000000000        0.0000000000000000     
  0.87500000000000000       0.40625000000000000        0.0000000000000000     
  0.75000000000000000       0.43750000000000000        0.0000000000000000     
  0.78125000000000000       0.43750000000000000        0.0000000000000000     
  0.81250000000000000       0.43750000000000000        0.0000000000000000     
  0.84375000000000000       0.43750000000000000        0.0000000000000000     
  0.87500000000000000       0.43750000000000000        0.0000000000000000     
  0.75000000000000000       0.46875000000000000        0.0000000000000000     
  0.78125000000000000       0.46875000000000000        0.0000000000000000     
  0.81250000000000000       0.46875000000000000        0.0000000000000000     
  0.84375000000000000       0.46875000000000000        0.0000000000000000     
  0.87500000000000000       0.46875000000000000        0.0000000000000000     
  0.75000000000000000       0.50000000000000000        0.0000000000000000     
  0.78125000000000000       0.50000000000000000        0.0000000000000000     
  0.81250000000000000       0.50000000000000000        0.0000000000000000     
  0.84375000000000000       0.50000000000000000        0.0000000000000000     
  0.87500000000000000       0.50000000000000000        0.0000000000000000     
  0.87500000000000000       0.37500000000000000        0.0000000000000000     
  0.90625000000000000       0.37500000000000000        0.0000000000000000     
  0.93750000000000000       0.37500000000000000        0.0000000000000000     
  0.96875000000000000       0.37500000000000000        0.0000000000000000     
   1.0000000000000000       0.37500000000000000        0.0000000000000000     
  0.87500000000000000       0.40625000000000000        0.0000000000000000     
  0.90625000000000000       0.40625000000000000        0.0000000000000000     
  0.93750000000000000       0.40625000000000000        0.0000000000000000     
  0.96875000000000000       0.40625000000000000        0.0000000000000000     
   1.0000000000000000       0.40625000000000000        0.0000000000000000     
  0.87500000000000000       0.43750000000000000        0.0000000000000000     
  0.90625000000000000       0.43750000000000000        0.0000000000000000     
  0.93750000000000000       0.43750000000000000        0.0000000000000000     
  0.96875000000000000       0.43750000000000000        0.0000000000000000     
   1.0000000000000000       0.43750000000000000        0.0000000000000000     
  0.87500000000000000       0.46875000000000000        0.0000000000000000     
  0.90625000000000000       0.46875000000000000        0.0000000000000000     
  0.93750000000000000       0.46875000000000000        0.0000000000000000     
  0.96875000000000000       0.46875000000000000        0.0000000000000000     
   1.0000000000000000       0.46875000000000000        0.0000000000000000     
  0.87500000000000000       0.50000000000000000        0.0000000000000000     
  0.90625000000000000       0.50000000000000000        0.0000000000000000     
  0.93750000000000000       0.50000000000000000        0.0000000000000000     
  0.96875000000000000       0.50000000000000000        0.0000000000000000     
   1.0000000000000000       0.50000000000000000        0.0000000000000000     
   1.0000000000000000       0.37500000000000000        0.0000000000000000     
   1.0312500000000000       0.37500000000000000        0.0000000000000000     
   1.0625000000000000       0.37500000000000000        0.0000000000000000     
   1.0937500000000000       0.37500000000000000        0.0000000000000000     
   1.1250000000000000       0.37500000000000000        0.0000000000000000     
   1.0000000000000000       0.40625000000000000        0.0000000000000000     
   1.0312500000000000       0.40625000000000000        0.0000000000000000     
   1.0625000000000000       0.40625000000000000        0.0000000000000000     
   1.0937500000000000       0.40625000000000000        0.0000000000000000     
   1.1250000000000000       0.40625000000000000        0.0000000000000000     
   1.0000000000000000       0.43750000000000000        0.0000000000000000     
   1.0312500000000000       0.43750000000000000        0.0000000000000000     
   1.0625000000000000       0.43750000000000000        0.0000000000000000     
   1.0937500000000000       0.43750000000000000        0.0000000000000000     
   1.1250000000000000       0.43750000000000000        0.0000000000000000     
   1.0000000000000000       0.46875000000000000        0.0000000000000000     
   1.0312500000000000       0.46875000000000000        0.0000000000000000     
   1.0625000000000000       0.46875000000000000        0.0000000000000000     
   1.0937500000000000       0.46875000000000000        0.0000000000000000     
   1.1250000000000000       0.46875000000000000        0.0000000000000000     
   1.0000000000000000       0.50000000000000000        0.0000000000000000     
   1.0312500000000000       0.50000000000000000        0.0000000000000000     
   1.0625000000000000       0.50000000000000000        0.0000000000000000     
   1.0937500000000000       0.50000000000000000        0.0000000000000000     
   1.1250000000000000       0.50000000000000000        0.0000000000000000     
   1.1250000000000000       0.37500000000000000        0.0000000000000000     
   1.1562500000000000       0.37500000000000000        0.0000000000000000     
   1.1875000000000000       0.37500000000000000        0.0000000000000000     
   1.2187500000000000       0.37500000000000000        0.0000000000000000     
   1.2500000000000000       0.37500000000000000        0.0000000000000000     
   1.1250000000000000       0.40625000000000000        0.0000000000000000     
   1.1562500000000000       0.40625000000000000        0.0000000000000000     
   1.1875000000000000       0.40625000000000000        0.0000000000000000     
   1.2187500000000000       0.40625000000000000        0.0000000000000000     
   1.2500000000000000       0.40625000000000000        0.0000000000000000     
   1.1250000000000000       0.43750000000000000        0.0000000000000000     
   1.1562500000000000       0.43750000000000000        0.0000000000000000     
   1.1875000000000000       0.43750000000000000        0.0000000000000000     
   1.2187500000000000       0.43750000000000000        0.0000000000000000     
   1.2500000000000000       0.43750000000000000        0.0000000000000000     
   1.1250000000000000       0.46875000000000000        0.0000000000000000     
   1.1562500000000000       0.46875000000000000        0.0000000000000000     
   1.1875000000000000       0.46875000000000000        0.0000000000000000     
   1.2187500000000000       0.46875000000000000        0.0000000000000000     
   1.2500000000000000       0.46875000000000000        0.0000000000000000     
   1.1250000000000000       0.50000000000000000        0.0000000000000000     
   1.1562500000000000       0.50000000000000000        0.0000000000000000     
   1.1875000000000000       0.50000000000000000        0.0000000000000000     
   1.2187500000000000       0.50000000000000000        0.0000000000000000     
   1.2500000000000000       0.50000000000000000        0.0000000000000000     
   1.2500000000000000       0.37500000000000000        0.0000000000000000     
   1.2812500000000000       0.37500000000000000        0.0000000000000000     
   1.3125000000000000       0.37500000000000000        0.0000000000000000     
   1.3437500000000000       0.37500000000000000        0.0000000000000000     
   1.3750000000000000       0.37500000000000000        0.0000000000000000     
   1.2500000000000000       0.40625000000000000        0.0000000000000000     
   1.2812500000000000       0.40625000000000000        0.0000000000000000     
   1.3125000000000000       0.40625000000000000        0.0000000000000000     
   1.3437500000000000       0.40625000000000000        0.0000000000000000     
   1.3750000000000000       0.40625000000000000        0.0000000000000000     
   1.2500000000000000       0.43750000000000000        0.0000000000000000     
   1.2812500000000000       0.43750000000000000        0.0000000000000000     
   1.3125000000000000       0.43750000000000000        0.0000000000000000     
   1.3437500000000000       0.43750000000000000        0.0000000000000000     
   1.3750000000000000       0.43750000000000000        0.0000000000000000     
   1.2500000000000000       0.46875000000000000        0.0000000000000000     
   1.2812500000000000       0.46875000000000000        0.0000000000000000     
   1.3125000000000000       0.46875000000000000        0.0000000000000000     
   1.3437500000000000       0.46875000000000000        0.0000000000000000     
   1.3750000000000000       0.46875000000000000        0.0000000000000000     
   1.2500000000000000       0.50000000000000000        0.0000000000000000     
   1.2812500000000000       0.50000000000000000        0.0000000000000000     
   1.3125000000000000       0.50000000000000000        0.0000000000000000     
   1.3437500000000000       0.50000000000000000        0.0000000000000000     
   1.3750000000000000       0.50000000000000000        0.0000000000000000     
   1.3750000000000000       0.37500000000000000        0.0000000000000000     
   1.4062500000000000       0.37500000000000000        0.0000000000000000     
   1.4375000000000000       0.37500000000000000        0.0000000000000000     
   1.4687500000000000       0.37500000000000000        0.0000000000000000     
   1.5000000000000000       0.37500000000000000        0.0000000000000000     
   1.3750000000000000       0.40625000000000000        0.0000000000000000     
   1.4062500000000000       0.40625000000000000        0.0000000000000000     
   1.4375000000000000       0.40625000000000000        0.0000000000000000     
   1.4687500000000000       0.40625000000000000        0.0000000000000000     
   1.5000000000000000       0.40625000000000000        0.0000000000000000     
   1.3750000000000000       0.43750000000000000        0.0000000000000000     
   1.4062500000000000       0.43750000000000000        0.0000000000000000     
   1.4375000000000000       0.43750000000000000        0.0000000000000000     
   1.4687500000000000       0.43750000000000000        0.0000000000000000     
   1.5000000000000000       0.43750000000000000        0.0000000000000000     
   1.3750000000000000       0.46875000000000000        0.0000000000000000     
   1.4062500000000000       0.46875000000000000        0.0000000000000000     
   1.4375000000000000       0.46875000000000000        0.0000000000000000     
   1.4687500000000000       0.46875000000000000        0.0000000000000000     
   1.5000000000000000       0.46875000000000000        0.0000000000000000     
   1.3750000000000000       0.50000000000000000        0.0000000000000000     
   1.4062500000000000       0.50000000000000000        0.0000000000000000     
   1.4375000000000000       0.50000000000000000        0.0000000000000000     
   1.4687500000000000       0.50000000000000000        0.0000000000000000     
   1.5000000000000000       0.50000000000000000        0.0000000000000000     
  0.50000000000000000       0.50000000000000000        0.0000000000000000     
  0.53125000000000000       0.50000000000000000        0.0000000000000000     
  0.56250000000000000       0.50000000000000000        0.0000000000000000     
  0.59375000000000000       0.50000000000000000        0.0000000000000000     
  0.62500000000000000       0.50000000000000000        0.0000000000000000     
  0.50000000000000000       0.53125000000000000        0.0000000000000000     
  0.53125000000000000       0.53125000000000000        0.0000000000000000     
  0.56250000000000000       0.53125000000000000        0.0000000000000000     
  0.59375000000000000       0.53125000000000000        0.0000000000000000     
  0.62500000000000000       0.53125000000000000        0.0000000000000000     
  0.50000000000000000       0.56250000000000000        0.0000000000000000     
  0.53125000000000000       0.56250000000000000        0.0000000000000000     
  0.56250000000000000       0.56250000000000000        0.0000000000000000     
  0.59375000000000000       0.56250000000000000        0.0000000000000000     
  0.62500000000000000       0.56250000000000000        0.0000000000000000     
  0.50000000000000000       0.59375000000000000        0.0000000000000000     
  0.53125000000000000       0.59375000000000000        0.0000000000000000     
  0.56250000000000000       0.59375000000000000        0.0000000000000000     
  0.59375000000000000       0.59375000000000000        0.0000000000000000     
  0.62500000000000000       0.59375000000000000        0.0000000000000000     
  0.50000000000000000       0.62500000000000000        0.0000000000000000     
  0.53125000000000000       0.62500000000000000        0.0000000000000000     
  0.56250000000000000       0.62500000000000000        0.0000000000000000     
  0.59375000000000000       0.62500000000000000        0.0000000000000000     
  0.62500000000000000       0.62500000000000000        0.0000000000000000     
  0.62500000000000000       0.50000000000000000        0.0000000000000000     
  0.65625000000000000       0.50000000000000000        0.0000000000000000     
  0.68750000000000000       0.50000000000000000        0.0000000000000000     
  0.71875000000000000       0.50000000000000000        0.0000000000000000     
  0.75000000000000000       0.50000000000000000        0.0000000000000000     
  0.62500000000000000       0.53125000000000000        0.0000000000000000     
  0.65625000000000000       0.53125000000000000        0.0000000000000000     
  0.68750000000000000       0.53125000000000000        0.0000000000000000     
  0.71875000000000000       0.53125000000000000        0.0000000000000000     
  0.75000000000000000       0.53125000000000000        0.0000000000000000     
  0.62500000000000000       0.56250000000000000        0.0000000000000000     
  0.65625000000000000       0.56250000000000000        0.0000000000000000     
  0.68750000000000000       0.56250000000000000        0.0000000000000000     
  0.71875000000000000       0.56250000000000000        0.0000000000000000     
  0.75000000000000000       0.56250000000000000        0.0000000000000000     
  0.62500000000000000       0.59375000000000000        0.0000000000000000     
  0.65625000000000000       0.59375000000000000        0.0000000000000000     
  0.68750000000000000       0.59375000000000000        0.0000000000000000     
  0.71875000000000000       0.59375000000000000        0.0000000000000000     
  0.75000000000000000       0.59375000000000000        0.0000000000000000     
  0.62500000000000000       0.62500000000000000        0.0000000000000000     
  0.65625000000000000       0.62500000000000000        0.0000000000000000     
  0.68750000000000000       0.62500000000000000        0.0000000000000000     
  0.71875000000000000       0.62500000000000000        0.0000000000000000     
  0.75000000000000000       0.62500000000000000        0.0000000000000000     
  0.75000000000000000       0.50000000000000000        0.0000000000000000     
  0.78125000000000000       0.50000000000000000        0.0000000000000000     
  0.81250000000000000       0.50000000000000000        0.0000000000000000     
  0.84375000000000000       0.50000000000000000        0.0000000000000000     
  0.87500000000000000       0.50000000000000000        0.0000000000000000     
  0.75000000000000000       0.53125000000000000        0.0000000000000000     
  0.78125000000000000       0.53125000000000000        0.0000000000000000     
  0.81250000000000000       0.53125000000000000        0.0000000000000000     
  0.84375000000000000       0.53125000000000000        0.0000000000000000     
  0.87500000000000000       0.53125000000000000        0.0000000000000000     
  0.75000000000000000       0.56250000000000000        0.0000000000000000     
  0.78125000000000000       0.56250000000000000        0.0000000000000000     
  0.81250000000000000       0.56250000000000000        0.0000000000000000     
  0.84375000000000000       0.56250000000000000        0.0000000000000000     
  0.87500000000000000       0.56250000000000000        0.0000000000000000     
  0.75000000000000000       0.59375000000000000        0.0000000000000000     
  0.78125000000000000       0.59375000000000000        0.0000000000000000     
  0.81250000000000000       0.59375000000000000        0.0000000000000000     
  0.84375000000000000       0.59375000000000000        0.0000000000000000     
  0.87500000000000000       0.59375000000000000        0.0000000000000000     
  0.75000000000000000       0.62500000000000000        0.0000000000000000     
  0.78125000000000000       0.62500000000000000        0.0000000000000000     
  0.81250000000000000       0.62500000000000000        0.0000000000000000     
  0.84375000000000000       0.62500000000000000        0.0000000000000000     
  0.87500000000000000       0.62500000000000000        0.0000000000000000     
  0.87500000000000000       0.50000000000000000        0.0000000000000000     
  0.90625000000000000       0.50000000000000000        0.0000000000000000     
  0.93750000000000000       0.50000000000000000        0.0000000000000000     
  0.96875000000000000       0.50000000000000000        0.0000000000000000     
   1.0000000000000000       0.50000000000000000        0.0000000000000000     
  0.87500000000000000       0.53125000000000000        0.0000000000000000     
  0.90625000000000000       0.53125000000000000        0.0000000000000000     
  0.93750000000000000       0.53125000000000000        0.0000000000000000     
  0.96875000000000000       0.53125000000000000        0.0000000000000000     
   1.0000000000000000       0.53125000000000000        0.0000000000000000     
  0.87500000000000000       0.56250000000000000        0.0000000000000000     
  0.90625000000000000       0.56250000000000000        0.0000000000000000     
  0.93750000000000000       0.56250000000000000        0.0000000000000000     
  0.96875000000000000       0.56250000000000000        0.0000000000000000     
   1.0000000000000000       0.56250000000000000        0.0000000000000000     
  0.87500000000000000       0.59375000000000000        0.0000000000000000     
  0.90625000000000000       0.59375000000000000        0.0000000000000000     
  0.93750000000000000       0.59375000000000000        0.0000000000000000     
  0.96875000000000000       0.59375000000000000        0.0000000000000000     
   1.0000000000000000       0.59375000000000000        0.0000000000000000     
  0.87500000000000000       0.62500000000000000        0.0000000000000000     
  0.90625000000000000       0.62500000000000000        0.0000000000000000     
  0.93750000000000000       0.62500000000000000        0.0000000000000000     
  0.96875000000000000       0.62500000000000000        0.0000000000000000     
   1.0000000000000000       0.62500000000000000        0.0000000000000000     
   1.0000000000000000       0.50000000000000000        0.0000000000000000     
   1.0312500000000000       0.50000000000000000        0.0000000000000000     
   1.0625000000000000       0.50000000000000000        0.0000000000000000     
   1.0937500000000000       0.50000000000000000        0.0000000000000000     
   1.1250000000000000       0.50000000000000000        0.0000000000000000     
   1.0000000000000000       0.53125000000000000        0.0000000000000000     
   1.0312500000000000       0.53125000000000000        0.0000000000000000     
   1.0625000000000000       0.53125000000000000        0.0000000000000000     
   1.0937500000000000       0.53125000000000000        0.0000000000000000     
   1.1250000000000000       0.53125000000000000        0.0000000000000000     
   1.0000000000000000       0.56250000000000000        0.0000000000000000     
   1.0312500000000000       0.56250000000000000        0.0000000000000000     
   1.0625000000000000       0.56250000000000000        0.0000000000000000     
   1.0937500000000000       0.56250000000000000        0.0000000000000000     
   1.1250000000000000       0.56250000000000000        0.0000000000000000     
   1.0000000000000000       0.59375000000000000        0.0000000000000000     
   1.0312500000000000       0.59375000000000000        0.0000000000000000     
   1.0625000000000000       0.59375000000000000        0.0000000000000000     
   1.0937500000000000       0.59375000000000000        0.0000000000000000     
   1.1250000000000000       0.59375000000000000        0.0000000000000000     
   1.0000000000000000       0.62500000000000000        0.0000000000000000     
   1.0312500000000000       0.62500000000000000        0.0000000000000000     
   1.0625000000000000       0.62500000000000000        0.0000000000000000     
   1.0937500000000000       0.62500000000000000        0.0000000000000000     
   1.1250000000000000       0.62500000000000000        0.0000000000000000     
   1.1250000000000000       0.50000000000000000        0.0000000000000000     
   1.1562500000000000       0.50000000000000000        0.0000000000000000     
   1.1875000000000000       0.50000000000000000        0.0000000000000000     
   1.2187500000000000       0.50000000000000000        0.0000000000000000     
   1.2500000000000000       0.50000000000000000        0.0000000000000000     
   1.1250000000000000       0.53125000000000000        0.0000000000000000     
   1.1562500000000000       0.53125000000000000        0.0000000000000000     
   1.1875000000000000       0.53125000000000000        0.0000000000000000     
   1.2187500000000000       0.53125000000000000        0.0000000000000000     
   1.2500000000000000       0.53125000000000000        0.0000000000000000     
   1.1250000000000000       0.56250000000000000        0.0000000000000000     
   1.1562500000000000       0.56250000000000000        0.0000000000000000     
   1.1875000000000000       0.56250000000000000        0.0000000000000000     
   1.2187500000000000       0.56250000000000000        0.0000000000000000     
   1.2500000000000000       0.56250000000000000        0.0000000000000000     
   1.1250000000000000       0.59375000000000000        0.0000000000000000     
   1.1562500000000000       0.59375000000000000        0.0000000000000000     
   1.1875000000000000       0.59375000000000000        0.0000000000000000     
   1.2187500000000000       0.59375000000000000        0.0000000000000000     
   1.2500000000000000       0.59375000000000000        0.0000000000000000     
   1.1250000000000000       0.62500000000000000        0.0000000000000000     
   1.1562500000000000       0.62500000000000000        0.0000000000000000     
   1.1875000000000000       0.62500000000000000        0.0000000000000000     
   1.2187500000000000       0.62500000000000000        0.0000000000000000     
   1.2500000000000000       0.62500000000000000        0.0000000000000000     
   1.2500000000000000       0.50000000000000000        0.0000000000000000     
   1.2812500000000000       0.50000000000000000        0.0000000000000000     
   1.3125000000000000       0.50000000000000000        0.0000000000000000     
   1.3437500000000000       0.50000000000000000        0.0000000000000000     
   1.3750000000000000       0.50000000000000000        0.0000000000000000     
   1.2500000000000000       0.53125000000000000        0.0000000000000000     
   1.2812500000000000       0.53125000000000000        0.0000000000000000     
   1.3125000000000000       0.53125000000000000        0.0000000000000000     
   1.3437500000000000       0.53125000000000000        0.0000000000000000     
   1.3750000000000000       0.53125000000000000        0.0000000000000000     
   1.2500000000000000       0.56250000000000000        0.0000000000000000     
   1.2812500000000000       0.56250000000000000        0.0000000000000000     
   1.3125000000000000       0.56250000000000000        0.0000000000000000     
   1.3437500000000000       0.56250000000000000        0.0000000000000000     
   1.3750000000000000       0.56250000000000000        0.0000000000000000     
   1.2500000000000000       0.59375000000000000        0.0000000000000000     
   1.2812500000000000       0.59375000000000000        0.0000000000000000     
   1.3125000000000000       0.59375000000000000        0.0000000000000000     
   1.3437500000000000       0.59375000000000000        0.0000000000000000     
   1.3750000000000000       0.59375000000000000        0.0000000000000000     
   1.2500000000000000       0.62500000000000000        0.0000000000000000     
   1.2812500000000000       0.62500000000000000        0.0000000000000000     
   1.3125000000000000       0.62500000000000000        0.0000000000000000     
   1.3437500000000000       0.62500000000000000        0.0000000000000000     
   1.3750000000000000       0.62500000000000000        0.0000000000000000     
   1.3750000000000000       0.50000000000000000        0.0000000000000000     
   1.4062500000000000       0.50000000000000000        0.0000000000000000     
   1.4375000000000000       0.50000000000000000        0.0000000000000000     
   1.4687500000000000       0.50000000000000000        0.0000000000000000     
   1.5000000000000000       0.50000000000000000        0.0000000000000000     
   1.3750000000000000       0.53125000000000000        0.0000000000000000     
   1.4062500000000000       0.53125000000000000        0.0000000000000000     
   1.4375000000000000       0.53125000000000000        0.0000000000000000     
   1.4687500000000000       0.53125000000000000        0.0000000000000000     
   1.5000000000000000       0.53125000000000000        0.0000000000000000     
   1.3750000000000000       0.56250000000000000        0.0000000000000000     
   1.4062500000000000       0.56250000000000000        0.0000000000000000     
   1.4375000000000000       0.56250000000000000        0.0000000000000000     
   1.4687500000000000       0.56250000000000000        0.0000000000000000     
   1.5000000000000000       0.56250000000000000        0.0000000000000000     
   1.3750000000000000       0.59375000000000000        0.0000000000000000     
   1.4062500000000000       0.59375000000000000        0.0000000000000000     
   1.4375000000000000       0.59375000000000000        0.0000000000000000     
   1.4687500000000000       0.59375000000000000        0.0000000000000000     
   1.5000000000000000       0.59375000000000000        0.0000000000000000     
   1.3750000000000000       0.62500000000000000        0.0000000000000000     
   1.4062500000000000       0.62500000000000000        0.0000000000000000     
   1.4375000000000000       0.62500000000000000        0.0000000000000000     
   1.4687500000000000       0.62500000000000000        0.0000000000000000     
   1.5000000000000000       0.62500000000000000        0.0000000000000000     
  0.50000000000000000       0.62500000000000000        0.0000000000000000     
  0.53125000000000000       0.62500000000000000        0.0000000000000000     
  0.56250000000000000       0.62500000000000000        0.0000000000000000     
  0.59375000000000000       0.62500000000000000        0.0000000000000000     
  0.62500000000000000       0.62500000000000000        0.0000000000000000     
  0.50000000000000000       0.65625000000000000        0.0000000000000000     
  0.53125000000000000       0.65625000000000000        0.0000000000000000     
  0.56250000000000000       0.65625000000000000        0.0000000000000000     
  0.59375000000000000       0.65625000000000000        0.0000000000000000     
  0.62500000000000000       0.65625000000000000        0.0000000000000000     
  0.50000000000000000       0.68750000000000000        0.0000000000000000     
  0.53125000000000000       0.68750000000000000        0.0000000000000000     
  0.56250000000000000       0.68750000000000000        0.0000000000000000     
  0.59375000000000000       0.68750000000000000        0.0000000000000000     
  0.62500000000000000       0.68750000000000000        0.0000000000000000     
  0.50000000000000000       0.71875000000000000        0.0000000000000000     
  0.53125000000000000       0.71875000000000000        0.0000000000000000     
  0.56250000000000000       0.71875000000000000        0.0000000000000000     
  0.59375000000000000       0.71875000000000000        0.0000000000000000     
  0.62500000000000000       0.71875000000000000        0.0000000000000000     
  0.50000000000000000       0.75000000000000000        0.0000000000000000     
  0.53125000000000000       0.75000000000000000        0.0000000000000000     
  0.56250000000000000       0.75000000000000000        0.0000000000000000     
  0.59375000000000000       0.75000000000000000        0.0000000000000000     
  0.62500000000000000       0.75000000000000000        0.0000000000000000     
  0.62500000000000000       0.62500000000000000        0.0000000000000000     
  0.65625000000000000       0.62500000000000000        0.0000000000000000     
  0.68750000000000000       0.62500000000000000        0.0000000000000000     
  0.71875000000000000       0.62500000000000000        0.0000000000000000     
  0.75000000000000000       0.62500000000000000        0.0000000000000000     
  0.62500000000000000       0.65625000000000000        0.0000000000000000     
  0.65625000000000000       0.65625000000000000        0.0000000000000000     
  0.68750000000000000       0.65625000000000000        0.0000000000000000     
  0.71875000000000000       0.65625000000000000        0.0000000000000000     
  0.75000000000000000       0.65625000000000000        0.0000000000000000     
  0.62500000000000000       0.68750000000000000        0.0000000000000000     
  0.65625000000000000       0.68750000000000000        0.0000000000000000     
  0.68750000000000000       0.68750000000000000        0.0000000000000000     
  0.71875000000000000       0.68750000000000000        0.0000000000000000     
  0.75000000000000000       0.68750000000000000        0.0000000000000000     
  0.62500000000000000       0.71875000000000000        0.0000000000000000     
  0.65625000000000000       0.71875000000000000        0.0000000000000000     
  0.68750000000000000       0.71875000000000000        0.0000000000000000     
  0.71875000000000000       0.71875000000000000        0.0000000000000000     
  0.75000000000000000       0.71875000000000000        0.0000000000000000     
  0.62500000000000000       0.75000000000000000        0.0000000000000000     
  0.65625000000000000       0.75000000000000000        0.0000000000000000     
  0.68750000000000000       0.75000000000000000        0.0000000000000000     
  0.71875000000000000       0.75000000000000000        0.0000000000000000     
  0.75000000000000000       0.75000000000000000        0.0000000000000000     
  0.75000000000000000       0.62500000000000000        0.0000000000000000     
  0.78125000000000000       0.62500000000000000        0.0000000000000000     
  0.81250000000000000       0.62500000000000000        0.0000000000000000     
  0.84375000000000000       0.62500000000000000        0.0000000000000000     
  0.87500000000000000       0.62500000000000000        0.0000000000000000     
  0.75000000000000000       0.65625000000000000        0.0000000000000000     
  0.78125000000000000       0.65625000000000000        0.0000000000000000     
  0.81250000000000000       0.65625000000000000        0.0000000000000000     
  0.84375000000000000       0.65625000000000000        0.0000000000000000     
  0.87500000000000000       0.65625000000000000        0.0000000000000000     
  0.75000000000000000       0.68750000000000000        0.0000000000000000     
  0.78125000000000000       0.68750000000000000        0.0000000000000000     
  0.81250000000000000       0.68750000000000000        0.0000000000000000     
  0.84375000000000000       0.68750000000000000        0.0000000000000000     
  0.87500000000000000       0.68750000000000000        0.0000000000000000     
  0.75000000000000000       0.71875000000000000        0.0000000000000000     
  0.78125000000000000       0.71875000000000000        0.0000000000000000     
  0.81250000000000000       0.71875000000000000        0.0000000000000000     
  0.84375000000000000       0.71875000000000000        0.0000000000000000     
  0.87500000000000000       0.71875000000000000        0.0000000000000000     
  0.75000000000000000       0.75000000000000000        0.0000000000000000     
  0.78125000000000000       0.75000000000000000        0.0000000000000000     
  0.81250000000000000       0.75000000000000000        0.0000000000000000     
  0.84375000000000000       0.75000000000000000        0.0000000000000000     
  0.87500000000000000       0.75000000000000000        0.0000000000000000     
  0.87500000000000000       0.62500000000000000        0.0000000000000000     
  0.90625000000000000       0.62500000000000000        0.0000000000000000     
  0.93750000000000000       0.62500000000000000        0.0000000000000000     
  0.96875000000000000       0.62500000000000000        0.0000000000000000     
   1.0000000000000000       0.62500000000000000        0.0000000000000000     
  0.87500000000000000       0.65625000000000000        0.0000000000000000     
  0.90625000000000000       0.65625000000000000        0.0000000000000000     
  0.93750000000000000       0.65625000000000000        0.0000000000000000     
  0.96875000000000000       0.65625000000000000        0.0000000000000000     
   1.0000000000000000       0.65625000000000000        0.0000000000000000     
  0.87500000000000000       0.68750000000000000        0.0000000000000000     
  0.90625000000000000       0.68750000000000000        0.0000000000000000     
  0.93750000000000000       0.68750000000000000        0.0000000000000000     
  0.96875000000000000       0.68750000000000000        0.0000000000000000     
   1.0000000000000000       0.68750000000000000        0.0000000000000000     
  0.87500000000000000       0.71875000000000000        0.0000000000000000     
  0.90625000000000000       0.71875000000000000        0.0000000000000000     
  0.93750000000000000       0.71875000000000000        0.0000000000000000     
  0.96875000000000000       0.71875000000000000        0.0000000000000000     
   1.0000000000000000       0.71875000000000000        0.0000000000000000     
  0.87500000000000000       0.75000000000000000        0.0000000000000000     
  0.90625000000000000       0.75000000000000000        0.0000000000000000     
  0.93750000000000000       0.75000000000000000        0.0000000000000000     
  0.96875000000000000       0.75000000000000000        0.0000000000000000     
   1.0000000000000000       0.75000000000000000        0.0000000000000000     
   1.0000000000000000       0.62500000000000000        0.0000000000000000     
   1.0312500000000000       0.62500000000000000        0.0000000000000000     
   1.0625000000000000       0.62500000000000000        0.0000000000000000     
   1.0937500000000000       0.62500000000000000        0.0000000000000000     
   1.1250000000000000       0.62500000000000000        0.0000000000000000     
   1.0000000000000000       0.65625000000000000        0.0000000000000000     
   1.0312500000000000       0.65625000000000000        0.0000000000000000     
   1.0625000000000000       0.65625000000000000        0.0000000000000000     
   1.0937500000000000       0.65625000000000000        0.0000000000000000     
   1.1250000000000000       0.65625000000000000        0.0000000000000000     
   1.0000000000000000       0.68750000000000000        0.0000000000000000     
   1.0312500000000000       0.68750000000000000        0.0000000000000000     
   1.0625000000000000       0.68750000000000000        0.0000000000000000     
   1.0937500000000000       0.68750000000000000        0.0000000000000000     
   1.1250000000000000       0.68750000000000000        0.0000000000000000     
   1.0000000000000000       0.71875000000000000        0.0000000000000000     
   1.0312500000000000       0.71875000000000000        0.0000000000000000     
   1.0625000000000000       0.71875000000000000        0.0000000000000000     
   1.0937500000000000       0.71875000000000000        0.0000000000000000     
   1.1250000000000000       0.71875000000000000        0.0000000000000000     
   1.0000000000000000       0.75000000000000000        0.0000000000000000     
   1.0312500000000000       0.75000000000000000        0.0000000000000000     
   1.0625000000000000       0.75000000000000000        0.0000000000000000     
   1.0937500000000000       0.75000000000000000        0.0000000000000000     
   1.1250000000000000       0.75000000000000000        0.0000000000000000     
   1.1250000000000000       0.62500000000000000        0.0000000000000000     
   1.1562500000000000       0.62500000000000000        0.0000000000000000     
   1.1875000000000000       0.62500000000000000        0.0000000000000000     
   1.2187500000000000       0.62500000000000000        0.0000000000000000     
   1.2500000000000000       0.62500000000000000        0.0000000000000000     
   1.1250000000000000       0.65625000000000000        0.0000000000000000     
   1.1562500000000000       0.65625000000000000        0.0000000000000000     
   1.1875000000000000       0.65625000000000000        0.0000000000000000     
   1.2187500000000000       0.65625000000000000        0.0000000000000000     
   1.2500000000000000       0.65625000000000000        0.0000000000000000     
   1.1250000000000000       0.68750000000000000        0.0000000000000000     
   1.1562500000000000       0.68750000000000000        0.0000000000000000     
   1.1875000000000000       0.68750000000000000        0.0000000000000000     
   1.2187500000000000       0.68750000000000000        0.0000000000000000     
   1.2500000000000000       0.68750000000000000        0.0000000000000000     
   1.1250000000000000       0.71875000000000000        0.0000000000000000     
   1.1562500000000000       0.71875000000000000        0.0000000000000000     
   1.1875000000000000       0.71875000000000000        0.0000000000000000     
   1.2187500000000000       0.71875000000000000        0.0000000000000000     
   1.2500000000000000       0.71875000000000000        0.0000000000000000     
   1.1250000000000000       0.75000000000000000        0.0000000000000000     
   1.1562500000000000       0.75000000000000000        0.0000000000000000     
   1.1875000000000000       0.75000000000000000        0.0000000000000000     
   1.2187500000000000       0.75000000000000000        0.0000000000000000     
   1.2500000000000000       0.75000000000000000        0.0000000000000000     
   1.2500000000000000       0.62500000000000000        0.0000000000000000     
   1.2812500000000000       0.62500000000000000        0.0000000000000000     
   1.3125000000000000       0.62500000000000000        0.0000000000000000     
   1.3437500000000000       0.62500000000000000        0.0000000000000000     
   1.3750000000000000       0.62500000000000000        0.0000000000000000     
   1.2500000000000000       0.65625000000000000        0.0000000000000000     
   1.2812500000000000       0.65625000000000000        0.0000000000000000     
   1.3125000000000000       0.65625000000000000        0.0000000000000000     
   1.3437500000000000       0.65625000000000000        0.0000000000000000     
   1.3750000000000000       0.65625000000000000        0.0000000000000000     
   1.2500000000000000       0.68750000000000000        0.0000000000000000     
   1.2812500000000000       0.68750000000000000        0.0000000000000000     
   1.3125000000000000       0.68750000000000000        0.0000000000000000     
   1.3437500000000000       0.68750000000000000        0.0000000000000000     
   1.3750000000000000       0.68750000000000000        0.0000000000000000     
   1.2500000000000000       0.71875000000000000        0.0000000000000000     
   1.2812500000000000       0.71875000000000000        0.0000000000000000     
   1.3125000000000000       0.71875000000000000        0.0000000000000000     
   1.3437500000000000       0.71875000000000000        0.0000000000000000     
   1.3750000000000000       0.71875000000000000        0.0000000000000000     
   1.2500000000000000       0.75000000000000000        0.0000000000000000     
   1.2812500000000000       0.75000000000000000        0.0000000000000000     
   1.3125000000000000       0.75000000000000000        0.0000000000000000     
   1.3437500000000000       0.75000000000000000        0.0000000000000000     
   1.3750000000000000       0.75000000000000000        0.0000000000000000     
   1.3750000000000000       0.62500000000000000        0.0000000000000000     
   1.4062500000000000       0.62500000000000000        0.0000000000000000     
   1.4375000000000000       0.62500000000000000        0.0000000000000000     
   1.4687500000000000       0.62500000000000000        0.0000000000000000     
   1.5000000000000000       0.62500000000000000        0.0000000000000000     
   1.3750000000000000       0.65625000000000000        0.0000000000000000     
   1.4062500000000000       0.65625000000000000        0.0000000000000000     
   1.4375000000000000       0.65625000000000000        0.0000000000000000     
   1.4687500000000000       0.65625000000000000        0.0000000000000000     
   1.5000000000000000       0.65625000000000000        0.0000000000000000     
   1.3750000000000000       0.68750000000000000        0.0000000000000000     
   1.4062500000000000       0.68750000000000000        0.0000000000000000     
   1.4375000000000000       0.68750000000000000        0.0000000000000000     
   1.4687500000000000       0.68750000000000000        0.0000000000000000     
   1.5000000000000000       0.68750000000000000        0.0000000000000000     
   1.3750000000000000       0.71875000000000000        0.0000000000000000     
   1.4062500000000000       0.71875000000000000        0.0000000000000000     
   1.4375000000000000       0.71875000000000000        0.0000000000000000     
   1.4687500000000000       0.71875000000000000        0.0000000000000000     
   1.5000000000000000       0.71875000000000000        0.0000000000000000     
   1.3750000000000000       0.75000000000000000        0.0000000000000000     
   1.4062500000000000       0.75000000000000000        0.0000000000000000     
   1.4375000000000000       0.75000000000000000        0.0000000000000000     
   1.4687500000000000       0.75000000000000000        0.0000000000000000     
   1.5000000000000000       0.75000000000000000        0.0000000000000000     
  0.50000000000000000       0.75000000000000000        0.0000000000000000     
  0.53125000000000000       0.75000000000000000        0.0000000000000000     
  0.56250000000000000       0.75000000000000000        0.0000000000000000     
  0.59375000000000000       0.75000000000000000        0.0000000000000000     
  0.62500000000000000       0.75000000000000000        0.0000000000000000     
  0.50000000000000000       0.78125000000000000        0.0000000000000000     
  0.53125000000000000       0.78125000000000000        0.0000000000000000     
  0.56250000000000000       0.78125000000000000        0.0000000000000000     
  0.59375000000000000       0.78125000000000000        0.0000000000000000     
  0.62500000000000000       0.78125000000000000        0.0000000000000000     
  0.50000000000000000       0.81250000000000000        0.0000000000000000     
  0.53125000000000000       0.81250000000000000        0.0000000000000000     
  0.56250000000000000       0.81250000000000000        0.0000000000000000     
  0.59375000000000000       0.81250000000000000        0.0000000000000000     
  0.62500000000000000       0.81250000000000000        0.0000000000000000     
  0.50000000000000000       0.84375000000000000        0.0000000000000000     
  0.53125000000000000       0.84375000000000000        0.0000000000000000     
  0.56250000000000000       0.84375000000000000        0.0000000000000000     
  0.59375000000000000       0.84375000000000000        0.0000000000000000     
  0.62500000000000000       0.84375000000000000        0.0000000000000000     
  0.50000000000000000       0.87500000000000000        0.0000000000000000     
  0.53125000000000000       0.87500000000000000        0.0000000000000000     
  0.56250000000000000       0.87500000000000000        0.0000000000000000     
  0.59375000000000000       0.87500000000000000        0.0000000000000000     
  0.62500000000000000       0.87500000000000000        0.0000000000000000     
  0.62500000000000000       0.75000000000000000        0.0000000000000000     
  0.65625000000000000       0.75000000000000000        0.0000000000000000     
  0.68750000000000000       0.75000000000000000        0.0000000000000000     
  0.71875000000000000       0.75000000000000000        0.0000000000000000     
  0.75000000000000000       0.75000000000000000        0.0000000000000000     
  0.62500000000000000       0.78125000000000000        0.0000000000000000     
  0.65625000000000000       0.78125000000000000        0.0000000000000000     
  0.68750000000000000       0.78125000000000000        0.0000000000000000     
  0.71875000000000000       0.78125000000000000        0.0000000000000000     
  0.75000000000000000       0.78125000000000000        0.0000000000000000     
  0.62500000000000000       0.81250000000000000        0.0000000000000000     
  0.65625000000000000       0.81250000000000000        0.0000000000000000     
  0.68750000000000000       0.81250000000000000        0.0000000000000000     
  0.71875000000000000       0.81250000000000000        0.0000000000000000     
  0.75000000000000000       0.81250000000000000        0.0000000000000000     
  0.62500000000000000       0.84375000000000000        0.0000000000000000     
  0.65625000000000000       0.84375000000000000        0.0000000000000000     
  0.68750000000000000       0.84375000000000000        0.0000000000000000     
  0.71875000000000000       0.84375000000000000        0.0000000000000000     
  0.75000000000000000       0.84375000000000000        0.0000000000000000     
  0.62500000000000000       0.87500000000000000        0.0000000000000000     
  0.65625000000000000       0.87500000000000000        0.0000000000000000     
  0.68750000000000000       0.87500000000000000        0.0000000000000000     
  0.71875000000000000       0.87500000000000000        0.0000000000000000     
  0.75000000000000000       0.87500000000000000        0.0000000000000000     
  0.75000000000000000       0.75000000000000000        0.0000000000000000     
  0.78125000000000000       0.75000000000000000        0.0000000000000000     
  0.81250000000000000       0.75000000000000000        0.0000000000000000     
  0.84375000000000000       0.75000000000000000        0.0000000000000000     
  0.87500000000000000       0.75000000000000000        0.0000000000000000     
  0.75000000000000000       0.78125000000000000        0.0000000000000000     
  0.78125000000000000       0.78125000000000000        0.0000000000000000     
  0.81250000000000000       0.78125000000000000        0.0000000000000000     
  0.84375000000000000       0.78125000000000000        0.0000000000000000     
  0.87500000000000000       0.78125000000000000        0.0000000000000000     
  0.75000000000000000       0.81250000000000000        0.0000000000000000     
  0.78125000000000000       0.81250000000000000        0.0000000000000000     
  0.81250000000000000       0.81250000000000000        0.0000000000000000     
  0.84375000000000000       0.81250000000000000        0.0000000000000000     
  0.87500000000000000       0.81250000000000000        0.0000000000000000     
  0.75000000000000000       0.84375000000000000        0.0000000000000000     
  0.78125000000000000       0.84375000000000000        0.0000000000000000     
  0.81250000000000000       0.84375000000000000        0.0000000000000000     
  0.84375000000000000       0.84375000000000000        0.0000000000000000     
  0.87500000000000000       0.84375000000000000        0.0000000000000000     
  0.75000000000000000       0.87500000000000000        0.0000000000000000     
  0.78125000000000000       0.87500000000000000        0.0000000000000000     
  0.81250000000000000       0.87500000000000000        0.0000000000000000     
  0.84375000000000000       0.87500000000000000        0.0000000000000000     
  0.87500000000000000       0.87500000000000000        0.0000000000000000     
  0.87500000000000000       0.75000000000000000        0.0000000000000000     
  0.90625000000000000       0.75000000000000000        0.0000000000000000     
  0.93750000000000000       0.75000000000000000        0.0000000000000000     
  0.96875000000000000       0.75000000000000000        0.0000000000000000     
   1.0000000000000000       0.75000000000000000        0.0000000000000000     
  0.87500000000000000       0.78125000000000000        0.0000000000000000     
  0.90625000000000000       0.78125000000000000        0.0000000000000000     
  0.93750000000000000       0.78125000000000000        0.0000000000000000     
  0.96875000000000000       0.78125000000000000        0.0000000000000000     
   1.0000000000000000       0.78125000000000000        0.0000000000000000     
  0.87500000000000000       0.81250000000000000        0.0000000000000000     
  0.90625000000000000       0.81250000000000000        0.0000000000000000     
  0.93750000000000000       0.81250000000000000        0.0000000000000000     
  0.96875000000000000       0.81250000000000000        0.0000000000000000     
   1.0000000000000000       0.81250000000000000        0.0000000000000000     
  0.87500000000000000       0.84375000000000000        0.0000000000000000     
  0.90625000000000000       0.84375000000000000        0.0000000000000000     
  0.93750000000000000       0.84375000000000000        0.0000000000000000     
  0.96875000000000000       0.84375000000000000        0.0000000000000000     
   1.0000000000000000       0.84375000000000000        0.0000000000000000     
  0.87500000000000000       0.87500000000000000        0.0000000000000000     
  0.90625000000000000       0.87500000000000000        0.0000000000000000     
  0.93750000000000000       0.87500000000000000        0.0000000000000000     
  0.96875000000000000       0.87500000000000000        0.0000000000000000     
   1.0000000000000000       0.87500000000000000        0.0000000000000000     
   1.0000000000000000       0.75000000000000000        0.0000000000000000     
   1.0312500000000000       0.75000000000000000        0.0000000000000000     
   1.0625000000000000       0.75000000000000000        0.0000000000000000     
   1.0937500000000000       0.75000000000000000        0.0000000000000000     
   1.1250000000000000       0.75000000000000000        0.0000000000000000     
   1.0000000000000000       0.78125000000000000        0.0000000000000000     
   1.0312500000000000       0.78125000000000000        0.0000000000000000     
   1.0625000000000000       0.78125000000000000        0.0000000000000000     
   1.0937500000000000       0.78125000000000000        0.0000000000000000     
   1.1250000000000000       0.78125000000000000        0.0000000000000000     
   1.0000000000000000       0.81250000000000000        0.0000000000000000     
   1.0312500000000000       0.81250000000000000        0.0000000000000000     
   1.0625000000000000       0.81250000000000000        0.0000000000000000     
   1.0937500000000000       0.81250000000000000        0.0000000000000000     
   1.1250000000000000       0.81250000000000000        0.0000000000000000     
   1.0000000000000000       0.84375000000000000        0.0000000000000000     
   1.0312500000000000       0.84375000000000000        0.0000000000000000     
   1.0625000000000000       0.84375000000000000        0.0000000000000000     
   1.0937500000000000       0.84375000000000000        0.0000000000000000     
   1.1250000000000000       0.84375000000000000        0.0000000000000000     
   1.0000000000000000       0.87500000000000000        0.0000000000000000     
   1.0312500000000000       0.87500000000000000        0.0000000000000000     
   1.0625000000000000       0.87500000000000000        0.0000000000000000     
   1.0937500000000000       0.87500000000000000        0.0000000000000000     
   1.1250000000000000       0.87500000000000000        0.0000000000000000     
   1.1250000000000000       0.75000000000000000        0.0000000000000000     
   1.1562500000000000       0.75000000000000000        0.0000000000000000     
   1.1875000000000000       0.75000000000000000        0.0000000000000000     
   1.2187500000000000       0.75000000000000000        0.0000000000000000     
   1.2500000000000000       0.75000000000000000        0.0000000000000000     
   1.1250000000000000       0.78125000000000000        0.0000000000000000     
   1.1562500000000000       0.78125000000000000        0.0000000000000000     
   1.1875000000000000       0.78125000000000000        0.0000000000000000     
   1.2187500000000000       0.78125000000000000        0.0000000000000000     
   1.2500000000000000       0.78125000000000000        0.0000000000000000     
   1.1250000000000000       0.81250000000000000        0.0000000000000000     
   1.1562500000000000       0.81250000000000000        0.0000000000000000     
   1.1875000000000000       0.81250000000000000        0.0000000000000000     
   1.2187500000000000       0.81250000000000000        0.0000000000000000     
   1.2500000000000000       0.81250000000000000        0.0000000000000000     
   1.1250000000000000       0.84375000000000000        0.0000000000000000     
   1.1562500000000000       0.84375000000000000        0.0000000000000000     
   1.1875000000000000       0.84375000000000000        0.0000000000000000     
   1.2187500000000000       0.84375000000000000        0.0000000000000000     
   1.2500000000000000       0.84375000000000000        0.0000000000000000     
   1.1250000000000000       0.87500000000000000        0.0000000000000000     
   1.1562500000000000       0.87500000000000000        0.0000000000000000     
   1.1875000000000000       0.87500000000000000        0.0000000000000000     
   1.2187500000000000       0.87500000000000000        0.0000000000000000     
   1.2500000000000000       0.87500000000000000        0.0000000000000000     
   1.2500000000000000       0.75000000000000000        0.0000000000000000     
   1.2812500000000000       0.75000000000000000        0.0000000000000000     
   1.3125000000000000       0.75000000000000000        0.0000000000000000     
   1.3437500000000000       0.75000000000000000        0.0000000000000000     
   1.3750000000000000       0.75000000000000000        0.0000000000000000     
   1.2500000000000000       0.78125000000000000        0.0000000000000000     
   1.2812500000000000       0.78125000000000000        0.0000000000000000     
   1.3125000000000000       0.78125000000000000        0.0000000000000000     
   1.3437500000000000       0.78125000000000000        0.0000000000000000     
   1.3750000000000000       0.78125000000000000        0.0000000000000000     
   1.2500000000000000       0.81250000000000000        0.0000000000000000     
   1.2812500000000000       0.81250000000000000        0.0000000000000000     
   1.3125000000000000       0.81250000000000000        0.0000000000000000     
   1.3437500000000000       0.81250000000000000        0.0000000000000000     
   1.3750000000000000       0.81250000000000000        0.0000000000000000     
   1.2500000000000000       0.84375000000000000        0.0000000000000000     
   1.2812500000000000       0.84375000000000000        0.0000000000000000     
   1.3125000000000000       0.84375000000000000        0.0000000000000000     
   1.3437500000000000       0.84375000000000000        0.0000000000000000     
   1.3750000000000000       0.84375000000000000        0.0000000000000000     
   1.2500000000000000       0.87500000000000000        0.0000000000000000     
   1.2812500000000000       0.87500000000000000        0.0000000000000000     
   1.3125000000000000       0.87500000000000000        0.0000000000000000     
   1.3437500000000000       0.87500000000000000        0.0000000000000000     
   1.3750000000000000       0.87500000000000000        0.0000000000000000     
   1.3750000000000000       0.75000000000000000        0.0000000000000000     
   1.4062500000000000       0.75000000000000000        0.0000000000000000     
   1.4375000000000000       0.75000000000000000        0.0000000000000000     
   1.4687500000000000       0.75000000000000000        0.0000000000000000     
   1.5000000000000000       0.75000000000000000        0.0000000000000000     
   1.3750000000000000       0.78125000000000000        0.0000000000000000     
   1.4062500000000000       0.78125000000000000        0.0000000000000000     
   1.4375000000000000       0.78125000000000000        0.0000000000000000     
   1.4687500000000000       0.78125000000000000        0.0000000000000000     
   1.5000000000000000       0.78125000000000000        0.0000000000000000     
   1.3750000000000000       0.81250000000000000        0.0000000000000000     
   1.4062500000000000       0.81250000000000000        0.0000000000000000     
   1.4375000000000000       0.81250000000000000        0.0000000000000000     
   1.4687500000000000       0.81250000000000000        0.0000000000000000     
   1.5000000000000000       0.81250000000000000        0.0000000000000000     
   1.3750000000000000       0.84375000000000000        0.0000000000000000     
   1.4062500000000000       0.84375000000000000        0.0000000000000000     
   1.4375000000000000       0.84375000000000000        0.0000000000000000     
   1.4687500000000000       0.84375000000000000        0.0000000000000000     
   1.5000000000000000       0.84375000000000000        0.0000000000000000     
   1.3750000000000000       0.87500000000000000        0.0000000000000000     
   1.4062500000000000       0.87500000000000000        0.0000000000000000     
   1.4375000000000000       0.87500000000000000        0.0000000000000000     
   1.4687500000000000       0.87500000000000000        0.0000000000000000     
   1.5000000000000000       0.87500000000000000        0.0000000000000000     
  0.50000000000000000       0.87500000000000000        0.0000000000000000     
  0.53125000000000000       0.87500000000000000        0.0000000000000000     
  0.56250000000000000       0.87500000000000000        0.0000000000000000     
  0.59375000000000000       0.87500000000000000        0.0000000000000000     
  0.62500000000000000       0.87500000000000000        0.0000000000000000     
  0.50000000000000000       0.90625000000000000        0.0000000000000000     
  0.53125000000000000       0.90625000000000000        0.0000000000000000     
  0.56250000000000000       0.90625000000000000        0.0000000000000000     
  0.59375000000000000       0.90625000000000000        0.0000000000000000     
  0.62500000000000000       0.90625000000000000        0.0000000000000000     
  0.50000000000000000       0.93750000000000000        0.0000000000000000     
  0.53125000000000000       0.93750000000000000        0.0000000000000000     
  0.56250000000000000       0.93750000000000000        0.0000000000000000     
  0.59375000000000000       0.93750000000000000        0.0000000000000000     
  0.62500000000000000       0.93750000000000000        0.0000000000000000     
  0.50000000000000000       0.96875000000000000        0.0000000000000000     
  0.53125000000000000       0.96875000000000000        0.0000000000000000     
  0.56250000000000000       0.96875000000000000        0.0000000000000000     
  0.59375000000000000       0.96875000000000000        0.0000000000000000     
  0.62500000000000000       0.96875000000000000        0.0000000000000000     
  0.50000000000000000        1.0000000000000000        0.0000000000000000     
  0.53125000000000000        1.0000000000000000        0.0000000000000000     
  0.56250000000000000        1.0000000000000000        0.0000000000000000     
  0.59375000000000000        1.0000000000000000        0.0000000000000000     
  0.62500000000000000        1.0000000000000000        0.0000000000000000     
  0.62500000000000000       0.87500000000000000        0.0000000000000000     
  0.65625000000000000       0.87500000000000000        0.0000000000000000     
  0.68750000000000000       0.87500000000000000        0.0000000000000000     
  0.71875000000000000       0.87500000000000000        0.0000000000000000     
  0.75000000000000000       0.87500000000000000        0.0000000000000000     
  0.62500000000000000       0.90625000000000000        0.0000000000000000     
  0.65625000000000000       0.90625000000000000        0.0000000000000000     
  0.68750000000000000       0.90625000000000000        0.0000000000000000     
  0.71875000000000000       0.90625000000000000        0.0000000000000000     
  0.75000000000000000       0.90625000000000000        0.0000000000000000     
  0.62500000000000000       0.93750000000000000        0.0000000000000000     
  0.65625000000000000       0.93750000000000000        0.0000000000000000     
  0.68750000000000000       0.93750000000000000        0.0000000000000000     
  0.71875000000000000       0.93750000000000000        0.0000000000000000     
  0.75000000000000000       0.93750000000000000        0.0000000000000000     
  0.62500000000000000       0.96875000000000000        0.0000000000000000     
  0.65625000000000000       0.96875000000000000        0.0000000000000000     
  0.68750000000000000       0.96875000000000000        0.0000000000000000     
  0.71875000000000000       0.96875000000000000        0.0000000000000000     
  0.75000000000000000       0.96875000000000000        0.0000000000000000     
  0.62500000000000000        1.0000000000000000        0.0000000000000000     
  0.65625000000000000        1.0000000000000000        0.0000000000000000     
  0.68750000000000000        1.0000000000000000        0.0000000000000000     
  0.71875000000000000        1.0000000000000000        0.0000000000000000     
  0.75000000000000000        1.0000000000000000        0.0000000000000000     
  0.75000000000000000       0.87500000000000000        0.0000000000000000     
  0.78125000000000000       0.87500000000000000        0.0000000000000000     
  0.81250000000000000       0.87500000000000000        0.0000000000000000     
  0.84375000000000000       0.87500000000000000        0.0000000000000000     
  0.87500000000000000       0.87500000000000000        0.0000000000000000     
  0.75000000000000000       0.90625000000000000        0.0000000000000000     
  0.78125000000000000       0.90625000000000000        0.0000000000000000     
  0.81250000000000000       0.90625000000000000        0.0000000000000000     
  0.84375000000000000       0.90625000000000000        0.0000000000000000     
  0.87500000000000000       0.90625000000000000        0.0000000000000000     
  0.75000000000000000       0.93750000000000000        0.0000000000000000     
  0.78125000000000000       0.93750000000000000        0.0000000000000000     
  0.81250000000000000       0.93750000000000000        0.0000000000000000     
  0.84375000000000000       0.93750000000000000        0.0000000000000000     
  0.87500000000000000       0.93750000000000000        0.0000000000000000     
  0.75000000000000000       0.96875000000000000        0.0000000000000000     
  0.78125000000000000       0.96875000000000000        0.0000000000000000     
  0.81250000000000000       0.96875000000000000        0.0000000000000000     
  0.84375000000000000       0.96875000000000000        0.0000000000000000     
  0.87500000000000000       0.96875000000000000        0.0000000000000000     
  0.75000000000000000        1.0000000000000000        0.0000000000000000     
  0.78125000000000000        1.0000000000000000        0.0000000000000000     
  0.81250000000000000        1.0000000000000000        0.0000000000000000     
  0.84375000000000000        1.0000000000000000        0.0000000000000000     
  0.87500000000000000        1.0000000000000000        0.0000000000000000     
  0.87500000000000000       0.87500000000000000        0.0000000000000000     
  0.90625000000000000       0.87500000000000000        0.0000000000000000     
  0.93750000000000000       0.87500000000000000        0.0000000000000000     
  0.96875000000000000       0.87500000000000000        0.0000000000000000     
   1.0000000000000000       0.87500000000000000        0.0000000000000000     
  0.87500000000000000       0.90625000000000000        0.0000000000000000     
  0.90625000000000000       0.90625000000000000        0.0000000000000000     
  0.93750000000000000       0.90625000000000000        0.0000000000000000     
  0.96875000000000000       0.90625000000000000        0.0000000000000000     
   1.0000000000000000       0.90625000000000000        0.0000000000000000     
  0.87500000000000000       0.93750000000000000        0.0000000000000000     
  0.90625000000000000       0.93750000000000000        0.0000000000000000     
  0.93750000000000000       0.93750000000000000        0.0000000000000000     
  0.96875000000000000       0.93750000000000000        0.0000000000000000     
   1.0000000000000000       0.93750000000000000        0.0000000000000000     
  0.87500000000000000       0.96875000000000000        0.0000000000000000     
  0.90625000000000000       0.96875000000000000        0.0000000000000000     
  0.93750000000000000       0.96875000000000000        0.0000000000000000     
  0.96875000000000000       0.96875000000000000        0.0000000000000000     
   1.0000000000000000       0.96875000000000000        0.0000000000000000     
  0.87500000000000000        1.0000000000000000        0.0000000000000000     
  0.90625000000000000        1.0000000000000000        0.0000000000000000     
  0.93750000000000000        1.0000000000000000        0.0000000000000000     
  0.96875000000000000        1.0000000000000000        0.0000000000000000     
   1.0000000000000000        1.0000000000000000        0.0000000000000000     
   1.0000000000000000       0.87500000000000000        0.0000000000000000     
   1.0312500000000000       0.87500000000000000        0.0000000000000000     
   1.0625000000000000       0.87500000000000000        0.0000000000000000     
   1.0937500000000000       0.87500000000000000        0.0000000000000000     
   1.1250000000000000       0.87500000000000000        0.0000000000000000     
   1.0000000000000000       0.90625000000000000        0.0000000000000000     
   1.0312500000000000       0.90625000000000000        0.0000000000000000     
   1.0625000000000000       0.90625000000000000        0.0000000000000000     
   1.0937500000000000       0.90625000000000000        0.0000000000000000     
   1.1250000000000000       0.90625000000000000        0.0000000000000000     
   1.0000000000000000       0.93750000000000000        0.0000000000000000     
   1.0312500000000000       0.93750000000000000        0.0000000000000000     
   1.0625000000000000       0.93750000000000000        0.0000000000000000     
   1.0937500000000000       0.93750000000000000        0.0000000000000000     
   1.1250000000000000       0.93750000000000000        0.0000000000000000     
   1.0000000000000000       0.96875000000000000        0.0000000000000000     
   1.0312500000000000       0.96875000000000000        0.0000000000000000     
   1.0625000000000000       0.96875000000000000        0.0000000000000000     
   1.0937500000000000       0.96875000000000000        0.0000000000000000     
   1.1250000000000000       0.96875000000000000        0.0000000000000000     
   1.0000000000000000        1.0000000000000000        0.0000000000000000     
   1.0312500000000000        1.0000000000000000        0.0000000000000000     
   1.0625000000000000        1.0000000000000000        0.0000000000000000     
   1.0937500000000000        1.0000000000000000        0.0000000000000000     
   1.1250000000000000        1.0000000000000000        0.0000000000000000     
   1.1250000000000000       0.87500000000000000        0.0000000000000000     
   1.1562500000000000       0.87500000000000000        0.0000000000000000     
   1.1875000000000000       0.87500000000000000        0.0000000000000000     
   1.2187500000000000       0.87500000000000000        0.0000000000000000     
   1.2500000000000000       0.87500000000000000        0.0000000000000000     
   1.1250000000000000       0.90625000000000000        0.0000000000000000     
   1.1562500000000000       0.90625000000000000        0.0000000000000000     
   1.1875000000000000       0.90625000000000000        0.0000000000000000     
   1.2187500000000000       0.90625000000000000        0.0000000000000000     
   1.2500000000000000       0.90625000000000000        0.0000000000000000     
   1.1250000000000000       0.93750000000000000        0.0000000000000000     
   1.1562500000000000       0.93750000000000000        0.0000000000000000     
   1.1875000000000000       0.93750000000000000        0.0000000000000000     
   1.2187500000000000       0.93750000000000000        0.0000000000000000     
   1.2500000000000000       0.93750000000000000        0.0000000000000000     
   1.1250000000000000       0.96875000000000000        0.0000000000000000     
   1.1562500000000000       0.96875000000000000        0.0000000000000000     
   1.1875000000000000       0.96875000000000000        0.0000000000000000     
   1.2187500000000000       0.96875000000000000        0.0000000000000000     
   1.2500000000000000       0.96875000000000000        0.0000000000000000     
   1.1250000000000000        1.0000000000000000        0.0000000000000000     
   1.1562500000000000        1.0000000000000000        0.0000000000000000     
   1.1875000000000000        1.0000000000000000        0.0000000000000000     
   1.2187500000000000        1.0000000000000000        0.0000000000000000     
   1.2500000000000000        1.0000000000000000        0.0000000000000000     
   1.2500000000000000       0.87500000000000000        0.0000000000000000     
   1.2812500000000000       0.87500000000000000        0.0000000000000000     
   1.3125000000000000       0.87500000000000000        0.0000000000000000     
   1.3437500000000000       0.87500000000000000        0.0000000000000000     
   1.3750000000000000       0.87500000000000000        0.0000000000000000     
   1.2500000000000000       0.90625000000000000        0.0000000000000000     
   1.2812500000000000       0.90625000000000000        0.0000000000000000     
   1.3125000000000000       0.90625000000000000        0.0000000000000000     
   1.3437500000000000       0.90625000000000000        0.0000000000000000     
   1.3750000000000000       0.90625000000000000        0.0000000000000000     
   1.2500000000000000       0.93750000000000000        0.0000000000000000     
   1.2812500000000000       0.93750000000000000        0.0000000000000000     
   1.3125000000000000       0.93750000000000000        0.0000000000000000     
   1.3437500000000000       0.93750000000000000        0.0000000000000000     
   1.3750000000000000       0.93750000000000000        0.0000000000000000     
   1.2500000000000000       0.96875000000000000        0.0000000000000000     
   1.2812500000000000       0.96875000000000000        0.0000000000000000     
   1.3125000000000000       0.96875000000000000        0.0000000000000000     
   1.3437500000000000       0.96875000000000000        0.0000000000000000     
   1.3750000000000000       0.96875000000000000        0.0000000000000000     
   1.2500000000000000        1.0000000000000000        0.0000000000000000     
   1.2812500000000000        1.0000000000000000        0.0000000000000000     
   1.3125000000000000        1.0000000000000000        0.0000000000000000     
   1.3437500000000000        1.0000000000000000        0.0000000000000000     
   1.3750000000000000        1.0000000000000000        0.0000000000000000     
   1.3750000000000000       0.87500000000000000        0.0000000000000000     
   1.4062500000000000       0.87500000000000000        0.0000000000000000     
   1.4375000000000000       0.87500000000000000        0.0000000000000000     
   1.4687500000000000       0.87500000000000000        0.0000000000000000     
   1.5000000000000000       0.87500000000000000        0.0000000000000000     
   1.3750000000000000       0.90625000000000000        0.0000000000000000     
   1.4062500000000000       0.90625000000000000        0.0000000000000000     
   1.4375000000000000       0.90625000000000000        0.0000000000000000     
   1.4687500000000000       0.90625000000000000        0.0000000000000000     
   1.5000000000000000       0.90625000000000000        0.0000000000000000     
   1.3750000000000000       0.93750000000000000        0.0000000000000000     
   1.4062500000000000       0.93750000000000000        0.0000000000000000     
   1.4375000000000000       0.93750000000000000        0.0000000000000000     
   1.4687500000000000       0.93750000000000000        0.0000000000000000     
   1.5000000000000000       0.93750000000000000        0.0000000000000000     
   1.3750000000000000       0.96875000000000000        0.0000000000000000     
   1.4062500000000000       0.96875000000000000        0.0000000000000000     
   1.4375000000000000       0.96875000000000000        0.0000000000000000     
   1.4687500000000000       0.96875000000000000        0.0000000000000000     
   1.5000000000000000       0.96875000000000000        0.0000000000000000     
   1.3750000000000000        1.0000000000000000        0.0000000000000000     
   1.4062500000000000        1.0000000000000000        0.0000000000000000     
   1.4375000000000000        1.0000000000000000        0.0000000000000000     
   1.4687500000000000        1.0000000000000000        0.0000000000000000     
   1.5000000000000000        1.0000000000000000        0.0000000000000000     
 </DataArray>
 </Points>
 <Cells>
 <DataArray  type="Int32"  Name="connectivity"  format="ascii">
           0           1           6           5
           1           2           7           6
           2           3           8           7
           3           4           9           8
           5           6          11          10
           6           7          12          11
           7           8          13          12
           8           9          14          13
          10          11          16          15
          11          12          17          16
          12          13          18          17
          13          14          19          18
          15          16          21          20
          16          17          22          21
          17          18          23          22
          18          19          24          23
          25          26          31          30
          26          27          32          31
          27          28          33          32
          28          29          34          33
          30          31          36          35
          31          32          37          36
          32          33          38          37
          33          34          39          38
          35          36          41          40
          36          37          42          41
          37          38          43          42
          38          39          44          43
          40          41          46          45
          41          42          47          46
          42          43          48          47
          43          44          49          48
          50          51          56          55
          51          52          57          56
          52          53          58          57
          53          54          59          58
          55          56          61          60
          56          57          62          61
          57          58          63          62
          58          59          64          63
          60          61          66          65
          61          62          67          66
          62          63          68          67
          63          64          69          68
          65          66          71          70
          66          67          72          71
          67          68          73          72
          68          69          74          73
          75          76          81          80
          76          77          82          81
          77          78          83          82
          78          79          84          83
          80          81          86          85
          81          82          87          86
          82          83          88          87
          83          84          89          88
          85          86          91          90
          86          87          92          91
          87          88          93          92
          88          89          94          93
          90          91          96          95
          91          92          97          96
          92          93          98          97
          93          94          99          98
         100         101         106         105
         101         102         107         106
         102         103         108         107
         103         104         109         108
         105         106         111         110
         106         107         112         111
         107         108         113         112
         108         109         114         113
         110         111         116         115
         111         112         117         116
         112         113         118         117
         113         114         119         118
         115         116         121         120
         116         117         122         121
         117         118         123         122
         118         119         124         123
         125         126         131         130
         126         127         132         131
         127         128         133         132
         128         129         134         133
         130         131         136         135
         131         132         137         136
         132         133         138         137
         133         134         139         138
         135         136         141         140
         136         137         142         141
         137         138         143         142
         138         139         144         143
         140         141         146         145
         141         142         147         146
         142         143         148         147
         143         144         149         148
         150         151         156         155
         151         152         157         156
         152         153         158         157
         153         154         159         158
         155         156         161         160
         156         157         162         161
         157         158         163         162
         158         159         164         163
         160         161         166         165
         161         162         167         166
         162         163         168         167
         163         164         169         168
         165         166         171         170
         166         167         172         171
         167         168         173         172
         168         169         174         173
         175         176         181         180
         176         177         182         181
         177         178         183         182
         178         179         184         183
         180         181         186         185
         181         182         187         186
         182         183         188         187
         183         184         189         188
         185         186         191         190
         186         187         192         191
         187         188         193         192
         188         189         194         193
         190         191         196         195
         191         192         197         196
         192         193         198         197
         193         194         199         198
         200         201         206         205
         201         202         207         206
         202         203         208         207
         203         204         209         208
         205         206         211         210
         206         207         212         211
         207         208         213         212
         208         209         214         213
         210         211         216         215
         211         212         217         216
         212         213         218         217
         213         214         219         218
         215         216         221         220
         216         217         222         221
         217         218         223         222
         218         219         224         223
         225         226         231         230
         226         227         232         231
         227         228         233         232
         228         229         234         233
         230         231         236         235
         231         232         237         236
         232         233         238         237
         233         234         239         238
         235         236         241         240
         236         237         242         241
         237         238         243         242
         238         239         244         243
         240         241         246         245
         241         242         247         246
         242         243         248         247
         243         244         249         248
         250         251         256         255
         251         252         257         256
         252         253         258         257
         253         254         259         258
         255         256         261         260
         256         257         262         261
         257         258         263         262
         258         259         264         263
         260         261         266         265
         261         262         267         266
         262         263         268         267
         263         264         269         268
         265         266         271         270
         266         267         272         271
         267         268         273         272
         268         269         274         273
         275         276         281         280
         276         277         282         281
         277         278         283         282
         278         279         284         283
         280         281         286         285
         281         282         287         286
         282         283         288         287
         283         284         289         288
         285         286         291         290
         286         287         292         291
         287         288         293         292
         288         289         294         293
         290         291         296         295
         291         292         297         296
         292         293         298         297
         293         294         299         298
         300         301         306         305
         301         302         307         306
         302         303         308         307
         303         304         309         308
         305         306         311         310
         306         307         312         311
         307         308         313         312
         308         309         314         313
         310         311         316         315
         311         312         317         316
         312         313         318         317
         313         314         319         318
         315         316         321         320
         316         317         322         321
         317         318         323         322
         318         319         324         323
         325         326         331         330
         326         327         332         331
         327         328         333         332
         328         329         334         333
         330         331         336         335
         331         332         337         336
         332         333         338         337
         333         334         339         338
         335         336         341         340
         336         337         342         341
         337         338         343         342
         338         339         344         343
         340         341         346         345
         341         342         347         346
         342         343         348         347
         343         344         349         348
         350         351         356         355
         351         352         357         356
         352         353         358         357
         353         354         359         358
         355         356         361         360
         356         357         362         361
         357         358         363         362
         358         359         364         363
         360         361         366         365
         361         362         367         366
         362         363         368         367
         363         364         369         368
         365         366         371         370
         366         367         372         371
         367         368         373         372
         368         369         374         373
         375         376         381         380
         376         377         382         381
         377         378         383         382
         378         379         384         383
         380         381         386         385
         381         382         387         386
         382         383         388         387
         383         384         389         388
         385         386         391         390
         386         387         392         391
         387         388         393         392
         388         389         394         393
         390         391         396         395
         391         392         397         396
         392         393         398         397
         393         394         399         398
         400         401         406         405
         401         402         407         406
         402         403         408         407
         403         404         409         408
         405         406         411         410
         406         407         412         411
         407         408         413         412
         408         409         414         413
         410         411         416         415
         411         412         417         416
         412         413         418         417
         413         414         419         418
         415         416         421         420
         416         417         422         421
         417         418         423         422
         418         419         424         423
         425         426         431         430
         426         427         432         431
         427         428         433         432
         428         429         434         433
         430         431         436         435
         431         432         437         436
         432         433         438         437
         433         434         439         438
         435         436         441         440
         436         437         442         441
         437         438         443         442
         438         439         444         443
         440         441         446         445
         441         442         447         446
         442         443         448         447
         443         444         449         448
         450         451         456         455
         451         452         457         456
         452         453         458         457
         453         454         459         458
         455         456         461         460
         456         457         462         461
         457         458         463         462
         458         459         464         463
         460         461         466         465
         461         462         467         466
         462         463         468         467
         463         464         469         468
         465         466         471         470
         466         467         472         471
         467         468         473         472
         468         469         474         473
         475         476         481         480
         476         477         482         481
         477         478         483         482
         478         479         484         483
         480         481         486         485
         481         482         487         486
         482         483         488         487
         483         484         489         488
         485         486         491         490
         486         487         492         491
         487         488         493         492
         488         489         494         493
         490         491         496         495
         491         492         497         496
         492         493         498         497
         493         494         499         498
         500         501         506         505
         501         502         507         506
         502         503         508         507
         503         504         509         508
         505         506         511         510
         506         507         512         511
         507         508         513         512
         508         509         514         513
         510         511         516         515
         511         512         517         516
         512         513         518         517
         513         514         519         518
         515         516         521         520
         516         517         522         521
         517         518         523         522
         518         519         524         523
         525         526         531         530
         526         527         532         531
         527         528         533         532
         528         529         534         533
         530         531         536         535
         531         532         537         536
         532         533         538         537
         533         534         539         538
         535         536         541         540
         536         537         542         541
         537         538         543         542
         538         539         544         543
         540         541         546         545
         541         542         547         546
         542         543         548         547
         543         544         549         548
         550         551         556         555
         551         552         557         556
         552         553         558         557
         553         554         559         558
         555         556         561         560
         556         557         562         561
         557         558         563         562
         558         559         564         563
         560         561         566         565
         561         562         567         566
         562         563         568         567
         563         564         569         568
         565         566         571         570
         566         567         572         571
         567         568         573         572
         568         569         574         573
         575         576         581         580
         576         577         582         581
         577         578         583         582
         578         579         584         583
         580         581         586         585
         581         582         587         586
         582         583         588         587
         583         584         589         588
         585         586         591         590
         586         587         592         591
         587         588         593         592
         588         589         594         593
         590         591         596         595
         591         592         597         596
         592         593         598         597
         593         594         599         598
         600         601         606         605
         601         602         607         606
         602         603         608         607
         603         604         609         608
         605         606         611         610
         606         607         612         611
         607         608         613         612
         608         609         614         613
         610         611         616         615
         611         612         617         616
         612         613         618         617
         613         614         619         618
         615         616         621         620
         616         617         622         621
         617         618         623         622
         618         619         624         623
         625         626         631         630
         626         627         632         631
         627         628         633         632
         628         629         634         633
         630         631         636         635
         631         632         637         636
         632         633         638         637
         633         634         639         638
         635         636         641         640
         636         637         642         641
         637         638         643         642
         638         639         644         643
         640         641         646         645
         641         642         647         646
         642         643         648         647
         643         644         649         648
         650         651         656         655
         651         652         657         656
         652         653         658         657
         653         654         659         658
         655         656         661         660
         656         657         662         661
         657         658         663         662
         658         659         664         663
         660         661         666         665
         661         662         667         666
         662         663         668         667
         663         664         669         668
         665         666         671         670
         666         667         672         671
         667         668         673         672
         668         669         674         673
         675         676         681         680
         676         677         682         681
         677         678         683         682
         678         679         684         683
         680         681         686         685
         681         682         687         686
         682         683         688         687
         683         684         689         688
         685         686         691         690
         686         687         692         691
         687         688         693         692
         688         689         694         693
         690         691         696         695
         691         692         697         696
         692         693         698         697
         693         694         699         698
         700         701         706         705
         701         702         707         706
         702         703         708         707
         703         704         709         708
         705         706         711         710
         706         707         712         711
         707         708         713         712
         708         709         714         713
         710         711         716         715
         711         712         717         716
         712         713         718         717
         713         714         719         718
         715         716         721         720
         716         717         722         721
         717         718         723         722
         718         719         724         723
         725         726         731         730
         726         727         732         731
         727         728         733         732
         728         729         734         733
         730         731         736         735
         731         732         737         736
         732         733         738         737
         733         734         739         738
         735         736         741         740
         736         737         742         741
         737         738         743         742
         738         739         744         743
         740         741         746         745
         741         742         747         746
         742         743         748         747
         743         744         749         748
         750         751         756         755
         751         752         757         756
         752         753         758         757
         753         754         759         758
         755         756         761         760
         756         757         762         761
         757         758         763         762
         758         759         764         763
         760         761         766         765
         761         762         767         766
         762         763         768         767
         763         764         769         768
         765         766         771         770
         766         767         772         771
         767         768         773         772
         768         769         774         773
         775         776         781         780
         776         777         782         781
         777         778         783         782
         778         779         784         783
         780         781         786         785
         781         782         787         786
         782         783         788         787
         783         784         789         788
         785         786         791         790
         786         787         792         791
         787         788         793         792
         788         789         794         793
         790         791         796         795
         791         792         797         796
         792         793         798         797
         793         794         799         798
         800         801         806         805
         801         802         807         806
         802         803         808         807
         803         804         809         808
         805         806         811         810
         806         807         812         811
         807         808         813         812
         808         809         814         813
         810         811         816         815
         811         812         817         816
         812         813         818         817
         813         814         819         818
         815         816         821         820
         816         817         822         821
         817         818         823         822
         818         819         824         823
         825         826         831         830
         826         827         832         831
         827         828         833         832
         828         829         834         833
         830         831         836         835
         831         832         837         836
         832         833         838         837
         833         834         839         838
         835         836         841         840
         836         837         842         841
         837         838         843         842
         838         839         844         843
         840         841         846         845
         841         842         847         846
         842         843         848         847
         843         844         849         848
         850         851         856         855
         851         852         857         856
         852         853         858         857
         853         854         859         858
         855         856         861         860
         856         857         862         861
         857         858         863         862
         858         859         864         863
         860         861         866         865
         861         862         867         866
         862         863         868         867
         863         864         869         868
         865         866         871         870
         866         867         872         871
         867         868         873         872
         868         869         874         873
         875         876         881         880
         876         877         882         881
         877         878         883         882
         878         879         884         883
         880         881         886         885
         881         882         887         886
         882         883         888         887
         883         884         889         888
         885         886         891         890
         886         887         892         891
         887         888         893         892
         888         889         894         893
         890         891         896         895
         891         892         897         896
         892         893         898         897
         893         894         899         898
         900         901         906         905
         901         902         907         906
         902         903         908         907
         903         904         909         908
         905         906         911         910
         906         907         912         911
         907         908         913         912
         908         909         914         913
         910         911         916         915
         911         912         917         916
         912         913         918         917
         913         914         919         918
         915         916         921         920
         916         917         922         921
         917         918         923         922
         918         919         924         923
         925         926         931         930
         926         927         932         931
         927         928         933         932
         928         929         934         933
         930         931         936         935
         931         932         937         936
         932         933         938         937
         933         934         939         938
         935         936         941         940
         936         937         942         941
         937         938         943         942
         938         939         944         943
         940         941         946         945
         941         942         947         946
         942         943         948         947
         943         944         949         948
         950         951         956         955
         951         952         957         956
         952         953         958         957
         953         954         959         958
         955         956         961         960
         956         957         962         961
         957         958         963         962
         958         959         964         963
         960         961         966         965
         961         962         967         966
         962         963         968         967
         963         964         969         968
         965         966         971         970
         966         967         972         971
         967         968         973         972
         968         969         974         973
         975         976         981         980
         976         977         982         981
         977         978         983         982
         978         979         984         983
         980         981         986         985
         981         982         987         986
         982         983         988         987
         983         984         989         988
         985         986         991         990
         986         987         992         991
         987         988         993         992
         988         989         994         993
         990         991         996         995
         991         992         997         996
         992         993         998         997
         993         994         999         998
        1000        1001        1006        1005
        1001        1002        1007        1006
        1002        1003        1008        1007
        1003        1004        1009        1008
        1005        1006        1011        1010
        1006        1007        1012        1011
        1007        1008        1013        1012
        1008        1009        1014        1013
        1010        1011        1016        1015
        1011        1012        1017        1016
        1012        1013        1018        1017
        1013        1014        1019        1018
        1015        1016        1021        1020
        1016        1017        1022        1021
        1017        1018        1023        1022
        1018        1019        1024        1023
        1025        1026        1031        1030
        1026        1027        1032        1031
        1027        1028        1033        1032
        1028        1029        1034        1033
        1030        1031        1036        1035
        1031        1032        1037        1036
        1032        1033        1038        1037
        1033        1034        1039        1038
        1035        1036        1041        1040
        1036        1037        1042        1041
        1037        1038        1043        1042
        1038        1039        1044        1043
        1040        1041        1046        1045
        1041        1042        1047        1046
        1042        1043        1048        1047
        1043        1044        1049        1048
        1050        1051        1056        1055
        1051        1052        1057        1056
        1052        1053        1058        1057
        1053        1054        1059        1058
        1055        1056        1061        1060
        1056        1057        1062        1061
        1057        1058        1063        1062
        1058        1059        1064        1063
        1060        1061        1066        1065
        1061        1062        1067        1066
        1062        1063        1068        1067
        1063        1064        1069        1068
        1065        1066        1071        1070
        1066        1067        1072        1071
        1067        1068        1073        1072
        1068        1069        1074        1073
        1075        1076        1081        1080
        1076        1077        1082        1081
        1077        1078        1083        1082
        1078        1079        1084        1083
        1080        1081        1086        1085
        1081        1082        1087        1086
        1082        1083        1088        1087
        1083        1084        1089        1088
        1085        1086        1091        1090
        1086        1087        1092        1091
        1087        1088        1093        1092
        1088        1089        1094        1093
        1090        1091        1096        1095
        1091        1092        1097        1096
        1092        1093        1098        1097
        1093        1094        1099        1098
        1100        1101        1106        1105
        1101        1102        1107        1106
        1102        1103        1108        1107
        1103        1104        1109        1108
        1105        1106        1111        1110
        1106        1107        1112        1111
        1107        1108        1113        1112
        1108        1109        1114        1113
        1110        1111        1116        1115
        1111        1112        1117        1116
        1112        1113        1118        1117
        1113        1114        1119        1118
        1115        1116        1121        1120
        1116        1117        1122        1121
        1117        1118        1123        1122
        1118        1119        1124        1123
        1125        1126        1131        1130
        1126        1127        1132        1131
        1127        1128        1133        1132
        1128        1129        1134        1133
        1130        1131        1136        1135
        1131        1132        1137        1136
        1132        1133        1138        1137
        1133        1134        1139        1138
        1135        1136        1141        1140
        1136        1137        1142        1141
        1137        1138        1143        1142
        1138        1139        1144        1143
        1140        1141        1146        1145
        1141        1142        1147        1146
        1142        1143        1148        1147
        1143        1144        1149        1148
        1150        1151        1156        1155
        1151        1152        1157        1156
        1152        1153        1158        1157
        1153        1154        1159        1158
        1155        1156        1161        1160
        1156        1157        1162        1161
        1157        1158        1163        1162
        1158        1159        1164        1163
        1160        1161        1166        1165
        1161        1162        1167        1166
        1162        1163        1168        1167
        1163        1164        1169        1168
        1165        1166        1171        1170
        1166        1167        1172        1171
        1167        1168        1173        1172
        1168        1169        1174        1173
        1175        1176        1181        1180
        1176        1177        1182        1181
        1177        1178        1183        1182
        1178        1179        1184        1183
        1180        1181        1186        1185
        1181        1182        1187        1186
        1182        1183        1188        1187
        1183        1184        1189        1188
        1185        1186        1191        1190
        1186        1187        1192        1191
        1187        1188        1193        1192
        1188        1189        1194        1193
        1190        1191        1196        1195
        1191        1192        1197        1196
        1192        1193        1198        1197
        1193        1194        1199        1198
        1200        1201        1206        1205
        1201        1202        1207        1206
        1202        1203        1208        1207
        1203        1204        1209        1208
        1205        1206        1211        1210
        1206        1207        1212        1211
        1207        1208        1213        1212
        1208        1209        1214        1213
        1210        1211        1216        1215
        1211        1212        1217        1216
        1212        1213        1218        1217
        1213        1214        1219        1218
        1215        1216        1221        1220
        1216        1217        1222        1221
        1217        1218        1223        1222
        1218        1219        1224        1223
        1225        1226        1231        1230
        1226        1227        1232        1231
        1227        1228        1233        1232
        1228        1229        1234        1233
        1230        1231        1236        1235
        1231        1232        1237        1236
        1232        1233        1238        1237
        1233        1234        1239        1238
        1235        1236        1241        1240
        1236        1237        1242        1241
        1237        1238        1243        1242
        1238        1239        1244        1243
        1240        1241        1246        1245
        1241        1242        1247        1246
        1242        1243        1248        1247
        1243        1244        1249        1248
        1250        1251        1256        1255
        1251        1252        1257        1256
        1252        1253        1258        1257
        1253        1254        1259        1258
        1255        1256        1261        1260
        1256        1257        1262        1261
        1257        1258        1263        1262
        1258        1259        1264        1263
        1260        1261        1266        1265
        1261        1262        1267        1266
        1262        1263        1268        1267
        1263        1264        1269        1268
        1265        1266        1271        1270
        1266        1267        1272        1271
        1267        1268        1273        1272
        1268        1269        1274        1273
        1275        1276        1281        1280
        1276        1277        1282        1281
        1277        1278        1283        1282
        1278        1279        1284        1283
        1280        1281        1286        1285
        1281        1282        1287        1286
        1282        1283        1288        1287
        1283        1284        1289        1288
        1285        1286        1291        1290
        1286        1287        1292        1291
        1287        1288        1293        1292
        1288        1289        1294        1293
        1290        1291        1296        1295
        1291        1292        1297        1296
        1292        1293        1298        1297
        1293        1294        1299        1298
        1300        1301        1306        1305
        1301        1302        1307        1306
        1302        1303        1308        1307
        1303        1304        1309        1308
        1305        1306        1311        1310
        1306        1307        1312        1311
        1307        1308        1313        1312
        1308        1309        1314        1313
        1310        1311        1316        1315
        1311        1312        1317        1316
        1312        1313        1318        1317
        1313        1314        1319        1318
        1315        1316        1321        1320
        1316        1317        1322        1321
        1317        1318        1323        1322
        1318        1319        1324        1323
        1325        1326        1331        1330
        1326        1327        1332        1331
        1327        1328        1333        1332
        1328        1329        1334        1333
        1330        1331        1336        1335
        1331        1332        1337        1336
        1332        1333        1338        1337
        1333        1334        1339        1338
        1335        1336        1341        1340
        1336        1337        1342        1341
        1337        1338        1343        1342
        1338        1339        1344        1343
        1340        1341        1346        1345
        1341        1342        1347        1346
        1342        1343        1348        1347
        1343        1344        1349        1348
        1350        1351        1356        1355
        1351        1352        1357        1356
        1352        1353        1358        1357
        1353        1354        1359        1358
        1355        1356        1361        1360
        1356        1357        1362        1361
        1357        1358        1363        1362
        1358        1359        1364        1363
        1360        1361        1366        1365
        1361        1362        1367        1366
        1362        1363        1368        1367
        1363        1364        1369        1368
        1365        1366        1371        1370
        1366        1367        1372        1371
        1367        1368        1373        1372
        1368        1369        1374        1373
        1375        1376        1381        1380
        1376        1377        1382        1381
        1377        1378        1383        1382
        1378        1379        1384        1383
        1380        1381        1386        1385
        1381        1382        1387        1386
        1382        1383        1388        1387
        1383        1384        1389        1388
        1385        1386        1391        1390
        1386        1387        1392        1391
        1387        1388        1393        1392
        1388        1389        1394        1393
        1390        1391        1396        1395
        1391        1392        1397        1396
        1392        1393        1398        1397
        1393        1394        1399        1398
        1400        1401        1406        1405
        1401        1402        1407        1406
        1402        1403        1408        1407
        1403        1404        1409        1408
        1405        1406        1411        1410
        1406        1407        1412        1411
        1407        1408        1413        1412
        1408        1409        1414        1413
        1410        1411        1416        1415
        1411        1412        1417        1416
        1412        1413        1418        1417
        1413        1414        1419        1418
        1415        1416        1421        1420
        1416        1417        1422        1421
        1417        1418        1423        1422
        1418        1419        1424        1423
        1425        1426        1431        1430
        1426        1427        1432        1431
        1427        1428        1433        1432
        1428        1429        1434        1433
        1430        1431        1436        1435
        1431        1432        1437        1436
        1432        1433        1438        1437
        1433        1434        1439        1438
        1435        1436        1441        1440
        1436        1437        1442        1441
        1437        1438        1443        1442
        1438        1439        1444        1443
        1440        1441        1446        1445
        1441        1442        1447        1446
        1442        1443        1448        1447
        1443        1444        1449        1448
        1450        1451        1456        1455
        1451        1452        1457        1456
        1452        1453        1458        1457
        1453        1454        1459        1458
        1455        1456        1461        1460
        1456        1457        1462        1461
        1457        1458        1463        1462
        1458        1459        1464        1463
        1460        1461        1466        1465
        1461        1462        1467        1466
        1462        1463        1468        1467
        1463        1464        1469        1468
        1465        1466        1471        1470
        1466        1467        1472        1471
        1467        1468        1473        1472
        1468        1469        1474        1473
        1475        1476        1481        1480
        1476        1477        1482        1481
        1477        1478        1483        1482
        1478        1479        1484        1483
        1480        1481        1486        1485
        1481        1482        1487        1486
        1482        1483        1488        1487
        1483        1484        1489        1488
        1485        1486        1491        1490
        1486        1487        1492        1491
        1487        1488        1493        1492
        1488        1489        1494        1493
        1490        1491        1496        1495
        1491        1492        1497        1496
        1492        1493        1498        1497
        1493        1494        1499        1498
        1500        1501        1506        1505
        1501        1502        1507        1506
        1502        1503        1508        1507
        1503        1504        1509        1508
        1505        1506        1511        1510
        1506        1507        1512        1511
        1507        1508        1513        1512
        1508        1509        1514        1513
        1510        1511        1516        1515
        1511        1512        1517        1516
        1512        1513        1518        1517
        1513        1514        1519        1518
        1515        1516        1521        1520
        1516        1517        1522        1521
        1517        1518        1523        1522
        1518        1519        1524        1523
        1525        1526        1531        1530
        1526        1527        1532        1531
        1527        1528        1533        1532
        1528        1529        1534        1533
        1530        1531        1536        1535
        1531        1532        1537        1536
        1532        1533        1538        1537
        1533        1534        1539        1538
        1535        1536        1541        1540
        1536        1537        1542        1541
        1537        1538        1543        1542
        1538        1539        1544        1543
        1540        1541        1546        1545
        1541        1542        1547        1546
        1542        1543        1548        1547
        1543        1544        1549        1548
        1550        1551        1556        1555
        1551        1552        1557        1556
        1552        1553        1558        1557
        1553        1554        1559        1558
        1555        1556        1561        1560
        1556        1557        1562        1561
        1557        1558        1563        1562
        1558        1559        1564        1563
        1560        1561        1566        1565
        1561        1562        1567        1566
        1562        1563        1568        1567
        1563        1564        1569        1568
        1565        1566        1571        1570
        1566        1567        1572        1571
        1567        1568        1573        1572
        1568        1569        1574        1573
        1575        1576        1581        1580
        1576        1577        1582        1581
        1577        1578        1583        1582
        1578        1579        1584        1583
        1580        1581        1586        1585
        1581        1582        1587        1586
        1582        1583        1588        1587
        1583        1584        1589        1588
        1585        1586        1591        1590
        1586        1587        1592        1591
        1587        1588        1593        1592
        1588        1589        1594        1593
        1590        1591        1596        1595
        1591        1592        1597        1596
        1592        1593        1598        1597
        1593        1594        1599        1598
 </DataArray>
 <DataArray  type="Int32"  Name="offsets"  format="ascii"> 
           4
           8
          12
          16
          20
          24
          28
          32
          36
          40
          44
          48
          52
          56
          60
          64
          68
          72
          76
          80
          84
          88
          92
          96
         100
         104
         108
         112
         116
         120
         124
         128
         132
         136
         140
         144
         148
         152
         156
         160
         164
         168
         172
         176
         180
         184
         188
         192
         196
         200
         204
         208
         212
         216
         220
         224
         228
         232
         236
         240
         244
         248
         252
         256
         260
         264
         268
         272
         276
         280
         284
         288
         292
         296
         300
         304
         308
         312
         316
         320
         324
         328
         332
         336
         340
         344
         348
         352
         356
         360
         364
         368
         372
         376
         380
         384
         388
         392
         396
         400
         404
         408
         412
         416
         420
         424
         428
         432
         436
         440
         444
         448
         452
         456
         460
         464
         468
         472
         476
         480
         484
         488
         492
         496
         500
         504
         508
         512
         516
         520
         524
         528
         532
         536
         540
         544
         548
         552
         556
         560
         564
         568
         572
         576
         580
         584
         588
         592
         596
         600
         604
         608
         612
         616
         620
         624
         628
         632
         636
         640
         644
         648
         652
         656
         660
         664
         668
         672
         676
         680
         684
         688
         692
         696
         700
         704
         708
         712
         716
         720
         724
         728
         732
         736
         740
         744
         748
         752
         756
         760
         764
         768
         772
         776
         780
         784
         788
         792
         796
         800
         804
         808
         812
         816
         820
         824
         828
         832
         836
         840
         844
         848
         852
         856
         860
         864
         868
         872
         876
         880
         884
         888
         892
         896
         900
         904
         908
         912
         916
         920
         924
         928
         932
         936
         940
         944
         948
         952
         956
         960
         964
         968
         972
         976
         980
         984
         988
         992
         996
        1000
        1004
        1008
        1012
        1016
        1020
        1024
        1028
        1032
        1036
        1040
        1044
        1048
        1052
        1056
        1060
        1064
        1068
        1072
        1076
        1080
        1084
        1088
        1092
        1096
        1100
        1104
        1108
        1112
        1116
        1120
        1124
        1128
        1132
        1136
        1140
        1144
        1148
        1152
        1156
        1160
        1164
        1168
        1172
        1176
        1180
        1184
        1188
        1192
        1196
        1200
        1204
        1208
        1212
        1216
        1220
        1224
        1228
        1232
        1236
        1240
        1244
        1248
        1252
        1256
        1260
        1264
        1268
        1272
        1276
        1280
        1284
        1288
        1292
        1296
        1300
        1304
        1308
        1312
        1316
        1320
        1324
        1328
        1332
        1336
        1340
        1344
        1348
        1352
        1356
        1360
        1364
        1368
        1372
        1376
        1380
        1384
        1388
        1392
        1396
        1400
        1404
        1408
        1412
        1416
        1420
        1424
        1428
        1432
        1436
        1440
        1444
        1448
        1452
        1456
        1460
        1464
        1468
        1472
        1476
        1480
        1484
        1488
        1492
        1496
        1500
        1504
        1508
        1512
        1516
        1520
        1524
        1528
        1532
        1536
        1540
        1544
        1548
        1552
        1556
        1560
        1564
        1568
        1572
        1576
        1580
        1584
        1588
        1592
        1596
        1600
        1604
        1608
        1612
        1616
        1620
        1624
        1628
        1632
        1636
        1640
        1644
        1648
        1652
        1656
        1660
        1664
        1668
        1672
        1676
        1680
        1684
        1688
        1692
        1696
        1700
        1704
        1708
        1712
        1716
        1720
        1724
        1728
        1732
        1736
        1740
        1744
        1748
        1752
        1756
        1760
        1764
        1768
        1772
        1776
        1780
        1784
        1788
        1792
        1796
        1800
        1804
        1808
        1812
        1816
        1820
        1824
        1828
        1832
        1836
        1840
        1844
        1848
        1852
        1856
        1860
        1864
        1868
        1872
        1876
        1880
        1884
        1888
        1892
        1896
        1900
        1904
        1908
        1912
        1916
        1920
        1924
        1928
        1932
        1936
        1940
        1944
        1948
        1952
        1956
        1960
        1964
        1968
        1972
        1976
        1980
        1984
        1988
        1992
        1996
        2000
        2004
        2008
        2012
        2016
        2020
        2024
        2028
        2032
        2036
        2040
        2044
        2048
        2052
        2056
        2060
        2064
        2068
        2072
        2076
        2080
        2084
        2088
        2092
        2096
        2100
        2104
        2108
        2112
        2116
        2120
        2124
        2128
        2132
        2136
        2140
        2144
        2148
        2152
        2156
        2160
        2164
        2168
        2172
        2176
        2180
        2184
        2188
        2192
        2196
        2200
        2204
        2208
        2212
        2216
        2220
        2224
        2228
        2232
        2236
        2240
        2244
        2248
        2252
        2256
        2260
        2264
        2268
        2272
        2276
        2280
        2284
        2288
        2292
        2296
        2300
        2304
        2308
        2312
        2316
        2320
        2324
        2328
        2332
        2336
        2340
        2344
        2348
        2352
        2356
        2360
        2364
        2368
        2372
        2376
        2380
        2384
        2388
        2392
        2396
        2400
        2404
        2408
        2412
        2416
        2420
        2424
        2428
        2432
        2436
        2440
        2444
        2448
        2452
        2456
        2460
        2464
        2468
        2472
        2476
        2480
        2484
        2488
        2492
        2496
        2500
        2504
        2508
        2512
        2516
        2520
        2524
        2528
        2532
        2536
        2540
        2544
        2548
        2552
        2556
        2560
        2564
        2568
        2572
        2576
        2580
        2584
        2588
        2592
        2596
        2600
        2604
        2608
        2612
        2616
        2620
        2624
        2628
        2632
        2636
        2640
        2644
        2648
        2652
        2656
        2660
        2664
        2668
        2672
        2676
        2680
        2684
        2688
        2692
        2696
        2700
        2704
        2708
        2712
        2716
        2720
        2724
        2728
        2732
        2736
        2740
        2744
        2748
        2752
        2756
        2760
        2764
        2768
        2772
        2776
        2780
        2784
        2788
        2792
        2796
        2800
        2804
        2808
        2812
        2816
        2820
        2824
        2828
        2832
        2836
        2840
        2844
        2848
        2852
        2856
        2860
        2864
        2868
        2872
        2876
        2880
        2884
        2888
        2892
        2896
        2900
        2904
        2908
        2912
        2916
        2920
        2924
        2928
        2932
        2936
        2940
        2944
        2948
        2952
        2956
        2960
        2964
        2968
        2972
        2976
        2980
        2984
        2988
        2992
        2996
        3000
        3004
        3008
        3012
        3016
        3020
        3024
        3028
        3032
        3036
        3040
        3044
        3048
        3052
        3056
        3060
        3064
        3068
        3072
        3076
        3080
        3084
        3088
        3092
        3096
        3100
        3104
        3108
        3112
        3116
        3120
        3124
        3128
        3132
        3136
        3140
        3144
        3148
        3152
        3156
        3160
        3164
        3168
        3172
        3176
        3180
        3184
        3188
        3192
        3196
        3200
        3204
        3208
        3212
        3216
        3220
        3224
        3228
        3232
        3236
        3240
        3244
        3248
        3252
        3256
        3260
        3264
        3268
        3272
        3276
        3280
        3284
        3288
        3292
        3296
        3300
        3304
        3308
        3312
        3316
        3320
        3324
        3328
        3332
        3336
        3340
        3344
        3348
        3352
        3356
        3360
        3364
        3368
        3372
        3376
        3380
        3384
        3388
        3392
        3396
        3400
        3404
        3408
        3412
        3416
        3420
        3424
        3428
        3432
        3436
        3440
        3444
        3448
        3452
        3456
        3460
        3464
        3468
        3472
        3476
        3480
        3484
        3488
        3492
        3496
        3500
        3504
        3508
        3512
        3516
        3520
        3524
        3528
        3532
        3536
        3540
        3544
        3548
        3552
        3556
        3560
        3564
        3568
        3572
        3576
        3580
        3584
        3588
        3592
        3596
        3600
        3604
        3608
        3612
        3616
        3620
        3624
        3628
        3632
        3636
        3640
        3644
        3648
        3652
        3656
        3660
        3664
        3668
        3672
        3676
        3680
        3684
        3688
        3692
        3696
        3700
        3704
        3708
        3712
        3716
        3720
        3724
        3728
        3732
        3736
        3740
        3744
        3748
        3752
        3756
        3760
        3764
        3768
        3772
        3776
        3780
        3784
        3788
        3792
        3796
        3800
        3804
        3808
        3812
        3816
        3820
        3824
        3828
        3832
        3836
        3840
        3844
        3848
        3852
        3856
        3860
        3864
        3868
        3872
        3876
        3880
        3884
        3888
        3892
        3896
        3900
        3904
        3908
        3912
        3916
        3920
        3924
        3928
        3932
        3936
        3940
        3944
        3948
        3952
        3956
        3960
        3964
        3968
        3972
        3976
        3980
        3984
        3988
        3992
        3996
        4000
        4004
        4008
        4012
        4016
        4020
        4024
        4028
        4032
        4036
        4040
        4044
        4048
        4052
        4056
        4060
        4064
        4068
        4072
        4076
        4080
        4084
        4088
        4092
        4096
 </DataArray>
 <DataArray  type="UInt8"  Name="types"  format="ascii">
 9
 9
 9
 9
 9
 9
 9
 9
 9
 9
 9
 9
 9
 9
 9
 9
 9
 9
 9
 9
 9
 9
 9
 9
 9
 9
 9
 9
 9
 9
 9
 9
 9
 9
 9
 9
 9
 9
 9
 9
 9
 9
 9
 9
 9
 9
 9
 9
 9
 9
 9
 9
 9
 9
 9
 9
 9
 9
 9
 9
 9
 9
 9
 9
 9
 9
 9
 9
 9
 9
 9
 9
 9
 9
 9
 9
 9
 9
 9
 9
 9
 9
 9
 9
 9
 9
 9
 9
 9
 9
 9
 9
 9
 9
 9
 9
 9
 9
 9
 9
 9
 9
 9
 9
 9
 9
 9
 9
 9
 9
 9
 9
 9
 9
 9
 9
 9
 9
 9
 9
 9
 9
 9
 9
 9
 9
 9
 9
 9
 9
 9
 9
 9
 9
 9
 9
 9
 9
 9
 9
 9
 9
 9
 9
 9
 9
 9
 9
 9
 9
 9
 9
 9
 9
 9
 9
 9
 9
 9
 9
 9
 9
 9
 9
 9
 9
 9
 9
 9
 9
 9
 9
 9
 9
 9
 9
 9
 9
 9
 9
 9
 9
 9
 9
 9
 9
 9
 9
 9
 9
 9
 9
 9
 9
 9
 9
 9
 9
 9
 9
 9
 9
 9
 9
 9
 9
 9
 9
 9
 9
 9
 9
 9
 9
 9
 9
 9
 9
 9
 9
 9
 9
 9
 9
 9
 9
 9
 9
 9
 9
 9
 9
 9
 9
 9
 9
 9
 9
 9
 9
 9
 9
 9
 9
 9
 9
 9
 9
 9
 9
 9
 9
 9
 9
 9
 9
 9
 9
 9
 9
 9
 9
 9
 9
 9
 9
 9
 9
 9
 9
 9
 9
 9
 9
 9
 9
 9
 9
 9
 9
 9
 9
 9
 9
 9
 9
 9
 9
 9
 9
 9
 9
 9
 9
 9
 9
 9
 9
 9
 9
 9
 9
 9
 9
 9
 9
 9
 9
 9
 9
 9
 9
 9
 9
 9
 9
 9
 9
 9
 9
 9
 9
 9
 9
 9
 9
 9
 9
 9
 9
 9
 9
 9
 9
 9
 9
 9
 9
 9
 9
 9
 9
 9
 9
 9
 9
 9
 9
 9
 9
 9
 9
 9
 9
 9
 9
 9
 9
 9
 9
 9
 9
 9
 9
 9
 9
 9
 9
 9
 9
 9
 9
 9
 9
 9
 9
 9
 9
 9
 9
 9
 9
 9
 9
 9
 9
 9
 9
 9
 9
 9
 9
 9
 9
 9
 9
 9
 9
 9
 9
 9
 9
 9
 9
 9
 9
 9
 9
 9
 9
 9
 9
 9
 9
 9
 9
 9
 9
 9
 9
 9
 9
 9
 9
 9
 9
 9
 9
 9
 9
 9
 9
 9
 9
 9
 9
 9
 9
 9
 9
 9
 9
 9
 9
 9
 9
 9
 9
 9
 9
 9
 9
 9
 9
 9
 9
 9
 9
 9
 9
 9
 9
 9
 9
 9
 9
 9
 9
 9
 9
 9
 9
 9
 9
 9
 9
 9
 9
 9
 9
 9
 9
 9
 9
 9
 9
 9
 9
 9
 9
 9
 9
 9
 9
 9
 9
 9
 9
 9
 9
 9
 9
 9
 9
 9
 9
 9
 9
 9
 9
 9
 9
 9
 9
 9
 9
 9
 9
 9
 9
 9
 9
 9
 9
 9
 9
 9
 9
 9
 9
 9
 9
 9
 9
 9
 9
 9
 9
 9
 9
 9
 9
 9
 9
 9
 9
 9
 9
 9
 9
 9
 9
 9
 9
 9
 9
 9
 9
 9
 9
 9
 9
 9
 9
 9
 9
 9
 9
 9
 9
 9
 9
 9
 9
 9
 9
 9
 9
 9
 9
 9
 9
 9
 9
 9
 9
 9
 9
 9
 9
 9
 9
 9
 9
 9
 9
 9
 9
 9
 9
 9
 9
 9
 9
 9
 9
 9
 9
 9
 9
 9
 9
 9
 9
 9
 9
 9
 9
 9
 9
 9
 9
 9
 9
 9
 9
 9
 9
 9
 9
 9
 9
 9
 9
 9
 9
 9
 9
 9
 9
 9
 9
 9
 9
 9
 9
 9
 9
 9
 9
 9
 9
 9
 9
 9
 9
 9
 9
 9
 9
 9
 9
 9
 9
 9
 9
 9
 9
 9
 9
 9
 9
 9
 9
 9
 9
 9
 9
 9
 9
 9
 9
 9
 9
 9
 9
 9
 9
 9
 9
 9
 9
 9
 9
 9
 9
 9
 9
 9
 9
 9
 9
 9
 9
 9
 9
 9
 9
 9
 9
 9
 9
 9
 9
 9
 9
 9
 9
 9
 9
 9
 9
 9
 9
 9
 9
 9
 9
 9
 9
 9
 9
 9
 9
 9
 9
 9
 9
 9
 9
 9
 9
 9
 9
 9
 9
 9
 9
 9
 9
 9
 9
 9
 9
 9
 9
 9
 9
 9
 9
 9
 9
 9
 9
 9
 9
 9
 9
 9
 9
 9
 9
 9
 9
 9
 9
 9
 9
 9
 9
 9
 9
 9
 9
 9
 9
 9
 9
 9
 9
 9
 9
 9
 9
 9
 9
 9
 9
 9
 9
 9
 9
 9
 9
 9
 9
 9
 9
 9
 9
 9
 9
 9
 9
 9
 9
 9
 9
 9
 9
 9
 9
 9
 9
 9
 9
 9
 9
 9
 9
 9
 9
 9
 9
 9
 9
 9
 9
 9
 9
 9
 9
 9
 9
 9
 9
 9
 9
 9
 9
 9
 9
 9
 9
 9
 9
 9
 9
 9
 9
 9
 9
 9
 9
 9
 9
 9
 9
 9
 9
 9
 9
 9
 9
 9
 9
 9
 9
 9
 9
 9
 9
 9
 9
 9
 9
 9
 9
 9
 9
 9
 9
 9
 9
 9
 9
 9
 9
 9
 9
 9
 9
 9
 9
 9
 9
 9
 9
 9
 9
 9
 9
 9
 9
 9
 9
 9
 9
 9
 9
 9
 9
 9
 9
 9
 9
 9
 9
 9
 9
 9
 9
 9
 9
 9
 9
 9
 9
 9
 9
 9
 9
 9
 9
 9
 9
 9
 9
 9
 9
 9
 9
 9
 9
 9
 9
 9
 9
 9
 9
 9
 9
 9
 9
 9
 9
 9
 9
 9
 9
 9
 9
 9
 9
 9
 9
 9
 9
 9
 9
 9
 9
 9
 9
 9
 9
 9
 9
 9
 9
 9
 9
 9
 9
 9
 9
 9
 9
 9
 9
 9
 9
 9
 9
 9
 9
 9
 9
 9
 9
 9
 9
 9
 9
 9
 9
 9
 9
 9
 9
 9
 9
 9
 9
 </DataArray>
 </Cells> 
 <PointData>
 <DataArray  type="Float64" Name="disp" NumberOfComponents="3" format="ascii">
   6.6881660243058458E-002   6.2009134620021451E-002   0.0000000000000000     
   6.9482795370289285E-002   6.7727242178242830E-002   0.0000000000000000     
   7.2094297495971307E-002   7.3528664723926940E-002   0.0000000000000000     
   7.4716166620104496E-002   7.9413402257073815E-002   0.0000000000000000     
   7.7348402742688893E-002   8.5381454777683441E-002   0.0000000000000000     
   6.0588123300278386E-002   6.1642989056426345E-002   0.0000000000000000     
   6.3337087504958992E-002   6.7159487886758157E-002   0.0000000000000000     
   6.6022200093486444E-002   7.2825957108121939E-002   0.0000000000000000     
   6.8643461065860736E-002   7.8642396720517718E-002   0.0000000000000000     
   7.1200870422081883E-002   8.4608806723945482E-002   0.0000000000000000     
   5.4902234984494161E-002   6.1136263690301645E-002   0.0000000000000000     
   5.7675175912336035E-002   6.6533453410952570E-002   0.0000000000000000     
   6.0339310711755412E-002   7.2122964124545150E-002   0.0000000000000000     
   6.2894639382752304E-002   7.7904795831079371E-002   0.0000000000000000     
   6.5341161925326699E-002   8.3878948530555247E-002   0.0000000000000000     
   4.9823995295705761E-002   6.0488958521647380E-002   0.0000000000000000     
   5.2497060592420396E-002   6.5849138750826069E-002   0.0000000000000000     
   5.5045629350778211E-002   7.1419685773196517E-002   0.0000000000000000     
   5.7469701570779221E-002   7.7200599588758717E-002   0.0000000000000000     
   5.9769277252423390E-002   8.3191880197512696E-002   0.0000000000000000     
   4.5353404233913201E-002   5.9701073550463529E-002   0.0000000000000000     
   4.7802741545212100E-002   6.5106543906378656E-002   0.0000000000000000     
   5.0141156010554848E-002   7.0716122054076097E-002   0.0000000000000000     
   5.2368647629941451E-002   7.6529807993555812E-002   0.0000000000000000     
   5.4485216403371908E-002   8.2547601724817871E-002   0.0000000000000000     
   7.7348402742688893E-002   8.5381454777683441E-002   0.0000000000000000     
   7.9946749757303467E-002   9.1472474979229820E-002   0.0000000000000000     
   8.2466951557527216E-002   9.7726115555186954E-002   0.0000000000000000     
   8.4909008143360151E-002  0.10414237650555490        0.0000000000000000     
   8.7272919514802275E-002  0.11072125783033358        0.0000000000000000     
   7.1200870422081883E-002   8.4608806723945482E-002   0.0000000000000000     
   7.3685284403242693E-002   9.0730343611684042E-002   0.0000000000000000     
   7.6087559250436018E-002   9.7012163877012281E-002   0.0000000000000000     
   7.8407694963661859E-002  0.10345426751993018        0.0000000000000000     
   8.0645691542920186E-002  0.11005665454043773        0.0000000000000000     
   6.5341161925326699E-002   8.3878948530555247E-002   0.0000000000000000     
   6.7692048904323565E-002   9.0028585445855819E-002   0.0000000000000000     
   6.9960470884587858E-002   9.6336869799864194E-002   0.0000000000000000     
   7.2146427866119578E-002  0.10280380159258033        0.0000000000000000     
   7.4249919848918725E-002  0.10942938082400425        0.0000000000000000     
   5.9769277252423390E-002   8.3191880197512696E-002   0.0000000000000000     
   6.1967043260546119E-002   8.9367200481745124E-002   0.0000000000000000     
   6.4085686459982777E-002   9.5700233323742681E-002   0.0000000000000000     
   6.6125206850733365E-002  0.10219097872350540        0.0000000000000000     
   6.8085604432797889E-002  0.10883943668103323        0.0000000000000000     
   5.4485216403371908E-002   8.2547601724817871E-002   0.0000000000000000     
   5.6510267471910305E-002   8.8746188719351943E-002   0.0000000000000000     
   5.8463205976620740E-002   9.5102254448647755E-002   0.0000000000000000     
   6.0344031917503205E-002  0.10161579891270534        0.0000000000000000     
   6.2152745294557700E-002  0.10828682211152463        0.0000000000000000     
   8.7272919514802275E-002  0.11072125783033358        0.0000000000000000     
   8.9550589070667624E-002  0.11744576049709757        0.0000000000000000     
   9.1733920209770295E-002  0.12429888547342134        0.0000000000000000     
   9.3822912932110231E-002  0.13128063275930493        0.0000000000000000     
   9.5817567237687487E-002  0.13839100235474833        0.0000000000000000     
   8.0645691542920186E-002  0.11005665454043773        0.0000000000000000     
   8.2797012181410654E-002  0.11680428787286759        0.0000000000000000     
   8.4857120072332884E-002  0.12368213045155245        0.0000000000000000     
   8.6826015215686891E-002  0.13069018227649234        0.0000000000000000     
   8.8703697611472676E-002  0.13782844334768724        0.0000000000000000     
   7.4249919848918725E-002  0.10942938082400425        0.0000000000000000     
   7.6268550242882302E-002  0.11620001085270122        0.0000000000000000     
   7.8199922457907300E-002  0.12310209503723649        0.0000000000000000     
   8.0044036493993748E-002  0.13013563337761000        0.0000000000000000     
   8.1800892351141630E-002  0.13730062587382183        0.0000000000000000     
   6.8085604432797889E-002  0.10883943668103323        0.0000000000000000     
   6.9965203255082528E-002  0.11563292943659849        0.0000000000000000     
   7.1762327366493503E-002  0.12255877923047338        0.0000000000000000     
   7.3476976767030786E-002  0.12961698606265795        0.0000000000000000     
   7.5109151456694376E-002  0.13680754993315211        0.0000000000000000     
   6.2152745294557700E-002  0.10828682211152463        0.0000000000000000     
   6.3886971218011415E-002  0.11510304362455936        0.0000000000000000     
   6.5544334798091519E-002  0.12205218303126320        0.0000000000000000     
   6.7124836034798033E-002  0.12913424033163612        0.0000000000000000     
   6.8628474928130928E-002  0.13634921552567816        0.0000000000000000     
   9.5817567237687487E-002  0.13839100235474833        0.0000000000000000     
   9.7718683151235275E-002  0.14562251199988180        0.0000000000000000     
   9.9527060697486819E-002  0.15296767943483558        0.0000000000000000     
  0.10124269987644215       0.16042650465960973        0.0000000000000000     
  0.10286560068810123       0.16799898767420418        0.0000000000000000     
   8.8703697611472676E-002  0.13782844334768724        0.0000000000000000     
   9.0492488046913247E-002  0.14508784832684274        0.0000000000000000     
   9.2194707309231752E-002  0.15245933187566449        0.0000000000000000     
   9.3810355398428122E-002  0.15994289399415246        0.0000000000000000     
   9.5339432314502384E-002  0.16753853468230670        0.0000000000000000     
   8.1800892351141630E-002  0.13730062587382183        0.0000000000000000     
   8.3473616353508528E-002  0.14458683298849673        0.0000000000000000     
   8.5065334825252012E-002  0.15198401518425964        0.0000000000000000     
   8.6576047766372122E-002  0.15949217246111036        0.0000000000000000     
   8.8005755176868844E-002  0.16711130481904909        0.0000000000000000     
   7.5109151456694376E-002  0.13680754993315211        0.0000000000000000     
   7.6662068071021064E-002  0.14411946598484388        0.0000000000000000     
   7.8138943245547682E-002  0.15154172936062099        0.0000000000000000     
   7.9539776980274146E-002  0.15907434006048349        0.0000000000000000     
   8.0864569275200540E-002  0.16671729808443136        0.0000000000000000     
   6.8628474928130928E-002  0.13634921552567816        0.0000000000000000     
   7.0057843199450909E-002  0.14368574731588404        0.0000000000000000     
   7.1415532570118664E-002  0.15113247440474856        0.0000000000000000     
   7.2701543040134223E-002  0.15868939679227173        0.0000000000000000     
   7.3915874609497556E-002  0.16635651447845354        0.0000000000000000     
  0.10286560068810123       0.16799898767420418        0.0000000000000000     
  0.10440067329920028       0.17567184562850136        0.0000000000000000     
  0.10585282787647547       0.18343179567238355        0.0000000000000000     
  0.10722206441992681       0.19127883780585075        0.0000000000000000     
  0.10850838292955430       0.19921297202890301        0.0000000000000000     
   9.5339432314502384E-002  0.16753853468230670        0.0000000000000000     
   9.6783687314072581E-002  0.17523450282134240        0.0000000000000000     
   9.8144869653756669E-002  0.18301904729247481        0.0000000000000000     
   9.9422979333554720E-002  0.19089216809570389        0.0000000000000000     
  0.10061801635346670       0.19885386523102971        0.0000000000000000     
   8.8005755176868844E-002  0.16711130481904909        0.0000000000000000     
   8.9354036165141218E-002  0.17483064858378361        0.0000000000000000     
   9.0620469839588352E-002  0.18263944008102181        0.0000000000000000     
   9.1805056200210303E-002  0.19053767931076376        0.0000000000000000     
   9.2907795247006972E-002  0.19852536627300940        0.0000000000000000     
   8.0864569275200540E-002  0.16671729808443136        0.0000000000000000     
   8.2111719852406229E-002  0.17446028291582499        0.0000000000000000     
   8.3279628433970548E-002  0.18229297403802466        0.0000000000000000     
   8.4368295019893513E-002  0.19021537145103037        0.0000000000000000     
   8.5377719610175151E-002  0.19822747515484213        0.0000000000000000     
   7.3915874609497556E-002  0.16635651447845354        0.0000000000000000     
   7.5056738375867599E-002  0.17412340581746658        0.0000000000000000     
   7.6122345436903216E-002  0.18197964916348330        0.0000000000000000     
   7.7112695792604422E-002  0.18992524451650369        0.0000000000000000     
   7.8027789442971229E-002  0.19796019187652786        0.0000000000000000     
  0.10850838292955430       0.19921297202890301        0.0000000000000000     
  0.10971564585020477       0.20723172599320033        0.0000000000000000     
  0.11084771562672510       0.21533262735040290        0.0000000000000000     
  0.11190459225911525       0.22351567610051068        0.0000000000000000     
  0.11288627574737525       0.23178087224352367        0.0000000000000000     
  0.10061801635346670       0.19885386523102971        0.0000000000000000     
  0.10173492272977878       0.20689871936683313        0.0000000000000000     
  0.10277864047877715       0.21502131117149509        0.0000000000000000     
  0.10374916960046184       0.22322164064501557        0.0000000000000000     
  0.10464651009483279       0.23149970778739459        0.0000000000000000     
   9.2907795247006972E-002  0.19852536627300940        0.0000000000000000     
   9.3933493493609133E-002  0.20659532927756638        0.0000000000000000     
   9.4886957453647419E-002  0.21474039663424244        0.0000000000000000     
   9.5768187127121859E-002  0.22296056834303749        0.0000000000000000     
   9.6577182514032453E-002  0.23125584440395153        0.0000000000000000     
   8.5377719610175151E-002  0.19822747515484213        0.0000000000000000     
   8.6311358141695813E-002  0.20632155572540026        0.0000000000000000     
   8.7172666551335876E-002  0.21448988373864500        0.0000000000000000     
   8.7961644839095340E-002  0.22273245919457635        0.0000000000000000     
   8.8678293004974235E-002  0.23104928209319436        0.0000000000000000     
   7.8027789442971229E-002  0.19796019187652786        0.0000000000000000     
   7.8868516674038852E-002  0.20607739871033459        0.0000000000000000     
   7.9635767771842558E-002  0.21426977248470275        0.0000000000000000     
   8.0329542736382306E-002  0.22253731319963227        0.0000000000000000     
   8.0949841567658151E-002  0.23088002085512321        0.0000000000000000     
  0.11288627574737525       0.23178087224352367        0.0000000000000000     
  0.11382087298322459       0.24014456073644241        0.0000000000000000     
  0.11473649085838272       0.24862308653626761        0.0000000000000000     
  0.11563312937284970       0.25721644964299917        0.0000000000000000     
  0.11651078852662550       0.26592465005663712        0.0000000000000000     
  0.10464651009483279       0.23149970778739459        0.0000000000000000     
  0.10547572205159857       0.23987891560534078        0.0000000000000000     
  0.10624186556046772       0.24838266710556267        0.0000000000000000     
  0.10694494062144019       0.25701096228806036        0.0000000000000000     
  0.10758494723451606       0.26576380115283377        0.0000000000000000     
   9.6577182514032453E-002  0.23125584440395153        0.0000000000000000     
   9.7304890001362720E-002  0.23965270967561669        0.0000000000000000     
   9.7942255976096154E-002  0.24817764901666506        0.0000000000000000     
   9.8489280438232782E-002  0.25683066242709673        0.0000000000000000     
   9.8945963387772617E-002  0.26561174990691166        0.0000000000000000     
   8.8678293004974235E-002  0.23104928209319436        0.0000000000000000     
   8.9308376832516981E-002  0.23946594294727014        0.0000000000000000     
   8.9837662105268071E-002  0.24800803226957474        0.0000000000000000     
   9.0266148823227449E-002  0.25667555006010834        0.0000000000000000     
   9.0593836986395185E-002  0.26546849631887071        0.0000000000000000     
   8.0949841567658151E-002  0.23088002085512321        0.0000000000000000     
   8.1486182545061403E-002  0.23931861542030125        0.0000000000000000     
   8.1928083947983427E-002  0.24787381686429183        0.0000000000000000     
   8.2275545776424208E-002  0.25654562518709506        0.0000000000000000     
   8.2528568030383762E-002  0.26533404038871095        0.0000000000000000     
  0.11651078852662550       0.26592465005663712        0.0000000000000000     
  0.11730978866546030       0.27491232051001369        0.0000000000000000     
  0.11797045013510427       0.28434409373596087        0.0000000000000000     
  0.11849277293555743       0.29421996973447867        0.0000000000000000     
  0.11887675706681979       0.30453994850556720        0.0000000000000000     
  0.10758494723451606       0.26576380115283377        0.0000000000000000     
  0.10814286744318218       0.27477330868532496        0.0000000000000000     
  0.10859968329092549       0.28417160987097584        0.0000000000000000     
  0.10895539477774602       0.29395870470978647        0.0000000000000000     
  0.10921000190364377       0.30413459320175679        0.0000000000000000     
   9.8945963387772617E-002  0.26561174990691166        0.0000000000000000     
   9.9323280879613382E-002  0.27461915559759631        0.0000000000000000     
   9.9632208968652880E-002  0.28395112364063735        0.0000000000000000     
   9.9872747654891056E-002  0.29360765403603467        0.0000000000000000     
  0.10004489693832795       0.30358874678378833        0.0000000000000000     
   9.0593836986395185E-002  0.26546849631887071        0.0000000000000000     
   9.0851028974753917E-002  0.27444986124682774        0.0000000000000000     
   9.1068027168286339E-002  0.28368263504494529        0.0000000000000000     
   9.1244831566992493E-002  0.29316681771322334        0.0000000000000000     
   9.1381442170872310E-002  0.30290240925166190        0.0000000000000000     
   8.2528568030383762E-002  0.26533404038871095        0.0000000000000000     
   8.2726111728603793E-002  0.27426542563301926        0.0000000000000000     
   8.2907137889825955E-002  0.28336614408389976        0.0000000000000000     
   8.3071646514050315E-002  0.29263619574135247        0.0000000000000000     
   8.3219637601276847E-002  0.30207558060537731        0.0000000000000000     
   4.5353404233913201E-002   5.9701073550463529E-002   0.0000000000000000     
   4.7802741545212100E-002   6.5106543906378656E-002   0.0000000000000000     
   5.0141156010554848E-002   7.0716122054076097E-002   0.0000000000000000     
   5.2368647629941451E-002   7.6529807993555812E-002   0.0000000000000000     
   5.4485216403371908E-002   8.2547601724817871E-002   0.0000000000000000     
   4.1209653298733523E-002   5.8896265427541464E-002   0.0000000000000000     
   4.3387259213684484E-002   6.4377184614695743E-002   0.0000000000000000     
   4.5478960786027478E-002   7.0046694907602319E-002   0.0000000000000000     
   4.7484758015762477E-002   7.5904796306261207E-002   0.0000000000000000     
   4.9404650902889487E-002   8.1951488810672365E-002   0.0000000000000000     
   3.7111933989783762E-002   5.8198190803672549E-002   0.0000000000000000     
   3.9045654040810923E-002   6.3732576612862787E-002   0.0000000000000000     
   4.0912113772138242E-002   6.9445826274193739E-002   0.0000000000000000     
   4.2711313183765726E-002   7.5337939787665426E-002   0.0000000000000000     
   4.4443252275693353E-002   8.1408917153277804E-002   0.0000000000000000     
   3.3060246307063917E-002   5.7606849678856778E-002   0.0000000000000000     
   3.4777926026591417E-002   6.3172719900879762E-002   0.0000000000000000     
   3.6440614968887175E-002   6.8913516153850329E-002   0.0000000000000000     
   3.8048313133951198E-002   7.4829238437768467E-002   0.0000000000000000     
   3.9601020521783499E-002   8.0919886752634188E-002   0.0000000000000000     
   2.9054590250573997E-002   5.7122242053094158E-002   0.0000000000000000     
   3.0584075171025949E-002   6.2697614478746694E-002   0.0000000000000000     
   3.2064464376274256E-002   6.8449764546572089E-002   0.0000000000000000     
   3.3495757866318913E-002   7.4378692256570358E-002   0.0000000000000000     
   3.4877955641159933E-002   8.0484397608741501E-002   0.0000000000000000     
   5.4485216403371908E-002   8.2547601724817871E-002   0.0000000000000000     
   5.6510267471910305E-002   8.8746188719351943E-002   0.0000000000000000     
   5.8463205976620740E-002   9.5102254448647755E-002   0.0000000000000000     
   6.0344031917503205E-002  0.10161579891270534        0.0000000000000000     
   6.2152745294557700E-002  0.10828682211152463        0.0000000000000000     
   4.9404650902889487E-002   8.1951488810672365E-002   0.0000000000000000     
   5.1249679326773524E-002   8.8171279331816149E-002   0.0000000000000000     
   5.3030883166779598E-002   9.4548674780672859E-002   0.0000000000000000     
   5.4748262422907680E-002  0.10108367515724251        0.0000000000000000     
   5.6401817095157805E-002  0.10777628046152507        0.0000000000000000     
   4.4443252275693353E-002   8.1408917153277804E-002   0.0000000000000000     
   4.6113236613493175E-002   8.7648201492277589E-002   0.0000000000000000     
   4.7726571762737195E-002   9.4045235925911408E-002   0.0000000000000000     
   4.9283257723425428E-002  0.10060002045417929        0.0000000000000000     
   5.0783294495557865E-002  0.10731255507708123        0.0000000000000000     
   3.9601020521783499E-002   8.0919886752634188E-002   0.0000000000000000     
   4.1100939332069222E-002   8.7176955200736234E-002   0.0000000000000000     
   4.2550271764493532E-002   9.3591937884363416E-002   0.0000000000000000     
   4.3949017819056413E-002  0.10016483480351568        0.0000000000000000     
   4.5297177495757887E-002  0.10689564595819306        0.0000000000000000     
   3.4877955641159933E-002   8.0484397608741501E-002   0.0000000000000000     
   3.6212787482501695E-002   8.6757540457192125E-002   0.0000000000000000     
   3.7501983172048607E-002   9.3188780656028841E-002   0.0000000000000000     
   3.8745542709800657E-002   9.9778118205251676E-002   0.0000000000000000     
   3.9943466095757864E-002  0.10652555310486060        0.0000000000000000     
   6.2152745294557700E-002  0.10828682211152463        0.0000000000000000     
   6.3886971218011415E-002  0.11510304362455936        0.0000000000000000     
   6.5544334798091519E-002  0.12205218303126320        0.0000000000000000     
   6.7124836034798033E-002  0.12913424033163612        0.0000000000000000     
   6.8628474928130928E-002  0.13634921552567816        0.0000000000000000     
   5.6401817095157805E-002  0.10777628046152507        0.0000000000000000     
   5.7988043680410536E-002  0.11461434179711506        0.0000000000000000     
   5.9503438675546479E-002  0.12158571026760683        0.0000000000000000     
   6.0948002080565646E-002  0.12869038587300041        0.0000000000000000     
   6.2321733895468009E-002  0.13592836861329585        0.0000000000000000     
   5.0783294495557865E-002  0.10731255507708123        0.0000000000000000     
   5.2222610191021562E-002  0.11417081233479671        0.0000000000000000     
   5.3597132921703552E-002  0.12116276476750520        0.0000000000000000     
   5.4906862687603843E-002  0.12828841237520669        0.0000000000000000     
   5.6151799488722426E-002  0.13554775515790127        0.0000000000000000     
   4.5297177495757887E-002  0.10689564595819306        0.0000000000000000     
   4.6590670749844472E-002  0.11377245523760436        0.0000000000000000     
   4.7825417536562720E-002  0.12078334653095833        0.0000000000000000     
   4.9001417855912617E-002  0.12792831983825498        0.0000000000000000     
   5.0118671707894170E-002  0.13520737515949438        0.0000000000000000     
   3.9943466095757864E-002  0.10652555310486060        0.0000000000000000     
   4.1092225356879286E-002  0.11341927050553800        0.0000000000000000     
   4.2188292520123981E-002  0.12044745555796622        0.0000000000000000     
   4.3231667585491969E-002  0.12761010826214528        0.0000000000000000     
   4.4222350552983236E-002  0.13490722861807519        0.0000000000000000     
   6.8628474928130928E-002  0.13634921552567816        0.0000000000000000     
   7.0057843199450909E-002  0.14368574731588404        0.0000000000000000     
   7.1415532570118664E-002  0.15113247440474856        0.0000000000000000     
   7.2701543040134223E-002  0.15868939679227173        0.0000000000000000     
   7.3915874609497556E-002  0.16635651447845354        0.0000000000000000     
   6.2321733895468009E-002  0.13592836861329585        0.0000000000000000     
   6.3626345871984860E-002  0.14328815364862318        0.0000000000000000     
   6.4863549761847494E-002  0.15075823613911243        0.0000000000000000     
   6.6033345565055884E-002  0.15833861608476366        0.0000000000000000     
   6.7135733281610044E-002  0.16602929348557685        0.0000000000000000     
   5.6151799488722426E-002  0.13554775515790127        0.0000000000000000     
   5.7332980221809833E-002  0.14292916165006714        0.0000000000000000     
   5.8451441783616602E-002  0.15042100038618261        0.0000000000000000     
   5.9507184174142726E-002  0.15802327136624766        0.0000000000000000     
   6.0500207393388190E-002  0.16573597459026243        0.0000000000000000     
   5.0118671707894170E-002  0.13520737515949438        0.0000000000000000     
   5.1177746248925821E-002  0.14260877132021590        0.0000000000000000     
   5.2179208635426008E-002  0.15012076714595907        0.0000000000000000     
   5.3123058867394733E-002  0.15774336263672387        0.0000000000000000     
   5.4009296944831996E-002  0.16547655779251028        0.0000000000000000     
   4.4222350552983236E-002  0.13490722861807519        0.0000000000000000     
   4.5160643953332816E-002  0.14232698265906948        0.0000000000000000     
   4.6046850317275699E-002  0.14985753641844182        0.0000000000000000     
   4.6880969644811928E-002  0.15749888989619212        0.0000000000000000     
   4.7663001935941467E-002  0.16525104309232044        0.0000000000000000     
   7.3915874609497556E-002  0.16635651447845354        0.0000000000000000     
   7.5056738375867599E-002  0.17412340581746658        0.0000000000000000     
   7.6122345436903216E-002  0.18197964916348330        0.0000000000000000     
   7.7112695792604422E-002  0.18992524451650369        0.0000000000000000     
   7.8027789442971229E-002  0.19796019187652786        0.0000000000000000     
   6.7135733281610044E-002  0.16602929348557685        0.0000000000000000     
   6.8169154361873902E-002  0.17381952252731350        0.0000000000000000     
   6.9132050256211400E-002  0.18169855739573518        0.0000000000000000     
   7.0024420964622511E-002  0.18966639809084188        0.0000000000000000     
   7.0846266487107262E-002  0.19772304461263368        0.0000000000000000     
   6.0500207393388190E-002  0.16573597459026243        0.0000000000000000     
   6.1429030436773738E-002  0.17354813828397106        0.0000000000000000     
   6.2292172299720117E-002  0.18144879067311795        0.0000000000000000     
   6.3089632982227334E-002  0.18943793175770310        0.0000000000000000     
   6.3821412484295362E-002  0.19751556153772654        0.0000000000000000     
   5.4009296944831996E-002  0.16547655779251028        0.0000000000000000     
   5.4836366600567114E-002  0.17330925308743919        0.0000000000000000     
   5.5602711567429394E-002  0.18123034899563159        0.0000000000000000     
   5.6308331845418870E-002  0.18923984551708731        0.0000000000000000     
   5.6953227434535528E-002  0.19733774265180645        0.0000000000000000     
   4.7663001935941467E-002  0.16525104309232044        0.0000000000000000     
   4.8391162853254018E-002  0.17310286693771798        0.0000000000000000     
   4.9063668059339254E-002  0.18104323236327602        0.0000000000000000     
   4.9680517554197147E-002  0.18907213936899450        0.0000000000000000     
   5.0241711337827746E-002  0.19718958795487354        0.0000000000000000     
   7.8027789442971229E-002  0.19796019187652786        0.0000000000000000     
   7.8868516674038852E-002  0.20607739871033459        0.0000000000000000     
   7.9635767771842558E-002  0.21426977248470275        0.0000000000000000     
   8.0329542736382306E-002  0.22253731319963227        0.0000000000000000     
   8.0949841567658151E-002  0.23088002085512321        0.0000000000000000     
   7.0846266487107262E-002  0.19772304461263368        0.0000000000000000     
   7.1595883559849499E-002  0.20586224275402168        0.0000000000000000     
   7.2271568919033038E-002  0.21407773830791732        0.0000000000000000     
   7.2873322564657936E-002  0.22236953127432060        0.0000000000000000     
   7.3401144496724122E-002  0.23073762165323136        0.0000000000000000     
   6.3821412484295362E-002  0.19751556153772654        0.0000000000000000     
   6.4484373268338988E-002  0.20567547237811376        0.0000000000000000     
   6.5075377796772971E-002  0.21391145664379041        0.0000000000000000     
   6.5594426069597339E-002  0.22222351433475654        0.0000000000000000     
   6.6041518086812079E-002  0.23061164545101212        0.0000000000000000     
   5.6953227434535528E-002  0.19733774265180645        0.0000000000000000     
   5.7533985799507352E-002  0.20551708758261078        0.0000000000000000     
   5.8047194405062376E-002  0.21377092749232213        0.0000000000000000     
   5.8492853251200606E-002  0.22209926238094027        0.0000000000000000     
   5.8870962337922036E-002  0.23050209224846541        0.0000000000000000     
   5.0241711337827746E-002  0.19718958795487354        0.0000000000000000     
   5.0744721153354572E-002  0.20538708836751285        0.0000000000000000     
   5.1187018743901233E-002  0.21365615085351225        0.0000000000000000     
   5.1568604109467696E-002  0.22199677541287174        0.0000000000000000     
   5.1889477250053967E-002  0.23040896204559133        0.0000000000000000     
   8.0949841567658151E-002  0.23088002085512321        0.0000000000000000     
   8.1486182545061403E-002  0.23931861542030125        0.0000000000000000     
   8.1928083947983427E-002  0.24787381686429183        0.0000000000000000     
   8.2275545776424208E-002  0.25654562518709506        0.0000000000000000     
   8.2528568030383762E-002  0.26533404038871095        0.0000000000000000     
   7.3401144496724122E-002  0.23073762165323136        0.0000000000000000     
   7.3851880043849655E-002  0.23919576844446194        0.0000000000000000     
   7.4222374534652524E-002  0.24775773064782447        0.0000000000000000     
   7.4512627969132772E-002  0.25642350826331889        0.0000000000000000     
   7.4722640347290328E-002  0.26519310129094531        0.0000000000000000     
   6.6041518086812079E-002  0.23061164545101212        0.0000000000000000     
   6.6419042233735431E-002  0.23908244336950440        0.0000000000000000     
   6.6729386895685680E-002  0.24764250146718098        0.0000000000000000     
   6.6972552072662811E-002  0.25629181974404169        0.0000000000000000     
   6.7148537764666838E-002  0.26503039820008661        0.0000000000000000     
   5.8870962337922036E-002  0.23050209224846541        0.0000000000000000     
   5.9187669114718761E-002  0.23897864019542872        0.0000000000000000     
   5.9449121031082880E-002  0.24752812932236143        0.0000000000000000     
   5.9655318087014401E-002  0.25615055962926342        0.0000000000000000     
   5.9806260282513318E-002  0.26484593111613491        0.0000000000000000     
   5.1889477250053967E-002  0.23040896204559133        0.0000000000000000     
   5.2157760686799601E-002  0.23888435892223478        0.0000000000000000     
   5.2381576940844103E-002  0.24741461421336572        0.0000000000000000     
   5.2560926012187488E-002  0.25599972791898423        0.0000000000000000     
   5.2695807900829741E-002  0.26463970003909021        0.0000000000000000     
   8.2528568030383762E-002  0.26533404038871095        0.0000000000000000     
   8.2726111728603793E-002  0.27426542563301926        0.0000000000000000     
   8.2907137889825955E-002  0.28336614408389976        0.0000000000000000     
   8.3071646514050315E-002  0.29263619574135247        0.0000000000000000     
   8.3219637601276847E-002  0.30207558060537731        0.0000000000000000     
   7.4722640347290328E-002  0.26519310129094531        0.0000000000000000     
   7.4893359130040416E-002  0.27406016544883482        0.0000000000000000     
   7.5065731778298284E-002  0.28301835645511864        0.0000000000000000     
   7.5239758292063863E-002  0.29206767430979680        0.0000000000000000     
   7.5415438671337209E-002  0.30120811901286926        0.0000000000000000     
   6.7148537764666838E-002  0.26503039820008661        0.0000000000000000     
   6.7297601167941326E-002  0.27382839738693848        0.0000000000000000     
   6.7459999478729854E-002  0.28265597785621999        0.0000000000000000     
   6.7635732697032408E-002  0.29151313960793124        0.0000000000000000     
   6.7824800822849002E-002  0.30039988264207207        0.0000000000000000     
   5.9806260282513318E-002  0.26484593111613491        0.0000000000000000     
   5.9938837842306456E-002  0.27357012144733023        0.0000000000000000     
   6.0089940991120666E-002  0.28227900828720381        0.0000000000000000     
   6.0259569728955936E-002  0.29097259163575551        0.0000000000000000     
   6.0447724055812273E-002  0.29965087149298558        0.0000000000000000     
   5.2695807900829741E-002  0.26463970003909021        0.0000000000000000     
   5.2817069153135839E-002  0.27328533763001006        0.0000000000000000     
   5.2955556315470755E-002  0.28188744774807001        0.0000000000000000     
   5.3111269387834462E-002  0.29044603039326999        0.0000000000000000     
   5.3284208370226988E-002  0.29896108556561007        0.0000000000000000     
   2.9054590250573997E-002   5.7122242053094158E-002   0.0000000000000000     
   3.0584075171025949E-002   6.2697614478746694E-002   0.0000000000000000     
   3.2064464376274256E-002   6.8449764546572089E-002   0.0000000000000000     
   3.3495757866318913E-002   7.4378692256570358E-002   0.0000000000000000     
   3.4877955641159933E-002   8.0484397608741501E-002   0.0000000000000000     
   2.5126434949042216E-002   5.6715387332171199E-002   0.0000000000000000     
   2.6478630343947533E-002   6.2290454325110142E-002   0.0000000000000000     
   2.7785036647778510E-002   6.8046434634122868E-002   0.0000000000000000     
   2.9045653860535144E-002   7.3983328259209405E-002   0.0000000000000000     
   3.0260481982217445E-002   8.0101135200369739E-002   0.0000000000000000     
   2.1307249531196795E-002   5.6357304921874421E-002   0.0000000000000000     
   2.2476120415189163E-002   6.1934433418616729E-002   0.0000000000000000     
   2.3603706436878959E-002   6.7695389598266584E-002   0.0000000000000000     
   2.4690007596266189E-002   7.3640173460823952E-002   0.0000000000000000     
   2.5735023893350847E-002   7.9768785006288881E-002   0.0000000000000000     
   1.7597033997037728E-002   5.6047994822203809E-002   0.0000000000000000     
   1.8576545384750832E-002   6.1629551759266453E-002   0.0000000000000000     
   1.9520473743575607E-002   6.7396629439003181E-002   0.0000000000000000     
   2.0428819073512041E-002   7.3349227861414026E-002   0.0000000000000000     
   2.1301581374560150E-002   7.9487347026498942E-002   0.0000000000000000     
   1.3995788346565020E-002   5.5787457033159377E-002   0.0000000000000000     
   1.4779905252632553E-002   6.1375809347059315E-002   0.0000000000000000     
   1.5535338567868451E-002   6.7150154156332700E-002   0.0000000000000000     
   1.6262088292272714E-002   7.3110491460979588E-002   0.0000000000000000     
   1.6960154425845343E-002   7.9256821260999907E-002   0.0000000000000000     
   3.4877955641159933E-002   8.0484397608741501E-002   0.0000000000000000     
   3.6212787482501695E-002   8.6757540457192125E-002   0.0000000000000000     
   3.7501983172048607E-002   9.3188780656028841E-002   0.0000000000000000     
   3.8745542709800657E-002   9.9778118205251676E-002   0.0000000000000000     
   3.9943466095757864E-002  0.10652555310486060        0.0000000000000000     
   3.0260481982217445E-002   8.0101135200369739E-002   0.0000000000000000     
   3.1431915420136514E-002   8.6388547480727079E-002   0.0000000000000000     
   3.2562348581603465E-002   9.2834257123404679E-002   0.0000000000000000     
   3.3651781466618298E-002   9.9438264128402509E-002   0.0000000000000000     
   3.4700214075181007E-002  0.10620056849572063        0.0000000000000000     
   2.5735023893350847E-002   7.9768785006288881E-002   0.0000000000000000     
   2.6741457500319615E-002   8.6068566490422951E-002   0.0000000000000000     
   2.7712010589359140E-002   9.2526860168987840E-002   0.0000000000000000     
   2.8646683160469446E-002   9.9143666041983478E-002   0.0000000000000000     
   2.9545475213650519E-002  0.10591898410940993        0.0000000000000000     
   2.1301581374560150E-002   7.9487347026498942E-002   0.0000000000000000     
   2.2141413723050996E-002   8.5797597486279756E-002   0.0000000000000000     
   2.2950969195315647E-002   9.2266589792778284E-002   0.0000000000000000     
   2.3730247791354114E-002   9.8894323945994553E-002   0.0000000000000000     
   2.4479249511166392E-002  0.10568079994592854        0.0000000000000000     
   1.6960154425845343E-002   7.9256821260999907E-002   0.0000000000000000     
   1.7631784088330660E-002   8.5575640468297479E-002   0.0000000000000000     
   1.8279224399472983E-002   9.2053445994776106E-002   0.0000000000000000     
   1.8902475359272305E-002   9.8690237840435749E-002   0.0000000000000000     
   1.9501536967728640E-002  0.10548601600527642        0.0000000000000000     
   3.9943466095757864E-002  0.10652555310486060        0.0000000000000000     
   4.1092225356879286E-002  0.11341927050553800        0.0000000000000000     
   4.2188292520123981E-002  0.12044745555796622        0.0000000000000000     
   4.3231667585491969E-002  0.12761010826214528        0.0000000000000000     
   4.4222350552983236E-002  0.13490722861807519        0.0000000000000000     
   3.4700214075181007E-002  0.10620056849572063        0.0000000000000000     
   3.5704865868634514E-002  0.11310943987030693        0.0000000000000000     
   3.6662956308321712E-002  0.12015314789710946        0.0000000000000000     
   3.7574485394242602E-002  0.12733169257612820        0.0000000000000000     
   3.8439453126397197E-002  0.13464507390736313        0.0000000000000000     
   2.9545475213650519E-002  0.10591898410940993        0.0000000000000000     
   3.0406184141618681E-002  0.11284114506362054        0.0000000000000000     
   3.1226607337090241E-002  0.11989847959696869        0.0000000000000000     
   3.2006744800065226E-002  0.12709098770945440        0.0000000000000000     
   3.2746596530543605E-002  0.13441866940107763        0.0000000000000000     
   2.4479249511166392E-002  0.10568079994592854        0.0000000000000000     
   2.5196180175831792E-002  0.11261438608547879        0.0000000000000000     
   2.5879245606429603E-002  0.11968345065754389        0.0000000000000000     
   2.6528445802959828E-002  0.12688799366212386        0.0000000000000000     
   2.7143780765422478E-002  0.13422801509921869        0.0000000000000000     
   1.9501536967728640E-002  0.10548601600527642        0.0000000000000000     
   2.0074853971273839E-002  0.11242916293588169        0.0000000000000000     
   2.0620871116339770E-002  0.11950806107883510        0.0000000000000000     
   2.1139588402926422E-002  0.12672271043413663        0.0000000000000000     
   2.1631005831033806E-002  0.13407311100178634        0.0000000000000000     
   4.4222350552983236E-002  0.13490722861807519        0.0000000000000000     
   4.5160643953332816E-002  0.14232698265906948        0.0000000000000000     
   4.6046850317275699E-002  0.14985753641844182        0.0000000000000000     
   4.6880969644811928E-002  0.15749888989619212        0.0000000000000000     
   4.7663001935941467E-002  0.16525104309232044        0.0000000000000000     
   3.8439453126397197E-002  0.13464507390736313        0.0000000000000000     
   3.9258017716357646E-002  0.14208138325292677        0.0000000000000000     
   4.0030337375696147E-002  0.14962871197493152        0.0000000000000000     
   4.0756412104412672E-002  0.15728706007337753        0.0000000000000000     
   4.1436241902507234E-002  0.16505642754826463        0.0000000000000000     
   3.2746596530543605E-002  0.13441866940107763        0.0000000000000000     
   3.3446211919327187E-002  0.14186956068808648        0.0000000000000000     
   3.4105640357217776E-002  0.14943169758672889        0.0000000000000000     
   3.4724881844215343E-002  0.15710508009700494        0.0000000000000000     
   3.5303936380319929E-002  0.16488970821891460        0.0000000000000000     
   2.7143780765422478E-002  0.13422801509921869        0.0000000000000000     
   2.7725226562241429E-002  0.14169151496454865        0.0000000000000000     
   2.8272759261840599E-002  0.14926649325383387        0.0000000000000000     
   2.8786378864219961E-002  0.15695294996707440        0.0000000000000000     
   2.9266085369379531E-002  0.16475088510427024        0.0000000000000000     
   2.1631005831033806E-002  0.13407311100178634        0.0000000000000000     
   2.2095061645100379E-002  0.14154724608231328        0.0000000000000000     
   2.2531694089564611E-002  0.14913309897624646        0.0000000000000000     
   2.2940903164426506E-002  0.15683066968358594        0.0000000000000000     
   2.3322688869686060E-002  0.16463995820433169        0.0000000000000000     
   4.7663001935941467E-002  0.16525104309232044        0.0000000000000000     
   4.8391162853254018E-002  0.17310286693771798        0.0000000000000000     
   4.9063668059339254E-002  0.18104323236327602        0.0000000000000000     
   4.9680517554197147E-002  0.18907213936899450        0.0000000000000000     
   5.0241711337827746E-002  0.19718958795487354        0.0000000000000000     
   4.1436241902507234E-002  0.16505642754826463        0.0000000000000000     
   4.2067832908361705E-002  0.17292565399145499        0.0000000000000000     
   4.2649191260357933E-002  0.18088357899481075        0.0000000000000000     
   4.3180316958495918E-002  0.18893020255833187        0.0000000000000000     
   4.3661210002775661E-002  0.19706552468201843        0.0000000000000000     
   3.5303936380319929E-002  0.16488970821891460        0.0000000000000000     
   3.5840790479417420E-002  0.17277428840529799        0.0000000000000000     
   3.6333430655393746E-002  0.18074752710899528        0.0000000000000000     
   3.6781856908248915E-002  0.18880942433000658        0.0000000000000000     
   3.7186069237982927E-002  0.19695998006833179        0.0000000000000000     
   2.9266085369379531E-002  0.16475088510427024        0.0000000000000000     
   2.9710035566421166E-002  0.17264877017924687        0.0000000000000000     
   3.0116386244446704E-002  0.18063507670582965        0.0000000000000000     
   3.0485137403456163E-002  0.18870980468401857        0.0000000000000000     
   3.0816289043449529E-002  0.19687295411381364        0.0000000000000000     
   2.3322688869686060E-002  0.16463995820433169        0.0000000000000000     
   2.3675568169372937E-002  0.17254909931330170        0.0000000000000000     
   2.3998058027516797E-002  0.18054622778531373        0.0000000000000000     
   2.4290158444117641E-002  0.18863134362036788        0.0000000000000000     
   2.4551869419175473E-002  0.19680444681846410        0.0000000000000000     
   5.0241711337827746E-002  0.19718958795487354        0.0000000000000000     
   5.0744721153354572E-002  0.20538708836751285        0.0000000000000000     
   5.1187018743901233E-002  0.21365615085351225        0.0000000000000000     
   5.1568604109467696E-002  0.22199677541287174        0.0000000000000000     
   5.1889477250053967E-002  0.23040896204559133        0.0000000000000000     
   4.3661210002775661E-002  0.19706552468201843        0.0000000000000000     
   4.4090637679296489E-002  0.20527918105376555        0.0000000000000000     
   4.4467367274157718E-002  0.21356080736146876        0.0000000000000000     
   4.4791398787359334E-002  0.22191040360512787        0.0000000000000000     
   4.5062732218901336E-002  0.23032796978474304        0.0000000000000000     
   3.7186069237982927E-002  0.19695998006833179        0.0000000000000000     
   3.7545793726748919E-002  0.20518707196231475        0.0000000000000000     
   3.7860756456700020E-002  0.21347857765029943        0.0000000000000000     
   3.8130957427836253E-002  0.22183449713228570        0.0000000000000000     
   3.8356396640157588E-002  0.23025483040827366        0.0000000000000000     
   3.0816289043449529E-002  0.19687295411381364        0.0000000000000000     
   3.1110189295711844E-002  0.20511076109316043        0.0000000000000000     
   3.1367186291528154E-002  0.21340946172000427        0.0000000000000000     
   3.1587280030898439E-002  0.22176905599434518        0.0000000000000000     
   3.1770470513822702E-002  0.23018954391618321        0.0000000000000000     
   2.4551869419175473E-002  0.19680444681846410        0.0000000000000000     
   2.4783824386185288E-002  0.20505024844630254        0.0000000000000000     
   2.4986656778642102E-002  0.21335345957058327        0.0000000000000000     
   2.5160366596545899E-002  0.22171408019130637        0.0000000000000000     
   2.5304953839896692E-002  0.23013211030847169        0.0000000000000000     
   5.1889477250053967E-002  0.23040896204559133        0.0000000000000000     
   5.2157760686799601E-002  0.23888435892223478        0.0000000000000000     
   5.2381576940844103E-002  0.24741461421336572        0.0000000000000000     
   5.2560926012187488E-002  0.25599972791898423        0.0000000000000000     
   5.2695807900829741E-002  0.26463970003909021        0.0000000000000000     
   4.5062732218901336E-002  0.23032796978474304        0.0000000000000000     
   4.5290186514663419E-002  0.23879819885260220        0.0000000000000000     
   4.5482580620525216E-002  0.24730578376099352        0.0000000000000000     
   4.5639914536486727E-002  0.25585072450991692        0.0000000000000000     
   4.5762188262547972E-002  0.26443302109937250        0.0000000000000000     
   3.8356396640157588E-002  0.23025483040827366        0.0000000000000000     
   3.8545816162995655E-002  0.23871875928921071        0.0000000000000000     
   3.8707958065682051E-002  0.24720546558604439        0.0000000000000000     
   3.8842822348216774E-002  0.25571494929877464        0.0000000000000000     
   3.8950409010599825E-002  0.26424721042740162        0.0000000000000000     
   3.1770470513822702E-002  0.23018954391618321        0.0000000000000000     
   3.1924649631796316E-002  0.23864604023206032        0.0000000000000000     
   3.2057709276314614E-002  0.24711365968851837        0.0000000000000000     
   3.2169649447377623E-002  0.25559240228555741        0.0000000000000000     
   3.2260470144985322E-002  0.26408226802317764        0.0000000000000000     
   2.5304953839896692E-002  0.23013211030847169        0.0000000000000000     
   2.5426686921065395E-002  0.23858004168115088        0.0000000000000000     
   2.5531834252422919E-002  0.24703036606841547        0.0000000000000000     
   2.5620395833969269E-002  0.25548308347026533        0.0000000000000000     
   2.5692371665704442E-002  0.26393819388670059        0.0000000000000000     
   5.2695807900829741E-002  0.26463970003909021        0.0000000000000000     
   5.2817069153135839E-002  0.27328533763001006        0.0000000000000000     
   5.2955556315470755E-002  0.28188744774807001        0.0000000000000000     
   5.3111269387834462E-002  0.29044603039326999        0.0000000000000000     
   5.3284208370226988E-002  0.29896108556561007        0.0000000000000000     
   4.5762188262547972E-002  0.26443302109937250        0.0000000000000000     
   4.5873545981883902E-002  0.27300276131099310        0.0000000000000000     
   4.5998131877669518E-002  0.28151003292641186        0.0000000000000000     
   4.6135945949904791E-002  0.28995483594562865        0.0000000000000000     
   4.6286988198589729E-002  0.29833717036864349        0.0000000000000000     
   3.8950409010599825E-002  0.26424721042740162        0.0000000000000000     
   3.9049519210005074E-002  0.27275110786629442        0.0000000000000000     
   3.9158954103606362E-002  0.28117550050982237        0.0000000000000000     
   3.9278713691403705E-002  0.28952038835798549        0.0000000000000000     
   3.9408797973397094E-002  0.29778577141078377        0.0000000000000000     
   3.2260470144985322E-002  0.26408226802317764        0.0000000000000000     
   3.2344988837499332E-002  0.27253037729591401        0.0000000000000000     
   3.2438022993281294E-002  0.28088385049830167        0.0000000000000000     
   3.2539572612331209E-002  0.28914268763034068        0.0000000000000000     
   3.2649637694649070E-002  0.29730688869203109        0.0000000000000000     
   2.5692371665704442E-002  0.26393819388670059        0.0000000000000000     
   2.5759954864366705E-002  0.27234056959985187        0.0000000000000000     
   2.5835338546694328E-002  0.28063508289184969        0.0000000000000000     
   2.5918522712687311E-002  0.28882173376269415        0.0000000000000000     
   2.6009507362345655E-002  0.29690052221238528        0.0000000000000000     
   1.3995788346565020E-002   5.5787457033159377E-002   0.0000000000000000     
   1.4779905252632553E-002   6.1375809347059315E-002   0.0000000000000000     
   1.5535338567868451E-002   6.7150154156332700E-002   0.0000000000000000     
   1.6262088292272714E-002   7.3110491460979588E-002   0.0000000000000000     
   1.6960154425845343E-002   7.9256821260999907E-002   0.0000000000000000     
   1.0460981033885132E-002   5.5580824350323264E-002   0.0000000000000000     
   1.1047281655918537E-002   6.1176158155074885E-002   0.0000000000000000     
   1.1612315091170597E-002   6.6957362916597249E-002   0.0000000000000000     
   1.2156081339641311E-002   7.2924438634890371E-002   0.0000000000000000     
   1.2678580401330675E-002   7.9077385309954229E-002   0.0000000000000000     
   6.9500805131045215E-003   5.5433229569277619E-002   0.0000000000000000     
   7.3397562316930114E-003   6.1033550156392787E-002   0.0000000000000000     
   7.7154174948951531E-003   6.6819654886138974E-002   0.0000000000000000     
   8.0770643027109467E-003   7.2791543758516167E-002   0.0000000000000000     
   8.4246966551403957E-003   7.8949216773524358E-002   0.0000000000000000     
   3.4630867842231909E-003   5.5344672690022446E-002   0.0000000000000000     
   3.6573289799559693E-003   6.0947985351012986E-002   0.0000000000000000     
   3.8446457790421145E-003   6.6737030064957820E-002   0.0000000000000000     
   4.0250371814816270E-003   7.2711806831856921E-002   0.0000000000000000     
   4.1985031872745059E-003   7.8872315651710309E-002   0.0000000000000000     
  -1.5275886068241706E-010   5.5315153712557741E-002   0.0000000000000000     
  -9.9292585004767675E-011   6.0919463738935510E-002   0.0000000000000000     
  -5.6388515710069365E-011   6.6709488453053828E-002   0.0000000000000000     
  -2.4046654180679902E-011   7.2685227854912673E-002   0.0000000000000000     
  -2.2669990884516267E-012   7.8846681944512054E-002   0.0000000000000000     
   1.6960154425845343E-002   7.9256821260999907E-002   0.0000000000000000     
   1.7631784088330660E-002   8.5575640468297479E-002   0.0000000000000000     
   1.8279224399472983E-002   9.2053445994776106E-002   0.0000000000000000     
   1.8902475359272305E-002   9.8690237840435749E-002   0.0000000000000000     
   1.9501536967728640E-002  0.10548601600527642        0.0000000000000000     
   1.2678580401330675E-002   7.9077385309954229E-002   0.0000000000000000     
   1.3181480660981864E-002   8.5402870821589885E-002   0.0000000000000000     
   1.3666450503338036E-002   9.1887563049598400E-002   0.0000000000000000     
   1.4133489928399200E-002   9.8531461993979760E-002   0.0000000000000000     
   1.4582598936165349E-002  0.10533456765473399        0.0000000000000000     
   8.4246966551403957E-003   7.8949216773524358E-002   0.0000000000000000     
   8.7594155058278687E-003   8.5279463931270741E-002   0.0000000000000000     
   9.0823218084177277E-003   9.1769075231862396E-002   0.0000000000000000     
   9.3934155629099795E-003   9.8418050675299365E-002   0.0000000000000000     
   9.6926967693046189E-003  0.10522639026158163        0.0000000000000000     
   4.1985031872745059E-003   7.8872315651710309E-002   0.0000000000000000     
   4.3655886228686743E-003   8.5205419797340004E-002   0.0000000000000000     
   4.5268383147120551E-003   9.1697982541568107E-002   0.0000000000000000     
   4.6822522628046483E-003   9.8350003884394507E-002   0.0000000000000000     
   4.8318304671464522E-003  0.10516148382581933        0.0000000000000000     
  -2.2669990884516267E-012   7.8846681944512054E-002   0.0000000000000000     
   1.2104280251723498E-011   8.5180738419797758E-002   0.0000000000000000     
   2.2221014524953508E-011   9.1674284978715478E-002   0.0000000000000000     
   2.8083204598600142E-011   9.8327321621265271E-002   0.0000000000000000     
   2.9690848737939923E-011  0.10513984834744711        0.0000000000000000     
   1.9501536967728640E-002  0.10548601600527642        0.0000000000000000     
   2.0074853971273839E-002  0.11242916293588169        0.0000000000000000     
   2.0620871116339770E-002  0.11950806107883510        0.0000000000000000     
   2.1139588402926422E-002  0.12672271043413663        0.0000000000000000     
   2.1631005831033806E-002  0.13407311100178634        0.0000000000000000     
   1.4582598936165349E-002  0.10533456765473399        0.0000000000000000     
   1.5012435106883304E-002  0.11228526460495308        0.0000000000000000     
   1.5421656020799883E-002  0.11937193741772907        0.0000000000000000     
   1.5810261677915088E-002  0.12659458609306198        0.0000000000000000     
   1.6178252078228920E-002  0.13395321063095172        0.0000000000000000     
   9.6926967693046189E-003  0.10522639026158163        0.0000000000000000     
   9.9791531615986539E-003  0.11218248008281684        0.0000000000000000     
   1.0251772473789089E-002  0.11927470623111264        0.0000000000000000     
   1.0510554705875920E-002  0.12650306870646899        0.0000000000000000     
   1.0755499857859157E-002  0.13386756750888598        0.0000000000000000     
   4.8318304671464522E-003  0.10516148382581933        0.0000000000000000     
   4.9750081354198901E-003  0.11212080936947295        0.0000000000000000     
   5.1112204753073790E-003  0.11921636751898577        0.0000000000000000     
   5.2404674868089234E-003  0.12644815827435785        0.0000000000000000     
   5.3627491699245172E-003  0.13381618163558914        0.0000000000000000     
   2.9690848737939923E-011  0.10513984834744711        0.0000000000000000     
   2.8347012237528446E-011  0.11210025246492139        0.0000000000000000     
   2.5354759524559567E-011  0.11919692128134847        0.0000000000000000     
   2.0714089406410896E-011  0.12642985479672841        0.0000000000000000     
   1.4425001991502651E-011  0.13379905301106115        0.0000000000000000     
   2.1631005831033806E-002  0.13407311100178634        0.0000000000000000     
   2.2095061645100379E-002  0.14154724608231328        0.0000000000000000     
   2.2531694089564611E-002  0.14913309897624646        0.0000000000000000     
   2.2940903164426506E-002  0.15683066968358594        0.0000000000000000     
   2.3322688869686060E-002  0.16463995820433169        0.0000000000000000     
   1.6178252078228920E-002  0.13395321063095172        0.0000000000000000     
   1.6525554269915137E-002  0.14143578817844651        0.0000000000000000     
   1.6852095301147514E-002  0.14903029588259462        0.0000000000000000     
   1.7157875171926046E-002  0.15673673374339589        0.0000000000000000     
   1.7442893882250732E-002  0.16455510176085045        0.0000000000000000     
   1.0755499857859157E-002  0.13386756750888598        0.0000000000000000     
   1.0986541538696833E-002  0.14135617539001466        0.0000000000000000     
   1.1203613357346993E-002  0.14895686510150624        0.0000000000000000     
   1.1406715313809638E-002  0.15666963664336064        0.0000000000000000     
   1.1595847408084763E-002  0.16449449001557792        0.0000000000000000     
   5.3627491699245172E-003  0.13381618163558914        0.0000000000000000     
   5.4780234514454603E-003  0.14130840771701758        0.0000000000000000     
   5.5862482581630494E-003  0.14891280663298126        0.0000000000000000     
   5.6874235900772809E-003  0.15662937838348012        0.0000000000000000     
   5.7815494471881593E-003  0.16445812296851420        0.0000000000000000     
   1.4425001991502651E-011  0.13379905301106115        0.0000000000000000     
   8.1610243736485177E-012  0.14129248515945542        0.0000000000000000     
   3.5956849477047914E-012  0.14889812047701981        0.0000000000000000     
   7.2898230420864740E-013  0.15661595896375441        0.0000000000000000     
  -4.3908323157926255E-013  0.16444600061965919        0.0000000000000000     
   2.3322688869686060E-002  0.16463995820433169        0.0000000000000000     
   2.3675568169372937E-002  0.17254909931330170        0.0000000000000000     
   2.3998058027516797E-002  0.18054622778531373        0.0000000000000000     
   2.4290158444117641E-002  0.18863134362036788        0.0000000000000000     
   2.4551869419175473E-002  0.19680444681846410        0.0000000000000000     
   1.7442893882250732E-002  0.16455510176085045        0.0000000000000000     
   1.7706102429439666E-002  0.17247319552565840        0.0000000000000000     
   1.7946451810810934E-002  0.18047881062852000        0.0000000000000000     
   1.8163942026364541E-002  0.18857194706943520        0.0000000000000000     
   1.8358573076100483E-002  0.19675260484840404        0.0000000000000000     
   1.1595847408084763E-002  0.16449449001557792        0.0000000000000000     
   1.1770352487788262E-002  0.17241897853451299        0.0000000000000000     
   1.1929573400536016E-002  0.18043065551652082        0.0000000000000000     
   1.2073510146328029E-002  0.18852952096160128        0.0000000000000000     
   1.2202162725164299E-002  0.19671557486975455        0.0000000000000000     
   5.7815494471881593E-003  0.16445812296851420        0.0000000000000000     
   5.8683183444187296E-003  0.17238644833986547        0.0000000000000000     
   5.9474227966920465E-003  0.18040176244931613        0.0000000000000000     
   6.0188628040081064E-003  0.18850406529686617        0.0000000000000000     
   6.0826383663669130E-003  0.19669335688251557        0.0000000000000000     
  -4.3908323157926255E-013  0.16444600061965919        0.0000000000000000     
  -6.6892953849706505E-013  0.17237560494171580        0.0000000000000000     
  -7.2097818167027317E-013  0.18039213142690602        0.0000000000000000     
  -5.9522509534074008E-013  0.18849558007522976        0.0000000000000000     
  -2.9167206844205040E-013  0.19668595088668711        0.0000000000000000     
   2.4551869419175473E-002  0.19680444681846410        0.0000000000000000     
   2.4783824386185288E-002  0.20505024844630254        0.0000000000000000     
   2.4986656778642102E-002  0.21335345957058327        0.0000000000000000     
   2.5160366596545899E-002  0.22171408019130637        0.0000000000000000     
   2.5304953839896692E-002  0.23013211030847169        0.0000000000000000     
   1.8358573076100483E-002  0.19675260484840404        0.0000000000000000     
   1.8531026500473700E-002  0.20500421160253987        0.0000000000000000     
   1.8681983839939114E-002  0.21331019496895604        0.0000000000000000     
   1.8811445094496736E-002  0.22167055494765261        0.0000000000000000     
   1.8919410264146563E-002  0.23008529153862950        0.0000000000000000     
   1.2202162725164299E-002  0.19671557486975455        0.0000000000000000     
   1.2316123140881536E-002  0.20497132814267122        0.0000000000000000     
   1.2415983397316454E-002  0.21327929168204224        0.0000000000000000     
   1.2501743494469048E-002  0.22163946548786750        0.0000000000000000     
   1.2573403432339324E-002  0.23005184956014704        0.0000000000000000     
   6.0826383663669130E-003  0.19669335688251557        0.0000000000000000     
   6.1391143074088009E-003  0.20495159806669663        0.0000000000000000     
   6.1886554507741076E-003  0.21326074970984177        0.0000000000000000     
   6.2312617964628341E-003  0.22162081181195098        0.0000000000000000     
   6.2669333444749804E-003  0.23003178437302424        0.0000000000000000     
  -2.9167206844205040E-013  0.19668595088668711        0.0000000000000000     
   5.5492936634760071E-014  0.20494502137461607        0.0000000000000000     
   3.1208119855713479E-013  0.21325456905235474        0.0000000000000000     
   4.7809133496730383E-013  0.22161459391990310        0.0000000000000000     
   5.5352640873640446E-013  0.23002509597726120        0.0000000000000000     
   2.5304953839896692E-002  0.23013211030847169        0.0000000000000000     
   2.5426686921065395E-002  0.23858004168115088        0.0000000000000000     
   2.5531834252422919E-002  0.24703036606841547        0.0000000000000000     
   2.5620395833969269E-002  0.25548308347026533        0.0000000000000000     
   2.5692371665704442E-002  0.26393819388670059        0.0000000000000000     
   1.8919410264146563E-002  0.23008529153862950        0.0000000000000000     
   1.9010248388162655E-002  0.23852523317057941        0.0000000000000000     
   1.9088328505819072E-002  0.24696120827219498        0.0000000000000000     
   1.9153650617115818E-002  0.25539321684347627        0.0000000000000000     
   1.9206214722052896E-002  0.26382125888442309        0.0000000000000000     
   1.2573403432339324E-002  0.23005184956014704        0.0000000000000000     
   1.2633654390447852E-002  0.23848608423444267        0.0000000000000000     
   1.2685187548315203E-002  0.24691180984631642        0.0000000000000000     
   1.2728002905941380E-002  0.25532902639576810        0.0000000000000000     
   1.2762100463326377E-002  0.26373773388279781        0.0000000000000000     
   6.2669333444749804E-003  0.23003178437302424        0.0000000000000000     
   6.2969049279209899E-003  0.23846259487274077        0.0000000000000000     
   6.3224113799113133E-003  0.24688217079077965        0.0000000000000000     
   6.3434527004459481E-003  0.25529051212714099        0.0000000000000000     
   6.3600288895248949E-003  0.26368761888182474        0.0000000000000000     
   5.5352640873640446E-013  0.23002509597726120        0.0000000000000000     
   5.8206933196969235E-013  0.23845476508547359        0.0000000000000000     
   6.0740052310742643E-013  0.24687229110558484        0.0000000000000000     
   6.2952770709008565E-013  0.25527767403759494        0.0000000000000000     
   6.4844353844795144E-013  0.26367091388150393        0.0000000000000000     
   2.5692371665704442E-002  0.26393819388670059        0.0000000000000000     
   2.5759954864366705E-002  0.27234056959985187        0.0000000000000000     
   2.5835338546694328E-002  0.28063508289184969        0.0000000000000000     
   2.5918522712687311E-002  0.28882173376269415        0.0000000000000000     
   2.6009507362345655E-002  0.29690052221238528        0.0000000000000000     
   1.9206214722052896E-002  0.26382125888442309        0.0000000000000000     
   1.9255993355300587E-002  0.27218801662331316        0.0000000000000000     
   1.9312959051529202E-002  0.28043617228842388        0.0000000000000000     
   1.9377111810738736E-002  0.28856572587975526        0.0000000000000000     
   1.9448451632929180E-002  0.29657667739730720        0.0000000000000000     
   1.2762100463326377E-002  0.26373773388279781        0.0000000000000000     
   1.2794680374994412E-002  0.27207905021150314        0.0000000000000000     
   1.2832942795469687E-002  0.28029409328598159        0.0000000000000000     
   1.2876887724752206E-002  0.28838286310623318        0.0000000000000000     
   1.2926515162841972E-002  0.29634535967225795        0.0000000000000000     
   6.3600288895248949E-003  0.26368761888182474        0.0000000000000000     
   6.3760159234481648E-003  0.27201367036442176        0.0000000000000000     
   6.3952897785157789E-003  0.28020884588452288        0.0000000000000000     
   6.4178504547277321E-003  0.28827314544212801        0.0000000000000000     
   6.4436979520840270E-003  0.29620656903723724        0.0000000000000000     
   6.4844353844795144E-013  0.26367091388150393        0.0000000000000000     
   6.6185815508768009E-013  0.27199187708206901        0.0000000000000000     
   6.6748147807549341E-013  0.28018043008404764        0.0000000000000000     
   6.6531063427563431E-013  0.28823657288743970        0.0000000000000000     
   6.5534643683973215E-013  0.29616030549224526        0.0000000000000000     
  -1.5275886068241706E-010   5.5315153712557741E-002   0.0000000000000000     
  -9.9292585004767675E-011   6.0919463738935510E-002   0.0000000000000000     
  -5.6388515710069365E-011   6.6709488453053828E-002   0.0000000000000000     
  -2.4046654180679902E-011   7.2685227854912673E-002   0.0000000000000000     
  -2.2669990884516267E-012   7.8846681944512054E-002   0.0000000000000000     
  -3.4630870883497161E-003   5.5344672642374602E-002   0.0000000000000000     
  -3.6573291775976765E-003   6.0947985323643948E-002   0.0000000000000000     
  -3.8446458911673121E-003   6.6737030052406332E-002   0.0000000000000000     
  -4.0250372290586206E-003   7.2711806828661740E-002   0.0000000000000000     
  -4.1985031912716046E-003   7.8872315652410208E-002   0.0000000000000000     
  -6.9500808130574581E-003   5.5433229484964132E-002   0.0000000000000000     
  -7.3397564265043321E-003   6.1033550108621916E-002   0.0000000000000000     
  -7.7154176050648476E-003   6.6819654864994707E-002   0.0000000000000000     
  -8.0770643487390013E-003   7.2791543754082519E-002   0.0000000000000000     
  -8.4246966575267992E-003   7.8949216775885303E-002   0.0000000000000000     
  -1.0460981326882085E-002   5.5580824240326336E-002   0.0000000000000000     
  -1.1047281846012551E-002   6.1176158093869400E-002   0.0000000000000000     
  -1.1612315198081122E-002   6.6957362890818939E-002   0.0000000000000000     
  -1.2156081383087797E-002   7.2924438631174954E-002   0.0000000000000000     
  -1.2678580401032580E-002   7.9077385314937410E-002   0.0000000000000000     
  -1.3995788629823600E-002   5.5787456908461201E-002   0.0000000000000000     
  -1.4779905436122334E-002   6.1375809279386420E-002   0.0000000000000000     
  -1.5535338670216139E-002   6.7150154129879028E-002   0.0000000000000000     
  -1.6262088332105011E-002   7.3110491459939073E-002   0.0000000000000000     
  -1.6960154421788953E-002   7.9256821269566499E-002   0.0000000000000000     
  -2.2669990884516267E-012   7.8846681944512054E-002   0.0000000000000000     
   1.2104280251723498E-011   8.5180738419797758E-002   0.0000000000000000     
   2.2221014524953508E-011   9.1674284978715478E-002   0.0000000000000000     
   2.8083204598600142E-011   9.8327321621265271E-002   0.0000000000000000     
   2.9690848737939923E-011  0.10513984834744711        0.0000000000000000     
  -4.1985031912716046E-003   7.8872315652410208E-002   0.0000000000000000     
  -4.3655885980421845E-003   8.5205419798909290E-002   0.0000000000000000     
  -4.5268382696062818E-003   9.1697982543416587E-002   0.0000000000000000     
  -4.6822522059639018E-003   9.8350003885932125E-002   0.0000000000000000     
  -4.8318304071150392E-003  0.10516148382645590        0.0000000000000000     
  -8.4246966575267992E-003   7.8949216775885303E-002   0.0000000000000000     
  -8.7594154791475875E-003   8.5279463934940014E-002   0.0000000000000000     
  -9.0823217613207295E-003   9.1769075235783468E-002   0.0000000000000000     
  -9.3934155040462201E-003   9.8418050678415636E-002   0.0000000000000000     
  -9.6926967073240593E-003  0.10522639026283660        0.0000000000000000     
  -1.2678580401032580E-002   7.9077385314937410E-002   0.0000000000000000     
  -1.3181480631211932E-002   8.5402870827889943E-002   0.0000000000000000     
  -1.3666450452922321E-002   9.1887563055816079E-002   0.0000000000000000     
  -1.4133489866163746E-002   9.8531461998715861E-002   0.0000000000000000     
  -1.4582598870936214E-002  0.10533456765658926        0.0000000000000000     
  -1.6960154421788953E-002   7.9256821269566499E-002   0.0000000000000000     
  -1.7631784054235218E-002   8.5575640477759063E-002   0.0000000000000000     
  -1.8279224344411062E-002   9.2053446003514464E-002   0.0000000000000000     
  -1.8902475292316489E-002   9.8690237846832729E-002   0.0000000000000000     
  -1.9501536897951498E-002  0.10548601600771387        0.0000000000000000     
   2.9690848737939923E-011  0.10513984834744711        0.0000000000000000     
   2.8347012237528446E-011  0.11210025246492139        0.0000000000000000     
   2.5354759524559567E-011  0.11919692128134847        0.0000000000000000     
   2.0714089406410896E-011  0.12642985479672841        0.0000000000000000     
   1.4425001991502651E-011  0.13379905301106115        0.0000000000000000     
  -4.8318304071150392E-003  0.10516148382645590        0.0000000000000000     
  -4.9750080781202615E-003  0.11212080936914713        0.0000000000000000     
  -5.1112204240401299E-003  0.11921636751816513        0.0000000000000000     
  -5.2404674448746471E-003  0.12644815827350986        0.0000000000000000     
  -5.3627491406238112E-003  0.13381618163518130        0.0000000000000000     
  -9.6926967073240593E-003  0.10522639026283660        0.0000000000000000     
  -9.9791531024822147E-003  0.11218248008213512        0.0000000000000000     
  -1.0251772420848647E-002  0.11927470622939999        0.0000000000000000     
  -1.0510554662423358E-002  0.12650306870463124        0.0000000000000000     
  -1.0755499827206343E-002  0.13386756750782883        0.0000000000000000     
  -1.4582598870936214E-002  0.10533456765658926        0.0000000000000000     
  -1.5012435044738849E-002  0.11228526460388534        0.0000000000000000     
  -1.5421655965070788E-002  0.11937193741505310        0.0000000000000000     
  -1.5810261631932037E-002  0.12659458609009258        0.0000000000000000     
  -1.6178252045322590E-002  0.13395321062900370        0.0000000000000000     
  -1.9501536897951498E-002  0.10548601600771387        0.0000000000000000     
  -2.0074853904890159E-002  0.11242916293439779        0.0000000000000000     
  -2.0620871056706559E-002  0.11950806107512446        0.0000000000000000     
  -2.1139588353400691E-002  0.12672271042989386        0.0000000000000000     
  -2.1631005794972562E-002  0.13407311099870595        0.0000000000000000     
   1.4425001991502651E-011  0.13379905301106115        0.0000000000000000     
   8.1610243736485177E-012  0.14129248515945542        0.0000000000000000     
   3.5956849477047914E-012  0.14889812047701981        0.0000000000000000     
   7.2898230420864740E-013  0.15661595896375441        0.0000000000000000     
  -4.3908323157926255E-013  0.16444600061965919        0.0000000000000000     
  -5.3627491406238112E-003  0.13381618163518130        0.0000000000000000     
  -5.4780234347278339E-003  0.14130840771716593        0.0000000000000000     
  -5.5862482506269318E-003  0.14891280663345019        0.0000000000000000     
  -5.6874235883210980E-003  0.15662937838403398        0.0000000000000000     
  -5.7815494478103361E-003  0.16445812296891740        0.0000000000000000     
  -1.0755499827206343E-002  0.13386756750782883        0.0000000000000000     
  -1.0986541520792474E-002  0.14135617538998721        0.0000000000000000     
  -1.1203613348776629E-002  0.14895686510210074        0.0000000000000000     
  -1.1406715311158793E-002  0.15666963664416944        0.0000000000000000     
  -1.1595847407938975E-002  0.16449449001619329        0.0000000000000000     
  -1.6178252045322590E-002  0.13395321062900370        0.0000000000000000     
  -1.6525554250032902E-002  0.14143578817791916        0.0000000000000000     
  -1.6852095290853401E-002  0.14903029588297148        0.0000000000000000     
  -1.7157875167784106E-002  0.15673673374416072        0.0000000000000000     
  -1.7442893880824997E-002  0.16455510176148674        0.0000000000000000     
  -2.1631005794972562E-002  0.13407311099870595        0.0000000000000000     
  -2.2095061622449102E-002  0.14154724608096181        0.0000000000000000     
  -2.2531694076857258E-002  0.14913309897606244        0.0000000000000000     
  -2.2940903158197024E-002  0.15683066968400777        0.0000000000000000     
  -2.3322688866468409E-002  0.16463995820479793        0.0000000000000000     
  -4.3908323157926255E-013  0.16444600061965919        0.0000000000000000     
  -6.6892953849706505E-013  0.17237560494171580        0.0000000000000000     
  -7.2097818167027317E-013  0.18039213142690602        0.0000000000000000     
  -5.9522509534074008E-013  0.18849558007522976        0.0000000000000000     
  -2.9167206844205040E-013  0.19668595088668711        0.0000000000000000     
  -5.7815494478103361E-003  0.16445812296891740        0.0000000000000000     
  -5.8683183455397669E-003  0.17238644834002922        0.0000000000000000     
  -5.9474227979545114E-003  0.18040176244929826        0.0000000000000000     
  -6.0188628050545697E-003  0.18850406529672450        0.0000000000000000     
  -6.0826383668399391E-003  0.19669335688230799        0.0000000000000000     
  -1.1595847407938975E-002  0.16449449001619329        0.0000000000000000     
  -1.1770352488258830E-002  0.17241897853477084        0.0000000000000000     
  -1.1929573401260015E-002  0.18043065551650064        0.0000000000000000     
  -1.2073510146942530E-002  0.18852952096138278        0.0000000000000000     
  -1.2202162725306373E-002  0.19671557486941713        0.0000000000000000     
  -1.7442893880824997E-002  0.16455510176148674        0.0000000000000000     
  -1.7706102428826122E-002  0.17247319552594062        0.0000000000000000     
  -1.7946451810637486E-002  0.18047881062851326        0.0000000000000000     
  -1.8163942026259108E-002  0.18857194706920449        0.0000000000000000     
  -1.8358573075690974E-002  0.19675260484801443        0.0000000000000000     
  -2.3322688866468409E-002  0.16463995820479793        0.0000000000000000     
  -2.3675568167241631E-002  0.17254909931353871        0.0000000000000000     
  -2.3998058026086930E-002  0.18054622778533597        0.0000000000000000     
  -2.4290158443004299E-002  0.18863134362018971        0.0000000000000000     
  -2.4551869417993741E-002  0.19680444681809997        0.0000000000000000     
  -2.9167206844205040E-013  0.19668595088668711        0.0000000000000000     
   5.5492936634760071E-014  0.20494502137461607        0.0000000000000000     
   3.1208119855713479E-013  0.21325456905235474        0.0000000000000000     
   4.7809133496730383E-013  0.22161459391990310        0.0000000000000000     
   5.5352640873640446E-013  0.23002509597726120        0.0000000000000000     
  -6.0826383668399391E-003  0.19669335688230799        0.0000000000000000     
  -6.1391143072172570E-003  0.20495159806646523        0.0000000000000000     
  -6.1886554500931610E-003  0.21326074970961267        0.0000000000000000     
  -6.2312617954676450E-003  0.22162081181175039        0.0000000000000000     
  -6.2669333433407158E-003  0.23003178437287825        0.0000000000000000     
  -1.2202162725306373E-002  0.19671557486941713        0.0000000000000000     
  -1.2316123140448321E-002  0.20497132814227992        0.0000000000000000     
  -1.2415983396465147E-002  0.21327929168164728        0.0000000000000000     
  -1.2501743493356848E-002  0.22163946548751923        0.0000000000000000     
  -1.2573403431123431E-002  0.23005184955989572        0.0000000000000000     
  -1.8358573075690974E-002  0.19675260484801443        0.0000000000000000     
  -1.8531026499637695E-002  0.20500421160206012        0.0000000000000000     
  -1.8681983838803873E-002  0.21331019496845854        0.0000000000000000     
  -1.8811445093189511E-002  0.22167055494720977        0.0000000000000000     
  -1.8919410262794614E-002  0.23008529153831364        0.0000000000000000     
  -2.4551869417993741E-002  0.19680444681809997        0.0000000000000000     
  -2.4783824384785380E-002  0.20505024844580583        0.0000000000000000     
  -2.4986656777109349E-002  0.21335345957004648        0.0000000000000000     
  -2.5160366594965646E-002  0.22171408019082187        0.0000000000000000     
  -2.5304953838354270E-002  0.23013211030813208        0.0000000000000000     
   5.5352640873640446E-013  0.23002509597726120        0.0000000000000000     
   5.8206933196969235E-013  0.23845476508547359        0.0000000000000000     
   6.0740052310742643E-013  0.24687229110558484        0.0000000000000000     
   6.2952770709008565E-013  0.25527767403759494        0.0000000000000000     
   6.4844353844795144E-013  0.26367091388150393        0.0000000000000000     
  -6.2669333433407158E-003  0.23003178437287825        0.0000000000000000     
  -6.2969049267376145E-003  0.23846259487265561        0.0000000000000000     
  -6.3224113786835880E-003  0.24688217079074168        0.0000000000000000     
  -6.3434526991786354E-003  0.25529051212713655        0.0000000000000000     
  -6.3600288882227542E-003  0.26368761888184000        0.0000000000000000     
  -1.2573403431123431E-002  0.23005184955989572        0.0000000000000000     
  -1.2633654389206760E-002  0.23848608423430120        0.0000000000000000     
  -1.2685187547048711E-002  0.24691180984626004        0.0000000000000000     
  -1.2728002904649285E-002  0.25532902639577226        0.0000000000000000     
  -1.2762100462008480E-002  0.26373773388283783        0.0000000000000000     
  -1.8919410262794614E-002  0.23008529153831364        0.0000000000000000     
  -1.9010248386825367E-002  0.23852523317041038        0.0000000000000000     
  -1.9088328504487974E-002  0.24696120827213991        0.0000000000000000     
  -1.9153650615782423E-002  0.25539321684350225        0.0000000000000000     
  -1.9206214720708732E-002  0.26382125888449748        0.0000000000000000     
  -2.5304953838354270E-002  0.23013211030813208        0.0000000000000000     
  -2.5426686919593433E-002  0.23858004168098315        0.0000000000000000     
  -2.5531834251001362E-002  0.24703036606838127        0.0000000000000000     
  -2.5620395832578056E-002  0.25548308347032650        0.0000000000000000     
  -2.5692371664323511E-002  0.26393819388681872        0.0000000000000000     
   6.4844353844795144E-013  0.26367091388150393        0.0000000000000000     
   6.6185815508768009E-013  0.27199187708206901        0.0000000000000000     
   6.6748147807549341E-013  0.28018043008404764        0.0000000000000000     
   6.6531063427563431E-013  0.28823657288743970        0.0000000000000000     
   6.5534643683973215E-013  0.29616030549224526        0.0000000000000000     
  -6.3600288882227542E-003  0.26368761888184000        0.0000000000000000     
  -6.3760159221211482E-003  0.27201367036444890        0.0000000000000000     
  -6.3952897771790132E-003  0.28020884588455974        0.0000000000000000     
  -6.4178504533963536E-003  0.28827314544217264        0.0000000000000000     
  -6.4436979507731598E-003  0.29620656903728743        0.0000000000000000     
  -1.2762100462008480E-002  0.26373773388283783        0.0000000000000000     
  -1.2794680373657490E-002  0.27207905021156531        0.0000000000000000     
  -1.2832942794127512E-002  0.28029409328606297        0.0000000000000000     
  -1.2876887723418549E-002  0.28838286310633099        0.0000000000000000     
  -1.2926515161530591E-002  0.29634535967236919        0.0000000000000000     
  -1.9206214720708732E-002  0.26382125888449748        0.0000000000000000     
  -1.9255993353947169E-002  0.27218801662341818        0.0000000000000000     
  -1.9312959050178016E-002  0.28043617228855733        0.0000000000000000     
  -1.9377111809401274E-002  0.28856572587991475        0.0000000000000000     
  -1.9448451631616934E-002  0.29657667739749061        0.0000000000000000     
  -2.5692371664323511E-002  0.26393819388681872        0.0000000000000000     
  -2.5759954862990184E-002  0.27234056960000763        0.0000000000000000     
  -2.5835338545330520E-002  0.28063508289204270        0.0000000000000000     
  -2.5918522711344528E-002  0.28882173376292408        0.0000000000000000     
  -2.6009507361032205E-002  0.29690052221265162        0.0000000000000000     
  -1.3995788629823600E-002   5.5787456908461201E-002   0.0000000000000000     
  -1.4779905436122334E-002   6.1375809279386420E-002   0.0000000000000000     
  -1.5535338670216139E-002   6.7150154129879028E-002   0.0000000000000000     
  -1.6262088332105011E-002   7.3110491459939073E-002   0.0000000000000000     
  -1.6960154421788953E-002   7.9256821269566499E-002   0.0000000000000000     
  -1.7597034272140138E-002   5.6047994694478048E-002   0.0000000000000000     
  -1.8576545562800480E-002   6.1629551692193252E-002   0.0000000000000000     
  -1.9520473842149496E-002   6.7396629415534121E-002   0.0000000000000000     
  -2.0428819110187187E-002   7.3349227864500641E-002   0.0000000000000000     
  -2.1301581366913541E-002   7.9487347039092798E-002   0.0000000000000000     
  -2.1307249804089833E-002   5.6357304803486170E-002   0.0000000000000000     
  -2.2476120592013798E-002   6.1934433359310204E-002   0.0000000000000000     
  -2.3603706534560800E-002   6.7695389581143267E-002   0.0000000000000000     
  -2.4690007631730862E-002   7.3640173468985395E-002   0.0000000000000000     
  -2.5735023883523965E-002   7.9768785022836589E-002   0.0000000000000000     
  -2.5126435225672695E-002   5.6715387235485581E-002   0.0000000000000000     
  -2.6478630523762266E-002   6.2290454280737241E-002   0.0000000000000000     
  -2.7785036747450052E-002   6.8046434626706523E-002   0.0000000000000000     
  -2.9045653896736037E-002   7.3983328273393378E-002   0.0000000000000000     
  -3.0260481971620228E-002   8.0101135220797842E-002   0.0000000000000000     
  -2.9054590536888712E-002   5.7122241990476275E-002   0.0000000000000000     
  -3.0584075358045908E-002   6.2697614456474413E-002   0.0000000000000000     
  -3.2064464480817241E-002   6.8449764552223832E-002   0.0000000000000000     
  -3.3495757905202719E-002   7.4378692277724562E-002   0.0000000000000000     
  -3.4877955631202343E-002   8.0484397632976573E-002   0.0000000000000000     
  -1.6960154421788953E-002   7.9256821269566499E-002   0.0000000000000000     
  -1.7631784054235218E-002   8.5575640477759063E-002   0.0000000000000000     
  -1.8279224344411062E-002   9.2053446003514464E-002   0.0000000000000000     
  -1.8902475292316489E-002   9.8690237846832729E-002   0.0000000000000000     
  -1.9501536897951498E-002  0.10548601600771387        0.0000000000000000     
  -2.1301581366913541E-002   7.9487347039092798E-002   0.0000000000000000     
  -2.2141413684567225E-002   8.5797597499007505E-002   0.0000000000000000     
  -2.2950969135386884E-002   9.2266589803941701E-002   0.0000000000000000     
  -2.3730247719372530E-002   9.8894323953895316E-002   0.0000000000000000     
  -2.4479249436524155E-002  0.10568079994886841        0.0000000000000000     
  -2.5735023883523965E-002   7.9768785022836589E-002   0.0000000000000000     
  -2.6741457458557712E-002   8.6068566506095512E-002   0.0000000000000000     
  -2.7712010525449710E-002   9.2526860182160858E-002   0.0000000000000000     
  -2.8646683084199945E-002   9.9143666051032669E-002   0.0000000000000000     
  -2.9545475134808423E-002  0.10591898411271089        0.0000000000000000     
  -3.0260481971620228E-002   8.0101135220797842E-002   0.0000000000000000     
  -3.1431915376206709E-002   8.6388547499022986E-002   0.0000000000000000     
  -3.2562348514599548E-002   9.2834257138171977E-002   0.0000000000000000     
  -3.3651781386798751E-002   9.9438264138244706E-002   0.0000000000000000     
  -3.4700213992804305E-002  0.10620056849924128        0.0000000000000000     
  -3.4877955631202343E-002   8.0484397632976573E-002   0.0000000000000000     
  -3.6212787437514188E-002   8.6757540477790010E-002   0.0000000000000000     
  -3.7501983102836388E-002   9.3188780671975016E-002   0.0000000000000000     
  -3.8745542627168929E-002   9.9778118215531536E-002   0.0000000000000000     
  -3.9943466010511811E-002  0.10652555310845963        0.0000000000000000     
  -1.9501536897951498E-002  0.10548601600771387        0.0000000000000000     
  -2.0074853904890159E-002  0.11242916293439779        0.0000000000000000     
  -2.0620871056706559E-002  0.11950806107512446        0.0000000000000000     
  -2.1139588353400691E-002  0.12672271042989386        0.0000000000000000     
  -2.1631005794972562E-002  0.13407311099870595        0.0000000000000000     
  -2.4479249436524155E-002  0.10568079994886841        0.0000000000000000     
  -2.5196180104925067E-002  0.11261438608360931        0.0000000000000000     
  -2.5879245542658566E-002  0.11968345065286638        0.0000000000000000     
  -2.6528445749724652E-002  0.12688799365663964        0.0000000000000000     
  -2.7143780726123327E-002  0.13422801509492902        0.0000000000000000     
  -2.9545475134808423E-002  0.10591898411271089        0.0000000000000000     
  -3.0406184066832473E-002  0.11284114506145670        0.0000000000000000     
  -3.1226607269829416E-002  0.11989847959153122        0.0000000000000000     
  -3.2006744743799248E-002  0.12709098770293445        0.0000000000000000     
  -3.2746596488741973E-002  0.13441866939566643        0.0000000000000000     
  -3.4700213992804305E-002  0.10620056849924128        0.0000000000000000     
  -3.5704865790612383E-002  0.11310943986793993        0.0000000000000000     
  -3.6662956238219101E-002  0.12015314789111896        0.0000000000000000     
  -3.7574485335624491E-002  0.12733169256877835        0.0000000000000000     
  -3.8439453082828520E-002  0.13464507390091812        0.0000000000000000     
  -3.9943466010511811E-002  0.10652555310845963        0.0000000000000000     
  -4.1092225276264792E-002  0.11341927050305906        0.0000000000000000     
  -4.2188292447827645E-002  0.12044745555162961        0.0000000000000000     
  -4.3231667525200357E-002  0.12761010825417132        0.0000000000000000     
  -4.4222350508382940E-002  0.13490722861068410        0.0000000000000000     
  -2.1631005794972562E-002  0.13407311099870595        0.0000000000000000     
  -2.2095061622449102E-002  0.14154724608096181        0.0000000000000000     
  -2.2531694076857258E-002  0.14913309897606244        0.0000000000000000     
  -2.2940903158197024E-002  0.15683066968400777        0.0000000000000000     
  -2.3322688866468409E-002  0.16463995820479793        0.0000000000000000     
  -2.7143780726123327E-002  0.13422801509492902        0.0000000000000000     
  -2.7725226536817270E-002  0.14169151496218174        0.0000000000000000     
  -2.8272759246769162E-002  0.14926649325284491        0.0000000000000000     
  -2.8786378855979004E-002  0.15695294996691855        0.0000000000000000     
  -2.9266085364446789E-002  0.16475088510440267        0.0000000000000000     
  -3.2746596488741973E-002  0.13441866939566643        0.0000000000000000     
  -3.3446211891913602E-002  0.14186956068464554        0.0000000000000000     
  -3.4105640340570093E-002  0.14943169758479033        0.0000000000000000     
  -3.4724881834711473E-002  0.15710508009610080        0.0000000000000000     
  -3.5303936374337729E-002  0.16488970821857696        0.0000000000000000     
  -3.8439453082828520E-002  0.13464507390091812        0.0000000000000000     
  -3.9258017687738088E-002  0.14208138324835323        0.0000000000000000     
  -4.0030337358260067E-002  0.14962871197189870        0.0000000000000000     
  -4.0756412094394449E-002  0.15728706007155457        0.0000000000000000     
  -4.1436241896141243E-002  0.16505642754732075        0.0000000000000000     
  -4.4222350508382940E-002  0.13490722861068410        0.0000000000000000     
  -4.5160643924290728E-002  0.14232698265330482        0.0000000000000000     
  -4.6046850299839057E-002  0.14985753641417005        0.0000000000000000     
  -4.6880969635027914E-002  0.15749888989327979        0.0000000000000000     
  -4.7663001929857306E-002  0.16525104309063413        0.0000000000000000     
  -2.3322688866468409E-002  0.16463995820479793        0.0000000000000000     
  -2.3675568167241631E-002  0.17254909931353871        0.0000000000000000     
  -2.3998058026086930E-002  0.18054622778533597        0.0000000000000000     
  -2.4290158443004299E-002  0.18863134362018971        0.0000000000000000     
  -2.4551869417993741E-002  0.19680444681809997        0.0000000000000000     
  -2.9266085364446789E-002  0.16475088510440267        0.0000000000000000     
  -2.9710035562836849E-002  0.17264877017936497        0.0000000000000000     
  -3.0116386241813519E-002  0.18063507670587325        0.0000000000000000     
  -3.0485137401376792E-002  0.18870980468392751        0.0000000000000000     
  -3.0816289041526671E-002  0.19687295411352770        0.0000000000000000     
  -3.5303936374337729E-002  0.16488970821857696        0.0000000000000000     
  -3.5840790474943256E-002  0.17277428840521961        0.0000000000000000     
  -3.6333430652022436E-002  0.18074752710902961        0.0000000000000000     
  -3.6781856905575283E-002  0.18880942433000691        0.0000000000000000     
  -3.7186069235601769E-002  0.19695998006815163        0.0000000000000000     
  -4.1436241896141243E-002  0.16505642754732075        0.0000000000000000     
  -4.2067832903560851E-002  0.17292565399110252        0.0000000000000000     
  -4.2649191256713688E-002  0.18088357899480495        0.0000000000000000     
  -4.3180316955599742E-002  0.18893020255842807        0.0000000000000000     
  -4.3661210000219025E-002  0.19706552468197186        0.0000000000000000     
  -4.7663001929857306E-002  0.16525104309063413        0.0000000000000000     
  -4.8391162848689627E-002  0.17310286693701371        0.0000000000000000     
  -4.9063668055887258E-002  0.18104323236319927        0.0000000000000000     
  -4.9680517551450205E-002  0.18907213936919079        0.0000000000000000     
  -5.0241711335378449E-002  0.19718958795498831        0.0000000000000000     
  -2.4551869417993741E-002  0.19680444681809997        0.0000000000000000     
  -2.4783824384785380E-002  0.20505024844580583        0.0000000000000000     
  -2.4986656777109349E-002  0.21335345957004648        0.0000000000000000     
  -2.5160366594965646E-002  0.22171408019082187        0.0000000000000000     
  -2.5304953838354270E-002  0.23013211030813208        0.0000000000000000     
  -3.0816289041526671E-002  0.19687295411352770        0.0000000000000000     
  -3.1110189293770008E-002  0.20511076109270329        0.0000000000000000     
  -3.1367186289613665E-002  0.21340946171948375        0.0000000000000000     
  -3.1587280029057627E-002  0.22176905599386906        0.0000000000000000     
  -3.1770470512101905E-002  0.23018954391585922        0.0000000000000000     
  -3.7186069235601769E-002  0.19695998006815163        0.0000000000000000     
  -3.7545793724470214E-002  0.20518707196193869        0.0000000000000000     
  -3.7860756454548901E-002  0.21347857764984293        0.0000000000000000     
  -3.8130957425837837E-002  0.22183449713186459        0.0000000000000000     
  -3.8356396638337023E-002  0.23025483040800346        0.0000000000000000     
  -4.3661210000219025E-002  0.19706552468197186        0.0000000000000000     
  -4.4090637676885987E-002  0.20527918105351203        0.0000000000000000     
  -4.4467367271915081E-002  0.21356080736112423        0.0000000000000000     
  -4.4791398785306288E-002  0.22191040360480854        0.0000000000000000     
  -4.5062732217059628E-002  0.23032796978456477        0.0000000000000000     
  -5.0241711335378449E-002  0.19718958795498831        0.0000000000000000     
  -5.0744721151017330E-002  0.20538708836742334        0.0000000000000000     
  -5.1187018741712172E-002  0.21365615085332754        0.0000000000000000     
  -5.1568604107462973E-002  0.22199677541270080        0.0000000000000000     
  -5.1889477248269721E-002  0.23040896204554320        0.0000000000000000     
  -2.5304953838354270E-002  0.23013211030813208        0.0000000000000000     
  -2.5426686919593433E-002  0.23858004168098315        0.0000000000000000     
  -2.5531834251001362E-002  0.24703036606838127        0.0000000000000000     
  -2.5620395832578056E-002  0.25548308347032650        0.0000000000000000     
  -2.5692371664323511E-002  0.26393819388681872        0.0000000000000000     
  -3.1770470512101905E-002  0.23018954391585922        0.0000000000000000     
  -3.1924649630202674E-002  0.23864604023192182        0.0000000000000000     
  -3.2057709274816146E-002  0.24711365968852433        0.0000000000000000     
  -3.2169649445942285E-002  0.25559240228566676        0.0000000000000000     
  -3.2260470143581133E-002  0.26408226802334916        0.0000000000000000     
  -3.8356396638337023E-002  0.23025483040800346        0.0000000000000000     
  -3.8545816161344816E-002  0.23871875928912861        0.0000000000000000     
  -3.8707958064159553E-002  0.24720546558610912        0.0000000000000000     
  -3.8842822346781249E-002  0.25571494929894495        0.0000000000000000     
  -3.8950409009209916E-002  0.26424721042763605        0.0000000000000000     
  -4.5062732217059628E-002  0.23032796978456477        0.0000000000000000     
  -4.5290186513019824E-002  0.23879819885260370        0.0000000000000000     
  -4.5482580619031591E-002  0.24730578376113574        0.0000000000000000     
  -4.5639914535094937E-002  0.25585072451016094        0.0000000000000000     
  -4.5762188261209862E-002  0.26443302109967948        0.0000000000000000     
  -5.1889477248269721E-002  0.23040896204554320        0.0000000000000000     
  -5.2157760685227726E-002  0.23888435892234694        0.0000000000000000     
  -5.2381576939432274E-002  0.24741461421360417        0.0000000000000000     
  -5.2560926010883344E-002  0.25599972791931497        0.0000000000000000     
  -5.2695807899580949E-002  0.26463970003947923        0.0000000000000000     
  -2.5692371664323511E-002  0.26393819388681872        0.0000000000000000     
  -2.5759954862990184E-002  0.27234056960000763        0.0000000000000000     
  -2.5835338545330520E-002  0.28063508289204270        0.0000000000000000     
  -2.5918522711344528E-002  0.28882173376292408        0.0000000000000000     
  -2.6009507361032205E-002  0.29690052221265162        0.0000000000000000     
  -3.2260470143581133E-002  0.26408226802334916        0.0000000000000000     
  -3.2344988836112865E-002  0.27253037729612833        0.0000000000000000     
  -3.2438022991917698E-002  0.28088385049856135        0.0000000000000000     
  -3.2539572610995625E-002  0.28914268763064810        0.0000000000000000     
  -3.2649637693346653E-002  0.29730688869238858        0.0000000000000000     
  -3.8950409009209916E-002  0.26424721042763605        0.0000000000000000     
  -3.9049519208641560E-002  0.27275110786657514        0.0000000000000000     
  -3.9158954102272207E-002  0.28117550051015527        0.0000000000000000     
  -3.9278713690101871E-002  0.28952038835837612        0.0000000000000000     
  -3.9408797972130545E-002  0.29778577141123785        0.0000000000000000     
  -4.5762188261209862E-002  0.26443302109967948        0.0000000000000000     
  -4.5873545980576261E-002  0.27300276131134810        0.0000000000000000     
  -4.5998131876394066E-002  0.28151003292682442        0.0000000000000000     
  -4.6135945948663271E-002  0.28995483594610816        0.0000000000000000     
  -4.6286988197383881E-002  0.29833717036919943        0.0000000000000000     
  -5.2695807899580949E-002  0.26463970003947923        0.0000000000000000     
  -5.2817069151916966E-002  0.27328533763044716        0.0000000000000000     
  -5.2955556314283246E-002  0.28188744774856878        0.0000000000000000     
  -5.3111269386679809E-002  0.29044603039384420        0.0000000000000000     
  -5.3284208369106661E-002  0.29896108556627332        0.0000000000000000     
  -2.9054590536888712E-002   5.7122241990476275E-002   0.0000000000000000     
  -3.0584075358045908E-002   6.2697614456474413E-002   0.0000000000000000     
  -3.2064464480817241E-002   6.8449764552223832E-002   0.0000000000000000     
  -3.3495757905202719E-002   7.4378692277724562E-002   0.0000000000000000     
  -3.4877955631202343E-002   8.0484397632976573E-002   0.0000000000000000     
  -3.3060246605945670E-002   5.7606849653646014E-002   0.0000000000000000     
  -3.4777926222839761E-002   6.3172719901794058E-002   0.0000000000000000     
  -3.6440615079724667E-002   6.8913516172118217E-002   0.0000000000000000     
  -3.8048313176600394E-002   7.4829238464618503E-002   0.0000000000000000     
  -3.9601020513466950E-002   8.0919886779294917E-002   0.0000000000000000     
  -3.7111934301051350E-002   5.8198190810182605E-002   0.0000000000000000     
  -3.9045654246118867E-002   6.3732576631968560E-002   0.0000000000000000     
  -4.0912113889234603E-002   6.9445826300812585E-002   0.0000000000000000     
  -4.2711313230398569E-002   7.5337939816714730E-002   0.0000000000000000     
  -4.4443252269610739E-002   8.1408917179674981E-002   0.0000000000000000     
  -4.1209653622205751E-002   5.8896265460086021E-002   0.0000000000000000     
  -4.3387259427883240E-002   6.4377184646997931E-002   0.0000000000000000     
  -4.5478960909347069E-002   7.0046694938306994E-002   0.0000000000000000     
  -4.7484758066597216E-002   7.5904796334013272E-002   0.0000000000000000     
  -4.9404650899633695E-002   8.1951488834116751E-002   0.0000000000000000     
  -4.5353404569408867E-002   5.9701073603356275E-002   0.0000000000000000     
  -4.7802741768132873E-002   6.5106543946882145E-002   0.0000000000000000     
  -5.0141156140062031E-002   7.0716122084601402E-002   0.0000000000000000     
  -5.2368647685196355E-002   7.6529808016514100E-002   0.0000000000000000     
  -5.4485216403535840E-002   8.2547601742620214E-002   0.0000000000000000     
  -3.4877955631202343E-002   8.0484397632976573E-002   0.0000000000000000     
  -3.6212787437514188E-002   8.6757540477790010E-002   0.0000000000000000     
  -3.7501983102836388E-002   9.3188780671975016E-002   0.0000000000000000     
  -3.8745542627168929E-002   9.9778118215531536E-002   0.0000000000000000     
  -3.9943466010511811E-002  0.10652555310845963        0.0000000000000000     
  -3.9601020513466950E-002   8.0919886779294917E-002   0.0000000000000000     
  -4.1100939287063230E-002   8.7176955222522876E-002   0.0000000000000000     
  -4.2550271694128138E-002   9.3591937900677755E-002   0.0000000000000000     
  -4.3949017734661672E-002  0.10016483481375955        0.0000000000000000     
  -4.5297177408663840E-002  0.10689564596176830        0.0000000000000000     
  -4.4443252269610739E-002   8.1408917179674981E-002   0.0000000000000000     
  -4.6113236569436861E-002   8.7648201513347873E-002   0.0000000000000000     
  -4.7726571692442661E-002   9.4045235941387959E-002   0.0000000000000000     
  -4.9283257638628161E-002  0.10060002046379525        0.0000000000000000     
  -5.0783294407993333E-002  0.10731255508056978        0.0000000000000000     
  -4.9404650899633695E-002   8.1951488834116751E-002   0.0000000000000000     
  -5.1249679284635100E-002   8.8171279350264989E-002   0.0000000000000000     
  -5.3030883097779993E-002   9.4548674794105614E-002   0.0000000000000000     
  -5.4748262339068397E-002  0.10108367516563864        0.0000000000000000     
  -5.6401817008500284E-002  0.10777628046486401        0.0000000000000000     
  -5.4485216403535840E-002   8.2547601742620214E-002   0.0000000000000000     
  -5.6510267432657940E-002   8.8746188733274278E-002   0.0000000000000000     
  -5.8463205910140120E-002   9.5102254458830762E-002   0.0000000000000000     
  -6.0344031835982373E-002  0.10161579891928965        0.0000000000000000     
  -6.2152745210184705E-002  0.10828682211465099        0.0000000000000000     
  -3.9943466010511811E-002  0.10652555310845963        0.0000000000000000     
  -4.1092225276264792E-002  0.11341927050305906        0.0000000000000000     
  -4.2188292447827645E-002  0.12044745555162961        0.0000000000000000     
  -4.3231667525200357E-002  0.12761010825417132        0.0000000000000000     
  -4.4222350508382940E-002  0.13490722861068410        0.0000000000000000     
  -4.5297177408663840E-002  0.10689564596176830        0.0000000000000000     
  -4.6590670667616026E-002  0.11377245523523551        0.0000000000000000     
  -4.7825417462999641E-002  0.12078334652469266        0.0000000000000000     
  -4.9001417794814650E-002  0.12792831983013980        0.0000000000000000     
  -5.0118671663061075E-002  0.13520737515157688        0.0000000000000000     
  -5.0783294407993333E-002  0.10731255508056978        0.0000000000000000     
  -5.2222610108492440E-002  0.11417081233289078        0.0000000000000000     
  -5.3597132848079709E-002  0.12116276476193760        0.0000000000000000     
  -5.4906862626755155E-002  0.12828841236771027        0.0000000000000000     
  -5.6151799444518757E-002  0.13554775515020875        0.0000000000000000     
  -5.6401817008500284E-002  0.10777628046486401        0.0000000000000000     
  -5.7988043598894000E-002  0.11461434179602488        0.0000000000000000     
  -5.9503438603067858E-002  0.12158571026336447        0.0000000000000000     
  -6.0948002021021852E-002  0.12869038586688275        0.0000000000000000     
  -6.2321733852755988E-002  0.13592836860657975        0.0000000000000000     
  -6.2152745210184705E-002  0.10828682211465099        0.0000000000000000     
  -6.3886971138820733E-002  0.11510304362463783        0.0000000000000000     
  -6.5544334727964074E-002  0.12205218302897325        0.0000000000000000     
  -6.7124835977614761E-002  0.12913424032765725        0.0000000000000000     
  -6.8628474887772753E-002  0.13634921552068985        0.0000000000000000     
  -4.4222350508382940E-002  0.13490722861068410        0.0000000000000000     
  -4.5160643924290728E-002  0.14232698265330482        0.0000000000000000     
  -4.6046850299839057E-002  0.14985753641417005        0.0000000000000000     
  -4.6880969635027914E-002  0.15749888989327979        0.0000000000000000     
  -4.7663001929857306E-002  0.16525104309063413        0.0000000000000000     
  -5.0118671663061075E-002  0.13520737515157688        0.0000000000000000     
  -5.1177746220186629E-002  0.14260877131355928        0.0000000000000000     
  -5.2179208618638992E-002  0.15012076714064243        0.0000000000000000     
  -5.3123058858418178E-002  0.15774336263282623        0.0000000000000000     
  -5.4009296939524186E-002  0.16547655779011078        0.0000000000000000     
  -5.6151799444518757E-002  0.13554775515020875        0.0000000000000000     
  -5.7332980194040872E-002  0.14292916164317579        0.0000000000000000     
  -5.8451441767991795E-002  0.15042100038035408        0.0000000000000000     
  -5.9507184166371553E-002  0.15802327136174368        0.0000000000000000     
  -6.0500207389180126E-002  0.16573597458734460        0.0000000000000000     
  -6.2321733852755988E-002  0.13592836860657975        0.0000000000000000     
  -6.3626345845853471E-002  0.14328815364215419        0.0000000000000000     
  -6.4863549747897473E-002  0.15075823613330500        0.0000000000000000     
  -6.6033345558888012E-002  0.15833861608003214        0.0000000000000000     
  -6.7135733278825119E-002  0.16602929348233553        0.0000000000000000     
  -6.8628474887772753E-002  0.13634921552068985        0.0000000000000000     
  -7.0057843175624412E-002  0.14368574731049463        0.0000000000000000     
  -7.1415532558356018E-002  0.15113247439949518        0.0000000000000000     
  -7.2701543035967611E-002  0.15868939678769148        0.0000000000000000     
  -7.3915874608459178E-002  0.16635651447508357        0.0000000000000000     
  -4.7663001929857306E-002  0.16525104309063413        0.0000000000000000     
  -4.8391162848689627E-002  0.17310286693701371        0.0000000000000000     
  -4.9063668055887258E-002  0.18104323236319927        0.0000000000000000     
  -4.9680517551450205E-002  0.18907213936919079        0.0000000000000000     
  -5.0241711335378449E-002  0.19718958795498831        0.0000000000000000     
  -5.4009296939524186E-002  0.16547655779011078        0.0000000000000000     
  -5.4836366596656763E-002  0.17330925308635756        0.0000000000000000     
  -5.5602711564515683E-002  0.18123034899542800        0.0000000000000000     
  -5.6308331843100898E-002  0.18923984551732217        0.0000000000000000     
  -5.6953227432412448E-002  0.19733774265204004        0.0000000000000000     
  -6.0500207389180126E-002  0.16573597458734460        0.0000000000000000     
  -6.1429030433789451E-002  0.17354813828253834        0.0000000000000000     
  -6.2292172297571453E-002  0.18144879067270653        0.0000000000000000     
  -6.3089632980526125E-002  0.18943793175784907        0.0000000000000000     
  -6.3821412482653467E-002  0.19751556153796604        0.0000000000000000     
  -6.7135733278825119E-002  0.16602929348233553        0.0000000000000000     
  -6.8169154360087691E-002  0.17381952252555616        0.0000000000000000     
  -6.9132050255054575E-002  0.18169855739503479        0.0000000000000000     
  -7.0024420963725853E-002  0.18966639809077154        0.0000000000000000     
  -7.0846266486101470E-002  0.19772304461276632        0.0000000000000000     
  -7.3915874608459178E-002  0.16635651447508357        0.0000000000000000     
  -7.5056738375551449E-002  0.17412340581541089        0.0000000000000000     
  -7.6122345436965069E-002  0.18197964916241288        0.0000000000000000     
  -7.7112695792700095E-002  0.18992524451608953        0.0000000000000000     
  -7.8027789442756498E-002  0.19796019187644087        0.0000000000000000     
  -5.0241711335378449E-002  0.19718958795498831        0.0000000000000000     
  -5.0744721151017330E-002  0.20538708836742334        0.0000000000000000     
  -5.1187018741712172E-002  0.21365615085332754        0.0000000000000000     
  -5.1568604107462973E-002  0.22199677541270080        0.0000000000000000     
  -5.1889477248269721E-002  0.23040896204554320        0.0000000000000000     
  -5.6953227432412448E-002  0.19733774265204004        0.0000000000000000     
  -5.7533985797409572E-002  0.20551708758266965        0.0000000000000000     
  -5.8047194403051526E-002  0.21377092749229912        0.0000000000000000     
  -5.8492853249338318E-002  0.22209926238092847        0.0000000000000000     
  -5.8870962336269914E-002  0.23050209224855764        0.0000000000000000     
  -6.3821412482653467E-002  0.19751556153796604        0.0000000000000000     
  -6.4484373266608067E-002  0.20567547237824793        0.0000000000000000     
  -6.5075377795044478E-002  0.21391145664388539        0.0000000000000000     
  -6.5594426067962730E-002  0.22222351433487847        0.0000000000000000     
  -6.6041518085362821E-002  0.23061164545122703        0.0000000000000000     
  -7.0846266486101470E-002  0.19772304461276632        0.0000000000000000     
  -7.1595883558612766E-002  0.20586224275415826        0.0000000000000000     
  -7.2271568917691015E-002  0.21407773830808638        0.0000000000000000     
  -7.2873322563336243E-002  0.22236953127455072        0.0000000000000000     
  -7.3401144495548409E-002  0.23073762165355138        0.0000000000000000     
  -7.8027789442756498E-002  0.19796019187644087        0.0000000000000000     
  -7.8868516673423705E-002  0.20607739871040051        0.0000000000000000     
  -7.9635767770991156E-002  0.21426977248490200        0.0000000000000000     
  -8.0329542735458823E-002  0.22253731319994544        0.0000000000000000     
  -8.0949841566826733E-002  0.23088002085553067        0.0000000000000000     
  -5.1889477248269721E-002  0.23040896204554320        0.0000000000000000     
  -5.2157760685227726E-002  0.23888435892234694        0.0000000000000000     
  -5.2381576939432274E-002  0.24741461421360417        0.0000000000000000     
  -5.2560926010883344E-002  0.25599972791931497        0.0000000000000000     
  -5.2695807899580949E-002  0.26463970003947923        0.0000000000000000     
  -5.8870962336269914E-002  0.23050209224855764        0.0000000000000000     
  -5.9187669113280307E-002  0.23897864019565737        0.0000000000000000     
  -5.9449121029803376E-002  0.24752812932269835        0.0000000000000000     
  -5.9655318085839154E-002  0.25615055962968053        0.0000000000000000     
  -5.9806260281387649E-002  0.26484593111660404        0.0000000000000000     
  -6.6041518085362821E-002  0.23061164545122703        0.0000000000000000     
  -6.6419042232489289E-002  0.23908244336983397        0.0000000000000000     
  -6.6729386894586712E-002  0.24764250146760222        0.0000000000000000     
  -6.6972552071655075E-002  0.25629181974453163        0.0000000000000000     
  -6.7148537763694394E-002  0.26503039820062230        0.0000000000000000     
  -7.3401144495548409E-002  0.23073762165355138        0.0000000000000000     
  -7.3851880042854715E-002  0.23919576844487681        0.0000000000000000     
  -7.4222374533782276E-002  0.24775773064831580        0.0000000000000000     
  -7.4512627968331094E-002  0.25642350826386817        0.0000000000000000     
  -7.4722640346501182E-002  0.26519310129153412        0.0000000000000000     
  -8.0949841566826733E-002  0.23088002085553067        0.0000000000000000     
  -8.1486182544376562E-002  0.23931861542078586        0.0000000000000000     
  -8.1928083947390054E-002  0.24787381686483903        0.0000000000000000     
  -8.2275545775867195E-002  0.25654562518769014        0.0000000000000000     
  -8.2528568029808014E-002  0.26533404038933917        0.0000000000000000     
  -5.2695807899580949E-002  0.26463970003947923        0.0000000000000000     
  -5.2817069151916966E-002  0.27328533763044716        0.0000000000000000     
  -5.2955556314283246E-002  0.28188744774856878        0.0000000000000000     
  -5.3111269386679809E-002  0.29044603039384420        0.0000000000000000     
  -5.3284208369106661E-002  0.29896108556627332        0.0000000000000000     
  -5.9806260281387649E-002  0.26484593111660404        0.0000000000000000     
  -5.9938837841204441E-002  0.27357012144784626        0.0000000000000000     
  -6.0089940990045117E-002  0.28227900828778479        0.0000000000000000     
  -6.0259569727909697E-002  0.29097259163641953        0.0000000000000000     
  -6.0447724054798174E-002  0.29965087149375047        0.0000000000000000     
  -6.7148537763694394E-002  0.26503039820062230        0.0000000000000000     
  -6.7297601166979443E-002  0.27382839738751952        0.0000000000000000     
  -6.7459999477784999E-002  0.28265597785686858        0.0000000000000000     
  -6.7635732696111089E-002  0.29151313960866937        0.0000000000000000     
  -6.7824800821957715E-002  0.30039988264292200        0.0000000000000000     
  -7.4722640346501182E-002  0.26519310129153412        0.0000000000000000     
  -7.4893359129241985E-002  0.27406016544946682        0.0000000000000000     
  -7.5065731777502906E-002  0.28301835645582007        0.0000000000000000     
  -7.5239758291284015E-002  0.29206767431059361        0.0000000000000000     
  -7.5415438670585255E-002  0.30120811901378769        0.0000000000000000     
  -8.2528568029808014E-002  0.26533404038933917        0.0000000000000000     
  -8.2726111727992047E-002  0.27426542563368828        0.0000000000000000     
  -8.2907137889198859E-002  0.28336614408463939        0.0000000000000000     
  -8.3071646513428452E-002  0.29263619574219252        0.0000000000000000     
  -8.3219637600680837E-002  0.30207558060634770        0.0000000000000000     
  -4.5353404569408867E-002   5.9701073603356275E-002   0.0000000000000000     
  -4.7802741768132873E-002   6.5106543946882145E-002   0.0000000000000000     
  -5.0141156140062031E-002   7.0716122084601402E-002   0.0000000000000000     
  -5.2368647685196355E-002   7.6529808016514100E-002   0.0000000000000000     
  -5.4485216403535840E-002   8.2547601742620214E-002   0.0000000000000000     
  -4.9823995638471598E-002   6.0488958586072061E-002   0.0000000000000000     
  -5.2497060820775356E-002   6.5849138793079437E-002   0.0000000000000000     
  -5.5045629484436878E-002   7.1419685798994367E-002   0.0000000000000000     
  -5.7469701629456207E-002   7.7200599603816866E-002   0.0000000000000000     
  -5.9769277255833336E-002   8.3191880207546892E-002   0.0000000000000000     
  -5.4902235325204857E-002   6.1136263754312060E-002   0.0000000000000000     
  -5.7675176139718259E-002   6.6533453447048085E-002   0.0000000000000000     
  -6.0339310845528987E-002   7.2122964140784465E-002   0.0000000000000000     
  -6.2894639442637013E-002   7.7904795835521151E-002   0.0000000000000000     
  -6.5341161931042363E-002   8.3878948531258241E-002   0.0000000000000000     
  -6.0588123629608616E-002   6.1642989108076279E-002   0.0000000000000000     
  -6.3337087724961619E-002   6.7159487908788049E-002   0.0000000000000000     
  -6.6022200223338365E-002   7.2825957109971626E-002   0.0000000000000000     
  -6.8643461124738778E-002   7.8642396711627038E-002   0.0000000000000000     
  -7.1200870429162941E-002   8.4608806713754245E-002   0.0000000000000000     
  -6.6881660551682903E-002   6.2009134647364718E-002   0.0000000000000000     
  -6.9482795576505413E-002   6.7727242178299341E-002   0.0000000000000000     
  -7.2094297617864941E-002   7.3528664706555932E-002   0.0000000000000000     
  -7.4716166675761489E-002   7.9413402232134445E-002   0.0000000000000000     
  -7.7348402750195042E-002   8.5381454755034905E-002   0.0000000000000000     
  -5.4485216403535840E-002   8.2547601742620214E-002   0.0000000000000000     
  -5.6510267432657940E-002   8.8746188733274278E-002   0.0000000000000000     
  -5.8463205910140120E-002   9.5102254458830762E-002   0.0000000000000000     
  -6.0344031835982373E-002  0.10161579891928965        0.0000000000000000     
  -6.2152745210184705E-002  0.10828682211465099        0.0000000000000000     
  -5.9769277255833336E-002   8.3191880207546892E-002   0.0000000000000000     
  -6.1967043224604716E-002   8.9367200489708490E-002   0.0000000000000000     
  -6.4085686396806868E-002   9.5700233329825565E-002   0.0000000000000000     
  -6.6125206772439757E-002  0.10219097872789823        0.0000000000000000     
  -6.8085604351503418E-002  0.10883943668392636        0.0000000000000000     
  -6.5341161931042363E-002   8.3878948531258241E-002   0.0000000000000000     
  -6.7692048871574803E-002   9.0028585446900372E-002   0.0000000000000000     
  -6.9960470825064097E-002   9.6336869801352337E-002   0.0000000000000000     
  -7.2146427791510273E-002  0.10280380159461412        0.0000000000000000     
  -7.4249919770913289E-002  0.10942938082668570        0.0000000000000000     
  -7.1200870429162941E-002   8.4608806713754245E-002   0.0000000000000000     
  -7.3685284373568152E-002   9.0730343604850008E-002   0.0000000000000000     
  -7.6087559194911808E-002   9.7012163873411023E-002   0.0000000000000000     
  -7.8407694893193852E-002  0.10345426751943738        0.0000000000000000     
  -8.0645691468414341E-002  0.11005665454292898        0.0000000000000000     
  -7.7348402750195042E-002   8.5381454755034905E-002   0.0000000000000000     
  -7.9946749730584798E-002   9.1472474963557315E-002   0.0000000000000000     
  -8.2466951506349973E-002   9.7726115546001677E-002   0.0000000000000000     
  -8.4909008077490536E-002  0.10414237650236799        0.0000000000000000     
  -8.7272919444006516E-002  0.11072125783265624        0.0000000000000000     
  -6.2152745210184705E-002  0.10828682211465099        0.0000000000000000     
  -6.3886971138820733E-002  0.11510304362463783        0.0000000000000000     
  -6.5544334727964074E-002  0.12205218302897325        0.0000000000000000     
  -6.7124835977614761E-002  0.12913424032765725        0.0000000000000000     
  -6.8628474887772753E-002  0.13634921552068985        0.0000000000000000     
  -6.8085604351503418E-002  0.10883943668392636        0.0000000000000000     
  -6.9965203178783353E-002  0.11563292943809057        0.0000000000000000     
  -7.1762327299065065E-002  0.12255877923057133        0.0000000000000000     
  -7.3476976712348527E-002  0.12961698606136873        0.0000000000000000     
  -7.5109151418633821E-002  0.13680754993048272        0.0000000000000000     
  -7.4249919770913289E-002  0.10942938082668570        0.0000000000000000     
  -7.6268550169292570E-002  0.11620001085574404        0.0000000000000000     
  -7.8199922392667404E-002  0.12310209503996623        0.0000000000000000     
  -8.0044036441037844E-002  0.13013563337935216        0.0000000000000000     
  -8.1800892314403850E-002  0.13730062587390188        0.0000000000000000     
  -8.0645691468414341E-002  0.11005665454292898        0.0000000000000000     
  -8.2797012110348372E-002  0.11680428787759832        0.0000000000000000     
  -8.4857120008771172E-002  0.12368213045715784        0.0000000000000000     
  -8.6826015163682671E-002  0.13069018228160748        0.0000000000000000     
  -8.8703697575082965E-002  0.13782844335094735        0.0000000000000000     
  -8.7272919444006516E-002  0.11072125783265624        0.0000000000000000     
  -8.9550589001950814E-002  0.11744576050365332        0.0000000000000000     
  -9.1733920147376330E-002  0.12429888548214620        0.0000000000000000     
  -9.3822912880283063E-002  0.13128063276813479        0.0000000000000000     
  -9.5817567200671042E-002  0.13839100236161916        0.0000000000000000     
  -6.8628474887772753E-002  0.13634921552068985        0.0000000000000000     
  -7.0057843175624412E-002  0.14368574731049463        0.0000000000000000     
  -7.1415532558356018E-002  0.15113247439949518        0.0000000000000000     
  -7.2701543035967611E-002  0.15868939678769148        0.0000000000000000     
  -7.3915874608459178E-002  0.16635651447508357        0.0000000000000000     
  -7.5109151418633821E-002  0.13680754993048272        0.0000000000000000     
  -7.6662068049288976E-002  0.14411946598110500        0.0000000000000000     
  -7.8138943235682212E-002  0.15154172935642737        0.0000000000000000     
  -7.9539776977813476E-002  0.15907434005644985        0.0000000000000000     
  -8.0864569275682793E-002  0.16671729808117239        0.0000000000000000     
  -8.1800892314403850E-002  0.13730062587390188        0.0000000000000000     
  -8.3473616332782510E-002  0.14458683298689332        0.0000000000000000     
  -8.5065334816190802E-002  0.15198401518160443        0.0000000000000000     
  -8.6576047764628780E-002  0.15949217245803513        0.0000000000000000     
  -8.8005755178096390E-002  0.16711130481618555        0.0000000000000000     
  -8.8703697575082965E-002  0.13782844335094735        0.0000000000000000     
  -9.0492488026104989E-002  0.14508784832785956        0.0000000000000000     
  -9.2194707299881856E-002  0.15245933187502622        0.0000000000000000     
  -9.3810355396413511E-002  0.15994289399244743        0.0000000000000000     
  -9.5339432315700023E-002  0.16753853468012314        0.0000000000000000     
  -9.5817567200671042E-002  0.13839100236161916        0.0000000000000000     
  -9.7718683129256384E-002  0.14562251200400372        0.0000000000000000     
  -9.9527060686755292E-002  0.15296767943669290        0.0000000000000000     
 -0.10124269987316771       0.16042650465968666        0.0000000000000000     
 -0.10286560068849367       0.16799898767298507        0.0000000000000000     
  -7.3915874608459178E-002  0.16635651447508357        0.0000000000000000     
  -7.5056738375551449E-002  0.17412340581541089        0.0000000000000000     
  -7.6122345436965069E-002  0.18197964916241288        0.0000000000000000     
  -7.7112695792700095E-002  0.18992524451608953        0.0000000000000000     
  -7.8027789442756498E-002  0.19796019187644087        0.0000000000000000     
  -8.0864569275682793E-002  0.16671729808117239        0.0000000000000000     
  -8.2111719853429604E-002  0.17446028291355767        0.0000000000000000     
  -8.3279628435193390E-002  0.18229297403656849        0.0000000000000000     
  -8.4368295020974149E-002  0.19021537145020481        0.0000000000000000     
  -8.5377719610771910E-002  0.19822747515446662        0.0000000000000000     
  -8.8005755178096390E-002  0.16711130481618555        0.0000000000000000     
  -8.9354036166971032E-002  0.17483064858145164        0.0000000000000000     
  -9.0620469841630011E-002  0.18263944007922953        0.0000000000000000     
  -9.1805056202073368E-002  0.19053767930951904        0.0000000000000000     
  -9.2907795248301103E-002  0.19852536627232034        0.0000000000000000     
  -9.5339432315700023E-002  0.16753853468012314        0.0000000000000000     
  -9.6783687316175704E-002  0.17523450281909278        0.0000000000000000     
  -9.8144869656274947E-002  0.18301904729039581        0.0000000000000000     
  -9.9422979335997724E-002  0.19089216809403226        0.0000000000000000     
 -0.10061801635534404       0.19885386523000206        0.0000000000000000     
 -0.10286560068849367       0.16799898767298507        0.0000000000000000     
 -0.10440067330104366       0.17567184562648103        0.0000000000000000     
 -0.10585282787912817       0.18343179567006745        0.0000000000000000     
 -0.10722206442274722       0.19127883780374438        0.0000000000000000     
 -0.10850838293190079       0.19921297202751181        0.0000000000000000     
  -7.8027789442756498E-002  0.19796019187644087        0.0000000000000000     
  -7.8868516673423705E-002  0.20607739871040051        0.0000000000000000     
  -7.9635767770991156E-002  0.21426977248490200        0.0000000000000000     
  -8.0329542735458823E-002  0.22253731319994544        0.0000000000000000     
  -8.0949841566826733E-002  0.23088002085553067        0.0000000000000000     
  -8.5377719610771910E-002  0.19822747515446662        0.0000000000000000     
  -8.6311358141734920E-002  0.20632155572534755        0.0000000000000000     
  -8.7172666551011455E-002  0.21448988373884142        0.0000000000000000     
  -8.7961644838601555E-002  0.22273245919494800        0.0000000000000000     
  -8.8678293004505207E-002  0.23104928209366754        0.0000000000000000     
  -9.2907795248301103E-002  0.19852536627232034        0.0000000000000000     
  -9.3933493494240405E-002  0.20659532927737220        0.0000000000000000     
  -9.4886957453818546E-002  0.21474039663441352        0.0000000000000000     
  -9.5768187127035539E-002  0.22296056834344433        0.0000000000000000     
  -9.6577182513891371E-002  0.23125584440446459        0.0000000000000000     
 -0.10061801635534404       0.19885386523000206        0.0000000000000000     
 -0.10173492273094019       0.20689871936647442        0.0000000000000000     
 -0.10277864047941243       0.21502131117161852        0.0000000000000000     
 -0.10374916960076078       0.22322164064543426        0.0000000000000000     
 -0.10464651009498517       0.23149970778792181        0.0000000000000000     
 -0.10850838293190079       0.19921297202751181        0.0000000000000000     
 -0.10971564585183428       0.20723172599265424        0.0000000000000000     
 -0.11084771562779309       0.21533262735045627        0.0000000000000000     
 -0.11190459225977720       0.22351567610091794        0.0000000000000000     
 -0.11288627574778665       0.23178087224403918        0.0000000000000000     
  -8.0949841566826733E-002  0.23088002085553067        0.0000000000000000     
  -8.1486182544376562E-002  0.23931861542078586        0.0000000000000000     
  -8.1928083947390054E-002  0.24787381686483903        0.0000000000000000     
  -8.2275545775867195E-002  0.25654562518769014        0.0000000000000000     
  -8.2528568029808014E-002  0.26533404038933917        0.0000000000000000     
  -8.8678293004505207E-002  0.23104928209366754        0.0000000000000000     
  -8.9308376832145597E-002  0.23946594294780296        0.0000000000000000     
  -8.9837662104945940E-002  0.24800803227015744        0.0000000000000000     
  -9.0266148822906220E-002  0.25667555006073089        0.0000000000000000     
  -9.0593836986026466E-002  0.26546849631952335        0.0000000000000000     
  -9.6577182513891371E-002  0.23125584440446459        0.0000000000000000     
  -9.7304890001252572E-002  0.23965270967617000        0.0000000000000000     
  -9.7942255975985756E-002  0.24817764901725639        0.0000000000000000     
  -9.8489280438090951E-002  0.25683066242772362        0.0000000000000000     
  -9.8945963387568128E-002  0.26561174990757186        0.0000000000000000     
 -0.10464651009498517       0.23149970778792181        0.0000000000000000     
 -0.10547572205169750       0.23987891560588698        0.0000000000000000     
 -0.10624186556050959       0.24838266710613591        0.0000000000000000     
 -0.10694494062142142       0.25701096228866843        0.0000000000000000     
 -0.10758494723443299       0.26576380115348475        0.0000000000000000     
 -0.11288627574778665       0.23178087224403918        0.0000000000000000     
 -0.11382087298348036       0.24014456073695387        0.0000000000000000     
 -0.11473649085851732       0.24862308653679593        0.0000000000000000     
 -0.11563312937289756       0.25721644964356533        0.0000000000000000     
 -0.11651078852662106       0.26592465005726212        0.0000000000000000     
  -8.2528568029808014E-002  0.26533404038933917        0.0000000000000000     
  -8.2726111727992047E-002  0.27426542563368828        0.0000000000000000     
  -8.2907137889198859E-002  0.28336614408463939        0.0000000000000000     
  -8.3071646513428452E-002  0.29263619574219252        0.0000000000000000     
  -8.3219637600680837E-002  0.30207558060634770        0.0000000000000000     
  -9.0593836986026466E-002  0.26546849631952335        0.0000000000000000     
  -9.0851028974327092E-002  0.27444986124752135        0.0000000000000000     
  -9.1068027167828539E-002  0.28368263504571151        0.0000000000000000     
  -9.1244831566530807E-002  0.29316681771409386        0.0000000000000000     
  -9.1381442170433910E-002  0.30290240925266831        0.0000000000000000     
  -9.8945963387568128E-002  0.26561174990757186        0.0000000000000000     
  -9.9323280879344597E-002  0.27461915559830358        0.0000000000000000     
  -9.9632208968347735E-002  0.28395112364142150        0.0000000000000000     
  -9.9872747654577501E-002  0.29360765403692562        0.0000000000000000     
 -0.10004489693803394       0.30358874678481595        0.0000000000000000     
 -0.10758494723443299       0.26576380115348475        0.0000000000000000     
 -0.10814286744304456       0.27477330868603500        0.0000000000000000     
 -0.10859968329075642       0.28417160987176937        0.0000000000000000     
 -0.10895539477756853       0.29395870471068786        0.0000000000000000     
 -0.10921000190348093       0.30413459320279052        0.0000000000000000     
 -0.11651078852662106       0.26592465005726212        0.0000000000000000     
 -0.11730978866542699       0.27491232051071557        0.0000000000000000     
 -0.11797045013505464       0.28434409373675501        0.0000000000000000     
 -0.11849277293550392       0.29421996973538056        0.0000000000000000     
 -0.11887675706677489       0.30453994850659205        0.0000000000000000     
 </DataArray>
 <DataArray  type="Float64" Name="stress" NumberOfComponents="3" format="ascii">
   5289905784.9096603        1018928863.7986834       -680057495.47421181     
   5158120861.5226250        513296995.75429821       -463636393.64766634     
   5076218680.2606754        173940934.79355526       -312828091.16032976     
   5044199241.1238155        860680.91643333435       -227632588.01220137     
   5062062544.1120472       -5943765.8770501614       -208049884.20327544     
   5591123073.3345995        839380829.46936607       -404823872.83667332     
   5354837974.1759768        460414175.65414977       -230640519.23359364     
   5153051478.9491434        196442868.27821612       -100459550.93771571     
   4985763587.6540833        47466907.341556787       -14280967.949046617     
   4852974300.2908173        13486292.844185829        27895229.732425820     
   5600153484.3139038        572176731.90636849       -59841066.909208521     
   5321112249.4751291        338398504.34773803        54156377.244884767     
   5061185480.3748407        168335162.58404684        145761850.12377533     
   4820373177.0130243        61986706.615269184        214975351.72747108     
   4598675339.3896866        19353136.441435814        261796882.05596635     
   5316997017.8475504        217316571.10966873        354890922.30818695     
   5056943687.4200792        147249981.83506799        390754295.78776997     
   4800620684.5377703        89617817.711040258        425836112.02415967     
   4548028009.2006416        44420078.737604618        460136371.01734930     
   4299165661.4086866        11656764.914739370        493655072.76734865     
   4741653673.9355698       -225199652.92071962        839372094.81550777     
   4562332288.0108204       -113031391.88386559        779153236.39506114     
   4371357091.4379435       -39709166.340785980        739763234.76342440     
   4168728084.2169337       -5232976.2914712429        721202089.92059267     
   3954445266.3477955       -9602821.7359278202        723469801.86656761     
   5062062544.1120472       -5943765.8770501614       -208049884.20327544     
   4917265618.0700970        11529186.084347486       -164861459.35741228     
   4770767576.8023691        23331753.959820747       -125976749.20629857     
   4622568420.3088465        29463937.749308825       -91395753.749926671     
   4472668148.5895443        29925737.452868938       -61118472.988304257     
   4852974300.2908173        13486292.844185829        27895229.732425820     
   4698220977.5914965        23332341.238415956        54888480.032095216     
   4542210286.2301445        28987160.759188652        80286733.036343947     
   4384942226.2067337        30450751.406448603        104089988.74518098     
   4226416797.5212851        27723113.180235624        126298247.15859477     
   4598675339.3896866        19353136.441435814        261796882.05596635     
   4441704812.6025248        23894039.039376259        273112662.13380051     
   4283920663.7170568        25722867.976298094        285542162.31554598     
   4125322892.7332802        24839623.252192974        299085382.60120493     
   3965911499.6511960        21244304.867060184        313742322.99077296     
   4299165661.4086866        11656764.914739370        493655072.76734865     
   4147717123.1031818        13214279.487230301        489811086.94771111     
   3995898709.2631149        13538875.611164570        489789538.63131332     
   3843710419.8884749        12630553.286528111        493590427.81815666     
   3691152254.9792666        10489312.513329268        501213754.50823760     
   3954445266.3477955       -9602821.7359278202        723469801.86656761     
   3816257909.0934672       -8706937.4180324078        704983754.47381973     
   3678144422.8683095       -7564816.3362398148        693028861.98363900     
   3540104807.6723228       -6176458.4905419350        687605124.39603102     
   3402139063.5055103       -4541863.8809430599        688712541.71099257     
   4472668148.5895443        29925737.452868938       -61118472.988304257     
   4288307804.0027514        19157122.778184891       -57098247.195614278     
   4105060183.9705396        12097589.952125311       -51075890.096948706     
   3922925288.4929013        8747138.9746444225       -43051401.692269765     
   3741903117.5698543        9105769.8457803726       -33024781.981603704     
   4226416797.5212851        27723113.180235624        126298247.15859477     
   4048566473.2418246        18650283.352061749        126807538.46008778     
   3871612381.6307116        12564895.751732349        129931071.41972932     
   3695554522.6879625        9466950.3792746067        135668846.03751847     
   3520392896.4135609        9356447.2346374989        144020862.31344911     
   3965911499.6511960        21244304.867060184        313742322.99077296     
   3796320082.3994927        14391925.901513577        310488105.93382561     
   3627408405.9299145        9805349.5430614948        310460240.88716161     
   3459176470.2424664        7484575.7917101383        313658727.85079926     
   3291624275.3371558        7429604.6474714279        320083566.82473314     
   3691152254.9792666        10489312.513329268        501213754.50823760     
   3531568631.4757566        6382050.4265460968        493943455.22557420     
   3372448256.8681421        3818951.3260984421        490511618.30535752     
   3213791131.1564364        2800015.2119992971        490918243.74757987     
   3055597254.3406372        3325242.0842598677        495163331.55224860     
   3402139063.5055103       -4541863.8809430599        688712541.71099257     
   3254312120.4706125       -5379343.0728523731        677173586.33535087     
   3106731934.4453931       -5394298.8991652727        670085203.67430365     
   2959398505.4298601       -4586731.3598690033        667447393.72785950     
   2812311833.4240003       -2956640.4549841881        669260156.49600267     
   3741903117.5698543        9105769.8457803726       -33024781.981603704     
   3564238159.7200637        10414794.375684977       -30659645.344254505     
   3385423046.3729305        7889967.2477788925       -23518161.621249441     
   3205457777.5284519        1531288.4620561600       -11600330.812593630     
   3024342353.1866245       -8661241.9814964533        5093847.0817231722     
   3520392896.4135609        9356447.2346374989        144020862.31344911     
   3355048081.9448714        12262573.653839827        142457254.24634501     
   3188854234.3828416        12338589.761916161        145225770.48921356     
   3021811353.7274752        9584495.5588672161        152326411.04204834     
   2853919439.9787874        4000291.0447467566        163759175.90484548     
   3291624275.3371558        7429604.6474714279        320083566.82473314     
   3137330396.3190246        11552070.576791644        314942523.52452087     
   2982488606.6115689        13848167.541703939        313689381.75861043     
   2827098906.2147903        14317895.542205811        316324141.52696037     
   2671161295.1286883        12961254.578291178        322846802.82959908     
   3055597254.3406372        3325242.0842598677        495163331.55224860     
   2911085102.8425250        8283285.1445446014        486796162.49029636     
   2766326163.0591059        12418700.587138534        481872672.18692261     
   2621320434.9903741        15731488.412011504        480392860.64215040     
   2476067918.6363282        18221648.619193792        482356727.85596931     
   2812311833.4240003       -2956640.4549841881        669260156.49600267     
   2676312201.5153794        2456217.3571134806        658018171.14363730     
   2540366903.7254548        8050188.8982124329        649775641.77417362     
   2404475940.0542288        13825274.168304205        644532568.38761783     
   2268639310.5017028        19781473.167397022        642288950.98395681     
   3024342353.1866245       -8661241.9814964533        5093847.0817231722     
   2863938391.0668826       -12665699.241298556        4246593.8686457695     
   2704667859.9503016       -12892053.157231808        2775627.0872626188     
   2546530759.8368611       -9340303.7293735743        680946.73757371854     
   2389527090.7265773       -2010450.9576376677       -2037447.1804004337     
   2853919439.9787874        4000291.0447467566        163759175.90484548     
   2693357249.2367072        458011.84197664261        160200175.79411268     
   2533540580.6491151       -599193.51249659061        157036518.45209038     
   2374469434.2159939        828674.98127818108        154268203.87879774     
   2216143809.9373770        4741617.3233650923        151895232.07421559     
   2671161295.1286883        12961254.578291178        322846802.82959908     
   2513352465.2986221        10754630.292892456        316123495.49775308     
   2355901248.7743688        9740050.3601975441        310814587.27164721     
   2198807645.5559163        9917514.7801800966        306920078.15127629     
   2042071655.6432931        11287023.552916169        304439968.13666606     
   2476067918.6363282        18221648.619193792        482356727.85596931     
   2323924039.2526131        18224156.111417532        472016552.97956872     
   2171749864.3260384        18125678.460776210        464109833.54592794     
   2019545393.8566201        17926215.667316556        458636569.55505216     
   1867310627.8443499        17625767.731016397        455596761.00694752     
   2268639310.5017028        19781473.167397022        642288950.98395681     
   2125071971.0986896        22866589.297565103        627879348.23955560     
   1981086427.3041549        24557690.789334059        616922257.27494550     
   1836682679.1180952        24854777.642685413        609417678.09011173     
   1691860726.5405195        23757849.857656956        605365610.68507051     
   2389527090.7265773       -2010450.9576376677       -2037447.1804004337     
   2247712098.6939378        6509031.3665887117       -7785158.2554116631     
   2102543693.0840085        3850468.4331626892       -11664853.441386057     
   1954021873.8967826       -9986139.7578974962       -13676532.738319770     
   1802146641.1322517       -35000793.206663132       -13820196.146193590     
   2216143809.9373770        4741617.3233650923        151895232.07421559     
   2077930666.1488621        12438352.836057782        142262246.35190368     
   1937488516.0456123        12705067.299612284        133721761.88483588     
   1794817359.6276135        5541760.7140140533        126273778.67303720     
   1649917196.8948522       -9051566.9208037853        119918296.71647111     
   2042071655.6432931        11287023.552916169        304439968.13666606     
   1905244604.0023670        17496285.425147653        292233516.24002707     
   1767312953.3092291        20023550.456677318        280344050.96483630     
   1628276703.5638885        18868818.647531867        268771572.31110811     
   1488135854.7663405        14032089.997688591        257516080.27884421     
   1867310627.8443499        17625767.731016397        455596761.00694752     
   1729653912.2544334        21682829.133782506        442128651.40895152     
   1592017004.8748636        25805917.904341877        428202013.79861921     
   1454399905.7056327        29995034.042717159        413816848.17594838     
   1316802614.7467461        34250177.548872888        398973154.54093879     
   1691860726.5405195        23757849.857656956        605365610.68507051     
   1551158590.9050670        24997983.961970985        591947651.85868537     
   1411600670.7425075        30052169.642605901        577295650.38616872     
   1273186966.0528362        38920406.899529457        561409606.26752579     
   1135917476.8360491        51602695.732733011        544289519.50274634     
   1802146641.1322517       -35000793.206663132       -13820196.146193590     
   1771248814.3471203       -16525640.733522892       -8273151.4701053565     
   1748449401.6632648        28944225.410502911       -41493194.886186816     
   1733748403.0806956        101408805.22549522       -113480326.39440978     
   1727145818.5993958        200868098.71139634       -224234545.99477682     
   1649917196.8948522       -9051566.9208037853        119918296.71647111     
   1527349606.0348501       -13972136.582263768        135498954.94383141     
   1408971232.3103671       -4928649.1253196597        124730510.92911848     
   1294782075.7214286        18078895.450089991        87612964.672316328     
   1184782136.2680097        55050497.143922210        24146316.173437107     
   1488135854.7663405        14032089.997688591        257516080.27884421     
   1309378459.4031057       -3640213.9268299937        278569622.26412725     
   1130901084.2096329       -20379117.285481691        285692047.85737854     
   952703729.18594289       -36184620.078181207        278883357.05862576     
   774786394.33202767       -51056722.304970711        258143549.86787131     
   1316802614.7467461        34250177.548872888        398973154.54093879     
   1117335374.4518795        14470127.232710838        420938850.49074513     
   914238957.36104691       -17407179.070018291        441391415.89861232     
   707513363.47424364       -61381741.359316349        460330850.76454234     
   497158592.79144961       -117453559.63523579        477757155.08852965     
   1135917476.8360491        51602695.732733011        544289519.50274634     
   951220351.18120193        40358886.896469474        562606639.62371182     
   758984851.76461852        3987165.5210907161        591828615.05281532     
   559210978.58632123       -57512468.393328756        631955445.79004276     
   351898731.64629960       -144140014.84684581        682987131.83540571     
   1727145818.5993958        200868098.71139634       -224234545.99477682     
   1456664853.7081425        184632365.22839355       -96640033.455464005     
   1153998762.9491403        61112878.852928817        60119266.782038696     
   819147546.32233071       -169690360.41523856        246043354.71771082     
   452111203.82775879       -507777352.57595849        461132230.35156775     
   1184782136.2680097        55050497.143922210        24146316.173437107     
   977708922.39217484        11874360.796991169        155557267.30898881     
   732803135.96498251       -157410350.72108716        312795639.88066375     
   450064776.98645568       -452803637.41033006        495861433.88845295     
   129493845.45655221       -874305499.27075100        704754649.33238840     
   774786394.33202767       -51056722.304970711        258143549.86787131     
   621585599.29433370       -124033861.16903317        386782251.80212873     
   424904785.02172220       -341944397.48280716        537911008.91047096     
   184743951.51418808       -704788331.24632597        711529821.19290173     
  -98896901.228279412       -1212565662.4596310        907638688.64942753     
   497158592.79144961       -117453559.63523579        477757155.08852965     
   388294884.41464627       -223092300.66959479        597034920.02400100     
   230303710.11932993       -492489261.43230689        735465373.87152028     
   23185069.905534148       -925644441.92328453        893048516.63109028     
  -233061036.22675648       -1522557842.1425779        1069784348.3026928     
   351898731.64629960       -144140014.84684581        682987131.83540571     
   277836777.75309700       -285300957.70472831        786315271.97459054     
   148999911.25783801       -609044942.56947649        905458734.76377034     
  -34611867.839486480       -1115371969.4411180        1040417520.2029631     
  -272998559.53888202       -1804282038.3196461        1191191628.2921610     
   4741653673.9355698       -225199652.92071962        839372094.81550777     
   4562332288.0108204       -113031391.88386559        779153236.39506114     
   4371357091.4379435       -39709166.340785980        739763234.76342440     
   4168728084.2169337       -5232976.2914712429        721202089.92059267     
   3954445266.3477955       -9602821.7359278202        723469801.86656761     
   4209495928.0590310       -179918658.50163531        934809978.24991703     
   4069046821.1754112       -98294555.422603369        883695498.70511842     
   3920608423.5041237       -43301421.635808945        848702567.31649983     
   3764180735.0451636       -14939257.141243696        829831184.08405352     
   3599763755.7985411       -13208061.938899517        827081349.00778103     
   3742813922.2668390       -114994942.05724502        1011877209.0720625     
   3627787641.1882434       -67949832.906870127        974142381.57346380     
   3508436589.1824493       -35320626.847188234        947821793.59840083     
   3384760766.2494440       -17107323.878194571        932915445.14687550     
   3256760172.3892322       -13309923.999892712        929423336.21889067     
   3341607656.5589857       -30428503.587553978        1070573787.2819635     
   3238554748.0493259       -21997224.336662054        1050493885.0000920     
   3134841588.4729238       -15766781.974918246        1037120913.6091232     
   3030468177.8297744       -11737176.502328753        1030454873.1090610     
   2925434516.1198783       -9908407.9188919067        1030495763.4999007     
   3005877130.9354792        73780656.907440782        1110899712.8796029     
   2901348141.7586536        39563270.288024664        1112750008.9850006     
   2799823421.3755407        15360112.980983973        1116599927.3486667     
   2701302969.7861495        1171184.9863419533        1122449467.9706061     
   2605786786.9904728       -3003513.6959168911        1130298630.8508117     
   3954445266.3477955       -9602821.7359278202        723469801.86656761     
   3816257909.0934672       -8706937.4180324078        704983754.47381973     
   3678144422.8683095       -7564816.3362398148        693028861.98363900     
   3540104807.6723228       -6176458.4905419350        687605124.39603102     
   3402139063.5055103       -4541863.8809430599        688712541.71099257     
   3599763755.7985411       -13208061.938899517        827081349.00778103     
   3477980936.1945949       -10673457.133011341        812364964.27693081     
   3356283997.5172749       -7852582.5717210770        803358133.49272990     
   3234672939.7665744       -4745438.2550172806        800060856.65518105     
   3113147762.9424963       -1352024.1829189062        802473133.76427865     
   3256760172.3892322       -13309923.999892712        929423336.21889067     
   3149034459.1330385       -9840828.0968031883        918490625.69696724     
   3041406636.7009220       -6045429.4468045235        912445868.16577756     
   2933876705.0928798       -1923728.0498865843        911289063.62531340     
   2826444664.3089070        2524276.0939327478        915020212.07557738     
   2925434516.1198783       -9908407.9188919067        1030495763.4999007     
   2829418477.9088054       -6209050.3094010353        1023360738.7339334     
   2733512340.4192629       -2143356.9614731073        1020292066.0027761     
   2637716103.6512361        2288672.1248501539        1021289745.3064260     
   2542029767.6047482        7087036.9496202469        1026353776.6448810     
   2605786786.9904728       -3003513.6959168911        1130298630.8508117     
   2519132992.5218925        221876.22921228409        1126975303.3878300     
   2432601108.6722865        3853634.8842574358        1126896727.0037320     
   2346191135.4416575        7891762.2692284584        1130062901.6985211     
   2259903072.8300071        12336258.384119630        1136473827.4721949     
   3402139063.5055103       -4541863.8809430599        688712541.71099257     
   3254312120.4706125       -5379343.0728523731        677173586.33535087     
   3106731934.4453931       -5394298.8991652727        670085203.67430365     
   2959398505.4298601       -4586731.3598690033        667447393.72785950     
   2812311833.4240003       -2956640.4549841881        669260156.49600267     
   3113147762.9424963       -1352024.1829189062        802473133.76427865     
   2977004511.7818613       -1840684.6375873089        792025395.35700166     
   2841107257.3479114       -1509356.0032917261        786034042.89135253     
   2705455999.6406560       -358038.28002202511        784499076.36732745     
   2570050738.6600924        1613268.5322207212        787420495.78492999     
   2826444664.3089070        2524276.0939327478        915020212.07557738     
   2702001714.2426138        2389417.1425263882        905662803.63984525     
   2577804000.6200271        3072013.0034582615        900767594.37276840     
   2453851523.4411459        4572063.6767432690        900334584.27435148     
   2330144282.7059679        6889569.1623725891        904363773.34458923     
   2542029767.6047482        7087036.9496202469        1026353776.6448810     
   2429303727.8528857        7310962.2674903870        1018085811.1838751     
   2316822164.2617440        8349808.1210916042        1014285858.1185565     
   2204585076.8313155        10203574.510410666        1014953917.4489230     
   2092592465.5616062        12872261.435450673        1020089989.1749785     
   2259903072.8300071        12336258.384119630        1136473827.4721949     
   2158910552.6126699        12923950.737319827        1129294417.9890933     
   2058161748.2730575        14324029.349597931        1126588834.1287153     
   1957656659.8111727        16536494.220973849        1128357075.8910494     
   1857395287.2270224        19561345.351458669        1134599143.2761028     
   2812311833.4240003       -2956640.4549841881        669260156.49600267     
   2676312201.5153794        2456217.3571134806        658018171.14363730     
   2540366903.7254548        8050188.8982124329        649775641.77417362     
   2404475940.0542288        13825274.168304205        644532568.38761783     
   2268639310.5017028        19781473.167397022        642288950.98395681     
   2570050738.6600924        1613268.5322207212        787420495.78492999     
   2442029186.7791529        6286516.8495081663        777232448.55711615     
   2314082624.1771173        11209729.429805636        770352609.09726071     
   2186211050.8539767        16382906.273099780        766780977.40537477     
   2058414466.8097477        21806047.379408002        766517553.48145163     
   2330144282.7059679        6889569.1623725891        904363773.34458923     
   2210982958.8100171        11087852.372028232        895253761.92822838     
   2091917279.3531814        15604950.378719687        889760710.06489241     
   1972947244.3354459        20440863.182418466        887884617.75457907     
   1854072853.7568233        25595590.783151627        889625484.99728596     
   2092592465.5616062        12872261.435450673        1020089989.1749785     
   1983173517.6079676        16860223.924678445        1012082111.2569792     
   1873870869.2536430        21235851.744953036        1007999944.6770639     
   1764684520.4986210        25999144.896248817        1007843489.4352285     
   1655614471.3429208        31150103.378593564        1011612745.5314816     
   1857395287.2270224        19561345.351458669        1134599143.2761028     
   1758600863.1730046        23603631.507451296        1127717496.5433679     
   1659943393.8785062        28102433.528512537        1125070312.9337764     
   1561422879.3435118        33057751.414585412        1126657592.4473293     
   1463039319.5680404        38469585.165735364        1132479335.0840185     
   2268639310.5017028        19781473.167397022        642288950.98395681     
   2125071971.0986896        22866589.297565103        627879348.23955560     
   1981086427.3041549        24557690.789334059        616922257.27494550     
   1836682679.1180952        24854777.642685413        609417678.09011173     
   1691860726.5405195        23757849.857656956        605365610.68507051     
   2058414466.8097477        21806047.379408002        766517553.48145163     
   1923942028.5391114        24925776.406054735        753805281.62382054     
   1789196366.3884130        27134759.165826797        744628588.18904400     
   1654177480.3576541        28432995.658725381        738987473.17712295     
   1518885370.4468267        28820485.884745777        736881936.58805835     
   1854072853.7568233        25595590.783151627        889625484.99728596     
   1728932649.8844681        28821132.686026573        878779687.95646358     
   1603664202.6435122        31619196.693566084        871552535.98156846     
   1478267512.0339589        33989782.805776060        867944029.07259226     
   1352742578.0558045        35932891.022659183        867954167.22954285     
   1655614471.3429208        31150103.378593564        1011612745.5314816     
   1540043835.1347625        34552658.137485564        1002802567.2374979     
   1424489936.0694630        38011003.372567177        997694100.65251553     
   1308952774.1470277        41525139.083865702        996287345.77652526     
   1193432349.3674548        45095065.271372616        998582302.60952067     
   1463039319.5680404        38469585.165735364        1132479335.0840185     
   1357275584.2899919        42120352.760421634        1125873919.4669199     
   1251673566.6662567        46310179.202819467        1123053282.2018878     
   1146233266.6968484        51039064.492975533        1124017423.2889144     
   1040954684.3817612        56307008.630869567        1128766342.7280073     
   1691860726.5405195        23757849.857656956        605365610.68507051     
   1551158590.9050670        24997983.961970985        591947651.85868537     
   1411600670.7425075        30052169.642605901        577295650.38616872     
   1273186966.0528362        38920406.899529457        561409606.26752579     
   1135917476.8360491        51602695.732733011        544289519.50274634     
   1518885370.4468267        28820485.884745777        736881936.58805835     
   1376412693.3726954        27074529.079817414        727587799.23094261     
   1234226903.7729208        26284863.856092036        718854847.46927679     
   1092328001.6475029        26451490.213554442        710683081.30304062     
   950715986.99645030        27574408.152232468        703072500.73223460     
   1352742578.0558045        35932891.022659183        867954167.22954285     
   1213628583.0903130        32739610.372655690        861783635.34343159     
   1073944147.6006515        27644861.308755040        857969517.29432285     
   933689271.58683217        20648643.830998659        856511813.08221710     
   792863955.04884470        11750957.939346552        857410522.70710552     
   1193432349.3674548        45095065.271372616        998582302.60952067     
   1062806260.0579263        41993227.840475261        994535160.19613814     
   930752402.22571456        34132162.000633597        994639659.86131191     
   797270775.87081289        21511867.751828164        998895801.60504997     
   662361380.99321544        4132345.0940318406        1007303585.4273562     
   1040954684.3817612        56307008.630869567        1128766342.7280073     
   923945724.27554440        54835381.483329445        1125842373.7890527     
   804651667.64810133        45746765.931704283        1128865275.1702356     
   683072514.49945116        29041161.976056933        1137835046.8715465     
   559208264.82958269        4718569.6163427532        1152751688.8929861     
   1135917476.8360491        51602695.732733011        544289519.50274634     
   951220351.18120193        40358886.896469474        562606639.62371182     
   758984851.76461852        3987165.5210907161        591828615.05281532     
   559210978.58632123       -57512468.393328756        631955445.79004276     
   351898731.64629960       -144140014.84684581        682987131.83540571     
   950715986.99645030        27574408.152232468        703072500.73223460     
   791608006.35363519        10757233.141195297        721096129.20631838     
   623845246.04818857       -34909207.411954850        749185021.49879169     
   447427706.08011961       -109424913.50717828        787339177.60964549     
   262355386.44941330       -212789885.14452064        835558597.53888369     
   792863955.04884470        11750957.939346552        857410522.70710552     
   656946286.59021139       -11359233.094835967        873838185.98325408     
   511257432.56804639       -67040042.674119949        899491521.58803749     
   355797392.98234946       -155291470.79851145        934370529.52146077     
   190566167.83311915       -276113517.46800458        978475209.78351796     
   662361380.99321544        4132345.0940318406        1007303585.4273562     
   547235191.89092302       -25990511.811626643        1020832809.9545093     
   421221411.32419562       -92405340.265394658        1042748115.3205607     
   284320039.29302883       -195112140.26729661        1073049501.5254947     
   136531075.79742745       -334110911.81731439        1111736968.5693221     
   559208264.82958269        4718569.6163427532        1152751688.8929861     
   462474722.25577343       -33136603.009169012        1162080001.1200933     
   353737182.31662881       -111005100.18580420        1178954802.6963444     
   232995645.01214886       -228886921.91355455        1203376093.6217458     
   100250110.34232625       -386782068.19244707        1235343873.8962860     
   351898731.64629960       -144140014.84684581        682987131.83540571     
   277836777.75309700       -285300957.70472831        786315271.97459054     
   148999911.25783801       -609044942.56947649        905458734.76377034     
  -34611867.839486480       -1115371969.4411180        1040417520.2029631     
  -272998559.53888202       -1804282038.3196461        1191191628.2921610     
   262355386.44941330       -212789885.14452064        835558597.53888369     
   223630372.41360271       -352458004.51344776        884951853.60401952     
   140676177.98982424       -639556725.17559278        945367550.71969163     
   13492803.178075373       -1074086047.1309934        1016805688.8859131     
  -157919752.02164531       -1656045970.3796220        1099266268.1026490     
   190566167.83311915       -276113517.46800458        978475209.78351796     
   173484146.22765106       -418396997.57609785        986236936.02439642     
   122718676.44830495       -672958638.26378727        1000228221.7163367     
   38269758.495088696       -1039798439.5310432        1020449066.8593531     
  -79862607.632000923       -1518916401.3778756        1046899471.4534441     
   136531075.79742745       -334110911.81731439        1111736968.5693221     
   127398099.19525132       -483117936.89269900        1090170519.2357035     
   95127406.633300662       -709250681.83399415        1070040747.7536892     
   39718998.111563802       -1012509146.6412563        1051347654.1232772     
  -38827126.369945943       -1392893331.3144059        1034091238.3444724     
   100250110.34232625       -386782068.19244707        1235343873.8962860     
   85372231.316407233       -546620822.46320677        1196752603.2379537     
   57902368.544791758       -748432855.88628232        1154805128.8317680     
   17840522.027497590       -992218168.46160913        1109501450.6777101     
  -34813308.235474110       -1277976760.1892109        1060841568.7758012     
   3005877130.9354792        73780656.907440782        1110899712.8796029     
   2901348141.7586536        39563270.288024664        1112750008.9850006     
   2799823421.3755407        15360112.980983973        1116599927.3486667     
   2701302969.7861495        1171184.9863419533        1122449467.9706061     
   2605786786.9904728       -3003513.6959168911        1130298630.8508117     
   2659198672.3717418        63419955.740572095        1189617212.4653108     
   2563144489.5268250        36289529.133287549        1190064940.1039574     
   2469321528.3649697        16596508.136203051        1193396674.9676194     
   2377729788.8861728        4340892.7493147850        1199612417.0562940     
   2288369271.0904312       -477317.02738237381        1208712166.3699834     
   2298523650.7749467        48860285.663787484        1270533547.7806511     
   2213471088.4526315        29574863.325849295        1268676818.6567829     
   2129876700.7027202        15150022.895912290        1270588481.7246773     
   2047740487.5252128        5585764.3739912510        1276268536.9843199     
   1967062448.9201045        882087.76006639004        1285716984.4357221     
   1923852066.1450863        30101646.677082539        1353648718.8256311     
   1852327938.5360718        19419272.865695596        1348585644.6434817     
   1781488938.3887999        11020657.260126710        1348175347.6198361     
   1711335065.7032740        4905799.8603730202        1352417827.7546861     
   1641866320.4794915        1074700.6664295197        1361313085.0480344     
   1535183918.4821701        7144038.7804607749        1438962725.6002526     
   1479715039.7771430        5822757.7528358698        1429791418.0640550     
   1424158241.4232035        4208411.2288283706        1426157272.6531003     
   1368513523.4203551        2300999.2084607482        1428060289.3673906     
   1312780885.7685893        100521.69170236588        1435500468.2069182     
   2605786786.9904728       -3003513.6959168911        1130298630.8508117     
   2519132992.5218925        221876.22921228409        1126975303.3878300     
   2432601108.6722865        3853634.8842574358        1126896727.0037320     
   2346191135.4416575        7891762.2692284584        1130062901.6985211     
   2259903072.8300071        12336258.384119630        1136473827.4721949     
   2288369271.0904312       -477317.02738237381        1208712166.3699834     
   2210293882.3967695        1673156.6206352711        1204353947.3918250     
   2132349785.0051630        4261267.9421719313        1203597808.6102066     
   2054536978.9156132        7287016.9372272491        1206443750.0251255     
   1976855464.1281137        10750403.605789423        1212891771.6365862     
   1967062448.9201045        882087.76006639004        1285716984.4357221     
   1898586406.3375089        2263927.2318230867        1280334818.0726519     
   1830251035.7400498        4114673.3206959963        1278912061.0237691     
   1762056337.1277177        6434326.0266672373        1281448713.2890785     
   1694002310.5005224        9222885.3497530222        1287944774.8685746     
   1641866320.4794915        1074700.6664295197        1361313085.0480344     
   1584010564.3441119        1994188.0627735257        1354917915.4303050     
   1526304860.8769455        3413851.0198228359        1352839484.2444181     
   1468749210.0779824        5333689.5375570059        1355077791.4903693     
   1411343611.9472363        7753703.6160049438        1361632837.1681621     
   1312780885.7685893        100521.69170236588        1435500468.2069182     
   1266566356.4165702        863939.11346554756        1428103239.4647858     
   1220511260.4158468        2158801.0395472050        1425380078.2721500     
   1174615597.7664027        3985107.4698939919        1427330984.6290064     
   1128879368.4682517        6342858.4045505524        1433955958.5353525     
   2259903072.8300071        12336258.384119630        1136473827.4721949     
   2158910552.6126699        12923950.737319827        1129294417.9890933     
   2058161748.2730575        14324029.349597931        1126588834.1287153     
   1957656659.8111727        16536494.220973849        1128357075.8910494     
   1857395287.2270224        19561345.351458669        1134599143.2761028     
   1976855464.1281137        10750403.605789423        1212891771.6365862     
   1887618040.1569722        11284987.806330323        1206106407.1858132     
   1798604030.5675611        12564286.612639546        1203901854.5677028     
   1709813435.3598790        14588300.024712086        1206278113.7822502     
   1621246254.5339165        17357028.042522311        1213235184.8294630     
   1694002310.5005224        9222885.3497530222        1287944774.8685746     
   1616825657.6611354        9796063.8633199334        1281529770.3714631     
   1539852117.7074745        11046285.329310238        1279802563.9169548     
   1463081690.6395388        12973549.747716308        1282763155.5050504     
   1386514376.4573348        15577857.118561447        1290411545.1357539     
   1411343611.9472363        7753703.6160049438        1361632837.1681621     
   1346533405.1251533        8457178.9082555771        1355564507.5460413     
   1281906009.6927991        9770025.4995995164        1354290962.1764710     
   1217461425.6501656        11692243.390017271        1357812201.0594487     
   1153199652.9972687        14223832.579549432        1366128224.1949759     
   1128879368.4682517        6342858.4045505524        1433955958.5353525     
   1076741282.5490277        7268332.9411514401        1428210618.7095587     
   1024765706.5235322        8735507.1235113144        1427367049.3462558     
   972952640.39175618        10744380.951609969        1431425250.4454484     
   921302084.15371644        13294954.425484955        1440385222.0071318     
   1857395287.2270224        19561345.351458669        1134599143.2761028     
   1758600863.1730046        23603631.507451296        1127717496.5433679     
   1659943393.8785062        28102433.528512537        1125070312.9337764     
   1561422879.3435118        33057751.414585412        1126657592.4473293     
   1463039319.5680404        38469585.165735364        1132479335.0840185     
   1621246254.5339165        17357028.042522311        1213235184.8294630     
   1533528957.8943686        20933595.224593878        1207091458.5462635     
   1445952779.1203277        24980555.291690648        1205341609.9911945     
   1358517718.2117972        29497908.243819833        1207985639.1642461     
   1271223775.1687822        34485654.081002951        1215023546.0654263     
   1386514376.4573348        15577857.118561447        1290411545.1357539     
   1310329677.5321984        18825346.416664541        1285010596.2590935     
   1234290259.5785716        22557105.619795859        1284162939.7155397     
   1158396122.5964582        26773134.727970243        1287868575.5050924     
   1082647266.5858498        31473433.741168320        1296127503.6277549     
   1153199652.9972687        14223832.579549432        1366128224.1949759     
   1089003022.0864954        17278885.083667815        1361474909.6818454     
   1024955835.2532369        20832084.512833893        1361534302.1068094     
   961058092.49748516        24883430.867018759        1366306401.4698672     
   897309793.81924188        29432924.146241039        1375791207.7710090     
   921302084.15371644        13294954.425484955        1440385222.0071318     
   869548991.55726647        16294211.225630045        1436484398.8145325     
   817949506.14432049        19805491.970789164        1437455697.1650140     
   766503627.91488993        23828796.660995156        1443299117.0585656     
   715211356.86895740        28364125.296197474        1454014658.4951892     
   1463039319.5680404        38469585.165735364        1132479335.0840185     
   1357275584.2899919        42120352.760421634        1125873919.4669199     
   1251673566.6662567        46310179.202819467        1123053282.2018878     
   1146233266.6968484        51039064.492975533        1124017423.2889144     
   1040954684.3817612        56307008.630869567        1128766342.7280073     
   1271223775.1687822        34485654.081002951        1215023546.0654263     
   1175605237.5820899        37246180.151423752        1209887657.6158328     
   1080023708.6769285        40130068.493615627        1208976429.3900540     
   984479188.45329261        43137319.107553124        1212289861.3880823     
   888971676.91118920        46267931.993270606        1219827953.6099310     
   1082647266.5858498        31473433.741168320        1296127503.6277549     
   998430732.03837931        33720759.891698062        1292315648.5440748     
   914126497.19964135        35675751.737998337        1293168335.5559545     
   829734562.06963944        37338409.280091614        1298685564.6634011     
   745254926.64837730        38708732.517983049        1308867335.8664069     
   897309793.81924188        29432924.146241039        1375791207.7710090     
   825752067.65885139        31544091.981223136        1373157892.2516537     
   753981932.23439777        32947228.936000377        1375629000.6996036     
   681999387.54589319        33642335.010607153        1383204533.1148708     
   609804433.59333599        33629410.205034882        1395884489.4974599     
   715211356.86895740        28364125.296197474        1454014658.4951892     
   657569244.44351137        30716176.420011222        1452414388.7385585     
   599590013.78120589        31944500.087629557        1456358424.8209910     
   541273664.88205683        32049096.299098521        1465846766.7424886     
   482620197.74605858        31029965.054409340        1480879414.5030558     
   1040954684.3817612        56307008.630869567        1128766342.7280073     
   923945724.27554440        54835381.483329445        1125842373.7890527     
   804651667.64810133        45746765.931704283        1128865275.1702356     
   683072514.49945116        29041161.976056933        1137835046.8715465     
   559208264.82958269        4718569.6163427532        1152751688.8929861     
   888971676.91118920        46267931.993270606        1219827953.6099310     
   787149731.68101203        44129170.514156103        1217115785.6657305     
   683065473.86266792        34449367.074471414        1220293020.6133337     
   576718903.45616436        17228521.674260348        1229359658.4527354     
   468110020.46148294       -7533365.6865408719        1244315699.1839459     
   745254926.64837730        38708732.517983049        1308867335.8664069     
   658455803.64189696        35853578.911624581        1306393550.1721776     
   569417151.98029220        25533329.788181573        1309751699.9414284     
   478138971.66356844        7747985.1476774812        1318941785.1741588     
   384621262.69171757       -17502455.009917527        1333963805.8703632     
   609804433.59333599        33629410.205034882        1395884489.4974599     
   537863940.15818691        30008606.675709635        1393675667.3084142     
   463706702.00096411        18998654.072799891        1397241313.1545250     
   387332719.12166184        599552.39629150927        1406581427.0357864     
   308741991.52029073       -25188698.353779271        1421696008.9522080     
   482620197.74605858        31029965.054409340        1480879414.5030558     
   425374141.22988451        26594253.806410283        1478962137.0744226     
   365934123.92468059        14845339.928314850        1482761860.2526195     
   304300145.83045179       -4216776.5798663348        1492278584.0376470     
   240472206.94718501       -30592095.718171343        1507512308.4295006     
   559208264.82958269        4718569.6163427532        1152751688.8929861     
   462474722.25577343       -33136603.009169012        1162080001.1200933     
   353737182.31662881       -111005100.18580420        1178954802.6963444     
   232995645.01214886       -228886921.91355455        1203376093.6217458     
   100250110.34232625       -386782068.19244707        1235343873.8962860     
   468110020.46148294       -7533365.6865408719        1244315699.1839459     
   390507440.93185145       -41823415.423534706        1242782567.0571887     
   302751754.15587640       -109957155.98168515        1247596350.3332922     
   204842960.13352436       -211934587.36108088        1258757049.0122812     
   96781058.864829004       -347755709.56163239        1276264663.0941322     
   384621262.69171757       -17502455.009917527        1333963805.8703632     
   322722292.07407230       -49255588.098040894        1323728601.1951933     
   252521104.32905030       -108682778.27741489        1318640737.9766347     
   174017699.45664695       -195784025.54806328        1318700216.2146852     
   87212077.456869796       -310559329.90995634        1323907035.9093361     
   308741991.52029073       -25188698.353779271        1421696008.9522080     
   259119275.68242428       -55433121.032719418        1404918103.5341222     
   203045232.83617142       -107181967.07294711        1392087965.6263719     
   140519862.98151064       -180435236.47453326        1383205595.2289548     
   71543166.118457735       -275192929.23742944        1378270992.3418753     
   240472206.94718501       -30592095.718171343        1507512308.4295006     
   199698391.75691211       -60356014.227550551        1486351074.0739703     
   154324139.67722785       -105454722.36830375        1467938033.2825048     
   104349450.70811269       -165888220.14048630        1452273186.0551097     
   49774324.849596664       -241656507.54401061        1439356532.3917830     
   100250110.34232625       -386782068.19244707        1235343873.8962860     
   85372231.316407233       -546620822.46320677        1196752603.2379537     
   57902368.544791758       -748432855.88628232        1154805128.8317680     
   17840522.027497590       -992218168.46160913        1109501450.6777101     
  -34813308.235474110       -1277976760.1892109        1060841568.7758012     
   96781058.864829004       -347755709.56163239        1276264663.0941322     
   79832635.787437350       -488910782.43080986        1221955157.1354825     
   51497983.170028210       -668019953.76672053        1165097509.9462633     
   11777101.012610257       -885083223.56934536        1105691721.5264847     
  -39330010.684842229       -1140100591.8387020        1043737791.8761699     
   87212077.456869796       -310559329.90995634        1323907035.9093361     
   70501860.377459198       -432338096.36270869        1255286007.8902829     
   43611167.963694870       -588051780.59664142        1184924901.1579897     
   6540000.2155781090       -777700382.61173797        1112823715.7124357     
  -40711642.866878450       -1001283902.4079931        1038982451.5536366     
   71543166.118457735       -275192929.23742944        1378270992.3418753     
   57379905.086466506       -376902764.25892186        1296745155.5023906     
   34241922.925790548       -508528336.37602770        1214287302.4669578     
   2129219.6364322901       -670069645.58875155        1130897433.2355711     
  -38958204.781619638       -861526691.89710259        1046575547.8082469     
   49774324.849596664       -241656507.54401061        1439356532.3917830     
   40466769.914469838       -322604786.11940962        1346332599.9717865     
   23390248.056315541       -429449621.10489196        1253184713.8731532     
  -1455240.7248501480       -562191012.50041771        1159912874.0958784     
  -34069696.429031968       -720828960.30600011        1066517080.6399615     
   1535183918.4821701        7144038.7804607749        1438962725.6002526     
   1479715039.7771430        5822757.7528358698        1429791418.0640550     
   1424158241.4232035        4208411.2288283706        1426157272.6531003     
   1368513523.4203551        2300999.2084607482        1428060289.3673906     
   1312780885.7685893        100521.69170236588        1435500468.2069182     
   1147358443.9739418        4149167.8656948805        1461817410.1927412     
   1106274778.1121848        3313610.3937895894        1453436139.8157988     
   1065125172.0418268        2258252.2265506387        1450471165.6032660     
   1023909625.7628683        983093.36397492886        1452922487.5551529     
   982628139.27531052       -511866.19393056631        1460790105.6714463     
   762219317.24632311        1960201.2851100862        1483186257.9461088     
   735175532.91118443        1506767.9739313722        1475620667.4087789     
   708087787.80775833        906798.76846039295        1473350507.0750363     
   680956081.93604410        160293.66869616508        1476375776.9448807     
   653780415.29604542       -732747.32535111904        1484696477.0183101     
   379766538.29931420        577139.03870825469        1503069268.8603442     
   366417304.17414439        402230.49325834215        1496345000.8429947     
   353046088.72099888        154050.85455870628        1494795297.0684044     
   339652891.93988001       -167399.87738539279        1498420157.5365739     
   326237713.83078676       -562121.70257888734        1507219582.2475016     
   107.13291618305007       -18.873508662513657        1521466442.9354484     
   91.901065146172186       -2.0482197439939753        1515609140.1184456     
   74.781551784308675        8.4848607306842183        1514805535.5833762     
   55.774374015791359        12.725725475682335        1519055629.3302348     
   34.879540922183594        10.674407191491042        1528359421.3590255     
   1312780885.7685893        100521.69170236588        1435500468.2069182     
   1266566356.4165702        863939.11346554756        1428103239.4647858     
   1220511260.4158468        2158801.0395472050        1425380078.2721500     
   1174615597.7664027        3985107.4698939919        1427330984.6290064     
   1128879368.4682517        6342858.4045505524        1433955958.5353525     
   982628139.27531052       -511866.19393056631        1460790105.6714463     
   948413687.10259438        194630.58509427309        1453960304.1752779     
   914318809.89175272        1299710.5703687668        1451700399.2620170     
   880343507.64279103        2803373.7619092464        1454010390.9316707     
   846487780.35570908        4705620.1597150564        1460890279.1842332     
   653780415.29604542       -732747.32535111904        1484696477.0183101     
   631268408.96953464       -172460.58901301026        1478387601.3137884     
   608836119.21549284        653548.05555436015        1476544451.2255950     
   586483546.03391814        1745278.6083462238        1479167026.7537303     
   564210689.42481554        3102731.0693776608        1486255327.8981953     
   326237713.83078676       -562121.70257888734        1507219582.2475016     
   315130522.01739210       -237334.40885137022        1501385130.8803174     
   304063188.38705826        220313.49507899582        1499912234.1628809     
   293035712.93978167        810822.00920073688        1502800892.0951915     
   282048095.67556769        1534191.1335305870        1510051104.6772494     
   34.879540922183594        10.674407191491042        1528359421.3590255     
   26.246175242319048        9.1256079387231104        1522952892.8748667     
   17.406454345657586        6.8889586571881969        1521803748.0738759     
   8.3603857582302954        3.9644830458777909        1524911986.9560480     
 -0.89203077159304434       0.35218165380327737        1532277609.5213857     
   1128879368.4682517        6342858.4045505524        1433955958.5353525     
   1076741282.5490277        7268332.9411514401        1428210618.7095587     
   1024765706.5235322        8735507.1235113144        1427367049.3462558     
   972952640.39175618        10744380.951609969        1431425250.4454484     
   921302084.15371644        13294954.425484955        1440385222.0071318     
   846487780.35570908        4705620.1597150564        1460890279.1842332     
   807088065.45766890        5310880.6950484812        1455385459.6873474     
   767810233.01806760        6322416.0918464363        1454851512.2061002     
   728654283.03691697        7740226.3501449525        1459288436.7404823     
   689620215.51420081        9564311.4698928297        1468696233.2904963     
   564210689.42481554        3102731.0693776608        1486255327.8981953     
   537746778.55693102        3447007.5061368048        1480943630.0557263     
   511364122.71220326        4062134.0200848877        1480671905.7820299     
   485062721.89063525        4948110.6112305224        1485440155.0771081     
   458842576.09222406        6104937.2795690894        1495248377.9409595     
   282048095.67556769        1534191.1335305870        1510051104.6772494     
   268717421.84681052        1676713.3744012564        1504885129.8146925     
   255427375.60593107        1954660.9081993401        1504828230.0740557     
   242177956.95292097        2368033.7348946184        1509880405.4553273     
   228969165.88778895        2916831.8545178175        1520041655.9585164     
 -0.89203077159304434       0.35218165380327737        1532277609.5213857     
  -4.6726857731090661       -1.7001337608797455        1527209958.9642506     
  -8.3007547721838613       -3.2438277796465642        1527320485.0821669     
  -11.776232210077145       -4.2788839550310787        1532609187.8751380     
  -15.099117011641626       -4.8052980093195750        1543076067.3431652     
   921302084.15371644        13294954.425484955        1440385222.0071318     
   869548991.55726647        16294211.225630045        1436484398.8145325     
   817949506.14432049        19805491.970789164        1437455697.1650140     
   766503627.91488993        23828796.660995156        1443299117.0585656     
   715211356.86895740        28364125.296197474        1454014658.4951892     
   689620215.51420081        9564311.4698928297        1468696233.2904963     
   650396851.23060834        11691190.762521356        1465316361.3191428     
   611288692.31349146        14202087.943403780        1466903938.2394114     
   572295738.76285601        17097003.012557834        1473458964.0513079     
   533417990.57869363        20375935.969953358        1484981438.7548313     
   458842576.09222406        6104937.2795690894        1495248377.9409595     
   432421303.97449225        7441148.2205668688        1492344655.0709753     
   406076835.40621477        9033370.9930783212        1494503708.4411719     
   379809170.38738292        10881605.597075567        1501725538.0515473     
   353618308.91800344        12985852.032577962        1514010143.9021108     
   228969165.88778895        2916831.8545178175        1520041655.9585164     
   215622349.78892583        3544083.5997848362        1517569280.0700393     
   202313935.42249238        4299341.1198153868        1520255007.7702954     
   189043922.78847781        5182604.4145769700        1528098839.0592868     
   175812311.88688529        6193873.4840792045        1541100773.9370070     
  -15.099117011641626       -4.8052980093195750        1543076067.3431652     
  -11.326097660479363       -3.0998443281113919        1540990236.3163278     
  -7.6376711274154445       -1.6763674011204217        1544157836.2267790     
  -4.0338676309515673      -0.53496726279625217        1552578867.0745156     
 -0.51466276295653635       0.32443814118781977        1566253328.8595417     
   715211356.86895740        28364125.296197474        1454014658.4951892     
   657569244.44351137        30716176.420011222        1452414388.7385585     
   599590013.78120589        31944500.087629557        1456358424.8209910     
   541273664.88205683        32049096.299098521        1465846766.7424886     
   482620197.74605858        31029965.054409340        1480879414.5030558     
   533417990.57869363        20375935.969953358        1484981438.7548313     
   490044864.97434133        22097511.855155975        1483751330.2467241     
   446418900.69836819        22976292.168289170        1488098553.8939171     
   402540097.75076580        23012276.909322485        1498023109.6964087     
   358408456.13154083        22205466.078285024        1513524997.6542006     
   353618308.91800344        12985852.032577962        1514010143.9021108     
   324608531.03828502        14105260.950274840        1513248522.8019485     
   295430194.05216032        14662806.179945216        1518097260.1733251     
   266083297.95963135        14658487.721603647        1528556356.0162334     
   236567842.76070061        14092305.575253986        1544625810.3306777     
   175812311.88688529        6193873.4840792045        1541100773.9370070     
   161260242.63532442        6739423.7053090781        1540905966.4042242     
   146623893.84257513        7004042.1225776374        1546354543.6592097     
   131903265.50865188        6987728.7359328195        1557446505.7019653     
   117098357.63354190        6690483.5453323983        1574181852.5324941     
 -0.51466276295653635       0.32443814118781977        1566253328.8595417     
 -0.23453720650583060       0.12026968249151331        1566723661.0535562     
   6.9621963871713391E-002  -3.7853420032185232E-003   1572870404.3515775     
  0.39782403561870544       -4.7698749711904437E-002   1584693558.7536004     
  0.75006603492347235       -1.1477677782559925E-002   1602193124.2596312     
   482620197.74605858        31029965.054409340        1480879414.5030558     
   425374141.22988451        26594253.806410283        1478962137.0744226     
   365934123.92468059        14845339.928314850        1482761860.2526195     
   304300145.83045179       -4216776.5798663348        1492278584.0376470     
   240472206.94718501       -30592095.718171343        1507512308.4295006     
   358408456.13154083        22205466.078285024        1513524997.6542006     
   316203610.81239718        19097591.757700786        1510112815.4762828     
   272353294.90362388        10504815.471686080        1512247371.2444620     
   226857508.40523827       -3572862.7796998620        1519928664.9587393     
   179716251.31723014       -23135442.996502496        1533156696.6191211     
   236567842.76070061        14092305.575253986        1544625810.3306777     
   208917743.89364174        12166328.758577578        1540358628.6361163     
   180170664.63637710        6583750.6412152499        1541467922.2269197     
   150326604.98889351       -2655428.7768789828        1547953691.1030991     
   119385564.95119865       -15551209.495673269        1559815935.2646482     
   117098357.63354190        6690483.5453323983        1574181852.5324941     
   103516540.47363824        5800464.8091032393        1569699576.5539219     
   89386233.122935832        3082145.4368785843        1570423513.1999943     
   74707435.581421092       -1464474.5713866390        1576353662.4707108     
   59480147.849102810       -7839395.2156650275        1587490024.3660748     
  0.75006603492347235       -1.1477677782559925E-002   1602193124.2596312     
  0.55237334852651510       -9.0762836806752123E-002   1598135659.2297013     
  0.36329904286390358      -0.14132006004979208        1599114144.1636879     
  0.18281504972853851      -0.16324186736792490        1605128579.0615890     
   1.0941888420964350E-002 -0.15646298359492597        1616178963.9234066     
   240472206.94718501       -30592095.718171343        1507512308.4295006     
   199698391.75691211       -60356014.227550551        1486351074.0739703     
   154324139.67722785       -105454722.36830375        1467938033.2825048     
   104349450.70811269       -165888220.14048630        1452273186.0551097     
   49774324.849596664       -241656507.54401061        1439356532.3917830     
   179716251.31723014       -23135442.996502496        1533156696.6191211     
   148463480.60841176       -45660104.657325506        1507526474.9346247     
   113760382.23133475       -79685858.545677379        1484801342.3221233     
   75606956.186001003       -125212704.66155088        1464981298.7816300     
   34003202.472413465       -182240643.00493848        1448066344.3131318     
   119385564.95119865       -15551209.495673269        1559815935.2646482     
   98102111.603640765       -30702132.444008291        1531058520.3425386     
   74518439.808986068       -53520450.215995193        1505363090.0003574     
   48634549.567241035       -84006162.811616808        1482729644.2381146     
   20450440.878401220       -122159270.23088846        1463158183.0557985     
   59480147.849102810       -7839395.2156650275        1587490024.3660748     
   48614284.742613181       -15482097.587558080        1556947210.2977087     
   36598312.410188265       -26958497.379234005        1529623276.3172100     
   23432230.851830598       -42268594.590687782        1505518222.4245794     
   9116040.0675385594       -61412389.221920192        1484632048.6198051     
   1.0941888420964350E-002 -0.15646298359492597        1616178963.9234066     
   2.5325986729019957E-002  -8.7982414394298353E-002   1585192544.8001420     
   3.4930254659422538E-002  -3.5432531451009650E-002   1557581901.2726767     
   3.9782485913578407E-002   1.2761884040377851E-003   1533347033.3410053     
   3.9851455468919994E-002   2.2040702596370920E-002   1512487941.0051293     
   49774324.849596664       -241656507.54401061        1439356532.3917830     
   40466769.914469838       -322604786.11940962        1346332599.9717865     
   23390248.056315541       -429449621.10489196        1253184713.8731532     
  -1455240.7248501480       -562191012.50041771        1159912874.0958784     
  -34069696.429031968       -720828960.30600011        1066517080.6399615     
   34003202.472413465       -182240643.00493848        1448066344.3131318     
   29842826.871240780       -242105764.75338846        1347558983.8628185     
   19855726.077588439       -321393303.81009978        1246269601.9264338     
   4041900.0914420187       -420103260.17512047        1144198198.5039761     
  -17598651.087175876       -538235633.84838927        1041344773.5954471     
   20450440.878401220       -122159270.23088846        1463158183.0557985     
   19557050.875661030       -161505293.27305257        1357433343.2607906     
   14779177.410978287       -213799594.52169254        1250268414.1722894     
   6116820.4843453318       -279042173.97683328        1141663395.7902734     
  -6430019.9042302817       -357233031.63845152        1031618288.1147585     
   9116040.0675385594       -61412389.221920192        1484632048.6198051     
   9609441.9277218804       -80803371.678427771        1375955678.1657302     
   8160602.0564906299       -106668493.23964521        1265181150.6107240     
   4769520.4538465738       -139007753.90556991        1152308465.9547839     
  -563802.88020393252       -177821153.67618957        1037337624.1979008     
   3.9851455468919994E-002   2.2040702596370920E-002   1512487941.0051293     
   2.7419001135498732E-002   3.0474569754137756E-002   1403125988.5776205     
   1.4125468194393264E-002   3.6038868775680959E-002   1291007811.2417357     
  -4.8267251001904432E-005   3.8671241117763010E-002   1176133408.9974864     
  -1.5092689003332842E-002   3.8397856323107202E-002   1058502781.8448688     
   107.13291618305007       -18.873508662513657        1521466442.9354484     
   91.901065146172186       -2.0482197439939753        1515609140.1184456     
   74.781551784308675        8.4848607306842183        1514805535.5833762     
   55.774374015791359        12.725725475682335        1519055629.3302348     
   34.879540922183594        10.674407191491042        1528359421.3590255     
  -379766318.19146764       -577153.94730155170        1503069287.9066057     
  -366417116.74198735       -402220.12364992499        1496345015.1950693     
  -353045937.10278076       -154025.66758365929        1494795306.9568503     
  -339652779.27385294        167429.42088946700        1498420163.1919494     
  -326237643.25520295        562145.14177183807        1507219583.9003644     
  -762219093.51517224       -1960194.0208889842        1483186292.7020955     
  -735175343.40897012       -1506743.6062533855        1475620693.5196409     
  -708087635.03566074       -906765.63459062576        1473350525.0018892     
  -680955968.39524221       -160260.10590025783        1476375787.1488407     
  -653780343.48771620        732772.97981566191        1484696479.9604931     
  -1147358218.8381963       -4149139.0942739844        1461817457.3219144     
  -1106274588.0998883       -3313572.4960420132        1453436175.0921633     
  -1065125019.0170860       -2258211.4161603451        1450471189.7184935     
  -1023909511.5897915       -983055.85464382172        1452922501.2009132     
  -982628065.81800520        511894.18851840496        1460790109.5394208     
  -1535183694.1605415       -7143989.1674535871        1438962781.7660747     
  -1479714850.8147395       -5822706.7930071950        1429791459.9126310     
  -1424158089.0470583       -4208363.0122966766        1426157301.1066608     
  -1368513408.8574975       -2300957.8253224492        1428060305.3481653     
  -1312780810.2460628       -100491.23209935427        1435500472.6371424     
   34.879540922183594        10.674407191491042        1528359421.3590255     
   26.246175242319048        9.1256079387231104        1522952892.8748667     
   17.406454345657586        6.8889586571881969        1521803748.0738759     
   8.3603857582302954        3.9644830458777909        1524911986.9560480     
 -0.89203077159304434       0.35218165380327737        1532277609.5213857     
  -326237643.25520295        562145.14177183807        1507219583.9003644     
  -315130469.05529290        237353.81999801099        1501385132.2170570     
  -304063153.37282342       -220299.22658067942        1499912235.1314845     
  -293035696.20779520       -810813.99796186388        1502800892.6436441     
  -282048097.56020898       -1534190.4941500127        1510051104.7535369     
  -653780343.48771620        732772.97981566191        1484696479.9604931     
  -631268355.27004933        172481.24041321874        1478387603.7150989     
  -608836083.88091397       -653533.26076003909        1476544452.9820068     
  -586483529.32031071       -1745270.5237070322        1479167027.7612157     
  -564210691.58823955       -3102730.5484274030        1486255328.0527253     
  -982628065.81800520        511894.18851840496        1460790109.5394208     
  -948413632.39809942       -194608.61315882206        1453960307.3690002     
  -914318774.11782014       -1299695.2135893703        1451700401.6254487     
  -880343490.97716331       -2803365.6127600670        1454010392.3087645     
  -846487782.97612548       -4705619.8106613755        1460890279.4189508     
  -1312780810.2460628       -100491.23209935427        1435500472.6371424     
  -1266566300.4394460       -863915.74072968960        1428103243.1787560     
  -1220511224.0835371       -2158785.0850518346        1425380081.0618072     
  -1174615581.1783481       -3985099.2651085854        1427330986.2862937     
  -1128879371.7238679       -6342858.2808589935        1433955958.8522182     
 -0.89203077159304434       0.35218165380327737        1532277609.5213857     
  -4.6726857731090661       -1.7001337608797455        1527209958.9642506     
  -8.3007547721838613       -3.2438277796465642        1527320485.0821669     
  -11.776232210077145       -4.2788839550310787        1532609187.8751380     
  -15.099117011641626       -4.8052980093195750        1543076067.3431652     
  -282048097.56020898       -1534190.4941500127        1510051104.7535369     
  -268717431.30828077       -1676716.8673112988        1504885130.1710775     
  -255427392.35756224       -1954667.5778393298        1504828230.7049735     
  -242177980.70804873       -2368042.6257160455        1509880406.3552341     
  -228969196.35974252       -2916842.0109521002        1520041657.1218512     
  -564210691.58823955       -3102730.5484274030        1486255328.0527253     
  -537746788.32857192       -3447011.1498943567        1480943630.7488458     
  -511364139.82390881       -4062140.9347122312        1480671907.0026300     
  -485062746.07425022       -4948119.9028735161        1485440156.8140793     
  -458842607.07959193       -6104948.0543750226        1495248380.1831918     
  -846487782.97612548       -4705619.8106613755        1460890279.4189508     
  -807088075.73355949       -5310884.5478830338        1455385460.6975560     
  -767810250.69979835       -6322423.3144548237        1454851513.9751294     
  -728654307.87483454       -7740236.1103475392        1459288439.2516696     
  -689620247.25866628       -9564322.9355646372        1468696236.5271842     
  -1128879371.7238679       -6342858.2808589935        1433955958.8522182     
  -1076741293.5232470       -7268337.0612884164        1428210620.0172088     
  -1024765724.9852241       -8735514.7170475721        1427367051.6224747     
  -972952666.10979784       -10744391.248127580        1431425253.6680183     
  -921302116.89696836       -13294966.654529214        1440385226.1538329     
  -15.099117011641626       -4.8052980093195750        1543076067.3431652     
  -11.326097660479363       -3.0998443281113919        1540990236.3163278     
  -7.6376711274154445       -1.6763674011204217        1544157836.2267790     
  -4.0338676309515673      -0.53496726279625217        1552578867.0745156     
 -0.51466276295653635       0.32443814118781977        1566253328.8595417     
  -228969196.35974252       -2916842.0109521002        1520041657.1218512     
  -215622372.75805992       -3544090.5168864876        1517569280.9779809     
  -202313951.01783308       -4299345.2276703939        1520255008.4291914     
  -189043931.13906100       -5182606.1433029175        1528098839.4754882     
  -175812313.12174702       -6193873.2637986019        1541100774.1168611     
  -458842607.07959193       -6104948.0543750226        1495248380.1831918     
  -432421327.48412287       -7441155.9221705198        1492344656.8492949     
  -406076851.52695394       -9033375.9176340103        1494503709.7682745     
  -379809179.20809770       -10881608.040808141        1501725538.9401293     
  -353618310.52754605       -12985852.291659757        1514010144.3648636     
  -689620247.25866628       -9564322.9355646372        1468696236.5271842     
  -650396875.50427938       -11691199.315680087        1465316363.9302702     
  -611288709.16504633       -14202093.746305943        1466903940.2440286     
  -572295748.24096870       -17097006.227448702        1473458965.4684556     
  -533417992.73205400       -20375936.759138584        1484981439.6035557     
  -921302116.89696836       -13294966.654529214        1440385226.1538329     
  -869549016.81853485       -16294220.697419405        1436484402.2209051     
  -817949523.93210530       -19805498.713661134        1437455699.8564458     
  -766503638.23768163       -23828800.703255147        1443299119.0604496     
  -715211359.73526895       -28364126.666216224        1454014659.8329217     
 -0.51466276295653635       0.32443814118781977        1566253328.8595417     
 -0.23453720650583060       0.12026968249151331        1566723661.0535562     
   6.9621963871713391E-002  -3.7853420032185232E-003   1572870404.3515775     
  0.39782403561870544       -4.7698749711904437E-002   1584693558.7536004     
  0.75006603492347235       -1.1477677782559925E-002   1602193124.2596312     
  -175812313.12174702       -6193873.2637986019        1541100774.1168611     
  -161260243.22919104       -6739423.6359437257        1540905966.5689681     
  -146623893.77027443       -7004042.1202173829        1546354543.8115437     
  -131903264.74500038       -6987728.7166350707        1557446505.8445976     
  -117098356.15336344       -6690483.4251747653        1574181852.6681285     
  -353618310.52754605       -12985852.291659757        1514010144.3648636     
  -324608531.91835570       -14105261.100522056        1513248523.2077677     
  -295430194.20048440       -14662806.213777617        1518097260.5276129     
  -266083297.37392664       -14658487.631412148        1528556356.3244107     
  -236567841.43868366       -14092305.353429087        1544625810.5981498     
  -533417992.73205400       -20375936.759138584        1484981439.6035557     
  -490044866.30202472       -22097512.273449183        1483751330.9699616     
  -446418901.22099036       -22976292.284406275        1488098554.4997849     
  -402540097.48895139       -23012276.792016983        1498023110.1930280     
  -358408455.10590190       -22205465.796257794        1513524998.0496881     
  -715211359.73526895       -28364126.666216224        1454014659.8329217     
  -657569246.38019681       -30716177.154713899        1452414389.8555472     
  -599590014.83180022       -31944500.332134396        1456358425.7280591     
  -541273665.09007299       -32049096.198447973        1465846767.4504588     
  -482620197.15501004       -31029964.753646865        1480879415.0227528     
  0.75006603492347235       -1.1477677782559925E-002   1602193124.2596312     
  0.55237334852651510       -9.0762836806752123E-002   1598135659.2297013     
  0.36329904286390358      -0.14132006004979208        1599114144.1636879     
  0.18281504972853851      -0.16324186736792490        1605128579.0615890     
   1.0941888420964350E-002 -0.15646298359492597        1616178963.9234066     
  -117098356.15336344       -6690483.4251747653        1574181852.6681285     
  -103516539.38010657       -5800464.8567165621        1569699576.6649294     
  -89386232.400125995       -3082145.5991765186        1570423513.2952206     
  -74707435.213424534        1464474.3474320173        1576353662.5589950     
  -59480147.819996580        7839394.9831282236        1587490024.4562674     
  -236567841.43868366       -14092305.353429087        1544625810.5981498     
  -208917742.92428079       -12166328.706198558        1540358628.8528237     
  -180170664.00502682       -6583750.7094673961        1541467922.4105515     
  -150326604.68093497        2655428.6367250755        1547953691.2713490     
  -119385564.95199794        15551209.332403906        1559815935.4352016     
  -358408455.10590190       -22205465.796257794        1513524998.0496881     
  -316203610.08013386       -19097591.639160901        1510112815.7933722     
  -272353294.45140904       -10504815.472206846        1512247371.5096869     
  -226857508.21971643        3572862.7046399266        1519928665.1986368     
  -179716251.38506275        23135442.891355537        1533156696.8602242     
  -482620197.15501004       -31029964.753646865        1480879415.0227528     
  -425374140.84768397       -26594253.655665681        1478962137.4865878     
  -365934123.73926747       -14845339.887382507        1482761860.5926259     
  -304300145.82976973        4216776.5511715710        1492278584.3408718     
  -240472207.11919326        30592095.659987479        1507512308.7313282     
   1.0941888420964350E-002 -0.15646298359492597        1616178963.9234066     
   2.5325986729019957E-002  -8.7982414394298353E-002   1585192544.8001420     
   3.4930254659422538E-002  -3.5432531451009650E-002   1557581901.2726767     
   3.9782485913578407E-002   1.2761884040377851E-003   1533347033.3410053     
   3.9851455468919994E-002   2.2040702596370920E-002   1512487941.0051293     
  -59480147.819996580        7839394.9831282236        1587490024.4562674     
  -48614284.688795216        15482097.467872124        1556947210.3660147     
  -36598312.339472741        26958497.346352354        1529623276.3660707     
  -23432230.772012148        42268594.618628554        1505518222.4564347     
  -9116039.9864168875        61412389.284685954        1484632048.6371117     
  -119385564.95199794        15551209.332403906        1559815935.4352016     
  -98102111.576807037        30702132.371547818        1531058520.4713426     
  -74518439.760591507        53520450.214110017        1505363090.0923133     
  -48634549.503332213        84006162.860150144        1482729644.2980981     
  -20450440.805049337        122159270.30960198        1463158183.0887070     
  -179716251.38506275        23135442.891355537        1533156696.8602242     
  -148463480.63870773        45660104.623052694        1507526475.1161506     
  -113760382.22841990        79685858.567857698        1484801342.4514065     
  -75606956.154194415        125212704.72578901        1464981298.8660007     
  -34003202.416038737        182240643.09682095        1448066344.3599226     
  -240472207.11919326        30592095.659987479        1507512308.7313282     
  -199698391.87448984        60356014.222409785        1486351074.3004174     
  -154324139.74295726        105454722.40760101        1467938033.4433506     
  -104349450.72458468        165888220.21558982        1452273186.1601319     
  -49774324.819381535        241656507.64634717        1439356532.4507563     
   3.9851455468919994E-002   2.2040702596370920E-002   1512487941.0051293     
   2.7419001135498732E-002   3.0474569754137756E-002   1403125988.5776205     
   1.4125468194393264E-002   3.6038868775680959E-002   1291007811.2417357     
  -4.8267251001904432E-005   3.8671241117763010E-002   1176133408.9974864     
  -1.5092689003332842E-002   3.8397856323107202E-002   1058502781.8448688     
  -9116039.9864168875        61412389.284685954        1484632048.6371117     
  -9609441.8715298511        80803371.754927680        1375955678.1786060     
  -8160602.0261311084        106668493.32687891        1265181150.6198318     
  -4769520.4502279311        139007754.00051335        1152308465.9608037     
   563802.85618678480        177821153.77584562        1037337624.2014928     
  -20450440.805049337        122159270.30960198        1463158183.0887070     
  -19557050.825404689        161505293.36288965        1357433343.2858181     
  -14779177.383875042        213799594.62245941        1250268414.1907778     
  -6116820.4804474264        279042174.08835351        1141663395.8035722     
   6430019.8848521113        357233031.76049578        1031618288.1241945     
  -34003202.416038737        182240643.09682095        1448066344.3599226     
  -29842826.834196821        242105764.85438311        1347558983.8992729     
  -19855726.059090108        321393303.92282528        1246269601.9545498     
  -4041900.0907169580        420103260.30216032        1144198198.5257781     
   17598651.070921838        538235633.99237394        1041344773.6129556     
  -49774324.819381535        241656507.64634717        1439356532.4507563     
  -40466769.897906333        322604786.22940797        1346332600.0189435     
  -23390248.051800221        429449621.22790587        1253184713.9111691     
   1455240.7189762890        562191012.64197016        1159912874.1274440     
   34069696.414382488        720828960.47146940        1066517080.6677752     
  -1535183694.1605415       -7143989.1674535871        1438962781.7660747     
  -1479714850.8147395       -5822706.7930071950        1429791459.9126310     
  -1424158089.0470583       -4208363.0122966766        1426157301.1066608     
  -1368513408.8574975       -2300957.8253224492        1428060305.3481653     
  -1312780810.2460628       -100491.23209935427        1435500472.6371424     
  -1923851840.8346660       -30101573.026426077        1353648773.7373049     
  -1852327749.6603711       -19419208.171287537        1348585685.5992420     
  -1781488786.2935548       -11020602.674404144        1348175375.2477710     
  -1711334950.7342157       -4905756.5357859135        1352417842.6828904     
  -1641866242.9823554       -1074669.7554273605        1361313087.9046023     
  -2298523420.4018707       -48860186.753327608        1270533597.0854573     
  -2213470896.4301729       -29574783.926818728        1268676855.3951912     
  -2129876546.4953091       -15149961.223089457        1270588506.2306404     
  -2047740370.5972805       -5585718.6421450377        1276268549.5917947     
  -1967062368.7360868       -882056.18398225307        1285716985.4786615     
  -2659198432.8621483       -63419830.348148704        1189617251.8105330     
  -2563144291.1241446       -36289434.059602737        1190064969.3004858     
  -2469321369.6523237       -16596438.658354163        1193396694.0552680     
  -2377729668.4466963       -4340844.1444103718        1199612426.0748768     
  -2288369187.5072598        477349.48223137856        1208712165.3593121     
  -3005876878.2155094       -73780503.810894608        1110899737.9125352     
  -2901347933.7422786       -39563158.569635391        1112750027.3151228     
  -2799823255.7645979       -15360034.980192661        1116599938.7216563     
  -2701302844.2824626       -1171133.0425821543        1122449472.1321361     
  -2605786699.2958746        3003547.2432091236        1130298627.5465615     
  -1312780810.2460628       -100491.23209935427        1435500472.6371424     
  -1266566300.4394460       -863915.74072968960        1428103243.1787560     
  -1220511224.0835371       -2158785.0850518346        1425380081.0618072     
  -1174615581.1783481       -3985099.2651085854        1427330986.2862937     
  -1128879371.7238679       -6342858.2808589935        1433955958.8522182     
  -1641866242.9823554       -1074669.7554273605        1361313087.9046023     
  -1584010507.2236450       -1994164.9641091228        1354917917.7328238     
  -1526304824.1350923       -3413835.7399895787        1352839485.7289224     
  -1468749193.7167101       -5333682.0831020474        1355077791.8928998     
  -1411343615.9684861       -7753703.9934096336        1361632836.2247579     
  -1967062368.7360868       -882056.18398225307        1285716985.4786615     
  -1898586347.5211623       -2263904.2414858341        1280334818.8374610     
  -1830250998.1958487       -4114658.5976943970        1278912061.1905818     
  -1762056320.7601531       -6434319.2526230812        1281448712.5380228     
  -1694002315.2140677       -9222886.2062577009        1287944772.8797860     
  -2288369187.5072598        477349.48223137856        1208712165.3593121     
  -2210293821.3319998       -1673133.5728541613        1204353946.4926705     
  -2132349746.2658029       -4261253.6581518650        1203597807.4467854     
  -2054536962.3086720       -7287010.7736653090        1206443748.2216682     
  -1976855469.4605992       -10750404.919384718        1212891768.8173134     
  -2605786699.2958746        3003547.2432091236        1130298627.5465615     
  -2519132928.6561580       -221852.95822393894        1126975300.6984460     
  -2432601068.3449578       -3853620.9213711023        1126896724.4975352     
  -2346191118.3622708       -7891756.6462336779        1130062898.9438334     
  -2259903078.7080979       -12336260.132808805        1136473824.0373323     
  -1128879371.7238679       -6342858.2808589935        1433955958.8522182     
  -1076741293.5232470       -7268337.0612884164        1428210620.0172088     
  -1024765724.9852241       -8735514.7170475721        1427367051.6224747     
  -972952666.10979784       -10744391.248127580        1431425253.6680183     
  -921302116.89696836       -13294966.654529214        1440385226.1538329     
  -1411343615.9684861       -7753703.9934096336        1361632836.2247579     
  -1346533416.8088694       -8457183.0661169291        1355564507.8359365     
  -1281906028.8818164       -9770032.9140442014        1354290963.6581345     
  -1217461452.1873360       -11692253.537209928        1357812203.6913507     
  -1153199686.7254181       -14223844.935583532        1366128227.9355848     
  -1694002315.2140677       -9222886.2062577009        1287944772.8797860     
  -1616825670.0361848       -9796068.0534552336        1281529769.7721930     
  -1539852137.6608391       -11046292.575773895        1279802564.6463578     
  -1463081718.0880318       -12973559.773223042        1282763157.5022848     
  -1386514411.3177671       -15577869.645804346        1290411548.3399725     
  -1976855469.4605992       -10750404.919384718        1212891768.8173134     
  -1887618053.2051926       -11284992.023296833        1206106405.8259773     
  -1798604051.3222911       -12564293.702235341        1203901854.5871434     
  -1709813463.8118975       -14588309.956202149        1206278115.1008115     
  -1621246290.6740122       -17357040.785182357        1213235187.3669858     
  -2259903078.7080979       -12336260.132808805        1136473824.0373323     
  -2158910566.3158956       -12923954.975654006        1129294415.9972878     
  -2058161769.8661687       -14324036.293415427        1126588833.4804926     
  -1957656689.3589258       -16536504.086121798        1128357076.4869425     
  -1857395324.7941589       -19561358.353750706        1134599145.0166373     
  -921302116.89696836       -13294966.654529214        1440385226.1538329     
  -869549016.81853485       -16294220.697419405        1436484402.2209051     
  -817949523.93210530       -19805498.713661134        1437455699.8564458     
  -766503638.23768163       -23828800.703255147        1443299119.0604496     
  -715211359.73526895       -28364126.666216224        1454014659.8329217     
  -1153199686.7254181       -14223844.935583532        1366128227.9355848     
  -1089003048.3066843       -17278894.955607533        1361474912.6589766     
  -1024955853.9358426       -20832091.801936865        1361534304.3780859     
  -961058103.61288762       -24883435.474556684        1366306403.0929167     
  -897309797.33782268       -29432925.973481357        1375791208.8034563     
  -1386514411.3177671       -15577869.645804346        1290411548.3399725     
  -1310329704.7665942       -18825356.705337048        1285010598.7211547     
  -1234290279.1191916       -22557113.444102764        1284162941.5253065     
  -1158396134.3755589       -26773139.862101138        1287868576.7524295     
  -1082647270.5356984       -31473435.959339738        1296127504.4025154     
  -1621246290.6740122       -17357040.785182357        1213235187.3669858     
  -1533528986.1982579       -20933605.946592748        1207091460.4074378     
  -1445952799.4821544       -24980563.640162706        1205341611.2981067     
  -1358517730.5256996       -29497913.865891516        1207985640.0389969     
  -1271223779.3288929       -34485656.623792112        1215023546.6301050     
  -1857395324.7941589       -19561358.353750706        1134599145.0166373     
  -1758600892.6016753       -23603642.679367900        1127717497.7178271     
  -1659943415.0247240       -28102442.390094817        1125070313.6964860     
  -1561422892.0632989       -33057757.485906839        1126657592.9526145     
  -1463039323.7174103       -38469587.966841400        1132479335.4862173     
  -715211359.73526895       -28364126.666216224        1454014659.8329217     
  -657569246.38019681       -30716177.154713899        1452414389.8555472     
  -599590014.83180022       -31944500.332134396        1456358425.7280591     
  -541273665.09007299       -32049096.198447973        1465846767.4504588     
  -482620197.15501004       -31029964.753646865        1480879415.0227528     
  -897309797.33782268       -29432925.973481357        1375791208.8034563     
  -825752070.18457651       -31544093.041712642        1373157893.0839300     
  -753981933.81821072       -32947229.399557263        1375629001.3391984     
  -681999388.23874998       -33642335.047077209        1383204533.5692713     
  -609804433.44617462       -33629409.984219491        1395884489.7741389     
  -1082647270.5356984       -31473435.959339738        1296127504.4025154     
  -998430734.94166636       -33720761.214494407        1292315649.1305742     
  -914126499.11474776       -35675752.360037297        1293168335.9583454     
  -829734563.05494463       -37338409.395961523        1298685564.8858235     
  -745254926.76225805       -38708732.322271109        1308867335.9130120     
  -1271223779.3288929       -34485656.623792112        1215023546.6301050     
  -1175605240.6514769       -37246181.673100829        1209887657.9954937     
  -1080023710.7213981       -40130069.213538289        1208976429.5854979     
  -984479189.53865802       -43137319.245098293        1212289861.4001267     
  -888971677.10325420       -46267931.767788261        1219827953.4393716     
  -1463039323.7174103       -38469587.966841400        1132479335.4862173     
  -1357275587.3140128       -42120354.417534769        1125873919.6786711     
  -1251673568.6381702       -46310179.960077584        1123053282.2206588     
  -1146233267.6898916       -51039064.594503105        1124017423.1121795     
  -1040954684.4691727       -56307008.320788682        1128766342.3532276     
  -482620197.15501004       -31029964.753646865        1480879415.0227528     
  -425374140.84768397       -26594253.655665681        1478962137.4865878     
  -365934123.73926747       -14845339.887382507        1482761860.5926259     
  -304300145.82976973        4216776.5511715710        1492278584.3408718     
  -240472207.11919326        30592095.659987479        1507512308.7313282     
  -609804433.44617462       -33629409.984219491        1395884489.7741389     
  -537863940.12884247       -30008606.551117271        1393675667.5462906     
  -463706702.08210558       -18998654.019986957        1397241313.3758359     
  -387332719.30594963       -599552.39079886675        1406581427.2627547     
  -308741991.80037642        25188698.336446881        1421696009.2070711     
  -745254926.76225805       -38708732.322271109        1308867335.9130120     
  -658455803.82013726       -35853578.769626379        1306393550.2432098     
  -569417152.22027624       -25533329.691177845        1309751700.0459702     
  -478138971.96266609       -7747985.0869036317        1318941785.3212841     
  -384621263.04732096        17502455.043154553        1333963806.0691650     
  -888971677.10325420       -46267931.767788261        1219827953.4393716     
  -787149731.92155361       -44129170.311163694        1217115785.5773332     
  -683065474.15377879       -34449366.900958329        1220293020.6030304     
  -576718903.79993474       -17228521.537194014        1229359658.5164590     
  -468110020.86001980        7533365.7801509500        1244315699.3176339     
  -1040954684.4691727       -56307008.320788682        1128766342.3532276     
  -923945724.43309867       -54835381.175742865        1125842373.5486603     
  -804651667.88262725       -45746765.649372518        1128865275.0470111     
  -683072514.81774354       -29041161.741628975        1137835046.8482740     
  -559208265.23847270       -4718569.4525922239        1152751688.9524512     
  -240472207.11919326        30592095.659987479        1507512308.7313282     
  -199698391.87448984        60356014.222409785        1486351074.3004174     
  -154324139.74295726        105454722.40760101        1467938033.4433506     
  -104349450.72458468        165888220.21558982        1452273186.1601319     
  -49774324.819381535        241656507.64634717        1439356532.4507563     
  -308741991.80037642        25188698.336446881        1421696009.2070711     
  -259119275.88985291        55433121.052730069        1404918103.7219899     
  -203045232.97187960        107181967.12717536        1392087965.7551150     
  -140519863.04645503        180435236.55979031        1383205595.3064468     
  -71543166.113594204        275192929.35053253        1378270992.3759789     
  -384621263.04732096        17502455.043154553        1333963806.0691650     
  -322722292.34422523        49255588.151342556        1323728601.3372996     
  -252521104.51307020        108682778.35306174        1318640738.0679953     
  -174017699.55385500        195784025.64831167        1318700216.2612584     
  -87212077.466589391        310559330.03706312        1323907035.9170876     
  -468110020.86001980        7533365.7801509500        1244315699.3176339     
  -390507441.23760891        41823415.518254161        1242782567.1463537     
  -302751754.36652303        109957156.08527984        1247596350.3820009     
  -204842960.24677628        211934587.48117346        1258757049.0245721     
  -96781058.878355101        347755709.70597923        1276264663.0740681     
  -559208265.23847270       -4718569.4525922239        1152751688.9524512     
  -462474722.57000262        33136603.153462738        1162080001.1491418     
  -353737182.53224647        111005100.32380179        1178954802.6971195     
  -232995645.12520963        228886922.05841118        1203376093.5963848     
  -100250110.34890488        386782068.35724676        1235343873.8469305     
  -49774324.819381535        241656507.64634717        1439356532.4507563     
  -40466769.897906333        322604786.22940797        1346332600.0189435     
  -23390248.051800221        429449621.22790587        1253184713.9111691     
   1455240.7189762890        562191012.64197016        1159912874.1274440     
   34069696.414382488        720828960.47146940        1066517080.6677752     
  -71543166.113594204        275192929.35053253        1378270992.3759789     
  -57379905.089708507        376902764.37797660        1296745155.5301523     
  -34241922.935223520        508528336.50741637        1214287302.4903474     
  -2129219.6501196623        670069645.73892164        1130897433.2565842     
   38958204.765594721        861526692.07246435        1046575547.8288285     
  -87212077.466589391        310559330.03706312        1323907035.9170876     
  -70501860.391768485        432338096.49345791        1255286007.8975360     
  -43611167.980379313        588051780.73840535        1184924901.1659873     
  -6540000.2324182093        777700382.77193880        1112823715.7224555     
   40711642.852122724        1001283902.5940542        1038982451.5669363     
  -96781058.878355101        347755709.70597923        1276264663.0740681     
  -79832635.804076701        488910782.57588297        1221955157.1210780     
  -51497983.187275976        668019953.92085290        1165097509.9380827     
  -11777101.027923107        885083223.74099410        1105691721.5250766     
   39330010.673955739        1140100592.0362353        1043737791.8820767     
  -100250110.34890488        386782068.35724676        1235343873.8469305     
  -85372231.326648086        546620822.62520242        1196752603.2007987     
  -57902368.555900097        748432856.05479562        1154805128.8066447     
  -17840522.036651969        992218168.64605892        1109501450.6644731     
   34813308.231104732        1277976760.3990114        1060841568.7742640     
  -3005876878.2155094       -73780503.810894608        1110899737.9125352     
  -2901347933.7422786       -39563158.569635391        1112750027.3151228     
  -2799823255.7645979       -15360034.980192661        1116599938.7216563     
  -2701302844.2824626       -1171133.0425821543        1122449472.1321361     
  -2605786699.2958746        3003547.2432091236        1130298627.5465615     
  -3341607399.9670725        30428646.927958965        1070573800.5996181     
  -3238554536.5774946        21997327.501133204        1050493894.3012531     
  -3134841419.7985182        15766852.705649853        1037120918.5503081     
  -3030468049.6301298        11737222.541529179        1030454873.3467803     
  -2925434426.0723381        9908437.0087581873        1030495758.6906700     
  -3742813661.7017846        114995075.67186809        1011877211.1706055     
  -3627787426.4145212        67949927.471350431        974142382.37040257     
  -3508436417.8528976        35320690.185360909        947821792.66109192     
  -3384760636.0169129        17107363.813903809        932915442.04266894     
  -3256760080.9065676        13309948.356978655        929423330.51513469     
  -4209495663.4196577        179918782.42082953        934809969.62549925     
  -4069046603.2533512        98294641.341027021        883695491.52257371     
  -3920608249.9277368        43301477.458932638        848702561.05400825     
  -3764180603.4428067        14939290.774546146        829831178.21980155     
  -3599763663.7985616        13208081.287875891        827081343.01995361     
  -4741653405.1206799        225199767.17484474        839372075.96430385     
  -4562332067.0939884        113031469.11016178        779153221.75776339     
  -4371356916.0230389        39709214.526362658        739763223.72905672     
  -4168727951.9078159        5233003.4234557152        721202081.87817883     
  -3954445174.7483287        9602835.8014311790        723469796.20513093     
  -2605786699.2958746        3003547.2432091236        1130298627.5465615     
  -2519132928.6561580       -221852.95822393894        1126975300.6984460     
  -2432601068.3449578       -3853620.9213711023        1126896724.4975352     
  -2346191118.3622708       -7891756.6462336779        1130062898.9438334     
  -2259903078.7080979       -12336260.132808805        1136473824.0373323     
  -2925434426.0723381        9908437.0087581873        1030495758.6906700     
  -2829418412.3011823        6209070.4451814890        1023360734.5699061     
  -2733512299.0149188        2143368.9319660664        1020292062.1404618     
  -2637716086.2135477       -2288667.5308917761        1021289741.4023367     
  -2542029773.8970685       -7087038.9433882236        1026353772.3555307     
  -3256760080.9065676        13309948.356978655        929423330.51513469     
  -3149034392.4493628        9840844.8976373672        918490620.60594869     
  -3041406594.6334281        6045439.3007355928        912445863.43219674     
  -2933876687.4587574        1923731.5662704706        911289058.99387980     
  -2826444670.9253588       -2524278.3057518005        915020207.29099441     
  -3599763663.7985616        13208081.287875891        827081343.01995361     
  -3477980869.1006985        10673470.399151325        812364958.80657554     
  -3356283955.2004814        7852590.1849367619        803358128.37274349     
  -3234672922.0979042        4745440.6452531815        800060851.71845996     
  -3113147769.7929754        1352021.7800805569        802473128.84372270     
  -3954445174.7483287        9602835.8014311790        723469796.20513093     
  -3816257842.2551923        8706946.9497113228        704983749.17178464     
  -3678144380.7160783        7564821.5845897198        693028856.96210063     
  -3540104790.1309867        6176459.7060556412        687605119.57607663     
  -3402139070.4999151        4541861.3141198158        688712537.01371288     
  -2259903078.7080979       -12336260.132808805        1136473824.0373323     
  -2158910566.3158956       -12923954.975654006        1129294415.9972878     
  -2058161769.8661687       -14324036.293415427        1126588833.4804926     
  -1957656689.3589258       -16536504.086121798        1128357076.4869425     
  -1857395324.7941589       -19561358.353750706        1134599145.0166373     
  -2542029773.8970685       -7087038.9433882236        1026353772.3555307     
  -2429303741.9459586       -7310965.9453210831        1018085808.2572447     
  -2316822186.3098545       -8349813.9972678423        1014285856.4869711     
  -2204585106.9887486       -10203583.099214673        1014953917.0447091     
  -2092592503.9826458       -12872273.251166821        1020089989.9304578     
  -2826444670.9253588       -2524278.3057518005        915020207.29099441     
  -2702001728.5445881       -2389420.2055679560        905662800.03318763     
  -2577804022.8513398       -3072017.7304564714        900767591.90815878     
  -2453851553.8456168       -4572070.8804311752        900334582.91590869     
  -2330144321.5274162       -6889579.6554778814        904363773.05643415     
  -3113147769.7929754        1352021.7800805569        802473128.84372270     
  -2977004526.1117778        1840682.2436335087        792025391.32511759     
  -2841107279.4906316        1509352.5070126057        786034039.74406147     
  -2705456029.9295244        358032.57025206089        784499074.10054588     
  -2570050777.4284735       -1613277.5666733980        787420494.39457166     
  -3402139070.4999151        4541861.3141198158        688712537.01371288     
  -3254312134.6475344        5379341.4022417068        677173582.13303554     
  -3106731956.2277250        5394296.7151372433        670085199.99467397     
  -2959398535.2404814        4586727.2528088093        667447390.59861708     
  -2812311871.6858068        2956633.0152482986        669260153.94486773     
  -1857395324.7941589       -19561358.353750706        1134599145.0166373     
  -1758600892.6016753       -23603642.679367900        1127717497.7178271     
  -1659943415.0247240       -28102442.390094817        1125070313.6964860     
  -1561422892.0632989       -33057757.485906839        1126657592.9526145     
  -1463039323.7174103       -38469587.966841400        1132479335.4862173     
  -2092592503.9826458       -12872273.251166821        1020089989.9304578     
  -1983173547.5516000       -16860233.989352107        1012082111.7472278     
  -1873870890.5948145       -21235859.641745925        1007999945.0267874     
  -1764684533.1122894       -25999150.208339691        1007843489.7691348     
  -1655614475.1040316       -31150105.689149320        1011612745.9742641     
  -2330144321.5274162       -6889579.6554778814        904363773.05643415     
  -2210982988.8997612       -11087861.218813896        895253761.65360153     
  -2091917300.6050935       -15604957.225460291        889760709.89887023     
  -1972947256.6434224       -20440867.675415277        887884617.79224157     
  -1854072857.0147450       -25595592.568688393        889625485.33372331     
  -2570050777.4284735       -1613277.5666733980        787420494.39457166     
  -2442029216.6461477       -6286524.3677299023        777232447.43694556     
  -2314082645.0555534       -11209735.141222239        770352608.31274092     
  -2186211062.6566772       -16382909.887117267        766780977.02195573     
  -2058414469.4495356       -21806048.605442166        766517553.56458879     
  -2812311871.6858068        2956633.0152482986        669260153.94486773     
  -2676312230.7907691       -2456223.4361263514        658018169.09726393     
  -2540366923.9461980       -8050193.3890413046        649775640.26839411     
  -2404475951.1520820       -13825276.843476534        644532567.45826089     
  -2268639312.4084201       -19781473.799437284        642288950.66686690     
  -1463039323.7174103       -38469587.966841400        1132479335.4862173     
  -1357275587.3140128       -42120354.417534769        1125873919.6786711     
  -1251673568.6381702       -46310179.960077584        1123053282.2206588     
  -1146233267.6898916       -51039064.594503105        1124017423.1121795     
  -1040954684.4691727       -56307008.320788682        1128766342.3532276     
  -1655614475.1040316       -31150105.689149320        1011612745.9742641     
  -1540043837.8909087       -34552659.663610816        1002802567.4648772     
  -1424489937.8552568       -38011004.229630351        997694100.65738630     
  -1308952774.9970689       -41525139.387196600        996287345.55179405     
  -1193432349.3163393       -45095065.136302054        998582302.14809453     
  -1854072857.0147450       -25595592.568688393        889625485.33372331     
  -1728932652.2708519       -28821134.050609469        878779688.09760141     
  -1603664204.1543298       -31619197.623764873        871552535.91574383     
  -1478267512.6651776       -33989783.288155973        867944028.78815055     
  -1352742577.8033988       -35932891.043786705        867954166.71481872     
  -2058414469.4495356       -21806048.605442166        766517553.56458879     
  -1923942030.4538331       -24925777.578521967        753805281.57684684     
  -1789196367.5353980       -27134760.142495036        744628587.99573135     
  -1654177480.6942444       -28432996.297406256        738987472.82124460     
  -1518885369.9303646       -28820486.043241560        736881936.05338883     
  -2268639312.4084201       -19781473.799437284        642288950.66686690     
  -2125071972.4398501       -22866590.247331858        627879347.90260971     
  -1981086427.9984643       -24557691.785844564        616922256.89734745     
  -1836682679.0842543       -24854778.414946079        609417677.65108156     
  -1691860725.6972339       -23757850.134674072        605365610.16381049     
  -1040954684.4691727       -56307008.320788682        1128766342.3532276     
  -923945724.43309867       -54835381.175742865        1125842373.5486603     
  -804651667.88262725       -45746765.649372518        1128865275.0470111     
  -683072514.81774354       -29041161.741628975        1137835046.8482740     
  -559208265.23847270       -4718569.4525922239        1152751688.9524512     
  -1193432349.3163393       -45095065.136302054        998582302.14809453     
  -1062806260.1055341       -41993227.640053451        994535159.87756062     
  -930752402.38561356       -34132161.780092239        994639659.66516769     
  -797270776.15658212       -21511867.556423157        998895801.51091766     
  -662361381.41844654       -4132344.9690782130        1007303585.4147966     
  -1352742577.8033988       -35932891.043786705        867954166.71481872     
  -1213628582.9743636       -32739610.263287187        861783634.97214401     
  -1073944147.6415031       -27644861.136704564        857969517.04283369     
  -933689271.80481946       -20648643.664044142        856511812.92689550     
  -792863955.46431160       -11750957.845314860        857410522.62431788     
  -1518885369.9303646       -28820486.043241560        736881936.05338883     
  -1376412693.0395925       -27074529.045428336        727587798.83240497     
  -1234226903.6502855       -26284863.719177306        718854847.18001068     
  -1092328001.7624412       -26451490.064473331        710683081.09620857     
  -950715987.37606561       -27574408.081323206        703072500.58099651     
  -1691860725.6972339       -23757850.134674072        605365610.16381049     
  -1551158590.3012230       -24997983.986516535        591947651.45834398     
  -1411600670.4119618       -30052169.527511597        577295650.07669318     
  -1273186966.0294638       -38920406.757722974        561409606.01885867     
  -1135917477.1537175       -51602695.677107513        544289519.28484368     
  -559208265.23847270       -4718569.4525922239        1152751688.9524512     
  -462474722.57000262        33136603.153462738        1162080001.1491418     
  -353737182.53224647        111005100.32380179        1178954802.6971195     
  -232995645.12520963        228886922.05841118        1203376093.5963848     
  -100250110.34890488        386782068.35724676        1235343873.8469305     
  -662361381.41844654       -4132344.9690782130        1007303585.4147966     
  -547235192.21520579        25990511.923031539        1020832809.9246023     
  -421221411.54403853        92405340.374902666        1042748115.2746199     
  -284320039.40493393        195112140.38655567        1073049501.4648564     
  -136531075.79790169        334110911.95797956        1111736968.4953036     
  -792863955.46431160       -11750957.845314860        857410522.62431788     
  -656946286.90080500        11359233.180448204        873838185.89566326     
  -511257432.77070200        67040042.761516362        899491521.49615526     
  -355797393.07401180        155291470.89788088        934370529.42579436     
  -190566167.81072408        276113517.58956456        978475209.68458676     
  -950715987.37606561       -27574408.081323206        703072500.58099651     
  -791608006.62677073       -10757233.074241787        721096129.06232035     
  -623845246.21221781        34909207.483693928        749185021.36171675     
  -447427706.13242126        109424913.59243318        787339177.47919810     
  -262355386.38737991        212789885.25199959        835558597.41474676     
  -1135917477.1537175       -51602695.677107513        544289519.28484368     
  -951220351.39310932       -40358886.841020226        562606639.42457616     
  -758984851.86859477       -3987165.4585885108        591828614.87131178     
  -559210978.58019042        57512468.470150560        631955445.62505674     
  -351898731.52786762        144140014.94527838        682987131.68580997     
  -100250110.34890488        386782068.35724676        1235343873.8469305     
  -85372231.326648086        546620822.62520242        1196752603.2007987     
  -57902368.555900097        748432856.05479562        1154805128.8066447     
  -17840522.036651969        992218168.64605892        1109501450.6644731     
   34813308.231104732        1277976760.3990114        1060841568.7742640     
  -136531075.79790169        334110911.95797956        1111736968.4953036     
  -127398099.20256990        483117937.02867955        1090170519.1821196     
  -95127406.644759923        709250681.97429299        1070040747.7187005     
  -39718998.124496937        1012509146.7947700        1051347654.1050308     
   38827126.358253658        1392893331.4901681        1034091238.3411180     
  -190566167.81072408        276113517.58956456        978475209.68458676     
  -173484146.22007859        418396997.68971384        986236935.95397127     
  -122718676.45299277        672958638.37798524        1000228221.6709007     
  -38269758.509481668        1039798439.6543491        1020449066.8353642     
   79862607.610470355        1518916401.5188448        1046899471.4473592     
  -262355386.38737991        212789885.25199959        835558597.41474676     
  -223630372.37918842        352458004.60827112        884951853.51634133     
  -140676177.98060417        639556725.26584041        945367550.66325533     
  -13492803.191613317        1074086047.2247791        1016805688.8554906     
   157919751.98778600        1656045970.4850519        1099266268.0930376     
  -351898731.52786762        144140014.94527838        682987131.68580997     
  -277836777.67990941        285300957.78431845        786315271.86923885     
  -148999911.22757888        609044942.63792157        905458734.69576192     
   34611867.829103947        1115371969.5060492        1040417520.1653848     
   272998559.49017078        1804282038.3887792        1191191628.2781005     
  -4741653405.1206799        225199767.17484474        839372075.96430385     
  -4562332067.0939884        113031469.11016178        779153221.75776339     
  -4371356916.0230389        39709214.526362658        739763223.72905672     
  -4168727951.9078159        5233003.4234557152        721202081.87817883     
  -3954445174.7483287        9602835.8014311790        723469796.20513093     
  -5316996752.1367636       -217316480.72347856        354890901.89952517     
  -5056943468.2185459       -147249920.30625248        390754279.87824768     
  -4800620510.0581465       -89617779.081717730        425836100.40755659     
  -4548027877.6555529       -44420057.049882650        460136363.48745686     
  -4299165571.0107670       -11656754.210742474        493655069.11794800     
  -5600153228.4429836       -572176667.40884590       -59841085.537968598     
  -5321112037.5682287       -338398460.19021153        54156362.690258034     
  -5061185311.2533512       -168335134.83783388        145761839.84183434     
  -4820373049.4983635       -61986691.351742983        214975345.91675714     
  -4598675252.3032560       -19353129.731929779        261796880.91503507     
  -5591122834.0393744       -839380792.88126123       -404823886.34818125     
  -5354837775.1430464       -460414150.54169726       -230640529.80620182     
  -5153051319.6086683       -196442852.74198198       -100459557.96811569     
  -4985763467.4362488       -47466899.482128859       -14280970.833916865     
  -4852974218.6257925       -13486290.762145758        27895231.596386969     
  -5289905568.9259090       -1018928857.1407198       -680057500.53111291     
  -5158120680.9429760       -513296991.36072993       -463636397.61113310     
  -5076218535.1240702       -173940932.79414725       -312828093.02228969     
  -5044199131.4692020       -860681.44102954865       -227632586.76457644     
  -5062062469.9783649        5943762.6986477375       -208049878.83798903     
  -3954445174.7483287        9602835.8014311790        723469796.20513093     
  -3816257842.2551923        8706946.9497113228        704983749.17178464     
  -3678144380.7160783        7564821.5845897198        693028856.96210063     
  -3540104790.1309867        6176459.7060556412        687605119.57607663     
  -3402139070.4999151        4541861.3141198158        688712537.01371288     
  -4299165571.0107670       -11656754.210742474        493655069.11794800     
  -4147717056.9343705       -13214271.999252796        489811083.08744210     
  -3995898667.3356333       -13538871.379963398        489789534.74427873     
  -3843710402.2145586       -12630552.352896452        493590424.08844775     
  -3691152261.5711536       -10489314.918040276        501213751.11995995     
  -4598675252.3032560       -19353129.731929779        261796880.91503507     
  -4441704748.4616547       -23894034.002642155        273112660.10978794     
  -4283920622.6213579       -25722864.944367647        285542159.85555607     
  -4125322874.7823691       -24839622.557110071        299085380.15234172     
  -3965911504.9446855       -21244306.840886831        313742321.00014257     
  -4852974218.6257925       -13486290.762145758        27895231.596386969     
  -4698220916.8370466       -23332339.060458660        54888480.238817111     
  -4542210246.5732603       -28987159.108628273        80286732.295932770     
  -4384942207.8344126       -30450750.906605482        104089987.76775314     
  -4226416800.6205263       -27723114.454441786        126298246.65426078     
  -5062062469.9783649        5943762.6986477375       -208049878.83798903     
  -4917265562.0605516       -11529187.172715664       -164861456.52546862     
  -4770767539.1913252       -23331753.872722864       -125976747.93458667     
  -4622568401.3706856       -29463937.401357412       -91395753.065325022     
  -4472668148.5986519       -29925737.758651972       -61118471.917686298     
  -3402139070.4999151        4541861.3141198158        688712537.01371288     
  -3254312134.6475344        5379341.4022417068        677173582.13303554     
  -3106731956.2277250        5394296.7151372433        670085199.99467397     
  -2959398535.2404814        4586727.2528088093        667447390.59861708     
  -2812311871.6858068        2956633.0152482986        669260153.94486773     
  -3691152261.5711536       -10489314.918040276        501213751.11995995     
  -3531568645.1654620       -6382051.6876657009        493943452.12547904     
  -3372448278.0841899       -3818952.8720211983        490511615.47379041     
  -3213791160.3273411       -2800018.4711190462        490918241.16489536     
  -3055597291.8949084       -3325248.4849381447        495163329.19879705     
  -3965911504.9446855       -21244306.840886831        313742321.00014257     
  -3796320094.8414478       -14391926.524996996        310488104.01802635     
  -3627408425.9544730       -9805350.2633311749        310460238.97919470     
  -3459176498.2837787       -7484578.0559201241        313658725.88363492     
  -3291624311.8293481       -7429609.9027361870        320083564.73135257     
  -4226416800.6205263       -27723114.454441786        126298246.65426078     
  -4048566483.6754885       -18650283.109732151        126807537.81068353     
  -3871612399.8385735       -12564895.458786726        129931070.51087056     
  -3695554549.1097813       -9466951.5015773773        135668844.75482225     
  -3520392931.4891224       -9356451.2381360531        144020860.54253459     
  -4472668148.5986519       -29925737.758651972       -61118471.917686298     
  -4288307811.6675844       -19157121.441899776       -57098246.496552952     
  -4105060199.7364850       -12097588.458375454       -51075889.931163378     
  -3922925312.8053703       -8747138.8081350327       -43051402.221530370     
  -3741903150.8742242       -9105772.4911205769       -33024783.367653951     
  -2812311871.6858068        2956633.0152482986        669260153.94486773     
  -2676312230.7907691       -2456223.4361263514        658018169.09726393     
  -2540366923.9461980       -8050193.3890413046        649775640.26839411     
  -2404475951.1520820       -13825276.843476534        644532567.45826089     
  -2268639312.4084201       -19781473.799437284        642288950.66686690     
  -3055597291.8949084       -3325248.4849381447        495163329.19879705     
  -2911085131.3886237       -8283290.0738499165        486796160.78273374     
  -2766326182.5670881       -12418703.945269465        481872671.08062959     
  -2621320445.4302998       -15731490.099174500        480392860.09249103     
  -2476067919.9782586       -18221648.535571814        482356727.81831676     
  -3291624311.8293481       -7429609.9027361870        320083564.73135257     
  -3137330424.0111637       -11552074.318980455        314942522.17349321     
  -2982488625.5120177       -13848169.798688889        313689381.02481532     
  -2827098916.3319206       -14317896.341896296        316324141.28533268     
  -2671161296.4708567       -12961253.948540807        322846802.95503592     
  -3520392931.4891224       -9356451.2381360531        144020860.54253459     
  -3355048108.6583967       -12262576.171524763        142457253.26953626     
  -3188854252.7810097       -12338590.949380517        145225770.10095492     
  -3021811363.8569374       -9584495.5716221333        152326411.03678030     
  -2853919441.8862052       -4000290.0383213758        163759176.07703432     
  -3741903150.8742242       -9105772.4911205769       -33024783.367653951     
  -3564238185.3303213       -10414795.631469965       -30659645.929125119     
  -3385423064.3740234       -7889967.3972122669       -23518161.690960344     
  -3205457788.0053587       -1531287.7883875370       -11600330.653158024     
  -3024342356.2243176        8661243.1950488091        5093847.1842924077     
  -2268639312.4084201       -19781473.799437284        642288950.66686690     
  -2125071972.4398501       -22866590.247331858        627879347.90260971     
  -1981086427.9984643       -24557691.785844564        616922256.89734745     
  -1836682679.0842543       -24854778.414946079        609417677.65108156     
  -1691860725.6972339       -23757850.134674072        605365610.16381049     
  -2476067919.9782586       -18221648.535571814        482356727.81831676     
  -2323924040.1213627       -18224156.637263536        472016552.85287660     
  -2171749864.6149411       -18125679.240530849        464109833.34725994     
  -2019545393.4589851       -17926216.345364332        458636569.30146801     
  -1867310626.6535075       -17625767.951781273        455596760.71549445     
  -2671161296.4708567       -12961253.948540807        322846802.95503592     
  -2513352466.1518393       -10754630.531877637        316123495.49457550     
  -2355901249.0065923       -9740051.0277827978        310814587.19477600     
  -2198807645.0350976       -9917515.4362106323        306920078.05560797     
  -2042071654.2373633       -11287023.757159948        304439968.07710087     
  -2853919441.8862052       -4000290.0383213758        163759176.07703432     
  -2693357250.5312705       -458011.93117165565        160200175.82771161     
  -2533540581.1734009        599192.85243785381        157036518.43986267     
  -2374469433.8125744       -828675.68742609024        154268203.91349995     
  -2216143808.4488077       -4741617.5508368015        151895232.24861646     
  -3024342356.2243176        8661243.1950488091        5093847.1842924077     
  -2863938393.2596831        12665699.164799929        4246593.8522755317     
  -2704667861.1153879        12892052.400098562        2775627.0825618915     
  -2546530759.7914429        9340302.9008960724        680946.87514524325     
  -2389527089.2878265        2010450.6672538519       -2037446.7699492737     
  -1691860725.6972339       -23757850.134674072        605365610.16381049     
  -1551158590.3012230       -24997983.986516535        591947651.45834398     
  -1411600670.4119618       -30052169.527511597        577295650.07669318     
  -1273186966.0294638       -38920406.757722974        561409606.01885867     
  -1135917477.1537175       -51602695.677107513        544289519.28484368     
  -1867310626.6535075       -17625767.951781273        455596760.71549445     
  -1729653911.3649788       -21682829.116656423        442128651.15990394     
  -1592017004.3216081       -25805917.765412688        428202013.57774639     
  -1454399905.5234106       -29995033.898063064        413816847.96903098     
  -1316802614.9703643       -34250177.514562786        398973154.33375037     
  -2042071654.2373633       -11287023.757159948        304439968.07710087     
  -1905244602.9145455       -17496285.392576218        292233516.14323401     
  -1767312952.5752938       -20023550.306545734        280344050.83242875     
  -1628276703.2196033       -18868818.499070346        268771572.14468020     
  -1488135854.8474901       -14032089.970161617        257516080.07999876     
  -2216143808.4488077       -4741617.5508368015        151895232.24861646     
  -2077930664.9499049       -12438352.814195514        142262246.40833288     
  -1937488515.1729882       -12705067.150844574        133721761.84074278     
  -1794817359.1180475       -5541760.5607428551        126273778.54582918     
  -1649917196.7850924        9051566.9560699463        119918296.52360551     
  -2389527089.2878265        2010450.6672538519       -2037446.7699492737     
  -2247712097.4710860       -6509031.3815877438       -7785158.0447839936     
  -2102543692.1147361       -3850468.2984229326       -11664853.397312978     
  -1954021873.2187467        9986139.9168753624       -13676532.827537347     
  -1802146640.7831552        35000793.264203191       -13820196.335457578     
  -1135917477.1537175       -51602695.677107513        544289519.28484368     
  -951220351.39310932       -40358886.841020226        562606639.42457616     
  -758984851.86859477       -3987165.4585885108        591828614.87131178     
  -559210978.58019042        57512468.470150560        631955445.62505674     
  -351898731.52786762        144140014.94527838        682987131.68580997     
  -1316802614.9703643       -34250177.514562786        398973154.33375037     
  -1117335374.5851302       -14470127.206773758        420938850.31896454     
  -914238957.40000796        17407179.100648642        441391415.75341904     
  -707513363.41501176        61381741.407647878        460330850.63709998     
  -497158592.63012791        117453559.71429440        477757154.97001547     
  -1488135854.8474901       -14032089.970161617        257516080.07999876     
  -1309378459.4312625        3640213.9312676787        278569622.11934888     
  -1130901084.1791780        20379117.285566151        285692047.75015181     
  -952703729.09123468        36184620.092724919        278883356.97241157     
  -774786394.16742885        51056722.352761626        258143549.78613606     
  -1649917196.7850924        9051566.9560699463        119918296.52360551     
  -1527349605.9315064        13972136.573078156        135498954.82571772     
  -1408971232.2060945        4928649.0961927176        124730510.86151351     
  -1294782075.6088552       -18078895.474604070        87612964.630996138     
  -1184782136.1397781       -55050497.139287353        24146316.134160671     
  -1802146640.7831552        35000793.264203191       -13820196.335457578     
  -1771248814.0858824        16525640.718602300       -8273151.5619293405     
  -1748449401.4807944       -28944225.467592478       -41493194.912490770     
  -1733748402.9678903       -101408805.29440486       -113480326.38715516     
  -1727145818.5471592       -200868098.76180583       -224234545.98589930     
  -351898731.52786762        144140014.94527838        682987131.68580997     
  -277836777.67990941        285300957.78431845        786315271.86923885     
  -148999911.22757888        609044942.63792157        905458734.69576192     
   34611867.829103947        1115371969.5060492        1040417520.1653848     
   272998559.49017078        1804282038.3887792        1191191628.2781005     
  -497158592.63012791        117453559.71429440        477757154.97001547     
  -388294884.30855787        223092300.73811194        597034919.93931198     
  -230303710.06848335        492489261.49029994        735465373.81795192     
  -23185069.909908593        925644441.97081637        893048516.60593379     
   233061036.16715947        1522557842.1796551        1069784348.3032641     
  -774786394.16742885        51056722.352761626        258143549.78613606     
  -621585599.18295753        124033861.21822008        386782251.74111986     
  -424904784.96587157        341944397.52573228        537911008.87168431     
  -184743951.51612565        704788331.27541542        711529821.17786264     
   98896901.166220605        1212565662.4671524        907638688.65960920     
  -1184782136.1397781       -55050497.139287353        24146316.134160671     
  -977708922.30313993       -11874360.775453210        155557267.27464929     
  -732803135.91973686        157410350.74426189        312795639.85698181     
  -450064776.98958248        452803637.41981244        495861433.88113618     
  -129493845.51265866        874305499.25126791        704754649.34714270     
  -1727145818.5471592       -200868098.76180583       -224234545.98589930     
  -1456664853.6690674       -184632365.24278349       -96640033.460076988     
  -1153998762.9301124       -61112878.854228139        60119266.773803622     
  -819147546.33021092        169690360.40411490        246043354.71579424     
  -452111203.86946899        507777352.53200388        461132230.36586398     
 </DataArray>
 <DataArray  type="Float64" Name="VM" NumberOfComponents="1" format="ascii">
   5001871264.1505136     
   4986673520.7462702     
   5020843909.1471748     
   5059155568.3014526     
   5077839551.0712147     
   5269134936.5099545     
   5155619533.9178810     
   5060684291.3198090     
   4962262056.6798449     
   4846486071.1988306     
   5338124258.7116604     
   5161094015.0474987     
   4985549043.3719444     
   4804131978.3198166     
   4611377608.9223680     
   5247861937.9295702     
   5030685232.4315062     
   4813291840.6811762     
   4595615801.3261003     
   4377662948.8308163     
   5071040302.4949188     
   4812959387.7242002     
   4574458603.5025063     
   4354369465.5974760     
   4152821820.6806746     
   5077839551.0712147     
   4919804865.3166656     
   4764143962.0704060     
   4610625489.8112221     
   4459037388.0090179     
   4846486071.1988306     
   4687562532.1787987     
   4529921261.8498974     
   4373514029.5923529     
   4218299637.0404921     
   4611377608.9223680     
   4454992017.7097702     
   4299656517.9889307     
   4145454222.1571541     
   3992487325.7516360     
   4377662948.8308163     
   4227134674.9136987     
   4078353981.2922001     
   3931490260.0490193     
   3786772112.0637169     
   4152821820.6806746     
   4011001675.4520559     
   3872659954.0325804     
   3738000525.6323838     
   3607353293.4574332     
   4459037388.0090179     
   4279904182.0595169     
   4099979313.4253745     
   3919268455.7726803     
   3737796256.6764493     
   4218299637.0404921     
   4045240643.6282825     
   3871891030.7750158     
   3698303033.7405024     
   3524562574.8719459     
   3992487325.7516360     
   3827117130.4280257     
   3662209246.4044466     
   3497886904.3118629     
   3334329103.6210012     
   3786772112.0637169     
   3630622466.0766983     
   3475967139.8011026     
   3323020429.7990937     
   3172079004.7109551     
   3607353293.4574332     
   3461758884.4728665     
   3318977793.2621226     
   3179322661.8508854     
   3043213606.7481914     
   3737796256.6764493     
   3559438349.1170349     
   3381730309.9624186     
   3204755393.2986126     
   3028695113.2758784     
   3524562574.8719459     
   3358011120.6664844     
   3192627315.8595648     
   3028544731.2322645     
   2865991428.2701902     
   3334329103.6210012     
   3178726031.4806757     
   3024786131.7919316     
   2872698732.6145530     
   2722744797.3395991     
   3172079004.7109551     
   3026761181.9011121     
   2883567981.6515307     
   2742747332.9212093     
   2604636321.1265302     
   3043213606.7481914     
   2907755692.8268642     
   2774833964.6847901     
   2644753266.4768887     
   2517904662.5826278     
   3028695113.2758784     
   2870301623.6537499     
   2711141138.3074603     
   2551214007.8573389     
   2390535555.0232177     
   2865991428.2701902     
   2707384749.3936543     
   2548397088.0321913     
   2389044611.0314207     
   2229355119.3022089     
   2722744797.3395991     
   2567066086.7131052     
   2411894709.2967114     
   2257353874.5726490     
   2103612658.1206908     
   2604636321.1265302     
   2454995393.9793611     
   2307304788.3762364     
   2161879887.8696084     
   2019146376.8287306     
   2517904662.5826278     
   2377090247.1512685     
   2240186335.8391876     
   2107733475.3855071     
   1980445593.3246896     
   2390535555.0232177     
   2244505166.7612982     
   2100718266.6250982     
   1959177246.9126697     
   1820056902.1457167     
   2229355119.3022089     
   2086341336.2534840     
   1945006883.1137555     
   1805350054.3498859     
   1667448415.1111557     
   2103612658.1206908     
   1962939046.8706605     
   1823235173.5714946     
   1684527195.4190125     
   1546870117.4806249     
   2019146376.8287306     
   1881781667.5178912     
   1744755433.5617008     
   1608193758.4144640     
   1472270427.4850948     
   1980445593.3246896     
   1849093860.0800858     
   1717820924.1887012     
   1586981137.8370163     
   1457088944.2911122     
   1820056902.1457167     
   1779626875.4402013     
   1735647032.2119734     
   1696756691.5382552     
   1681456383.5729904     
   1667448415.1111557     
   1552228165.3585861     
   1427880124.8571389     
   1294761497.3533103     
   1158993337.2548058     
   1546870117.4806249     
   1397159519.2227800     
   1243888731.0157902     
   1084783261.9263313     
   917808845.31082475     
   1472270427.4850948     
   1328174795.0142462     
   1198553022.7613235     
   1087880855.8150094     
   1002053266.6474466     
   1457088944.2911122     
   1348197869.2061207     
   1274296289.4284308     
   1243498798.8391416     
   1262832536.9488499     
   1681456383.5729904     
   1383846818.5576062     
   1129498437.7893262     
   1010153929.1784589     
   1153144835.7306454     
   1158993337.2548058     
   1008484139.2449379     
   985217026.96465325     
   1161471519.4439197     
   1544161031.2844436     
   917808845.31082475     
   963147054.61913478     
   1144905506.3747807     
   1476443822.2018480     
   1957447589.0034461     
   1002053266.6474466     
   1164697719.6539581     
   1425389604.3238780     
   1808707624.4088280     
   2334730514.7473187     
   1262832536.9488499     
   1446627848.1832969     
   1715648833.2695625     
   2110462829.2031069     
   2663495443.1705060     
   5071040302.4949188     
   4812959387.7242002     
   4574458603.5025063     
   4354369465.5974760     
   4152821820.6806746     
   4596868786.3233490     
   4394260142.9728422     
   4207576676.1036077     
   4036257329.9594097     
   3880490964.6515846     
   4186164237.3721743     
   4032223710.5750275     
   3889652103.1885180     
   3758429989.6806660     
   3638886425.6311655     
   3835014008.6857252     
   3724321704.2272964     
   3619912444.8556647     
   3522067008.8148060     
   3431182921.2317557     
   3538539223.8237352     
   3466877156.5774546     
   3396561159.9292359     
   3327694968.7750015     
   3260473171.3911824     
   4152821820.6806746     
   4011001675.4520559     
   3872659954.0325804     
   3738000525.6323838     
   3607353293.4574332     
   3880490964.6515846     
   3756780257.2423744     
   3636923466.9174719     
   3521189232.3771338     
   3409954437.2592640     
   3638886425.6311655     
   3532474920.2178063     
   3430196768.8786058     
   3332360045.7900791     
   3239359049.4407463     
   3431182921.2317557     
   3341409445.4076405     
   3255908613.8514714     
   3174998085.9467697     
   3099057329.4295411     
   3260473171.3911824     
   3186799672.2182546     
   3117351014.5504575     
   3052422976.3654146     
   2992349180.0282655     
   3607353293.4574332     
   3461758884.4728665     
   3318977793.2621226     
   3179322661.8508854     
   3043213606.7481914     
   3409954437.2592640     
   3278711890.1226444     
   3151147333.5846682     
   3027668633.3645215     
   2908798778.1017623     
   3239359049.4407463     
   3123305637.5512648     
   3011861655.6346922     
   2905511336.8155451     
   2804850737.1713619     
   3099057329.4295411     
   2998884069.3231850     
   2904258432.9783297     
   2815705806.6244926     
   2733847706.5831819     
   2992349180.0282655     
   2908449380.0925493     
   2830964675.5361018     
   2760414705.6996231     
   2697389922.9340372     
   3043213606.7481914     
   2907755692.8268642     
   2774833964.6847901     
   2644753266.4768887     
   2517904662.5826278     
   2908798778.1017623     
   2785761125.6200600     
   2666363297.9183416     
   2551044858.4230881     
   2440349814.4466562     
   2804850737.1713619     
   2696013988.5976300     
   2592053146.8929391     
   2493517033.5224233     
   2401059287.4663815     
   2733847706.5831819     
   2640597530.5379539     
   2553476339.7131710     
   2473085647.8232017     
   2400112098.5254822     
   2697389922.9340372     
   2620489461.2763238     
   2550863186.4328337     
   2489094029.0646367     
   2435818091.9471426     
   2517904662.5826278     
   2377090247.1512685     
   2240186335.8391876     
   2107733475.3855071     
   1980445593.3246896     
   2440349814.4466562     
   2314926712.1226454     
   2194726799.2156544     
   2080477302.7324483     
   1973082192.9138732     
   2401059287.4663815     
   2292808362.7099953     
   2191082733.1512818     
   2096703284.5912366     
   2010629009.2249012     
   2400112098.5254822     
   2310098538.7517891     
   2227700760.4269795     
   2153716017.0704417     
   2089018016.4353914     
   2435818091.9471426     
   2364228934.9871368     
   2301002422.2078466     
   2246819645.1284342     
   2202381542.6002245     
   1980445593.3246896     
   1849093860.0800858     
   1717820924.1887012     
   1586981137.8370163     
   1457088944.2911122     
   1973082192.9138732     
   1856375830.4500201     
   1744082088.9860256     
   1637130956.0396588     
   1536664774.4745507     
   2010629009.2249012     
   1913699452.7017248     
   1825586566.3746161     
   1747501090.9864256     
   1680747702.2407026     
   2089018016.4353914     
   2013452375.0943198     
   1950287313.6703749     
   1900613357.4221442     
   1865471551.4176071     
   2202381542.6002245     
   2146760549.3081546     
   2106123759.3743496     
   2081249627.3359606     
   2072825813.7050974     
   1457088944.2911122     
   1348197869.2061207     
   1274296289.4284308     
   1243498798.8391416     
   1262832536.9488499     
   1536664774.4745507     
   1475866635.0914822     
   1447761747.0360062     
   1456308361.4742455     
   1504795988.2761166     
   1680747702.2407026     
   1652255848.0722194     
   1651486676.3013651     
   1680804683.9335473     
   1742817615.8866003     
   1865471551.4176071     
   1854902601.8380485     
   1867313639.4622455     
   1904911184.6967978     
   1970726926.8295381     
   2072825813.7050974     
   2069201665.2485893     
   2084831417.2098899     
   2122344910.1700649     
   2185554588.2527962     
   1262832536.9488499     
   1446627848.1832969     
   1715648833.2695625     
   2110462829.2031069     
   2663495443.1705060     
   1504795988.2761166     
   1613219406.2843764     
   1788841078.8378577     
   2066401885.1282556     
   2476098447.0887547     
   1742817615.8866003     
   1787659901.7760901     
   1884645134.3180594     
   2060676369.2033887     
   2340977564.1539044     
   1970726926.8295381     
   1968907515.9857590     
   2003625847.4950740     
   2093552934.4198897     
   2257346096.7317142     
   2185554588.2527962     
   2156246590.9070897     
   2146523961.1600475     
   2166909614.0148244     
   2228474920.0455184     
   3538539223.8237352     
   3466877156.5774546     
   3396561159.9292359     
   3327694968.7750015     
   3260473171.3911824     
   3339503068.4824615     
   3275175565.1391945     
   3213942907.2657657     
   3156026960.5586500     
   3101722381.1477685     
   3164815676.5621223     
   3108615196.1333203     
   3057371726.2189755     
   3011381451.2013469     
   2970993912.2321267     
   3023457677.6141806     
   2975159619.4456806     
   2933755514.2300124     
   2899551387.5662956     
   2872887328.2895327     
   2925357151.5984702     
   2883380824.4384809     
   2850267472.1555266     
   2826261520.1095281     
   2811627017.2011337     
   3260473171.3911824     
   3186799672.2182546     
   3117351014.5504575     
   3052422976.3654146     
   2992349180.0282655     
   3101722381.1477685     
   3038603128.0780306     
   2980568788.8236322     
   2927921347.7325654     
   2880996433.9152508     
   2970993912.2321267     
   2918579953.5623827     
   2872133889.4197326     
   2831939036.2759643     
   2798304938.6793265     
   2872887328.2895327     
   2830784750.2844629     
   2795519918.6737380     
   2767331982.4381285     
   2746477693.4467373     
   2811627017.2011337     
   2778764731.5113735     
   2753569076.4626560     
   2736215988.0482359     
   2726891565.7710209     
   2992349180.0282655     
   2908449380.0925493     
   2830964675.5361018     
   2760414705.6996231     
   2697389922.9340372     
   2880996433.9152508     
   2811761986.0638399     
   2749668192.6777864     
   2695190567.3298202     
   2648852489.0381279     
   2798304938.6793265     
   2743235006.2991834     
   2695911854.4188099     
   2656734635.3640676     
   2626128658.3800354     
   2746477693.4467373     
   2704533465.0241556     
   2670798803.2385750     
   2645576703.9027014     
   2629180064.7954106     
   2726891565.7710209     
   2696470882.1458173     
   2674583948.0002160     
   2661434434.8846025     
   2657226821.3661838     
   2697389922.9340372     
   2620489461.2763238     
   2550863186.4328337     
   2489094029.0646367     
   2435818091.9471426     
   2648852489.0381279     
   2586746290.9079232     
   2532553642.9795489     
   2486776025.2117381     
   2449940165.8003726     
   2626128658.3800354     
   2578062750.3775420     
   2538377950.4577823     
   2507469019.8388462     
   2485735418.5126529     
   2629180064.7954106     
   2593887270.6785893     
   2567283280.2056189     
   2549650361.8683453     
   2541264459.7032013     
   2657226821.3661838     
   2632997269.1233282     
   2617645966.0683603     
   2611353631.3516798     
   2614291748.3355417     
   2435818091.9471426     
   2364228934.9871368     
   2301002422.2078466     
   2246819645.1284342     
   2202381542.6002245     
   2449940165.8003726     
   2393978400.1226401     
   2347252059.0596590     
   2310310029.4037147     
   2283685878.5775533     
   2485735418.5126529     
   2444293840.7152457     
   2412704062.7534513     
   2391364718.9885864     
   2380642036.6673279     
   2541264459.7032013     
   2512668242.9172549     
   2494353243.1058984     
   2486579027.6469545     
   2489571357.6994376     
   2614291748.3355417     
   2596471731.3415098     
   2589269127.9790626     
   2592831892.6931405     
   2607282291.3965125     
   2202381542.6002245     
   2146760549.3081546     
   2106123759.3743496     
   2081249627.3359606     
   2072825813.7050974     
   2283685878.5775533     
   2242973099.7487149     
   2216208292.4903316     
   2203846866.4877081     
   2206280776.4488144     
   2380642036.6673279     
   2351857532.0688906     
   2335957464.1823521     
   2333194075.0571008     
   2343789660.8075771     
   2489571357.6994376     
   2470031008.7354193     
   2462402264.5928464     
   2466821578.7023253     
   2483423347.3892713     
   2607282291.3965125     
   2594672409.9946146     
   2593153283.8165402     
   2602803419.9335070     
   2623718618.2222919     
   2072825813.7050974     
   2069201665.2485893     
   2084831417.2098899     
   2122344910.1700649     
   2185554588.2527962     
   2206280776.4488144     
   2191826439.6098232     
   2192379730.5089140     
   2209909079.8447380     
   2247334252.7255960     
   2343789660.8075771     
   2319319705.4126525     
   2306396266.2934818     
   2306424551.2988706     
   2321492426.7320490     
   2483423347.3892713     
   2450706847.6303263     
   2426562350.3690562     
   2411935031.7076249     
   2408200683.3660607     
   2623718618.2222919     
   2585206730.8631949     
   2552594181.7165546     
   2526462007.4125490     
   2507617459.3780866     
   2185554588.2527962     
   2156246590.9070897     
   2146523961.1600475     
   2166909614.0148244     
   2228474920.0455184     
   2247334252.7255960     
   2182650053.8314042     
   2134399448.1554625     
   2112249340.4987283     
   2127134639.6888576     
   2321492426.7320490     
   2224768811.9901814     
   2141376547.8686376     
   2079681870.8983581     
   2049857698.0737772     
   2408200683.3660607     
   2282897016.2954149     
   2168102286.5815711     
   2070558282.7970021     
   1999035662.7868371     
   2507617459.3780866     
   2357244278.8960233     
   2215047357.3250337     
   2086009672.9127023     
   1977011067.3099616     
   2925357151.5984702     
   2883380824.4384809     
   2850267472.1555266     
   2826261520.1095281     
   2811627017.2011337     
   2778923974.1299062     
   2749112391.0574875     
   2728312888.4474416     
   2716677484.3500257     
   2714366315.4981766     
   2679367920.6051326     
   2659275588.9235234     
   2648213019.0918074     
   2646251757.2067771     
   2653465528.4751167     
   2630903924.4304562     
   2617491070.2843070     
   2613010929.5321851     
   2617481590.8453112     
   2630921388.8933454     
   2635257181.1752934     
   2625112035.1009269     
   2623720151.2169933     
   2631081529.5234828     
   2647196170.0204020     
   2811627017.2011337     
   2778764731.5113735     
   2753569076.4626560     
   2736215988.0482359     
   2726891565.7710209     
   2714366315.4981766     
   2690967422.2862992     
   2675274635.0982423     
   2667392597.5143366     
   2667429788.8854337     
   2653465528.4751167     
   2637327890.4948907     
   2628846608.8495650     
   2628069195.7567081     
   2635044104.7699518     
   2630921388.8933454     
   2619514082.2748504     
   2615644779.4799728     
   2619325209.0054097     
   2630567197.8757696     
   2647196170.0204020     
   2637831787.9932709     
   2635841410.8127007     
   2641225038.4786844     
   2653982670.9912248     
   2726891565.7710209     
   2696470882.1458173     
   2674583948.0002160     
   2661434434.8846025     
   2657226821.3661838     
   2667429788.8854337     
   2646048660.0287552     
   2633343289.2057409     
   2629434397.5508742     
   2634440671.6052098     
   2635044104.7699518     
   2620479339.4978166     
   2614689353.4504371     
   2617729464.0416493     
   2629653153.9256477     
   2630567197.8757696     
   2620266983.3222613     
   2618830215.3987880     
   2626270892.5736465     
   2642602397.2262607     
   2653982670.9912248     
   2645205242.7512622     
   2645396679.6030564     
   2654556981.5466142     
   2672686148.5819364     
   2657226821.3661838     
   2632997269.1233282     
   2617645966.0683603     
   2611353631.3516798     
   2614291748.3355417     
   2634440671.6052098     
   2618588350.7381935     
   2611630808.7002134     
   2613670624.6920042     
   2624802975.6455083     
   2629653153.9256477     
   2620134262.2770228     
   2619529682.7813101     
   2627884939.7500343     
   2645241511.3246074     
   2642602397.2262607     
   2637193761.1901631     
   2640758501.2890730     
   2653307918.4418082     
   2674852175.3829131     
   2672686148.5819364     
   2669073383.2674508     
   2674559827.2504025     
   2689145480.5307870     
   2712830343.1086116     
   2614291748.3355417     
   2596471731.3415098     
   2589269127.9790626     
   2592831892.6931405     
   2607282291.3965125     
   2624802975.6455083     
   2614260416.9308290     
   2613976398.5380878     
   2624028285.3930326     
   2644478177.8089967     
   2645241511.3246074     
   2640218597.7792001     
   2645188090.8179188     
   2660182026.5749059     
   2685225471.5003958     
   2674852175.3829131     
   2673600021.7843266     
   2682192719.9605570     
   2700637785.7713094     
   2728940977.3433199     
   2712830343.1086116     
   2713644982.3650799     
   2724291454.0583363     
   2744769758.1883717     
   2775079894.7551966     
   2607282291.3965125     
   2594672409.9946146     
   2593153283.8165402     
   2602803419.9335070     
   2623718618.2222919     
   2644478177.8089967     
   2633558972.2706518     
   2632888524.5665536     
   2642505830.6285944     
   2662461147.8784485     
   2685225471.5003958     
   2675699347.0408015     
   2675759458.7710834     
   2685421049.0091529     
   2704704900.5175033     
   2728940977.3433199     
   2720665204.9442139     
   2721472750.0667911     
   2731366939.8876262     
   2750352589.1924067     
   2775079894.7551966     
   2768052159.1734242     
   2769746944.7935300     
   2780164251.6155100     
   2799304079.6393676     
   2623718618.2222919     
   2585206730.8631949     
   2552594181.7165546     
   2526462007.4125490     
   2507617459.3780866     
   2662461147.8784485     
   2617023753.4612670     
   2577258511.0595536     
   2543496058.9801164     
   2516198133.6574483     
   2704704900.5175033     
   2654430102.1879716     
   2609743243.1404305     
   2570791619.4041505     
   2537781496.6419997     
   2750352589.1924067     
   2697333783.9593997     
   2649961308.1921782     
   2608271746.7999749     
   2572316345.4179516     
   2799304079.6393676     
   2745634027.3732495     
   2697810989.9540071     
   2655834967.3816304     
   2619705959.6561227     
   2507617459.3780866     
   2357244278.8960233     
   2215047357.3250337     
   2086009672.9127023     
   1977011067.3099616     
   2516198133.6574483     
   2348292264.8241062     
   2183948984.0775309     
   2026269886.7502975     
   1879822305.8111482     
   2537781496.6419997     
   2357435226.9828963     
   2176832973.6732421     
   1997447052.8898802     
   1821556654.5304482     
   2572316345.4179516     
   2384776737.2200727     
   2194166190.9671431     
   2000863140.3546643     
   1805471812.0811110     
   2619705959.6561227     
   2430285501.6367469     
   2236091122.0389771     
   2037122820.8628330     
   1833380598.1083081     
   2635257181.1752934     
   2625112035.1009269     
   2623720151.2169933     
   2631081529.5234828     
   2647196170.0204020     
   2630903924.2537913     
   2617491069.3986964     
   2613010927.7217364     
   2617481587.8530579     
   2630921384.4333038     
   2679367915.7868805     
   2659275583.4089088     
   2648213012.6088061     
   2646251749.3879662     
   2653465518.8788180     
   2778923961.6159320     
   2749112378.2395072     
   2728312875.1643405     
   2716677470.2880387     
   2714366300.2162848     
   2925357129.9313827     
   2883380802.8839703     
   2850267450.8177838     
   2826261498.8931575     
   2811626995.8356986     
   2647196170.0204020     
   2637831787.9932709     
   2635841410.8127007     
   2641225038.4786844     
   2653982670.9912248     
   2630921384.4333038     
   2619514079.3688745     
   2615644777.9055610     
   2619325208.5257645     
   2630567198.2425704     
   2653465518.8788180     
   2637327884.1508307     
   2628846605.3396506     
   2628069194.6302886     
   2635044105.5485463     
   2714366300.2162848     
   2690967412.0551963     
   2675274629.3448105     
   2667392595.6109753     
   2667429790.1551080     
   2811626995.8356986     
   2778764717.0512094     
   2753569068.2282767     
   2736215985.2820053     
   2726891567.6401892     
   2653982670.9912248     
   2645205242.7512622     
   2645396679.6030564     
   2654556981.5466142     
   2672686148.5819364     
   2630567198.2425704     
   2620266984.7267132     
   2618830217.7937336     
   2626270895.9036803     
   2642602401.4283757     
   2635044105.5485463     
   2620479342.3026814     
   2614689358.1919656     
   2617729470.6136427     
   2629653162.2064471     
   2667429790.1551080     
   2646048664.2398129     
   2633343296.2364268     
   2629434407.2546377     
   2634440683.8116469     
   2726891567.6401892     
   2696470887.7795134     
   2674583957.2580328     
   2661434447.5937247     
   2657226837.3213782     
   2672686148.5819364     
   2669073383.2674508     
   2674559827.2504025     
   2689145480.5307870     
   2712830343.1086116     
   2642602401.4283757     
   2637193764.3466711     
   2640758503.4584579     
   2653307919.6895094     
   2674852175.7802429     
   2629653162.2064471     
   2620134268.5485849     
   2619529687.1592479     
   2627884942.3635168     
   2645241512.3143492     
   2634440683.8116469     
   2618588360.0724335     
   2611630815.3290343     
   2613670628.8021693     
   2624802977.4411941     
   2657226837.3213782     
   2632997281.4575415     
   2617645974.9907608     
   2611353637.0975652     
   2614291751.1636691     
   2712830343.1086116     
   2713644982.3650799     
   2724291454.0583363     
   2744769758.1883717     
   2775079894.7551966     
   2674852175.7802429     
   2673600022.1061606     
   2682192720.2202311     
   2700637785.9821868     
   2728940977.5186248     
   2645241512.3143492     
   2640218598.5744076     
   2645188091.4423585     
   2660182027.0531893     
   2685225471.8575778     
   2624802977.4411941     
   2614260418.3698673     
   2613976399.6508856     
   2624028286.2125258     
   2644478178.3700938     
   2614291751.1636691     
   2596471733.6106505     
   2589269129.7211385     
   2592831893.9452853     
   2607282292.2004104     
   2775079894.7551966     
   2768052159.1734242     
   2769746944.7935300     
   2780164251.6155100     
   2799304079.6393676     
   2728940977.5186248     
   2720665205.0951066     
   2721472750.2058287     
   2731366940.0271339     
   2750352589.3447347     
   2685225471.8575778     
   2675699347.3433900     
   2675759459.0445824     
   2685421049.2786527     
   2704704900.8080759     
   2644478178.3700938     
   2633558972.7371111     
   2632888524.9776626     
   2642505831.0231748     
   2662461148.2953711     
   2607282292.2004104     
   2594672410.6495280     
   2593153284.3768058     
   2602803420.4532514     
   2623718618.7559791     
   2799304079.6393676     
   2745634027.3732495     
   2697810989.9540071     
   2655834967.3816304     
   2619705959.6561227     
   2750352589.3447347     
   2697333784.0747919     
   2649961308.2748914     
   2608271746.8543510     
   2572316345.4482713     
   2704704900.8080759     
   2654430102.4075274     
   2609743243.2976136     
   2570791619.5077305     
   2537781496.7006693     
   2662461148.2953711     
   2617023753.7753825     
   2577258511.2840018     
   2543496059.1282902     
   2516198133.7427049     
   2623718618.7559791     
   2585206731.2639151     
   2552594182.0021935     
   2526462007.6013608     
   2507617459.4884596     
   2619705959.6561227     
   2430285501.6367469     
   2236091122.0389771     
   2037122820.8628330     
   1833380598.1083081     
   2572316345.4482713     
   2384776737.2439280     
   2194166190.9864502     
   2000863140.3716400     
   1805471812.0982771     
   2537781496.7006693     
   2357435227.0305185     
   2176832973.7138228     
   1997447052.9281492     
   1821556654.5720313     
   2516198133.7427049     
   2348292264.8955379     
   2183948984.1412358     
   2026269886.8136201     
   1879822305.8829720     
   2507617459.4884596     
   2357244278.9914045     
   2215047357.4135709     
   2086009673.0042453     
   1977011067.4162982     
   2925357129.9313827     
   2883380802.8839703     
   2850267450.8177838     
   2826261498.8931575     
   2811626995.8356986     
   3023457631.8222518     
   2975159577.8790216     
   2933755476.6141891     
   2899551353.4085436     
   2872887296.8961692     
   3164815604.7985616     
   3108615132.8113585     
   3057371670.9034090     
   3011381403.2924738     
   2970993870.9528036     
   3339502969.6287808     
   3275175478.9441681     
   3213942833.3286672     
   3156026898.4295764     
   3101722330.2714844     
   3538539097.1907272     
   3466877046.8027396     
   3396561066.8008876     
   3327694892.1935887     
   3260473111.2648840     
   2811626995.8356986     
   2778764717.0512094     
   2753569068.2282767     
   2736215985.2820053     
   2726891567.6401892     
   2872887296.8961692     
   2830784728.0944700     
   2795519904.9435596     
   2767331976.3253851     
   2746477694.0084271     
   2970993870.9528036     
   2918579923.7906513     
   2872133870.4146152     
   2831939027.1830091     
   2798304938.5224853     
   3101722330.2714844     
   3038603090.9767461     
   2980568764.8161998     
   2927921336.0178871     
   2880996433.5578046     
   3260473111.2648840     
   3186799628.0781703     
   3117350985.8190069     
   3052422962.3466859     
   2992349179.8887105     
   2726891567.6401892     
   2696470887.7795134     
   2674583957.2580328     
   2661434447.5937247     
   2657226837.3213782     
   2746477694.0084271     
   2704533470.2368245     
   2670798812.9153490     
   2645576717.8185563     
   2629180082.6858306     
   2798304938.5224853     
   2743235011.5110674     
   2695911864.7738609     
   2656734650.5945201     
   2626128678.1725898     
   2880996433.5578046     
   2811761991.6488390     
   2749668203.9456034     
   2695190583.9765658     
   2648852510.7101040     
   2992349179.8887105     
   2908449386.3595200     
   2830964687.9171600     
   2760414723.8577776     
   2697389946.4801927     
   2657226837.3213782     
   2632997281.4575415     
   2617645974.9907608     
   2611353637.0975652     
   2614291751.1636691     
   2629180082.6858306     
   2593887284.2807593     
   2567283289.8063717     
   2549650367.7897830     
   2541264462.3006296     
   2626128678.1725898     
   2578062765.2623324     
   2538377960.7865334     
   2507469026.0084858     
   2485735420.9649510     
   2648852510.7101040     
   2586746307.0871706     
   2532553654.0697560     
   2486776031.6715455     
   2449940168.1459222     
   2697389946.4801927     
   2620489478.7614450     
   2550863198.3005304     
   2489094035.8218451     
   2435818094.1706328     
   2614291751.1636691     
   2596471733.6106505     
   2589269129.7211385     
   2592831893.9452853     
   2607282292.2004104     
   2541264462.3006296     
   2512668244.9350019     
   2494353244.5684524     
   2486579028.5860963     
   2489571358.1538420     
   2485735420.9649510     
   2444293842.5594811     
   2412704064.0032716     
   2391364719.6668487     
   2380642036.8063731     
   2449940168.1459222     
   2393978401.8317189     
   2347252060.1315665     
   2310310029.8483052     
   2283685878.4163790     
   2435818094.1706328     
   2364228936.5526271     
   2301002423.0974259     
   2246819645.3349276     
   2202381542.1295271     
   2607282292.2004104     
   2594672410.6495280     
   2593153284.3768058     
   2602803420.4532514     
   2623718618.7559791     
   2489571358.1538420     
   2470031009.1439133     
   2462402264.9891143     
   2466821579.1199207     
   2483423347.8619666     
   2380642036.8063731     
   2351857532.2535176     
   2335957464.4261489     
   2333194075.3734303     
   2343789661.2096786     
   2283685878.4163790     
   2242973099.7184873     
   2216208292.5848165     
   2203846866.6998272     
   2206280776.7704988     
   2202381542.1295271     
   2146760549.0540740     
   2106123759.3110623     
   2081249627.4352334     
   2072825813.9358685     
   2623718618.7559791     
   2585206731.2639151     
   2552594182.0021935     
   2526462007.6013608     
   2507617459.4884596     
   2483423347.8619666     
   2450706847.9792118     
   2426562350.6096482     
   2411935031.8560209     
   2408200683.4387980     
   2343789661.2096786     
   2319319705.7012691     
   2306396266.4823728     
   2306424551.4025073     
   2321492426.7657170     
   2206280776.7704988     
   2191826439.8291330     
   2192379730.6387887     
   2209909079.8987517     
   2247334252.7184863     
   2072825813.9358685     
   2069201665.3887143     
   2084831417.2725842     
   2122344910.1690078     
   2185554588.2029328     
   2507617459.4884596     
   2357244278.9914045     
   2215047357.4135709     
   2086009673.0042453     
   1977011067.4162982     
   2408200683.4387980     
   2282897016.3642244     
   2168102286.6539807     
   2070558282.8823364     
   1999035662.8961709     
   2321492426.7657170     
   2224768812.0317826     
   2141376547.9249184     
   2079681870.9778035     
   2049857698.1863480     
   2247334252.7184863     
   2182650053.8448324     
   2134399448.1952806     
   2112249340.5722139     
   2127134639.8043165     
   2185554588.2029328     
   2156246590.8912020     
   2146523961.1827643     
   2166909614.0818810     
   2228474920.1631842     
   3538539097.1907272     
   3466877046.8027396     
   3396561066.8008876     
   3327694892.1935887     
   3260473111.2648840     
   3835013858.8282766     
   3724321573.0476170     
   3619912333.5978827     
   3522066918.4639187     
   3431182852.4789400     
   4186164065.7483320     
   4032223560.2446270     
   3889651976.3278980     
   3758429887.9524956     
   3638886350.2062402     
   4596868595.1328440     
   4394259976.1100473     
   4207576536.2652650     
   4036257219.1751647     
   3880490884.3623657     
   5071040094.3012667     
   4812959207.0244951     
   4574458453.2025681     
   4354369347.8737440     
   4152821737.1213903     
   3260473111.2648840     
   3186799628.0781703     
   3117350985.8190069     
   3052422962.3466859     
   2992349179.8887105     
   3431182852.4789400     
   3341409394.5285993     
   3255908580.4785075     
   3174998069.6037450     
   3099057329.5088606     
   3638886350.2062402     
   3532474864.2437568     
   3430196732.1505542     
   3332360028.0099049     
   3239359050.1935201     
   3880490884.3623657     
   3756780197.6621418     
   3636923427.9567862     
   3521189213.8702712     
   3409954438.9431276     
   4152821737.1213903     
   4011001613.5458350     
   3872659913.7631407     
   3738000506.9229202     
   3607353296.1543112     
   2992349179.8887105     
   2908449386.3595200     
   2830964687.9171600     
   2760414723.8577776     
   2697389946.4801927     
   3099057329.5088606     
   2998884076.2610188     
   2904258446.4987717     
   2815705826.4135828     
   2733847732.2808909     
   3239359050.1935201     
   3123305645.4585195     
   3011861670.4214215     
   2905511358.1763082     
   2804850764.7632480     
   3409954438.9431276     
   3278711899.1278696     
   3151147349.6210465     
   3027668656.1179852     
   2908798807.2292910     
   3607353296.1543112     
   3461758894.5572891     
   3318977810.4147663     
   3179322685.7327042     
   3043213636.9975142     
   2697389946.4801927     
   2620489478.7614450     
   2550863198.3005304     
   2489094035.8218451     
   2435818094.1706328     
   2733847732.2808909     
   2640597549.7795086     
   2553476352.8679724     
   2473085655.3262887     
   2400112100.8884649     
   2804850764.7632480     
   2696014009.3473587     
   2592053161.0877490     
   2493517041.5099902     
   2401059289.6683612     
   2908798807.2292910     
   2785761147.5521989     
   2666363312.8600464     
   2551044866.6288328     
   2440349816.2337217     
   3043213636.9975142     
   2907755715.5779986     
   2774833980.0671287     
   2644753274.6559482     
   2517904663.7706685     
   2435818094.1706328     
   2364228936.5526271     
   2301002423.0974259     
   2246819645.3349276     
   2202381542.1295271     
   2400112100.8884649     
   2310098540.3788195     
   2227700761.3008056     
   2153716017.1806684     
   2089018015.7807014     
   2401059289.6683612     
   2292808364.1594353     
   2191082733.8406205     
   2096703284.5156879     
   2010629008.3840168     
   2440349816.2337217     
   2314926713.1831837     
   2194726799.5608263     
   2080477302.3733673     
   1973082191.8623357     
   2517904663.7706685     
   2377090247.6613889     
   2240186335.7077260     
   2107733474.6480339     
   1980445592.0163383     
   2202381542.1295271     
   2146760549.0540740     
   2106123759.3110623     
   2081249627.4352334     
   2072825813.9358685     
   2089018015.7807014     
   2013452374.6955900     
   1950287313.4939528     
   1900613357.4307566     
   1865471551.5696809     
   2010629008.3840168     
   1913699452.1603940     
   1825586566.0917635     
   1747501090.9158516     
   1680747702.3300622     
   1973082191.8623357     
   1856375829.7491086     
   1744082088.5888674     
   1637130955.8933866     
   1536664774.5190825     
   1980445592.0163383     
   1849093859.1831725     
   1717820923.6532359     
   1586981137.6080530     
   1457088944.3086576     
   2072825813.9358685     
   2069201665.3887143     
   2084831417.2725842     
   2122344910.1690078     
   2185554588.2029328     
   1865471551.5696809     
   1854902601.9046078     
   1867313639.4580839     
   1904911184.6378725     
   1970726926.7330647     
   1680747702.3300622     
   1652255848.0754151     
   1651486676.2351582     
   1680804683.8173382     
   1742817615.7416525     
   1536664774.5190825     
   1475866635.0433872     
   1447761746.9130509     
   1456308361.3002067     
   1504795988.0786970     
   1457088944.3086576     
   1348197869.1210620     
   1274296289.2557251     
   1243498798.6055281     
   1262832536.6913178     
   2185554588.2029328     
   2156246590.8912020     
   2146523961.1827643     
   2166909614.0818810     
   2228474920.1631842     
   1970726926.7330647     
   1968907515.9358888     
   2003625847.4945831     
   2093552934.4714737     
   2257346096.8374529     
   1742817615.7416525     
   1787659901.6900146     
   1884645134.2913547     
   2060676369.2350137     
   2340977564.2410531     
   1504795988.0786970     
   1613219406.1588449     
   1788841078.7818224     
   2066401885.1360075     
   2476098447.1522679     
   1262832536.6913178     
   1446627848.0135715     
   1715648833.1811559     
   2110462829.1838872     
   2663495443.2064357     
   5071040094.3012667     
   4812959207.0244951     
   4574458453.2025681     
   4354369347.8737440     
   4152821737.1213903     
   5247861712.1250048     
   5030685040.7106104     
   4813291683.7465677     
   4595615680.0390577     
   4377662864.1671400     
   5338124031.5389042     
   5161093822.9274073     
   4985548886.7847528     
   4804131857.8772860     
   4611377525.3815985     
   5269134718.3495035     
   5155619348.2989740     
   5060684139.8891640     
   4962261940.3656826     
   4846485990.6069069     
   5001871061.9552469     
   4986673346.1775398     
   5020843766.2133970     
   5059155458.5504961     
   5077839474.8770142     
   4152821737.1213903     
   4011001613.5458350     
   3872659913.7631407     
   3738000506.9229202     
   3607353296.1543112     
   4377662864.1671400     
   4227134612.3997984     
   4078353940.9403348     
   3931490241.8467274     
   3786772115.9692802     
   4611377525.3815985     
   4454991956.0438070     
   4299656478.1687336     
   4145454204.1588464     
   3992487329.5566750     
   4846485990.6069069     
   4687562472.5252867     
   4529921222.9899006     
   4373514011.4132881     
   4218299639.4602580     
   5077839474.8770142     
   4919804808.5756102     
   4764143924.4414692     
   4610625471.0160065     
   4459037387.8227930     
   3607353296.1543112     
   3461758894.5572891     
   3318977810.4147663     
   3179322685.7327042     
   3043213636.9975142     
   3786772115.9692802     
   3630622477.5044408     
   3475967158.4266796     
   3323020455.2809577     
   3172079036.6882787     
   3992487329.5566750     
   3827117141.9733000     
   3662209265.3718886     
   3497886930.3689227     
   3334329136.4200191     
   4218299639.4602580     
   4045240654.1055489     
   3871891049.0060377     
   3698303059.4098420     
   3524562607.6536117     
   4459037387.8227930     
   4279904190.3577409     
   4099979329.9247952     
   3919268480.1811047     
   3737796288.6959047     
   3043213636.9975142     
   2907755715.5779986     
   2774833980.0671287     
   2644753274.6559482     
   2517904663.7706685     
   3172079036.6882787     
   3026761206.1363268     
   2883567998.1733866     
   2742747341.7836223     
   2604636322.4157701     
   3334329136.4200191     
   3178726056.5271692     
   3024786149.0541420     
   2872698742.0765443     
   2722744799.0036778     
   3524562607.6536117     
   3358011145.9348073     
   3192627333.5590138     
   3028544741.3160605     
   2865991430.6974468     
   3737796288.6959047     
   3559438374.1144090     
   3381730327.8891735     
   3204755404.1101670     
   3028695116.9234409     
   2517904663.7706685     
   2377090247.6613889     
   2240186335.7077260     
   2107733474.6480339     
   1980445592.0163383     
   2604636322.4157701     
   2454995394.4804459     
   2307304788.1662998     
   2161879887.0273294     
   2019146375.4351912     
   2722744799.0036778     
   2567066087.4295173     
   2411894709.1700087     
   2257353873.7108335     
   2103612656.6357634     
   2865991430.6974468     
   2707384750.6430135     
   2548397088.2229614     
   2389044610.2865801     
   2229355117.7471137     
   3028695116.9234409     
   2870301625.8079524     
   2711141139.0912576     
   2551214007.3955193     
   2390535553.4380450     
   1980445592.0163383     
   1849093859.1831725     
   1717820923.6532359     
   1586981137.6080530     
   1457088944.3086576     
   2019146375.4351912     
   1881781666.5375974     
   1744755432.9596770     
   1608193758.1543491     
   1472270427.5286047     
   2103612656.6357634     
   1962939045.7919466     
   1823235172.8741376     
   1684527195.0785789     
   1546870117.4720075     
   2229355117.7471137     
   2086341335.0852339     
   1945006882.3113844     
   1805350053.8931005     
   1667448414.9782803     
   2390535553.4380450     
   2244505165.5288138     
   2100718265.7223194     
   1959177246.3166482     
   1820056901.8306038     
   1457088944.3086576     
   1348197869.1210620     
   1274296289.2557251     
   1243498798.6055281     
   1262832536.6913178     
   1472270427.5286047     
   1328174794.9729183     
   1198553022.6430414     
   1087880855.6314802     
   1002053266.4173179     
   1546870117.4720075     
   1397159519.1646965     
   1243888730.9140096     
   1084783261.7819529     
   917808845.12116086     
   1667448414.9782803     
   1552228165.2209001     
   1427880124.7218795     
   1294761497.2212179     
   1158993337.1264603     
   1820056901.8306038     
   1779626875.1726973     
   1735647032.0037618     
   1696756691.3938186     
   1681456383.4990354     
   1262832536.6913178     
   1446627848.0135715     
   1715648833.1811559     
   2110462829.1838872     
   2663495443.2064357     
   1002053266.4173179     
   1164697719.5027375     
   1425389604.2486811     
   1808707624.3973703     
   2334730514.7839165     
   917808845.12116086     
   963147054.48879051     
   1144905506.3118289     
   1476443822.1965160     
   1957447589.0381646     
   1158993337.1264603     
   1008484139.1534406     
   985217026.91715014     
   1161471519.4419036     
   1544161031.3133857     
   1681456383.4990354     
   1383846818.5143943     
   1129498437.7684917     
   1010153929.1777318     
   1153144835.7453613     
 </DataArray>
 <DataArray  type="Float64" Name="strain" NumberOfComponents="3" format="ascii">
   8.3070452096167591E-002  -9.4673811945702457E-003  -2.9469158137215845E-002
   8.3402196046605592E-002  -1.7235654378374821E-002  -2.0090910391398875E-002
   8.3733939997043483E-002  -2.2482077821410790E-002  -1.3555883950280956E-002
   8.4065683947481429E-002  -2.5206651523678521E-002  -9.8640788138620594E-003
   8.4397427897919375E-002  -2.5409375485177743E-002  -9.0154949821419361E-003
   8.8988480408229820E-002  -1.3965934875516894E-002  -1.7542367822922511E-002
   8.6945228691328869E-002  -1.9100620276644054E-002  -9.9944225001223908E-003
   8.4901976974427973E-002  -2.2491209590108779E-002  -4.3532472073010142E-003
   8.2858725257526938E-002  -2.4137702815911134E-002  -6.1884194445868679E-004
   8.0815473540626015E-002  -2.4040099954050986E-002   1.2087932884051189E-003
   9.0475007745699887E-002  -1.8464488556463377E-002  -2.5931128993990360E-003
   8.6993211636180123E-002  -2.0965586174913342E-002   2.3467763472783398E-003
   8.3511415526660443E-002  -2.2500341358806755E-002   6.3163468386969318E-003
   8.0029619417140721E-002  -2.3068754108143966E-002   9.3155985748570799E-003
   7.6547823307620944E-002  -2.2670824422924507E-002   1.1344531555758541E-002
   8.7530034108577501E-002  -2.2963042237409942E-002   1.5378606633354767E-002
   8.3546144881159329E-002  -2.2830552073182603E-002   1.6932686150803365E-002
   7.9562255653740976E-002  -2.2509473127504849E-002   1.8452898187713587E-002
   7.5578366426322666E-002  -2.1999805400376465E-002   1.9939242744085137E-002
   7.1594477198904410E-002  -2.1301548891797778E-002   2.1391719819918442E-002
   8.0153559496863092E-002  -2.7461595918356507E-002   3.6372790775338670E-002
   7.6604028426266346E-002  -2.4695517971451864E-002   3.3763306910452651E-002
   7.3054497355669656E-002  -2.2518604896202818E-002   3.2056406839748391E-002
   6.9504966285072911E-002  -2.0930856692609186E-002   3.1252090563225685E-002
   6.5955435214476221E-002  -1.9932273360671104E-002   3.1350358080884599E-002
   8.4397427897919375E-002  -2.5409375485177743E-002  -9.0154949821419361E-003
   8.1896781037413213E-002  -2.4394174988944695E-002  -7.1439965721545318E-003
   7.9396134176907052E-002  -2.3464975318014836E-002  -5.4589924656062716E-003
   7.6895487316400890E-002  -2.2621776472389082E-002  -3.9604826624968226E-003
   7.4394840455894728E-002  -2.1864578452066574E-002  -2.6484671628265177E-003
   8.0815473540626015E-002  -2.4040099954050986E-002   1.2087932884051189E-003
   7.8187021253666195E-002  -2.3102232533983885E-002   2.3785008013907927E-003
   7.5558568966706458E-002  -2.2227932085164243E-002   3.4790917649082376E-003
   7.2930116679746651E-002  -2.1417198607592856E-002   4.5105661789578422E-003
   7.0301664392786900E-002  -2.0670032101269165E-002   5.4729240435391069E-003
   7.6547823307620944E-002  -2.2670824422924507E-002   1.1344531555758541E-002
   7.3908943348178532E-002  -2.1810290079023020E-002   1.1834882025798021E-002
   7.1270063388736121E-002  -2.0990888852313649E-002   1.2373493700340327E-002
   6.8631183429293710E-002  -2.0212620742796519E-002   1.2960366579385547E-002
   6.5992303469851299E-002  -1.9475485750471644E-002   1.3595500662933496E-002
   7.1594477198904410E-002  -2.1301548891797778E-002   2.1391719819918442E-002
   6.9062547320950213E-002  -2.0518347624062072E-002   2.1225147101067481E-002
   6.6530617442996098E-002  -1.9753845619462834E-002   2.1224213340690246E-002
   6.3998687565041942E-002  -1.9008042878000238E-002   2.1388918538786789E-002
   6.1466757687087800E-002  -1.8280939399674179E-002   2.1719262695356963E-002
   6.5955435214476221E-002  -1.9932273360671104E-002   3.1350358080884599E-002
   6.3647833171981277E-002  -1.9226405169101207E-002   3.0549296027198858E-002
   6.1340231129486361E-002  -1.8516802386612213E-002   3.0031250685957689E-002
   5.9032629086991417E-002  -1.7803465013203977E-002   2.9796222057161342E-002
   5.6725027044496557E-002  -1.7086393048876602E-002   2.9844210140809679E-002
   7.4394840455894728E-002  -2.1864578452066574E-002  -2.6484671628265177E-003
   7.1376011119488270E-002  -2.1122253640377342E-002  -2.4742573784766186E-003
   6.8357181783081700E-002  -2.0323674420650611E-002  -2.2132885708677774E-003
   6.5338352446675130E-002  -1.9468840792887097E-002  -1.8655607399983565E-003
   6.2319523110268671E-002  -1.8557752757086265E-002  -1.4310738858694938E-003
   7.0301664392786900E-002  -2.0670032101269165E-002   5.4729240435391069E-003
   6.7382856470603436E-002  -1.9931994310341428E-002   5.4949933332704703E-003
   6.4464048548419861E-002  -1.9148646978958017E-002   5.6303464281882709E-003
   6.1545240626236342E-002  -1.8319990107118572E-002   5.8789833282924669E-003
   5.8626432704052822E-002  -1.7446023694823842E-002   6.2409040335827948E-003
   6.5992303469851299E-002  -1.9475485750471644E-002   1.3595500662933496E-002
   6.3200041743817312E-002  -1.8741734980305569E-002   1.3454484590465776E-002
   6.0407780017783269E-002  -1.7973619537265215E-002   1.3453277105110337E-002
   5.7615518291749226E-002  -1.7171139421350495E-002   1.3591878206867969E-002
   5.4823256565715239E-002  -1.6334294632561253E-002   1.3870287895738437E-002
   6.1466757687087800E-002  -1.8280939399674179E-002   2.1719262695356963E-002
   5.8827566939129883E-002  -1.7551475650269682E-002   2.1404216393108216E-002
   5.6188376191171875E-002  -1.6798592095572405E-002   2.1255503459898826E-002
   5.3549185443213951E-002  -1.6022288735582195E-002   2.1273123895728462E-002
   5.0909994695255992E-002  -1.5222565570298857E-002   2.1457077700597439E-002
   5.6725027044496557E-002  -1.7086393048876602E-002   2.9844210140809679E-002
   5.4265432056541135E-002  -1.6361216320233934E-002   2.9344188741198540E-002
   5.1805837068585714E-002  -1.5623564653879721E-002   2.9037025492553159E-002
   4.9346242080630348E-002  -1.4873438049813784E-002   2.8922720394873910E-002
   4.6886647092674927E-002  -1.4110836508036406E-002   2.9001273448160114E-002
   6.2319523110268671E-002  -1.8557752757086265E-002  -1.4310738858694938E-003
   5.9351895356789308E-002  -1.7647610892338905E-002  -1.3285846315843619E-003
   5.6384267603309945E-002  -1.6795615777735001E-002  -1.0191203369208091E-003
   5.3416639849830583E-002  -1.6001767413274658E-002  -5.0268100187905729E-004
   5.0449012096351220E-002  -1.5266065798958062E-002   2.2073337354133749E-004
   5.8626432704052822E-002  -1.7446023694823842E-002   6.2409040335827948E-003
   5.5856155164145327E-002  -1.6570864182160361E-002   6.1731476840082844E-003
   5.3085877624237776E-002  -1.5738628009215605E-002   6.2931167211992545E-003
   5.0315600084330253E-002  -1.4949315175989589E-002   6.6008111451554274E-003
   4.7545322544422730E-002  -1.4202925682481493E-002   7.0962309558766368E-003
   5.4823256565715239E-002  -1.6334294632561253E-002   1.3870287895738437E-002
   5.2231079585766449E-002  -1.5494117471981927E-002   1.3647509352729237E-002
   4.9638902605817631E-002  -1.4681640240696112E-002   1.3593206542873118E-002
   4.7046725625868813E-002  -1.3896862938703857E-002   1.3707379466168283E-002
   4.4454548645920022E-002  -1.3139785566005258E-002   1.3990028122615961E-002
   5.0909994695255992E-002  -1.5222565570298857E-002   2.1457077700597439E-002
   4.8476668621652695E-002  -1.4417370761803550E-002   2.1094500374579508E-002
   4.6043342548049412E-002  -1.3624652472176556E-002   2.0881149128099980E-002
   4.3610016474446178E-002  -1.2844410701418346E-002   2.0817023961159850E-002
   4.1176690400842833E-002  -1.2076645449528411E-002   2.0902124873758671E-002
   4.6886647092674927E-002  -1.4110836508036406E-002   2.9001273448160114E-002
   4.4592922271804086E-002  -1.3340624051625005E-002   2.8514120749557614E-002
   4.2299197450933190E-002  -1.2567664703657069E-002   2.8156944476880857E-002
   4.0005472630062294E-002  -1.1791958464132741E-002   2.7929744630130107E-002
   3.7711747809191398E-002  -1.1013505333051898E-002   2.7832521209304795E-002
   5.0449012096351220E-002  -1.5266065798958062E-002   2.2073337354133749E-004
   4.7795635013987869E-002  -1.4530786942689389E-002   1.8401906764131670E-004
   4.5142257931624519E-002  -1.3738206852372037E-002   1.2027717378138014E-004
   4.2488880849261224E-002  -1.2888325528007200E-002   2.9507691961527804E-005
   3.9835503766897817E-002  -1.1981142969593517E-002  -8.8289377817352133E-005
   4.7545322544422730E-002  -1.4202925682481493E-002   7.0962309558766368E-003
   4.4886997428068565E-002  -1.3459152715483924E-002   6.9420076177448831E-003
   4.2228672311714399E-002  -1.2677689461787184E-002   6.8049157995905829E-003
   3.9570347195360178E-002  -1.1858535921392001E-002   6.6849555014145690E-003
   3.6912022079006124E-002  -1.1001692094297466E-002   6.5821267232160086E-003
   4.4454548645920022E-002  -1.3139785566005258E-002   1.3990028122615961E-002
   4.1835434603512578E-002  -1.2387518488278237E-002   1.3698684804902633E-002
   3.9216320561105161E-002  -1.1617172071201887E-002   1.3468632115104712E-002
   3.6597206518697703E-002  -1.0828746314776580E-002   1.3299870053221974E-002
   3.3978092476290300E-002  -1.0022241219001193E-002   1.3192398619255530E-002
   4.1176690400842833E-002  -1.2076645449528411E-002   2.0902124873758671E-002
   3.8640946540319798E-002  -1.1315884261072773E-002   2.0454050629114644E-002
   3.6105202679796763E-002  -1.0556654680617256E-002   2.0111426120323544E-002
   3.3569458819273756E-002  -9.7989567081611592E-003   1.9874251347385595E-002
   3.1033714958750749E-002  -9.0427903437048096E-003   1.9742526310301059E-002
   3.7711747809191398E-002  -1.1013505333051898E-002   2.7832521209304795E-002
   3.5303533238490337E-002  -1.0244250033867364E-002   2.7208105090380741E-002
   3.2895318667789247E-002  -9.4961372900318752E-003   2.6733297815247636E-002
   3.0487104097088158E-002  -8.7691671015457176E-003   2.6408099383904843E-002
   2.8078889526387041E-002  -8.0633394684083148E-003   2.6232509796353054E-002
   3.9835503766897817E-002  -1.1981142969593517E-002  -8.8289377817352133E-005
   3.7429323154732685E-002  -1.1130076637359876E-002  -3.3735685773450541E-004
   3.5023142542567665E-002  -1.0448543991533998E-002  -5.0547698246006245E-004
   3.2616961930402533E-002  -9.9365450321155374E-003  -5.9264975199385672E-004
   3.0210781318237512E-002  -9.5940797591056448E-003  -5.9887516633505555E-004
   3.6912022079006124E-002  -1.1001692094297466E-002   6.5821267232160086E-003
   3.4569986004967412E-002  -1.0182347450143348E-002   6.1646973419158257E-003
   3.2227949930928812E-002  -9.4756914585678587E-003   5.7946096816762216E-003
   2.9885913856890156E-002  -8.8817241195711660E-003   5.4718637424982786E-003
   2.7543877782851556E-002  -8.4004454331543243E-003   5.1964595243804146E-003
   3.3978092476290300E-002  -1.0022241219001193E-002   1.3192398619255530E-002
   3.1666595306247047E-002  -9.2346182629260420E-003   1.2663452370401174E-002
   2.9355098136203767E-002  -8.5028389256015247E-003   1.2148242208476240E-002
   2.7043600966160486E-002  -7.8269032070272457E-003   1.1646768133481353E-002
   2.4732103796117233E-002  -7.2068111072035590E-003   1.1159030145416582E-002
   3.1033714958750749E-002  -9.0427903437048096E-003   1.9742526310301059E-002
   2.8719151058571646E-002  -8.2868890757091251E-003   1.9158908227721233E-002
   2.6404587158392688E-002  -7.5299863926352878E-003   1.8555420597940166E-002
   2.4090023258213626E-002  -6.7720822944828778E-003   1.7932063420957763E-002
   2.1775459358034738E-002  -6.0131767812525161E-003   1.7288836696774015E-002
   2.8078889526387041E-002  -8.0633394684083148E-003   2.6232509796353054E-002
   2.5727653261941263E-002  -7.3391598884924858E-003   2.5651064913876365E-002
   2.3376416997495431E-002  -6.5571338596691064E-003   2.5016144850067312E-002
   2.1025180733049625E-002  -5.7172613819386903E-003   2.4327749604926119E-002
   1.8673944468603820E-002  -4.8195424553013622E-003   2.3585879178452340E-002
   3.0210781318237512E-002  -9.5940797591056448E-003  -5.9887516633505555E-004
   2.9603441776119621E-002  -9.1316714172943181E-003  -3.5850323037123211E-004
   2.8996102234001897E-002  -8.2598432514746079E-003  -1.7980384450680953E-003
   2.8388762691884117E-002  -6.9785952616452235E-003  -4.9174808104244239E-003
   2.7781423149766282E-002  -5.2879274478070393E-003  -9.7168303264403288E-003
   2.7543877782851556E-002  -8.4004454331543243E-003   5.1964595243804146E-003
   2.5525687450158818E-002  -7.8696169732119792E-003   5.8716213808993611E-003
   2.3507497117466053E-002  -7.1270003136404969E-003   5.4049888069284679E-003
   2.1489306784773357E-002  -6.1725954544389755E-003   3.7965618024670411E-003
   1.9471116452080550E-002  -5.0064023956080117E-003   1.0463403675156080E-003
   2.4732103796117233E-002  -7.2068111072035590E-003   1.1159030145416582E-002
   2.1841175393019246E-002  -6.6075625291293627E-003   1.2071350298112182E-002
   1.8950246989921288E-002  -5.9941573758061917E-003   1.2379988740486403E-002
   1.6059318586823287E-002  -5.3665956472327345E-003   1.2084945472540451E-002
   1.3168390183725315E-002  -4.7248773434096503E-003   1.1186220494274424E-002
   2.1775459358034738E-002  -6.0131767812525161E-003   1.7288836696774015E-002
   1.8549905604701107E-002  -5.3455080850475512E-003   1.8240683521265622E-002
   1.5324351851367539E-002  -4.8613144379722056E-003   1.9126961355606535E-002
   1.2098798098033974E-002  -4.5605958400264900E-003   1.9947670199796836E-002
   8.8732443447003401E-003  -4.4433522912111778E-003   2.0702810053836285E-002
   1.8673944468603820E-002  -4.8195424553013622E-003   2.3585879178452340E-002
   1.5651878085204352E-002  -4.0834536409648514E-003   2.4379621050360845E-002
   1.2629811701804855E-002  -3.7284715001382474E-003   2.5645906652288664E-002
   9.6077453184053307E-003  -3.7545960328204189E-003   2.7384735984235187E-002
   6.5856789350058897E-003  -4.1618272390122613E-003   2.9596109046200914E-002
   2.7781423149766282E-002  -5.2879274478070393E-003  -9.7168303264403288E-003
   2.3354585735660405E-002  -4.2061181814008197E-003  -4.1877347830701073E-003
   1.8927748321554361E-002  -4.7514458338635546E-003   2.6051682272216770E-003
   1.4500910907448372E-002  -6.9239104051989631E-003   1.0661878704434136E-002
   1.0074073493342439E-002  -1.0723511895404769E-002   1.9982396648567935E-002
   1.9471116452080550E-002  -5.0064023956080117E-003   1.0463403675156080E-003
   1.6235776902551291E-002  -4.6906385986776877E-003   6.7408149167228482E-003
   1.3000437353021810E-002  -6.2875215251763650E-003   1.3554477728162095E-002
   9.7650978034925784E-003  -9.7970511751044459E-003   2.1487328801832961E-002
   6.5297582539629584E-003  -1.5219227548461944E-002   3.0539368137736833E-002
   1.3168390183725315E-002  -4.7248773434096503E-003   1.1186220494274424E-002
   1.0979929294084062E-002  -5.1751590159555549E-003   1.6760564244758913E-002
   8.7914684044427399E-003  -7.8235972164887313E-003   2.3309477052787075E-002
   6.6030075148014317E-003  -1.2670191945009707E-002   3.0832958918359077E-002
   4.4145466251601650E-003  -1.9714943201519119E-002   3.9331009841475195E-002
   8.8732443447003401E-003  -4.4433522912111778E-003   2.0702810053836285E-002
   7.5870429102587456E-003  -5.6596794332331446E-003   2.5871513201040044E-002
   6.3008414758170331E-003  -9.3596729078017638E-003   3.1870166201099212E-002
   5.0146400413753241E-003  -1.5543332714915745E-002   3.8698769054013912E-002
   3.7284386069336151E-003  -2.4210658854575851E-002   4.6357321759783354E-002
   6.5856789350058897E-003  -4.1618272390122613E-003   2.9596109046200914E-002
   6.0571177510752583E-003  -6.1441998505109563E-003   3.4073661785565590E-002
   5.5285565671446824E-003  -1.0895748599113797E-002   3.9236545173096715E-002
   4.9999953832141480E-003  -1.8416473484821200E-002   4.5084759208795067E-002
   4.4714341992835305E-003  -2.8706374507633026E-002   5.1618303892660311E-002
   8.0153559496863092E-002  -2.7461595918356507E-002   3.6372790775338670E-002
   7.6604028426266346E-002  -2.4695517971451864E-002   3.3763306910452651E-002
   7.3054497355669656E-002  -2.2518604896202818E-002   3.2056406839748391E-002
   6.9504966285072911E-002  -2.0930856692609186E-002   3.1252090563225685E-002
   6.5955435214476221E-002  -1.9932273360671104E-002   3.1350358080884599E-002
   7.1057858760158688E-002  -2.4046123948655740E-002   4.0508432390829741E-002
   6.8308919796703199E-002  -2.1983476696253779E-002   3.8293471610555130E-002
   6.5559980833247766E-002  -2.0324732478117433E-002   3.6777111250381661E-002
   6.2811041869792278E-002  -1.9069891294246546E-002   3.5959351310308987E-002
   6.0062102906336845E-002  -1.8218953144641031E-002   3.5840191790337178E-002
   6.2955206748066872E-002  -2.0630651978954945E-002   4.3848012393122707E-002
   6.0802876517671745E-002  -1.9271435421055721E-002   4.2212836534850098E-002
   5.8650546287276770E-002  -1.8130860060032054E-002   4.1072277722597368E-002
   5.6498216056881712E-002  -1.7208925895883798E-002   4.0426335956364606E-002
   5.4345885826486667E-002  -1.6505632928611041E-002   4.0275011236151931E-002
   5.5845603460587534E-002  -1.7215180009254163E-002   4.6391530782218415E-002
   5.4085898589172079E-002  -1.6559394145857664E-002   4.5521401683337320E-002
   5.2326193717756653E-002  -1.5936987641946589E-002   4.4941906256395339E-002
   5.0566488846341219E-002  -1.5347960497521018E-002   4.4653044501392646E-002
   4.8806783974925771E-002  -1.4792312712580927E-002   4.4654816418329031E-002
   4.9729048897720785E-002  -1.3799708039553382E-002   4.8138987558116131E-002
   4.8157986011204107E-002  -1.3847352870659524E-002   4.8219167056016699E-002
   4.6586923124687429E-002  -1.3743115223861305E-002   4.8385996851775553E-002
   4.5015860238170780E-002  -1.3486995099158381E-002   4.8639476945392932E-002
   4.3444797351654130E-002  -1.3078992496550979E-002   4.8979607336868514E-002
   6.5955435214476221E-002  -1.9932273360671104E-002   3.1350358080884599E-002
   6.3647833171981277E-002  -1.9226405169101207E-002   3.0549296027198858E-002
   6.1340231129486361E-002  -1.8516802386612213E-002   3.0031250685957689E-002
   5.9032629086991417E-002  -1.7803465013203977E-002   2.9796222057161342E-002
   5.6725027044496557E-002  -1.7086393048876602E-002   2.9844210140809679E-002
   6.0062102906336845E-002  -1.8218953144641031E-002   3.5840191790337178E-002
   5.8019716222241641E-002  -1.7567795633189831E-002   3.5202481785333667E-002
   5.5977329538146520E-002  -1.6912296363781727E-002   3.4812185784684965E-002
   5.3934942854051322E-002  -1.6252455336416491E-002   3.4669303788391177E-002
   5.1892556169956194E-002  -1.5588272551094462E-002   3.4773835796452074E-002
   5.4345885826486667E-002  -1.6505632928611041E-002   4.0275011236151931E-002
   5.2533111792701329E-002  -1.5909186097278580E-002   3.9801260446868582E-002
   5.0720337758916059E-002  -1.5307790340951352E-002   3.9539320953850363E-002
   4.8907563725130762E-002  -1.4701445659629175E-002   3.9489192757096912E-002
   4.7094789691345451E-002  -1.4090152053312321E-002   3.9650875856608356E-002
   4.8806783974925771E-002  -1.4792312712580927E-002   4.4654816418329031E-002
   4.7188019883360431E-002  -1.4250576561367377E-002   4.4345632011803783E-002
   4.5569255791795077E-002  -1.3703284318120866E-002   4.4212656193453631E-002
   4.3950491700229681E-002  -1.3150435982842009E-002   4.4255888963278464E-002
   4.2331727608664368E-002  -1.2592031555530070E-002   4.4475330321278178E-002
   4.3444797351654130E-002  -1.3078992496550979E-002   4.8979607336868514E-002
   4.1984440494218817E-002  -1.2591967025455925E-002   4.8835596480139298E-002
   4.0524083636783489E-002  -1.2098778295290477E-002   4.8832191503495048E-002
   3.9063726779348149E-002  -1.1599426306054480E-002   4.8969392406935916E-002
   3.7603369921912849E-002  -1.1093911057748040E-002   4.9247199190461777E-002
   5.6725027044496557E-002  -1.7086393048876602E-002   2.9844210140809679E-002
   5.4265432056541135E-002  -1.6361216320233934E-002   2.9344188741198540E-002
   5.1805837068585714E-002  -1.5623564653879721E-002   2.9037025492553159E-002
   4.9346242080630348E-002  -1.4873438049813784E-002   2.8922720394873910E-002
   4.6886647092674927E-002  -1.4110836508036406E-002   2.9001273448160114E-002
   5.1892556169956194E-002  -1.5588272551094462E-002   3.4773835796452074E-002
   4.9625945286218956E-002  -1.4915700636202428E-002   3.4321100465470072E-002
   4.7359334402481648E-002  -1.4230692220127752E-002   3.4061475191958610E-002
   4.5092723518744375E-002  -1.3533247302870314E-002   3.3994959975917526E-002
   4.2826112635007102E-002  -1.2823365884430116E-002   3.4121554817346966E-002
   4.7094789691345451E-002  -1.4090152053312321E-002   3.9650875856608356E-002
   4.5021414818330933E-002  -1.3470184952170963E-002   3.9245388157726629E-002
   4.2948039945316499E-002  -1.2837819786375833E-002   3.9033262422819966E-002
   4.0874665072302051E-002  -1.2193056555926675E-002   3.9014498651888566E-002
   3.8801290199287602E-002  -1.1535895260823631E-002   3.9189096844932200E-002
   4.2331727608664368E-002  -1.2592031555530070E-002   4.4475330321278178E-002
   4.0451840652877311E-002  -1.2024669268139589E-002   4.4117051817967920E-002
   3.8571953697090280E-002  -1.1444947352623861E-002   4.3952387185137450E-002
   3.6692066741303202E-002  -1.0852865808983064E-002   4.3981336422786663E-002
   3.4812179785516185E-002  -1.0248424637217188E-002   4.4203899530915733E-002
   3.7603369921912849E-002  -1.1093911057748040E-002   4.9247199190461777E-002
   3.5917222789857900E-002  -1.0579153584108020E-002   4.8936091446194041E-002
   3.4231075657802965E-002  -1.0052074918871987E-002   4.8818849478910992E-002
   3.2544928525748008E-002  -9.5126750620396321E-003   4.8895473288612143E-002
   3.0858781393693080E-002  -8.9609540136108001E-003   4.9165962875297786E-002
   4.6886647092674927E-002  -1.4110836508036406E-002   2.9001273448160114E-002
   4.4592922271804086E-002  -1.3340624051625005E-002   2.8514120749557614E-002
   4.2299197450933190E-002  -1.2567664703657069E-002   2.8156944476880857E-002
   4.0005472630062294E-002  -1.1791958464132741E-002   2.7929744630130107E-002
   3.7711747809191398E-002  -1.1013505333051898E-002   2.7832521209304795E-002
   4.2826112635007102E-002  -1.2823365884430116E-002   3.4121554817346966E-002
   4.0669053862071675E-002  -1.2105370653070630E-002   3.3680072770808367E-002
   3.8511995089136261E-002  -1.1383584297055493E-002   3.3381946394214629E-002
   3.6354936316200785E-002  -1.0658006816384888E-002   3.3227175687566238E-002
   3.4197877543265420E-002  -9.9286382110586047E-003   3.3215760650862902E-002
   3.8801290199287602E-002  -1.1535895260823631E-002   3.9189096844932200E-002
   3.6794276718306811E-002  -1.0870117254516282E-002   3.8794329683556561E-002
   3.4787263237326088E-002  -1.0199503890453911E-002   3.8556297436145338E-002
   3.2780249756345338E-002  -9.5240551686369222E-003   3.8475000102698428E-002
   3.0773236275364629E-002  -8.8437710890649224E-003   3.8550437683215727E-002
   3.4812179785516185E-002  -1.0248424637217188E-002   4.4203899530915733E-002
   3.2968590840509404E-002  -9.6348638559618643E-003   4.3856891487802432E-002
   3.1125001895502619E-002  -9.0154234838523313E-003   4.3679997602672771E-002
   2.9281412950495772E-002  -8.3901035208889564E-003   4.3673217875526568E-002
   2.7437824005489046E-002  -7.7589039670713789E-003   4.3836552306364206E-002
   3.0858781393693080E-002  -8.9609540136108001E-003   4.9165962875297786E-002
   2.9191996228679490E-002  -8.3996104574075026E-003   4.8867758183545940E-002
   2.7525211063665872E-002  -7.8313430772506548E-003   4.8753046893796975E-002
   2.5858425898652268E-002  -7.2561518731411347E-003   4.8821829006050935E-002
   2.4191640733638664E-002  -6.6740368450779464E-003   4.9074104520307471E-002
   3.7711747809191398E-002  -1.1013505333051898E-002   2.7832521209304795E-002
   3.5303533238490337E-002  -1.0244250033867364E-002   2.7208105090380741E-002
   3.2895318667789247E-002  -9.4961372900318752E-003   2.6733297815247636E-002
   3.0487104097088158E-002  -8.7691671015457176E-003   2.6408099383904843E-002
   2.8078889526387041E-002  -8.0633394684083148E-003   2.6232509796353054E-002
   3.4197877543265420E-002  -9.9286382110586047E-003   3.3215760650862902E-002
   3.1941071593621584E-002  -9.2042805359279778E-003   3.2664895537032224E-002
   2.9684265643977747E-002  -8.4937358458449519E-003   3.2267238821525240E-002
   2.7427459694333939E-002  -7.7970041408095131E-003   3.2022790504341994E-002
   2.5170653744690047E-002  -7.1140854208217030E-003   3.1931550585482527E-002
   3.0773236275364629E-002  -8.8437710890649224E-003   3.8550437683215727E-002
   2.8671438501311000E-002  -8.1643110379885642E-003   3.8080453144780091E-002
   2.6569640727257371E-002  -7.4913344016581257E-003   3.7767276559201299E-002
   2.4467842953203769E-002  -6.8248411800735272E-003   3.7610907926478997E-002
   2.2366045179150112E-002  -6.1648313732347026E-003   3.7611347246613525E-002
   2.7437824005489046E-002  -7.7589039670713789E-003   4.3836552306364206E-002
   2.5494633961558613E-002  -7.1243415400490534E-003   4.3454777913624912E-002
   2.3551443917628215E-002  -6.4889329574711954E-003   4.3233411028275673E-002
   2.1608253873697799E-002  -5.8526782193373764E-003   4.3172451650316093E-002
   1.9665063829767383E-002  -5.2155773256477300E-003   4.3271899779745895E-002
   2.4191640733638664E-002  -6.6740368450779464E-003   4.9074104520307471E-002
   2.2410657974364423E-002  -6.0843720421095981E-003   4.8787869843566534E-002
   2.0629675215090182E-002  -5.4865315132842929E-003   4.8665642228748474E-002
   1.8848692455815927E-002  -4.8805152586013159E-003   4.8707421675852958E-002
   1.7067709696541672E-002  -4.2663232780609794E-003   4.8913208184880319E-002
   2.8078889526387041E-002  -8.0633394684083148E-003   2.6232509796353054E-002
   2.5727653261941263E-002  -7.3391598884924858E-003   2.5651064913876365E-002
   2.3376416997495431E-002  -6.5571338596691064E-003   2.5016144850067312E-002
   2.1025180733049625E-002  -5.7172613819386903E-003   2.4327749604926119E-002
   1.8673944468603820E-002  -4.8195424553013622E-003   2.3585879178452340E-002
   2.5170653744690047E-002  -7.1140854208217030E-003   3.1931550585482527E-002
   2.2804838910812503E-002  -6.4308213155331861E-003   3.1528804633340846E-002
   2.0439024076934889E-002  -5.7330534545964040E-003   3.1150376723668660E-002
   1.8073209243057275E-002  -5.0207818380116065E-003   3.0796266856465096E-002
   1.5707394409179676E-002  -4.2940064657783772E-003   3.0466475031730167E-002
   2.2366045179150112E-002  -6.1648313732347026E-003   3.7611347246613525E-002
   2.0063444999641938E-002  -5.5224827425739698E-003   3.7343957531548705E-002
   1.7760844820133750E-002  -4.9089730495240069E-003   3.7178679082753990E-002
   1.5458244640625542E-002  -4.3243022940841827E-003   3.7115511900229409E-002
   1.3155644461117347E-002  -3.7684704762551147E-003   3.7154455983974571E-002
   1.9665063829767383E-002  -5.2155773256477300E-003   4.3271899779745895E-002
   1.7503471528429730E-002  -4.6141441696150448E-003   4.3096523608499318E-002
   1.5341879227092074E-002  -4.0848926444513461E-003   4.3101051927323518E-002
   1.3180286925754408E-002  -3.6278227501569289E-003   4.3285484736218835E-002
   1.1018694624416764E-002  -3.2429344867322130E-003   4.3649822035185436E-002
   1.7067709696541672E-002  -4.2663232780609794E-003   4.8913208184880319E-002
   1.5124918497175760E-002  -3.7058055966555647E-003   4.8786502864192283E-002
   1.3182127297809834E-002  -3.2608122393787686E-003   4.8917495257376875E-002
   1.1239336098443901E-002  -2.9313432062296405E-003   4.9306185364433680E-002
   9.2965448990779964E-003  -2.7173984972088672E-003   4.9952573185362725E-002
   1.8673944468603820E-002  -4.8195424553013622E-003   2.3585879178452340E-002
   1.5651878085204352E-002  -4.0834536409648514E-003   2.4379621050360845E-002
   1.2629811701804855E-002  -3.7284715001382474E-003   2.5645906652288664E-002
   9.6077453184053307E-003  -3.7545960328204189E-003   2.7384735984235187E-002
   6.5856789350058897E-003  -4.1618272390122613E-003   2.9596109046200914E-002
   1.5707394409179676E-002  -4.2940064657783772E-003   3.0466475031730167E-002
   1.3139680606854609E-002  -3.7787528127482539E-003   3.1247498932273798E-002
   1.0571966804529584E-002  -3.7010463537735239E-003   3.2464684264947641E-002
   8.0042530022045519E-003  -4.0608870888535695E-003   3.4118031029751306E-002
   5.4365391998794921E-003  -4.8582750179890777E-003   3.6207539226684959E-002
   1.3155644461117347E-002  -3.7684704762551147E-003   3.7154455983974571E-002
   1.1005900941977703E-002  -3.4740519845316564E-003   3.7866321392607677E-002
   8.8561574228380388E-003  -3.6736212074088975E-003   3.8977965935481626E-002
   6.7064139036983814E-003  -4.3671781448869386E-003   4.0489389612596634E-002
   4.5566703845586753E-003  -5.5547227969656721E-003   4.2400592423952443E-002
   1.1018694624416764E-002  -3.2429344867322130E-003   4.3649822035185436E-002
   9.2505390905735160E-003  -3.1693511563150589E-003   4.4236088431362071E-002
   7.4823835567302335E-003  -3.6461960610442226E-003   4.5185751663890966E-002
   5.7142280228869632E-003  -4.6734692009200874E-003   4.6498811732771435E-002
   3.9460724890436963E-003  -6.2511705759423775E-003   4.8175268638003962E-002
   9.2965448990779964E-003  -2.7173984972088672E-003   4.9952573185362725E-002
   7.8735950526420684E-003  -2.8646503280983504E-003   5.0356800048537376E-002
   6.4506452062061681E-003  -3.6187709146798808E-003   5.1088041450174926E-002
   5.0276953597702539E-003  -4.9797602569533195E-003   5.2146297390275653E-002
   3.6047455133343398E-003  -6.9476183549190829E-003   5.3531567868839058E-002
   6.5856789350058897E-003  -4.1618272390122613E-003   2.9596109046200914E-002
   6.0571177510752583E-003  -6.1441998505109563E-003   3.4073661785565590E-002
   5.5285565671446824E-003  -1.0895748599113797E-002   3.9236545173096715E-002
   4.9999953832141480E-003  -1.8416473484821200E-002   4.5084759208795067E-002
   4.4714341992835305E-003  -2.8706374507633026E-002   5.1618303892660311E-002
   5.4365391998794921E-003  -4.8582750179890777E-003   3.6207539226684959E-002
   5.4894628961272840E-003  -6.9924519372921434E-003   3.8347913656174182E-002
   5.5423865923750343E-003  -1.1362659642875667E-002   4.0965927197853302E-002
   5.5953102886228887E-003  -1.7968898134740265E-002   4.4061579851722904E-002
   5.6482339848706875E-003  -2.6811167412885473E-002   4.7634871617781460E-002
   4.5566703845586753E-003  -5.5547227969656721E-003   4.2400592423952443E-002
   4.9833874250080068E-003  -7.8407040240732195E-003   4.2736933894390511E-002
   5.4101044654573521E-003  -1.1829570686637980E-002   4.3343222941041259E-002
   5.8368215059066940E-003  -1.7521322784659496E-002   4.4219459563905300E-002
   6.2635385463560289E-003  -2.4915960318137920E-002   4.5365643762982577E-002
   3.9460724890436963E-003  -6.2511705759423775E-003   4.8175268638003962E-002
   4.5388913377176834E-003  -8.6889561108545732E-003   4.7240722500213821E-002
   5.1317101863916480E-003  -1.2296481730399739E-002   4.6368432402659865E-002
   5.7245290350656777E-003  -1.7073747434578755E-002   4.5558398345342012E-002
   6.3173478837395963E-003  -2.3020753223390367E-002   4.4810620328260470E-002
   3.6047455133343398E-003  -6.9476183549190829E-003   5.3531567868839058E-002
   4.1559746342561543E-003  -9.5372081976354828E-003   5.1859279473644659E-002
   4.7072037551779411E-003  -1.2763392774161997E-002   5.0041555582709951E-002
   5.2584328760996724E-003  -1.6626172084497640E-002   4.8078396196034101E-002
   5.8096619970214869E-003  -2.1125546128642814E-002   4.5969801313618053E-002
   4.9729048897720785E-002  -1.3799708039553382E-002   4.8138987558116131E-002
   4.8157986011204107E-002  -1.3847352870659524E-002   4.8219167056016699E-002
   4.6586923124687429E-002  -1.3743115223861305E-002   4.8385996851775553E-002
   4.5015860238170780E-002  -1.3486995099158381E-002   4.8639476945392932E-002
   4.3444797351654130E-002  -1.3078992496550979E-002   4.8979607336868514E-002
   4.4002878094159509E-002  -1.2238994099515843E-002   5.1550079206830135E-002
   4.2537627179780643E-002  -1.2210896962079332E-002   5.1569480737838153E-002
   4.1072376265401819E-002  -1.2069999172888132E-002   5.1713855915263507E-002
   3.9607125351022968E-002  -1.1816300731942283E-002   5.1983204739106073E-002
   3.8141874436644102E-002  -1.1449801639241863E-002   5.2377527209365948E-002
   3.8064426084596842E-002  -1.0678280159478276E-002   5.5056453737161545E-002
   3.6743310490914609E-002  -1.0574441053499001E-002   5.4975995475127257E-002
   3.5422194897232445E-002  -1.0396883121915064E-002   5.5058834208069347E-002
   3.4101079303550261E-002  -1.0145606364726211E-002   5.5304969935987200E-002
   3.2779963709868076E-002  -9.8206107819327482E-003   5.5714402658881293E-002
   3.1913692869032693E-002  -9.1175662194407231E-003   5.8658111149110681E-002
   3.0775035944606052E-002  -8.9379851449187669E-003   5.8438711267884205E-002
   2.9636379020179366E-002  -8.7237670709418881E-003   5.8420931730192902E-002
   2.8497722095752701E-002  -8.4749119975101525E-003   5.8604772536036402E-002
   2.7359065171326045E-002  -8.1914199246236330E-003   5.8990233685414825E-002
   2.5550678447467196E-002  -7.5568522794031701E-003   6.2355051442677611E-002
   2.4632803540854870E-002  -7.3015292363384499E-003   6.1957628116109054E-002
   2.3714928634242585E-002  -7.0506510199688788E-003   6.1800148481634343E-002
   2.2797053727630280E-002  -6.8042176302940960E-003   6.1882612539253590E-002
   2.1879178821017975E-002  -6.5622290673145733E-003   6.2205020288966462E-002
   4.3444797351654130E-002  -1.3078992496550979E-002   4.8979607336868514E-002
   4.1984440494218817E-002  -1.2591967025455925E-002   4.8835596480139298E-002
   4.0524083636783489E-002  -1.2098778295290477E-002   4.8832191503495048E-002
   3.9063726779348149E-002  -1.1599426306054480E-002   4.8969392406935916E-002
   3.7603369921912849E-002  -1.1093911057748040E-002   4.9247199190461777E-002
   3.8141874436644102E-002  -1.1449801639241863E-002   5.2377527209365948E-002
   3.6829865590176314E-002  -1.1023583468306591E-002   5.2188671053645747E-002
   3.5517856743708526E-002  -1.0590727792656282E-002   5.2155905039775616E-002
   3.4205847897240751E-002  -1.0151234612290946E-002   5.2279229167755438E-002
   3.2893839050772949E-002  -9.7051039272107453E-003   5.2558643437585401E-002
   3.2779963709868076E-002  -9.8206107819327482E-003   5.5714402658881293E-002
   3.1631787136132704E-002  -9.4551999111571611E-003   5.5481175449814915E-002
   3.0483610562397352E-002  -9.0826772900219829E-003   5.5419522644363332E-002
   2.9335433988661959E-002  -8.7030429185274687E-003   5.5529444242526732E-002
   2.8187257414926607E-002  -8.3162967966733947E-003   5.5810940244304899E-002
   2.7359065171326045E-002  -8.1914199246236330E-003   5.8990233685414825E-002
   2.6390205132088000E-002  -7.8868163540076683E-003   5.8713109668646554E-002
   2.5421345092849979E-002  -7.5746267873876803E-003   5.8623044317258122E-002
   2.4452485053611923E-002  -7.2548512247639632E-003   5.8720037631249333E-002
   2.3483625014373913E-002  -6.9274896661360996E-003   5.9004089610620356E-002
   2.1879178821017975E-002  -6.5622290673145733E-003   6.2205020288966462E-002
   2.1105119578042175E-002  -6.3184327968584253E-003   6.1884473710140719E-002
   2.0331060335066375E-002  -6.0665762847534471E-003   6.1766470058459838E-002
   1.9557001092090576E-002  -5.8066595310004472E-003   6.1851009333923609E-002
   1.8782941849114776E-002  -5.5386825355987490E-003   6.2138091536531936E-002
   3.7603369921912849E-002  -1.1093911057748040E-002   4.9247199190461777E-002
   3.5917222789857900E-002  -1.0579153584108020E-002   4.8936091446194041E-002
   3.4231075657802965E-002  -1.0052074918871987E-002   4.8818849478910992E-002
   3.2544928525748008E-002  -9.5126750620396321E-003   4.8895473288612143E-002
   3.0858781393693080E-002  -8.9609540136108001E-003   4.9165962875297786E-002
   3.2893839050772949E-002  -9.7051039272107453E-003   5.2558643437585401E-002
   3.1403875730251218E-002  -9.2500070706793558E-003   5.2264610978051906E-002
   2.9913912409729487E-002  -8.7836153759604796E-003   5.2169080364600454E-002
   2.8423949089207756E-002  -8.3059288430541930E-003   5.2272051597230841E-002
   2.6933985768685997E-002  -7.8169474719608778E-003   5.2573524675943395E-002
   2.8187257414926607E-002  -8.3162967966733947E-003   5.5810940244304899E-002
   2.6898113975035658E-002  -7.9208605572503449E-003   5.5532956716096732E-002
   2.5608970535144691E-002  -7.5151558330488685E-003   5.5458111103068038E-002
   2.4319827095253731E-002  -7.0991826240690888E-003   5.5586403405218851E-002
   2.3030683655362774E-002  -6.6729409303106502E-003   5.5917833622549332E-002
   2.3483625014373913E-002  -6.9274896661360996E-003   5.9004089610620356E-002
   2.2399937524211280E-002  -6.5917140438215074E-003   5.8741128660328455E-002
   2.1316250034048655E-002  -6.2466962901373373E-003   5.8685941694313744E-002
   2.0232562543886005E-002  -5.8924364050838727E-003   5.8838528712576110E-002
   1.9148875053723400E-002  -5.5289343886605197E-003   5.9198889715115624E-002
   1.8782941849114776E-002  -5.5386825355987490E-003   6.2138091536531936E-002
   1.7909346377778038E-002  -5.2625675303926145E-003   6.1889126810747541E-002
   1.7035750906441313E-002  -4.9782367472258060E-003   6.1852572138337752E-002
   1.6162155435104554E-002  -4.6856901860986150E-003   6.2028427519302765E-002
   1.5288559963767850E-002  -4.3849278470105002E-003   6.2416692953642383E-002
   3.0858781393693080E-002  -8.9609540136108001E-003   4.9165962875297786E-002
   2.9191996228679490E-002  -8.3996104574075026E-003   4.8867758183545940E-002
   2.7525211063665872E-002  -7.8313430772506548E-003   4.8753046893796975E-002
   2.5858425898652268E-002  -7.2561518731411347E-003   4.8821829006050935E-002
   2.4191640733638664E-002  -6.6740368450779464E-003   4.9074104520307471E-002
   2.6933985768685997E-002  -7.8169474719608778E-003   5.2573524675943395E-002
   2.5454147988783177E-002  -7.3187515357286126E-003   5.2307296537004749E-002
   2.3974310208880342E-002  -6.8134213074067945E-003   5.2231469766285094E-002
   2.2494472428977522E-002  -6.3009567869953230E-003   5.2346044363783997E-002
   2.1014634649074687E-002  -5.7813579744938615E-003   5.2651020329501808E-002
   2.3030683655362774E-002  -6.6729409303106502E-003   5.5917833622549332E-002
   2.1744701226786650E-002  -6.2378926140499169E-003   5.5683792504560722E-002
   2.0458718798210547E-002  -5.7954995375629273E-003   5.5647060721006718E-002
   1.9172736369634454E-002  -5.3457617008494541E-003   5.5807638271887339E-002
   1.7886753941058320E-002  -4.8886791039097766E-003   5.6165525157202717E-002
   1.9148875053723400E-002  -5.5289343886605197E-003   5.9198889715115624E-002
   1.8063655942689917E-002  -5.1570336923713461E-003   5.8997246086213304E-002
   1.6978436831656445E-002  -4.7775777677189525E-003   5.8999819757961744E-002
   1.5893217720622993E-002  -4.3905666147037803E-003   5.9206610730360910E-002
   1.4807998609589493E-002  -3.9960002333255251E-003   5.9617619003410387E-002
   1.5288559963767850E-002  -4.3849278470105002E-003   6.2416692953642383E-002
   1.4411012136492957E-002  -4.0761747706924978E-003   6.2247657281963076E-002
   1.3533464309218063E-002  -3.7596559978751165E-003   6.2289746877150609E-002
   1.2655916481943190E-002  -3.4353715285578637E-003   6.2542961739204511E-002
   1.1778368654668303E-002  -3.1033213627414957E-003   6.3007301868124865E-002
   2.4191640733638664E-002  -6.6740368450779464E-003   4.9074104520307471E-002
   2.2410657974364423E-002  -6.0843720421095981E-003   4.8787869843566534E-002
   2.0629675215090182E-002  -5.4865315132842929E-003   4.8665642228748474E-002
   1.8848692455815927E-002  -4.8805152586013159E-003   4.8707421675852958E-002
   1.7067709696541672E-002  -4.2663232780609794E-003   4.8913208184880319E-002
   2.1014634649074687E-002  -5.7813579744938615E-003   5.2651020329501808E-002
   1.9407189725611049E-002  -5.2572565187200548E-003   5.2428465163352755E-002
   1.7799744802147396E-002  -4.7312840684910484E-003   5.2388978606902337E-002
   1.6192299878683779E-002  -4.2034406238072447E-003   5.2532560660150232E-002
   1.4584854955220133E-002  -3.6737261846681024E-003   5.2859211323097011E-002
   1.7886753941058320E-002  -4.8886791039097766E-003   5.6165525157202717E-002
   1.6471908401181165E-002  -4.4301409953302617E-003   5.6000344770243238E-002
   1.5057062861304031E-002  -3.9760366236982342E-003   5.6037294540758023E-002
   1.3642217321426866E-002  -3.5263659890133366E-003   5.6276374468747385E-002
   1.2227371781549708E-002  -3.0811290912755029E-003   5.6717584554210970E-002
   1.4807998609589493E-002  -3.9960002333255251E-003   5.9617619003410387E-002
   1.3604814001074741E-002  -3.6030254719405380E-003   5.9503508664238328E-002
   1.2401629392559961E-002  -3.2207891789053159E-003   5.9610590030316157E-002
   1.1198444784045185E-002  -2.8492913542193469E-003   5.9938863101644403E-002
   9.9952601755304241E-003  -2.4885319978827647E-003   6.0488327878223259E-002
   1.1778368654668303E-002  -3.1033213627414957E-003   6.3007301868124865E-002
   1.0805906525291800E-002  -2.7759099485507033E-003   6.2937956845337539E-002
   9.8334443959152834E-003  -2.4655417341122032E-003   6.3108865075576281E-002
   8.8609822665387875E-003  -2.1722167194253086E-003   6.3520026558841175E-002
   7.8885201371622637E-003  -1.8959349044901375E-003   6.4171441295132414E-002
   1.7067709696541672E-002  -4.2663232780609794E-003   4.8913208184880319E-002
   1.5124918497175760E-002  -3.7058055966555647E-003   4.8786502864192283E-002
   1.3182127297809834E-002  -3.2608122393787686E-003   4.8917495257376875E-002
   1.1239336098443901E-002  -2.9313432062296405E-003   4.9306185364433680E-002
   9.2965448990779964E-003  -2.7173984972088672E-003   4.9952573185362725E-002
   1.4584854955220133E-002  -3.6737261846681024E-003   5.2859211323097011E-002
   1.2898516342112754E-002  -3.2002624831691251E-003   5.2741684045514992E-002
   1.1212177729005443E-002  -2.8411712514054832E-003   5.2879364226577796E-002
   9.5258391158981048E-003  -2.5964524893764829E-003   5.3272251866285203E-002
   7.8395005027907527E-003  -2.4661061970830955E-003   5.3920346964637655E-002
   1.2227371781549708E-002  -3.0811290912755029E-003   5.6717584554210970E-002
   1.0794995499473492E-002  -2.6947193696824079E-003   5.6610387174127696E-002
   9.3626192173972937E-003  -2.4215302634317676E-003   5.6755906997461900E-002
   7.9302429353210867E-003  -2.2615617725232177E-003   5.7154144024213545E-002
   6.4978666532448798E-003  -2.2148138969572129E-003   5.7805098254382403E-002
   9.9952601755304241E-003  -2.4885319978827647E-003   6.0488327878223259E-002
   8.8143559692579008E-003  -2.1891762561957739E-003   6.0392612250031286E-002
   7.6334517629854026E-003  -2.0018892754581560E-003   6.0547123570029421E-002
   6.4525475567129061E-003  -1.9266710556701174E-003   6.0951861838217415E-002
   5.2716433504404088E-003  -1.9635215968311082E-003   6.1606827054595678E-002
   7.8885201371622637E-003  -1.8959349044901375E-003   6.4171441295132414E-002
   6.9565977514660232E-003  -1.6836331427092510E-003   6.4088359273224982E-002
   6.0246753657697688E-003  -1.5822482874848220E-003   6.4253013944280180E-002
   5.0927529800735283E-003  -1.5917803388166979E-003   6.4665405308298035E-002
   4.1608305943772739E-003  -1.7122292967054475E-003   6.5325533365278354E-002
   9.2965448990779964E-003  -2.7173984972088672E-003   4.9952573185362725E-002
   7.8735950526420684E-003  -2.8646503280983504E-003   5.0356800048537376E-002
   6.4506452062061681E-003  -3.6187709146798808E-003   5.1088041450174926E-002
   5.0276953597702539E-003  -4.9797602569533195E-003   5.2146297390275653E-002
   3.6047455133343398E-003  -6.9476183549190829E-003   5.3531567868839058E-002
   7.8395005027907527E-003  -2.4661061970830955E-003   5.3920346964637655E-002
   6.7175744259818648E-003  -2.6495941283848357E-003   5.3853911239144847E-002
   5.5956483491730324E-003  -3.3463780371408014E-003   5.4062508514442664E-002
   4.4737222723641445E-003  -4.5564579233523042E-003   5.4546138790532189E-002
   3.3517961955553122E-003  -6.2798337870180188E-003   5.5304802067412395E-002
   6.4978666532448798E-003  -2.2148138969572129E-003   5.7805098254382403E-002
   5.6249828083914100E-003  -2.4345379286710433E-003   5.7361572718458376E-002
   4.7520989635379124E-003  -3.0739851596021661E-003   5.7141098645654170E-002
   3.8792151186844322E-003  -4.1331555897509559E-003   5.7143676035969690E-002
   3.0063312738309450E-003  -5.6120492191169546E-003   5.7369304889404560E-002
   5.2716433504404088E-003  -1.9635215968311082E-003   6.1606827054595678E-002
   4.5958201998706691E-003  -2.2194817289574453E-003   6.0879784486478634E-002
   3.9199970493009259E-003  -2.8015922820633088E-003   6.0323811843809444E-002
   3.2441738987311767E-003  -3.7098532561497741E-003   5.9938909126588037E-002
   2.5683507481614430E-003  -4.9442646512161126E-003   5.9725076334814595E-002
   4.1608305943772739E-003  -1.7122292967054475E-003   6.5325533365278354E-002
   3.6300866004196214E-003  -2.0044255292437363E-003   6.4408546543205381E-002
   3.0993426064619828E-003  -2.5291994045245347E-003   6.3610648108908541E-002
   2.5685986125043095E-003  -3.2865509225486686E-003   6.2931838062388085E-002
   2.0378546185466639E-003  -4.2764800833148264E-003   6.2372116403643929E-002
   3.6047455133343398E-003  -6.9476183549190829E-003   5.3531567868839058E-002
   4.1559746342561543E-003  -9.5372081976354828E-003   5.1859279473644659E-002
   4.7072037551779411E-003  -1.2763392774161997E-002   5.0041555582709951E-002
   5.2584328760996724E-003  -1.6626172084497640E-002   4.8078396196034101E-002
   5.8096619970214869E-003  -2.1125546128642814E-002   4.5969801313618053E-002
   3.3517961955553122E-003  -6.2798337870180188E-003   5.5304802067412395E-002
   3.7750978419446718E-003  -8.5476762194506839E-003   5.2951390142537580E-002
   4.1983994883340731E-003  -1.1391155811962150E-002   5.0487558764338081E-002
   4.6217011347235645E-003  -1.4810272564552140E-002   4.7913307932814342E-002
   5.0450027811128062E-003  -1.8805026477220821E-002   4.5228637647967362E-002
   3.0063312738309450E-003  -5.6120492191169546E-003   5.7369304889404560E-002
   3.3367214881045298E-003  -7.5581442412657740E-003   5.4395727008578920E-002
   3.6671117023781216E-003  -1.0018918849762498E-002   5.1346745716846220E-002
   3.9975019166516579E-003  -1.2994373044606856E-002   4.8222361014205545E-002
   4.3278921309253260E-003  -1.6484506825798828E-002   4.5022572900657587E-002
   2.5683507481614430E-003  -4.9442646512161126E-003   5.9725076334814595E-002
   2.8408455727357181E-003  -6.5686122630810306E-003   5.6192290071770262E-002
   3.1133403973099810E-003  -8.6466818875627488E-003   5.2619116440234835E-002
   3.3858352218842959E-003  -1.1178473524661354E-002   4.9005555440208085E-002
   3.6583300464585189E-003  -1.4163987174376946E-002   4.5351607071690697E-002
   2.0378546185466639E-003  -4.2764800833148264E-003   6.2372116403643929E-002
   2.2874700958382121E-003  -5.5790802848958432E-003   5.8341079332110746E-002
   2.5370855731297187E-003  -7.2744449253631105E-003   5.4304670934503307E-002
   2.7867010504212530E-003  -9.3625740047160455E-003   5.0262891210821392E-002
   3.0363165277128012E-003  -1.1843467522954843E-002   4.6215740161065000E-002
   2.5550678447467196E-002  -7.5568522794031701E-003   6.2355051442677611E-002
   2.4632803540854870E-002  -7.3015292363384499E-003   6.1957628116109054E-002
   2.3714928634242585E-002  -7.0506510199688788E-003   6.1800148481634343E-002
   2.2797053727630280E-002  -6.8042176302940960E-003   6.1882612539253590E-002
   2.1879178821017975E-002  -6.5622290673145733E-003   6.2205020288966462E-002
   1.9101894893570559E-002  -5.6676394221081283E-003   6.3345421108352118E-002
   1.8421344916567467E-002  -5.4761470506644316E-003   6.2982232725351278E-002
   1.7740794939564361E-002  -5.2879883230999569E-003   6.2853750509474865E-002
   1.7060244962561262E-002  -5.1031632394147597E-003   6.2959974460723295E-002
   1.6379694985558163E-002  -4.9216717996087289E-003   6.3300904579096012E-002
   1.2693854281013169E-002  -3.7784265648131143E-003   6.4271404510998054E-002
   1.2245391708650084E-002  -3.6507648649903995E-003   6.3943562254380415E-002
   1.1796929136287004E-002  -3.5253256262311183E-003   6.3845188639918241E-002
   1.1348466563923921E-002  -3.4021088485352846E-003   6.3976283667611503E-002
   1.0900003991560846E-002  -3.2811145319027457E-003   6.4336847337460104E-002
   6.3265566097950292E-003  -1.8892137075181004E-003   6.5133001650614919E-002
   6.1049439171027807E-003  -1.8253826793164160E-003   6.4841616703196436E-002
   5.8833312244105209E-003  -1.7626629293623491E-003   6.4774462872964192E-002
   5.6617185317182610E-003  -1.7010544576558234E-003   6.4931540159918200E-002
   5.4401058390260073E-003  -1.6405572641969152E-003   6.5312848564058404E-002
   1.8799161463634029E-009  -8.5022305862381131E-010   6.5930212527202769E-002
   1.5419255178228397E-009  -4.9364232146409392E-010   6.5676396071799314E-002
   1.2039348927517235E-009  -2.3249341341013974E-010   6.5641573208612969E-002
   8.6594427288477771E-010  -6.6776445484251212E-011   6.5825743937643511E-002
   5.2795364607893802E-010   3.5090819139327323E-012   6.6228908258891106E-002
   2.1879178821017975E-002  -6.5622290673145733E-003   6.2205020288966462E-002
   2.1105119578042175E-002  -6.3184327968584253E-003   6.1884473710140719E-002
   2.0331060335066375E-002  -6.0665762847534471E-003   6.1766470058459838E-002
   1.9557001092090576E-002  -5.8066595310004472E-003   6.1851009333923609E-002
   1.8782941849114776E-002  -5.5386825355987490E-003   6.2138091536531936E-002
   1.6379694985558163E-002  -4.9216717996087289E-003   6.3300904579096012E-002
   1.5805921632117768E-002  -4.7388245924280675E-003   6.3004946514262042E-002
   1.5232148278677367E-002  -4.5499322066192838E-003   6.2907017301354076E-002
   1.4658374925236972E-002  -4.3549946421821348E-003   6.3007116940372393E-002
   1.4084601571796578E-002  -4.1540118991166275E-003   6.3305245431316770E-002
   1.0900003991560846E-002  -3.2811145319027457E-003   6.4336847337460104E-002
   1.0522002452437309E-002  -3.1592163879978902E-003   6.4063462723597503E-002
   1.0144000913313776E-002  -3.0332881284848914E-003   6.3983592886442453E-002
   9.7659993741902387E-003  -2.9033297533638206E-003   6.4097237825994982E-002
   9.3879978350667054E-003  -2.7693412626344505E-003   6.4404397542255132E-002
   5.4401058390260073E-003  -1.6405572641969152E-003   6.5312848564058404E-002
   5.2533620390007923E-003  -1.5796081835678169E-003   6.5060022338147089E-002
   5.0666182389755756E-003  -1.5166440503506413E-003   6.4996196813724844E-002
   4.8798744389503580E-003  -1.4516648645455628E-003   6.5121371990791627E-002
   4.6931306389251422E-003  -1.3846706261523289E-003   6.5435547869347480E-002
   5.2795364607893802E-010   3.5090819139327323E-012   6.6228908258891106E-002
   3.9180821434503521E-010   2.0862589433789935E-011   6.5994625357910897E-002
   2.5566277914168545E-010   2.7783705891515353E-011   6.5944829083201290E-002
   1.1951734740778264E-010   2.4272788640145038E-011   6.6079519434762077E-002
  -1.6628087795567126E-011   1.0329848088019844E-011   6.6398696412593383E-002
   1.8782941849114776E-002  -5.5386825355987490E-003   6.2138091536531936E-002
   1.7909346377778038E-002  -5.2625675303926145E-003   6.1889126810747541E-002
   1.7035750906441313E-002  -4.9782367472258060E-003   6.1852572138337752E-002
   1.6162155435104554E-002  -4.6856901860986150E-003   6.2028427519302765E-002
   1.5288559963767850E-002  -4.3849278470105002E-003   6.2416692953642383E-002
   1.4084601571796578E-002  -4.1540118991166275E-003   6.3305245431316770E-002
   1.3424913354152572E-002  -3.9469256490375360E-003   6.3066703253118389E-002
   1.2765225136508563E-002  -3.7336775635595648E-003   6.3043565528931006E-002
   1.2105536918864559E-002  -3.5142676426821694E-003   6.3235832258754232E-002
   1.1445848701220548E-002  -3.2886958864061233E-003   6.3643503442588178E-002
   9.3879978350667054E-003  -2.7693412626344505E-003   6.4404397542255132E-002
   8.9452112717514978E-003  -2.6312837676823742E-003   6.4174223969081470E-002
   8.5024247084362972E-003  -2.4891183798929351E-003   6.4162449250554629E-002
   8.0596381451211018E-003  -2.3428450992660013E-003   6.4369073386674691E-002
   7.6168515818058891E-003  -2.1924639258016354E-003   6.4794096377441573E-002
   4.6931306389251422E-003  -1.3846706261523289E-003   6.5435547869347480E-002
   4.4702401305748360E-003  -1.3156418863273650E-003   6.5211688958636674E-002
   4.2473496222245211E-003  -1.2445591962263330E-003   6.5209223303209080E-002
   4.0244591138742097E-003  -1.1714225558496945E-003   6.5428150903064183E-002
   3.8015686055238931E-003  -1.0962319651969810E-003   6.5868471758202374E-002
  -1.6628087795567126E-011   1.0329848088019844E-011   6.6398696412593383E-002
  -6.9377427414085702E-011  -4.9721338157837636E-012   6.6179098221784194E-002
  -1.2212677397149818E-010  -1.2560022466523435E-011   6.6183887686893900E-002
  -1.7487611705946371E-010  -1.2433571533465582E-011   6.6413064807922653E-002
  -2.2762546014742924E-010  -4.5927150971181163E-012   6.6866629584870496E-002
   1.5288559963767850E-002  -4.3849278470105002E-003   6.2416692953642383E-002
   1.4411012136492957E-002  -4.0761747706924978E-003   6.2247657281963076E-002
   1.3533464309218063E-002  -3.7596559978751165E-003   6.2289746877150609E-002
   1.2655916481943190E-002  -3.4353715285578637E-003   6.2542961739204511E-002
   1.1778368654668303E-002  -3.1033213627414957E-003   6.3007301868124865E-002
   1.1445848701220548E-002  -3.2886958864061233E-003   6.3643503442588178E-002
   1.0781491566697533E-002  -3.0571310767776860E-003   6.3497042323829522E-002
   1.0117134432174504E-002  -2.8197419958440606E-003   6.3565837323707824E-002
   9.4527772976514789E-003  -2.5765286436049833E-003   6.3849888442223349E-002
   8.7884201631284603E-003  -2.3274910200609122E-003   6.4349195679376026E-002
   7.6168515818058891E-003  -2.1924639258016354E-003   6.4794096377441573E-002
   7.1698159918053700E-003  -2.0380873828630131E-003   6.4668268386408934E-002
   6.7227804018048544E-003  -1.8798279938131018E-003   6.4761827365784119E-002
   6.2757448118043371E-003  -1.7176857586523216E-003   6.5074773315567047E-002
   5.8287092218038336E-003  -1.5516606773803843E-003   6.5607106235758134E-002
   3.8015686055238931E-003  -1.0962319651969810E-003   6.5868471758202374E-002
   3.5759854118165065E-003  -1.0190436889482152E-003   6.5761335469701698E-002
   3.3504022181091294E-003  -9.3991399178220553E-004   6.5877717003379466E-002
   3.1248190244017450E-003  -8.5884287369943947E-004   6.6217616359235759E-002
   2.8992358306943588E-003  -7.7583033469977303E-004   6.6781033537270301E-002
  -2.2762546014742924E-010  -4.5927150971181163E-012   6.6866629584870496E-002
  -1.7326907270076575E-010   4.9664161672069440E-012   6.6776243573707539E-002
  -1.1891268178465531E-010   1.0248898951736862E-011   6.6913506236493753E-002
  -6.4556290868544863E-011   1.1253217108153635E-011   6.7278417573229013E-002
  -1.0199903421881373E-011   7.9806161679130128E-012   6.7870977583913472E-002
   1.1778368654668303E-002  -3.1033213627414957E-003   6.3007301868124865E-002
   1.0805906525291800E-002  -2.7759099485507033E-003   6.2937956845337539E-002
   9.8334443959152834E-003  -2.4655417341122032E-003   6.3108865075576281E-002
   8.8609822665387875E-003  -2.1722167194253086E-003   6.3520026558841175E-002
   7.8885201371622637E-003  -1.8959349044901375E-003   6.4171441295132414E-002
   8.7884201631284603E-003  -2.3274910200609122E-003   6.4349195679376026E-002
   8.0569268569632424E-003  -2.0819324606191070E-003   6.4295890977358050E-002
   7.3254335507980245E-003  -1.8491563006870215E-003   6.4484270668736410E-002
   6.5939402446328170E-003  -1.6291625402651208E-003   6.4914334753511049E-002
   5.8624469384675887E-003  -1.4219511793529538E-003   6.5586083231682024E-002
   5.8287092218038336E-003  -1.5516606773803843E-003   6.5607106235758134E-002
   5.3396158792200429E-003  -1.3879549726868445E-003   6.5574102654751110E-002
   4.8505225366362800E-003  -1.2327708672617149E-003   6.5784214607510758E-002
   4.3614291940525050E-003  -1.0861083611047630E-003   6.6237442094036786E-002
   3.8723358514687403E-003  -9.4796745421593664E-004   6.6933785114329375E-002
   2.8992358306943588E-003  -7.7583033469977303E-004   6.6781033537270301E-002
   2.6539735920621949E-003  -6.9397748475480414E-004   6.6772591877516385E-002
   2.4087113534300309E-003  -6.1638543383658179E-004   6.7008696891899089E-002
   2.1634491147978674E-003  -5.4305418194437911E-004   6.7489348580418496E-002
   1.9181868761657030E-003  -4.7398372907883624E-004   6.8214546943074744E-002
  -1.0199903421881373E-011   7.9806161679130128E-012   6.7870977583913472E-002
  -4.5103018542214102E-012   3.1771807407210417E-012   6.7891358645654099E-002
   1.1792927745446491E-012  -4.1119885274554235E-013   6.8157717521901695E-002
   6.8688943422046123E-012  -2.7840993399586011E-012   6.8670054212656012E-002
   1.2558488970970672E-011  -3.9416248043266933E-012   6.9428368717917355E-002
   7.8885201371622637E-003  -1.8959349044901375E-003   6.4171441295132414E-002
   6.9565977514660232E-003  -1.6836331427092510E-003   6.4088359273224982E-002
   6.0246753657697688E-003  -1.5822482874848220E-003   6.4253013944280180E-002
   5.0927529800735283E-003  -1.5917803388166979E-003   6.4665405308298035E-002
   4.1608305943772739E-003  -1.7122292967054475E-003   6.5325533365278354E-002
   5.8624469384675887E-003  -1.4219511793529538E-003   6.5586083231682024E-002
   5.1745722214181153E-003  -1.2627248581003059E-003   6.5438222003972257E-002
   4.4866975043686350E-003  -1.1866862166566849E-003   6.5530719420593353E-002
   3.7988227873191373E-003  -1.1938352550211889E-003   6.5863575481545367E-002
   3.1109480702696812E-003  -1.2841719731945256E-003   6.6436790186828576E-002
   3.8723358514687403E-003  -9.4796745421593664E-004   6.6933785114329375E-002
   3.4211307544344746E-003  -8.4181657349191585E-004   6.6748873907565037E-002
   2.9699256574002089E-003  -7.9112414582829804E-004   6.6796943296499850E-002
   2.5187205603659536E-003  -7.9589017122578404E-004   6.7077993281134299E-002
   2.0675154633316775E-003  -8.5611464968388118E-004   6.7592023861468092E-002
   1.9181868761657030E-003  -4.7398372907883624E-004   6.8214546943074744E-002
   1.6962733505151211E-003  -4.2090828888313725E-004   6.8020314984003280E-002
   1.4743598248645375E-003  -3.9556207500003604E-004   6.8051685571999754E-002
   1.2524462992139513E-003  -3.9794508743021609E-004   6.8308658707064138E-002
   1.0305327735633720E-003  -4.2805732617326453E-004   6.8791234389196571E-002
   1.2558488970970672E-011  -3.9416248043266933E-012   6.9428368717917355E-002
   9.6600366594756792E-012  -4.2745806894117777E-012   6.9252545233287055E-002
   6.7615843479806870E-012  -4.1718295484827195E-012   6.9294946247093148E-002
   3.8631268323152668E-012  -3.6347730381081078E-012   6.9555571759335522E-002
   9.6467972499070243E-013  -2.6624258353535879E-012   7.0034421770014288E-002
   4.1608305943772739E-003  -1.7122292967054475E-003   6.5325533365278354E-002
   3.6300866004196214E-003  -2.0044255292437363E-003   6.4408546543205381E-002
   3.0993426064619828E-003  -2.5291994045245347E-003   6.3610648108908541E-002
   2.5685986125043095E-003  -3.2865509225486686E-003   6.2931838062388085E-002
   2.0378546185466639E-003  -4.2764800833148264E-003   6.2372116403643929E-002
   3.1109480702696812E-003  -1.2841719731945256E-003   6.6436790186828576E-002
   2.7026918667601568E-003  -1.5033191473308172E-003   6.5326147247167066E-002
   2.2944356632506324E-003  -1.8968995535846300E-003   6.4341391500625345E-002
   1.8861794597411045E-003  -2.4649131919558531E-003   6.3482522947203968E-002
   1.4779232562315836E-003  -3.2073600624443754E-003   6.2749541586902380E-002
   2.0675154633316775E-003  -8.5611464968388118E-004   6.7592023861468092E-002
   1.7885458556140543E-003  -1.0022127654183421E-003   6.6345869214843339E-002
   1.5095762478964103E-003  -1.2645997026448502E-003   6.5232400566682155E-002
   1.2306066401787680E-003  -1.6432754613631521E-003   6.4251617916984971E-002
   9.5163703246112924E-004  -2.1382400415734804E-003   6.3403521265751273E-002
   1.0305327735633720E-003  -4.2805732617326453E-004   6.8791234389196571E-002
   8.8764856698134338E-004  -5.0110638350570058E-004   6.7467712446234049E-002
   7.4476436039930781E-004  -6.3229985170484143E-004   6.6283675307079098E-002
   6.0188015381728221E-004  -8.2163773077061596E-004   6.5239122971731775E-002
   4.5899594723524360E-004  -1.0691200207030294E-003   6.4334055440191551E-002
   9.6467972499070243E-013  -2.6624258353535879E-012   7.0034421770014288E-002
   8.6201185078849107E-013  -1.5930035068834059E-012   6.8691676941339486E-002
   7.5933356824542386E-013  -7.6519346414727352E-013   6.7495215721815993E-002
   6.5666048987278458E-013  -1.7764262283392895E-013   6.6445038111443561E-002
   5.5398741150014530E-013   1.6808776592824870E-013   6.5541144110222271E-002
   2.0378546185466639E-003  -4.2764800833148264E-003   6.2372116403643929E-002
   2.2874700958382121E-003  -5.5790802848958432E-003   5.8341079332110746E-002
   2.5370855731297187E-003  -7.2744449253631105E-003   5.4304670934503307E-002
   2.7867010504212530E-003  -9.3625740047160455E-003   5.0262891210821392E-002
   3.0363165277128012E-003  -1.1843467522954843E-002   4.6215740161065000E-002
   1.4779232562315836E-003  -3.2073600624443754E-003   6.2749541586902380E-002
   1.7079092716209554E-003  -4.1843102135793453E-003   5.8394222634055470E-002
   1.9378952870103064E-003  -5.4558336938896057E-003   5.4005016083478796E-002
   2.1678813023996366E-003  -7.0219305033758853E-003   4.9581921935172302E-002
   2.3978673177890153E-003  -8.8826006420372750E-003   4.5124940189136042E-002
   9.5163703246112924E-004  -2.1382400415734804E-003   6.3403521265751273E-002
   1.1334773142929466E-003  -2.7895401422625143E-003   5.8822111541300931E-002
   1.3153175961247675E-003  -3.6372224624164340E-003   5.4178297947465870E-002
   1.4971578779565883E-003  -4.6812870020356140E-003   4.9472080484245187E-002
   1.6789981597884196E-003  -5.9217337611197074E-003   4.4703459151639535E-002
   4.5899594723524360E-004  -1.0691200207030294E-003   6.4334055440191551E-002
   5.6417422385417020E-004  -1.3947700709457389E-003   5.9624746053848314E-002
   6.6935250047306990E-004  -1.8186112309432068E-003   5.4824516526464709E-002
   7.7453077709195919E-004  -2.3406435006953982E-003   4.9933366858040638E-002
   8.7970905371088232E-004  -2.9608668802021398E-003   4.4951297048575700E-002
   5.5398741150014530E-013   1.6808776592824870E-013   6.5541144110222271E-002
   3.0461050348762342E-013   3.7081449022480228E-013   6.0802126171696891E-002
   5.5230126028149584E-014   5.3002047195604973E-013   5.5943671820475216E-002
  -1.9416065977218011E-013   6.4476202155105966E-013   5.0965781056557746E-002
  -4.4353409833775004E-013   7.1542771706845087E-013   4.5868453879944315E-002
   1.8799161463634029E-009  -8.5022305862381131E-010   6.5930212527202769E-002
   1.5419255178228397E-009  -4.9364232146409392E-010   6.5676396071799314E-002
   1.2039348927517235E-009  -2.3249341341013974E-010   6.5641573208612969E-002
   8.6594427288477771E-010  -6.6776445484251212E-011   6.5825743937643511E-002
   5.2795364607893802E-010   3.5090819139327323E-012   6.6228908258891106E-002
  -6.3265528667879531E-003   1.8892123585023124E-003   6.5133002475952911E-002
  -6.1049408450815391E-003   1.8253819149824380E-003   6.4841617325119671E-002
  -5.8833288233750940E-003   1.7626625910541760E-003   6.4774463301463511E-002
  -5.6617168016686627E-003   1.7010543867174224E-003   6.4931540404984472E-002
  -5.4401047799622418E-003   1.6405573019722119E-003   6.5312848635682458E-002
  -1.2693850588481758E-002   3.7784255672277112E-003   6.4271406017090804E-002
  -1.2245388672118235E-002   3.6507643236072945E-003   6.3943563385851110E-002
  -1.1796926755754725E-002   3.5253254146017932E-003   6.3845189416748535E-002
  -1.1348464839391203E-002   3.4021088402112071E-003   6.3976284109783094E-002
  -1.0900002923027681E-002   3.2811146004355085E-003   6.4336847464954702E-002
  -1.9101891285165238E-002   5.6676387759530822E-003   6.3345423150616295E-002
  -1.8421341939184595E-002   5.4761467322320748E-003   6.2982234253993741E-002
  -1.7740792593203967E-002   5.2879882381494242E-003   6.2853751554468054E-002
  -1.7060243247223307E-002   5.1031632937048946E-003   6.2959975052039568E-002
  -1.6379693901242678E-002   4.9216718988986663E-003   6.3300904746708242E-002
  -2.5550674956838423E-002   7.5568519846784810E-003   6.2355053876529898E-002
  -2.4632800646280623E-002   7.3015291408569105E-003   6.1957629929547342E-002
  -2.3714926335722822E-002   7.0506510616970136E-003   6.1800149714621971E-002
  -2.2797052025165014E-002   6.8042177471987798E-003   6.1882613231753827E-002
  -2.1879177714607213E-002   6.5622291973619906E-003   6.2205020480942841E-002
   5.2795364607893802E-010   3.5090819139327323E-012   6.6228908258891106E-002
   3.9180821434503521E-010   2.0862589433789935E-011   6.5994625357910897E-002
   2.5566277914168545E-010   2.7783705891515353E-011   6.5944829083201290E-002
   1.1951734740778264E-010   2.4272788640145038E-011   6.6079519434762077E-002
  -1.6628087795567126E-011   1.0329848088019844E-011   6.6398696412593383E-002
  -5.4401047799622418E-003   1.6405573019722119E-003   6.5312848635682458E-002
  -5.2533612533548716E-003   1.5796082422764313E-003   6.5060022396072476E-002
  -5.0666177267474875E-003   1.5166441130877728E-003   6.4996196855697658E-002
  -4.8798742001401104E-003   1.4516649144062782E-003   6.5121372014557907E-002
  -4.6931306735327333E-003   1.3846706462318781E-003   6.5435547872653266E-002
  -1.0900002923027681E-002   3.2811146004355085E-003   6.4336847464954702E-002
  -1.0522001660702890E-002   3.1592164636904674E-003   6.4063462827654280E-002
  -1.0144000398378098E-002   3.0332881983919022E-003   6.3983592962553626E-002
  -9.7659991360533101E-003   2.9033298045397695E-003   6.4097237869652685E-002
  -9.3879978737285222E-003   2.7693412821340746E-003   6.4404397548951428E-002
  -1.6379693901242678E-002   4.9216718988986663E-003   6.3300904746708242E-002
  -1.5805920830235864E-002   4.7388246851045174E-003   6.3004946652656671E-002
  -1.5232147759229056E-002   4.5499322836959448E-003   6.2907017403769444E-002
  -1.4658374688222255E-002   4.3549946946731489E-003   6.3007117000046464E-002
  -1.4084601617215451E-002   4.1540119180362711E-003   6.3305245441487870E-002
  -2.1879177714607213E-002   6.5622291973619906E-003   6.2205020480942841E-002
  -2.1105118761953784E-002   6.3184329065184008E-003   6.1884473871079426E-002
  -2.0331059809300358E-002   6.0665763690001540E-003   6.1766470179344973E-002
  -1.9557000856646925E-002   5.8066595848065977E-003   6.1851009405739399E-002
  -1.8782941903993502E-002   5.5386825539383566E-003   6.2138091550262786E-002
  -1.6628087795567126E-011   1.0329848088019844E-011   6.6398696412593383E-002
  -6.9377427414085702E-011  -4.9721338157837636E-012   6.6179098221784194E-002
  -1.2212677397149818E-010  -1.2560022466523435E-011   6.6183887686893900E-002
  -1.7487611705946371E-010  -1.2433571533465582E-011   6.6413064807922653E-002
  -2.2762546014742924E-010  -4.5927150971181163E-012   6.6866629584870496E-002
  -4.6931306735327333E-003   1.3846706462318781E-003   6.5435547872653266E-002
  -4.4702402708014562E-003   1.3156418754195487E-003   6.5211688974080029E-002
  -4.2473498680701740E-003   1.2445591688238222E-003   6.5209223330548849E-002
  -4.0244594653388987E-003   1.1714225264449762E-003   6.5428150942060143E-002
  -3.8015690626076147E-003   1.0962319482828442E-003   6.5868471808613549E-002
  -9.3879978737285222E-003   2.7693412821340746E-003   6.4404397548951428E-002
  -8.9452114163933935E-003   2.6312837558112867E-003   6.4174223999116653E-002
  -8.5024249590582527E-003   2.4891183502076739E-003   6.4162449303447305E-002
  -8.0596385017231362E-003   2.3428450653233592E-003   6.4369073461943441E-002
  -7.6168520443879902E-003   2.1924639011583757E-003   6.4794096474604976E-002
  -1.4084601617215451E-002   4.1540119180362711E-003   6.3305245441487870E-002
  -1.3424913506153243E-002   3.9469256362030802E-003   6.3066703296894094E-002
  -1.2765225395091031E-002   3.7336775315914110E-003   6.3043565605588936E-002
  -1.2105537284028838E-002   3.5142676042017136E-003   6.3235832367572353E-002
  -1.1445849172966616E-002   3.2886958540339212E-003   6.3643503582844652E-002
  -1.8782941903993502E-002   5.5386825539383566E-003   6.2138091550262786E-002
  -1.7909346540081011E-002   5.2625675165947627E-003   6.1889126867412381E-002
  -1.7035751176168498E-002   4.9782367129753285E-003   6.1852572236973907E-002
  -1.6162155812255993E-002   4.6856901430801963E-003   6.2028427658947463E-002
  -1.5288560448343494E-002   4.3849278069093556E-003   6.2416693133332757E-002
  -2.2762546014742924E-010  -4.5927150971181163E-012   6.6866629584870496E-002
  -1.7326907270076575E-010   4.9664161672069440E-012   6.6776243573707539E-002
  -1.1891268178465531E-010   1.0248898951736862E-011   6.6913506236493753E-002
  -6.4556290868544863E-011   1.1253217108153635E-011   6.7278417573229013E-002
  -1.0199903421881373E-011   7.9806161679130128E-012   6.7870977583913472E-002
  -3.8015690626076147E-003   1.0962319482828442E-003   6.5868471808613549E-002
  -3.5759857600499000E-003   1.0190436885088583E-003   6.5761335509045837E-002
  -3.3504024574921992E-003   9.3991400129465885E-004   6.5877717031931626E-002
  -3.1248191549345019E-003   8.5884288664025629E-004   6.6217616377271152E-002
  -2.8992358523767907E-003   7.7583034454542510E-004   6.6781033545063984E-002
  -7.6168520443879902E-003   2.1924639011583757E-003   6.4794096474604976E-002
  -7.1698163451245286E-003   2.0380873720511061E-003   6.4668268463469444E-002
  -6.7227806458610628E-003   1.8798279923408698E-003   6.4761827423291896E-002
  -6.2757449465975883E-003   1.7176857620270197E-003   6.5074773354072274E-002
  -5.8287092473341354E-003   1.5516606811100675E-003   6.5607106255810760E-002
  -1.1445849172966616E-002   3.2886958540339212E-003   6.3643503582844652E-002
  -1.0781491928492924E-002   3.0571310555933956E-003   6.3497042436978374E-002
  -1.0117134684019244E-002   2.8197419833867997E-003   6.3565837410574574E-002
  -9.4527774395455691E-003   2.5765286374140320E-003   6.3849888503633073E-002
  -8.7884201950718735E-003   2.3274910176746266E-003   6.4349195716154078E-002
  -1.5288560448343494E-002   4.3849278069093556E-003   6.2416693133332757E-002
  -1.4411012510155152E-002   4.0761747391356851E-003   6.2247657429572556E-002
  -1.3533464571966781E-002   3.7596559744328406E-003   6.2289746993779316E-002
  -1.2655916633778418E-002   3.4353715128008222E-003   6.2542961825952814E-002
  -1.1778368695590069E-002   3.1033213542394078E-003   6.3007301926093273E-002
  -1.0199903421881373E-011   7.9806161679130128E-012   6.7870977583913472E-002
  -4.5103018542214102E-012   3.1771807407210417E-012   6.7891358645654099E-002
   1.1792927745446491E-012  -4.1119885274554235E-013   6.8157717521901695E-002
   6.8688943422046123E-012  -2.7840993399586011E-012   6.8670054212656012E-002
   1.2558488970970672E-011  -3.9416248043266933E-012   6.9428368717917355E-002
  -2.8992358523767907E-003   7.7583034454542510E-004   6.6781033545063984E-002
  -2.6539736023067986E-003   6.9397748888022637E-004   6.6772591884655286E-002
  -2.4087113522368205E-003   6.1638543351441588E-004   6.7008696898500225E-002
  -2.1634491021668310E-003   5.4305417844775078E-004   6.7489348586599232E-002
  -1.9181868520968502E-003   4.7398372368057107E-004   6.8214546948952237E-002
  -5.8287092473341354E-003   1.5516606811100675E-003   6.5607106255810760E-002
  -5.3396158931366521E-003   1.3879549745830777E-003   6.5574102672336598E-002
  -4.8505225389391853E-003   1.2327708674394616E-003   6.5784214622863227E-002
  -4.3614291847417167E-003   1.0861083596794309E-003   6.6237442107391131E-002
  -3.8723358305442490E-003   9.4796745130293347E-004   6.6933785125919826E-002
  -8.7884201950718735E-003   2.3274910176746266E-003   6.4349195716154078E-002
  -8.0569268769998328E-003   2.0819324602859707E-003   6.4295891008698342E-002
  -7.3254335589278078E-003   1.8491563013648474E-003   6.4484270694990686E-002
  -6.5939402408557715E-003   1.6291625409111405E-003   6.4914334775031210E-002
  -5.8624469227837421E-003   1.4219511789252126E-003   6.5586083248819815E-002
  -1.1778368695590069E-002   3.1033213542394078E-003   6.3007301926093273E-002
  -1.0805906553896377E-002   2.7759099459890857E-003   6.2937956893740377E-002
  -9.8334444122026646E-003   2.4655417352900943E-003   6.3108865114882562E-002
  -8.8609822705089762E-003   2.1722167221428987E-003   6.3520026589519885E-002
  -7.8885201288152670E-003   1.8959349065476028E-003   6.4171441317652622E-002
   1.2558488970970672E-011  -3.9416248043266933E-012   6.9428368717917355E-002
   9.6600366594756792E-012  -4.2745806894117777E-012   6.9252545233287055E-002
   6.7615843479806870E-012  -4.1718295484827195E-012   6.9294946247093148E-002
   3.8631268323152668E-012  -3.6347730381081078E-012   6.9555571759335522E-002
   9.6467972499070243E-013  -2.6624258353535879E-012   7.0034421770014288E-002
  -1.9181868520968502E-003   4.7398372368057107E-004   6.8214546948952237E-002
  -1.6962733320515268E-003   4.2090828262192348E-004   6.8020314988813613E-002
  -1.4743598120062172E-003   3.9556206868102128E-004   6.8051685576126231E-002
  -1.2524462919609024E-003   3.9794508185765631E-004   6.8308658710889786E-002
  -1.0305327719155842E-003   4.2805732215212000E-004   6.8791234393104916E-002
  -3.8723358305442490E-003   9.4796745130293347E-004   6.6933785125919826E-002
  -3.4211307385403535E-003   8.4181656951809458E-004   6.6748873916955692E-002
  -2.9699256465364433E-003   7.9112414153401089E-004   6.6796943304457235E-002
  -2.5187205545325413E-003   7.9589016735009260E-004   6.7077993288425120E-002
  -2.0675154625286515E-003   8.5611464696672135E-004   6.7592023868858736E-002
  -5.8624469227837421E-003   1.4219511789252126E-003   6.5586083248819815E-002
  -5.1745722098064263E-003   1.2627248564146543E-003   6.5438222017712794E-002
  -4.4866974968291165E-003   1.1866862143869311E-003   6.5530719432086437E-002
  -3.7988227838518067E-003   1.1938352528425809E-003   6.5863575491940926E-002
  -3.1109480708744904E-003   1.2841719717812394E-003   6.6436790197276385E-002
  -7.8885201288152670E-003   1.8959349065476028E-003   6.4171441317652622E-002
  -6.9565977458497380E-003   1.6836331433106588E-003   6.4088359291085473E-002
  -6.0246753628842124E-003   1.5822482872399624E-003   6.4253013959013783E-002
  -5.0927529799186869E-003   1.5917803383350415E-003   6.4665405321437774E-002
  -4.1608305969531578E-003   1.7122292965957575E-003   6.5325533378357559E-002
   9.6467972499070243E-013  -2.6624258353535879E-012   7.0034421770014288E-002
   8.6201185078849107E-013  -1.5930035068834059E-012   6.8691676941339486E-002
   7.5933356824542386E-013  -7.6519346414727352E-013   6.7495215721815993E-002
   6.5666048987278458E-013  -1.7764262283392895E-013   6.6445038111443561E-002
   5.5398741150014530E-013   1.6808776592824870E-013   6.5541144110222271E-002
  -1.0305327719155842E-003   4.2805732215212000E-004   6.8791234393104916E-002
  -8.8764856548594756E-004   5.0110638124184481E-004   6.7467712449193973E-002
  -7.4476435905630745E-004   6.3229985080323625E-004   6.6283675309196405E-002
  -6.0188015262667861E-004   8.2163773083720332E-004   6.5239122973112171E-002
  -4.5899594619704456E-004   1.0691200213435170E-003   6.4334055440941507E-002
  -2.0675154625286515E-003   8.5611464696672135E-004   6.7592023868858736E-002
  -1.7885458548045231E-003   1.0022127640764988E-003   6.6345869220424847E-002
  -1.5095762470804085E-003   1.2645997023714578E-003   6.5232400570666912E-002
  -1.2306066393562875E-003   1.6432754618524968E-003   6.4251617919584253E-002
  -9.5163703163216561E-004   2.1382400425186132E-003   6.3403521267177299E-002
  -3.1109480708744904E-003   1.2841719717812394E-003   6.6436790197276385E-002
  -2.7026918670937255E-003   1.5033191469110835E-003   6.5326147255033190E-002
  -2.2944356633129537E-003   1.8968995539397279E-003   6.4341391506227613E-002
  -1.8861794595321853E-003   2.4649131928674555E-003   6.3482522950860029E-002
  -1.4779232557514169E-003   3.2073600636938759E-003   6.2749541588929980E-002
  -4.1608305969531578E-003   1.7122292965957575E-003   6.5325533378357559E-002
  -3.6300866023535466E-003   2.0044255297459457E-003   6.4408546553018087E-002
  -3.0993426077539597E-003   2.5291994055081368E-003   6.3610648115878521E-002
  -2.5685986131543607E-003   3.2865509238827542E-003   6.2931838066939055E-002
  -2.0378546185547616E-003   4.2764800848693607E-003   6.2372116406199440E-002
   5.5398741150014530E-013   1.6808776592824870E-013   6.5541144110222271E-002
   3.0461050348762342E-013   3.7081449022480228E-013   6.0802126171696891E-002
   5.5230126028149584E-014   5.3002047195604973E-013   5.5943671820475216E-002
  -1.9416065977218011E-013   6.4476202155105966E-013   5.0965781056557746E-002
  -4.4353409833775004E-013   7.1542771706845087E-013   4.5868453879944315E-002
  -4.5899594619704456E-004   1.0691200213435170E-003   6.4334055440941507E-002
  -5.6417422330013595E-004   1.3947700719397771E-003   5.9624746054406264E-002
  -6.6935250040324641E-004   1.8186112322453041E-003   5.4824516526859379E-002
  -7.7453077750636555E-004   2.3406435022596955E-003   4.9933366858301492E-002
  -8.7970905460944826E-004   2.9608668819831596E-003   4.4951297048731353E-002
  -9.5163703163216561E-004   2.1382400425186132E-003   6.3403521267177299E-002
  -1.1334773139045264E-003   2.7895401435085176E-003   5.8822111542385452E-002
  -1.3153175961768812E-003   3.6372224639603656E-003   5.4178297948267035E-002
  -1.4971578784492246E-003   4.6812870038747956E-003   4.9472080484821462E-002
  -1.6789981607216106E-003   5.9217337632506695E-003   4.4703459152048430E-002
  -1.4779232557514169E-003   3.2073600636938759E-003   6.2749541588929980E-002
  -1.7079092715085293E-003   4.1843102150773692E-003   5.8394222635635165E-002
  -1.9378952872656280E-003   5.4558336956758713E-003   5.4005016084697155E-002
  -2.1678813030227510E-003   7.0219305054895903E-003   4.9581921936117046E-002
  -2.3978673187798390E-003   8.8826006445182903E-003   4.5124940189894741E-002
  -2.0378546185547616E-003   4.2764800848693607E-003   6.2372116406199440E-002
  -2.2874700961121458E-003   5.5790802866463318E-003   5.8341079334154222E-002
  -2.5370855736695334E-003   7.2744449273907663E-003   5.4304670936150656E-002
  -2.7867010512269124E-003   9.3625740071046210E-003   5.0262891212189242E-002
  -3.0363165287843052E-003   1.1843467525785911E-002   4.6215740162270258E-002
  -2.5550674956838423E-002   7.5568519846784810E-003   6.2355053876529898E-002
  -2.4632800646280623E-002   7.3015291408569105E-003   6.1957629929547342E-002
  -2.3714926335722822E-002   7.0506510616970136E-003   6.1800149714621971E-002
  -2.2797052025165014E-002   6.8042177471987798E-003   6.1882613231753827E-002
  -2.1879177714607213E-002   6.5622291973619906E-003   6.2205020480942841E-002
  -3.1913689482112303E-002   9.1175663203995616E-003   5.8658113528616551E-002
  -3.0775033120149748E-002   8.9379852787803971E-003   5.8438713042633816E-002
  -2.9636376758187227E-002   8.7237672202277045E-003   5.8420932927403413E-002
  -2.8497720396224668E-002   8.4749121447413138E-003   5.8604773182925257E-002
  -2.7359064034262116E-002   8.1914200523213188E-003   5.8990233809199433E-002
  -3.8064422739597870E-002   1.0678280656120559E-002   5.5056455873703156E-002
  -3.6743307687535448E-002   1.0574441416703884E-002   5.4975997067124957E-002
  -3.5422192635473040E-002   1.0396883378758388E-002   5.5058835269994423E-002
  -3.4101077583410619E-002   1.0145606542283985E-002   5.5304970482311103E-002
  -3.2779962531348204E-002   9.8206109072807302E-003   5.5714402704075336E-002
  -4.4002874729295066E-002   1.2238994991841598E-002   5.1550080911789767E-002
  -4.2537624348437726E-002   1.2210897554627342E-002   5.1569482003021055E-002
  -4.1072373967580289E-002   1.2069999537289048E-002   5.1713856742394954E-002
  -3.9607123586722887E-002   1.1816300939826642E-002   5.1983205129911329E-002
  -3.8141873205865491E-002   1.1449801762240155E-002   5.2377527165570190E-002
  -4.9729045451204018E-002   1.3799709327562637E-002   4.8138988642876523E-002
  -4.8157983102856461E-002   1.3847353692550801E-002   4.8219167850321987E-002
  -4.6586920754509001E-002   1.3743115695819777E-002   4.8385997344605108E-002
  -4.5015858406161464E-002   1.3486995337369276E-002   4.8639477125725902E-002
  -4.3444796057813956E-002   1.3078992617199525E-002   4.8979607193684327E-002
  -2.1879177714607213E-002   6.5622291973619906E-003   6.2205020480942841E-002
  -2.1105118761953784E-002   6.3184329065184008E-003   6.1884473871079426E-002
  -2.0331059809300358E-002   6.0665763690001540E-003   6.1766470179344973E-002
  -1.9557000856646925E-002   5.8066595848065977E-003   6.1851009405739399E-002
  -1.8782941903993502E-002   5.5386825539383566E-003   6.2138091550262786E-002
  -2.7359064034262116E-002   8.1914200523213188E-003   5.8990233809199433E-002
  -2.6390204295573535E-002   7.8868164533830720E-003   5.8713109768422367E-002
  -2.5421344556884922E-002   7.5746268583423010E-003   5.8623044381586636E-002
  -2.4452484818196327E-002   7.2548512671985164E-003   5.8720037648692325E-002
  -2.3483625079507721E-002   6.9274896799522701E-003   5.9004089569739515E-002
  -3.2779962531348204E-002   9.8206109072807302E-003   5.5714402704075336E-002
  -3.1631786270811944E-002   9.4552000002477155E-003   5.5481175482956641E-002
  -3.0483610010275674E-002   9.0826773476843370E-003   5.5419522651591877E-002
  -2.9335433749739435E-002   8.7030429495903797E-003   5.5529444209980988E-002
  -2.8187257489203175E-002   8.3162968059660447E-003   5.5810940158124059E-002
  -3.8141873205865491E-002   1.1449801762240155E-002   5.2377527165570190E-002
  -3.6829864687669057E-002   1.1023583547112428E-002   5.2188671014682386E-002
  -3.5517856169472624E-002   1.0590727837026484E-002   5.2155904989360707E-002
  -3.4205847651276204E-002   1.0151234631982271E-002   5.2279229089605625E-002
  -3.2893839133079729E-002   9.7051039319799165E-003   5.2558643315416917E-002
  -4.3444796057813956E-002   1.3078992617199525E-002   4.8979607193684327E-002
  -4.1984439546144850E-002   1.2591967093977058E-002   4.8835596363599326E-002
  -4.0524083034475772E-002   1.2098778326368603E-002   4.8832191394893198E-002
  -3.9063726522806680E-002   1.1599426314374127E-002   4.8969392287566110E-002
  -3.7603370011137588E-002   1.1093911057993677E-002   4.9247199041617729E-002
  -1.8782941903993502E-002   5.5386825539383566E-003   6.2138091550262786E-002
  -1.7909346540081011E-002   5.2625675165947627E-003   6.1889126867412381E-002
  -1.7035751176168498E-002   4.9782367129753285E-003   6.1852572236973907E-002
  -1.6162155812255993E-002   4.6856901430801963E-003   6.2028427658947463E-002
  -1.5288560448343494E-002   4.3849278069093556E-003   6.2416693133332757E-002
  -2.3483625079507721E-002   6.9274896799522701E-003   5.9004089569739515E-002
  -2.2399937698150570E-002   6.5917140329423973E-003   5.8741128672890580E-002
  -2.1316250316793385E-002   6.2466962625083444E-003   5.8685941758519156E-002
  -2.0232562935436217E-002   5.8924363686498477E-003   5.8838528826625200E-002
  -1.9148875554079049E-002   5.5289343513673650E-003   5.9198889877208671E-002
  -2.8187257489203175E-002   8.3162968059660447E-003   5.5810940158124059E-002
  -2.6898114160335804E-002   7.9208605492900042E-003   5.5532956690128366E-002
  -2.5608970831468451E-002   7.5151558120412978E-003   5.5458111134675504E-002
  -2.4319827502601081E-002   7.0991825942197748E-003   5.5586403491765676E-002
  -2.3030684173733763E-002   6.6729408958254299E-003   5.5917833761398805E-002
  -3.2893839133079729E-002   9.7051039319799165E-003   5.2558643315416917E-002
  -3.1403875926636723E-002   9.2500070656376804E-003   5.2264610919125681E-002
  -2.9913912720193676E-002   8.7836153615741992E-003   5.2169080365442884E-002
  -2.8423949513750612E-002   8.3059288197894522E-003   5.2272051654368497E-002
  -2.6933986307307627E-002   7.8169474402836892E-003   5.2573524785902714E-002
  -3.7603370011137588E-002   1.1093911057993677E-002   4.9247199041617729E-002
  -3.5917222997053327E-002   1.0579153581985246E-002   4.8936091359882472E-002
  -3.4231075982969067E-002   1.0052074911107253E-002   4.8818849450821350E-002
  -3.2544928968884820E-002   9.5126750453592666E-003   4.8895473314434182E-002
  -3.0858781954800560E-002   8.9609539847416153E-003   4.9165962950720954E-002
  -1.5288560448343494E-002   4.3849278069093556E-003   6.2416693133332757E-002
  -1.4411012510155152E-002   4.0761747391356851E-003   6.2247657429572556E-002
  -1.3533464571966781E-002   3.7596559744328406E-003   6.2289746993779316E-002
  -1.2655916633778418E-002   3.4353715128008222E-003   6.2542961825952814E-002
  -1.1778368695590069E-002   3.1033213542394078E-003   6.3007301926093273E-002
  -1.9148875554079049E-002   5.5289343513673650E-003   5.9198889877208671E-002
  -1.8063656330333369E-002   5.1570336589399635E-003   5.8997246215222315E-002
  -1.6978437106587693E-002   4.7775777396469321E-003   5.8999819856383723E-002
  -1.5893217882842009E-002   4.3905665934884930E-003   5.9206610800693060E-002
  -1.4807998659096305E-002   3.9960002204644240E-003   5.9617619048149773E-002
  -2.3030684173733763E-002   6.6729408958254299E-003   5.5917833761398805E-002
  -2.1744701629249883E-002   6.2378925787440198E-003   5.5683792611250033E-002
  -2.0458719084766014E-002   5.7954995048609126E-003   5.5647060799429951E-002
  -1.9172736540282141E-002   5.3457616741761083E-003   5.5807638325938616E-002
  -1.7886753995798275E-002   4.8886790866894958E-003   5.6165525190775667E-002
  -2.6933986307307627E-002   7.8169474402836892E-003   5.2573524785902714E-002
  -2.5454148406904666E-002   7.3187514985480762E-003   5.2307296617655638E-002
  -2.3974310506501759E-002   6.8134212700747265E-003   5.2231469822917959E-002
  -2.2494472606098870E-002   6.3009567548636403E-003   5.2346044401689870E-002
  -2.1014634705695919E-002   5.7813579529145953E-003   5.2651020353971213E-002
  -3.0858781954800560E-002   8.9609539847416153E-003   4.9165962950720954E-002
  -2.9191996663297748E-002   8.3996104183522435E-003   4.8867758234439174E-002
  -2.7525211371794929E-002   7.8313430352887070E-003   4.8753046926847732E-002
  -2.5858426080292114E-002   7.2561518355513804E-003   4.8821829027946628E-002
  -2.4191640788789298E-002   6.6740368191396948E-003   4.9074104537736085E-002
  -1.1778368695590069E-002   3.1033213542394078E-003   6.3007301926093273E-002
  -1.0805906553896377E-002   2.7759099459890857E-003   6.2937956893740377E-002
  -9.8334444122026646E-003   2.4655417352900943E-003   6.3108865114882562E-002
  -8.8609822705089762E-003   2.1722167221428987E-003   6.3520026589519885E-002
  -7.8885201288152670E-003   1.8959349065476028E-003   6.4171441317652622E-002
  -1.4807998659096305E-002   3.9960002204644240E-003   5.9617619048149773E-002
  -1.3604814037867712E-002   3.6030254668943384E-003   5.9503508700303631E-002
  -1.2401629416639059E-002   3.2207891790984322E-003   5.9610590058031931E-002
  -1.1198444795410448E-002   2.8492913570757963E-003   5.9938863121335090E-002
  -9.9952601741818137E-003   2.4885320008272149E-003   6.0488327890212690E-002
  -1.7886753995798275E-002   4.8886790866894958E-003   5.6165525190775667E-002
  -1.6471908442955298E-002   4.4301409878000908E-003   5.6000344795658213E-002
  -1.5057062890112277E-002   3.9760366229064509E-003   5.6037294558194964E-002
  -1.3642217337269270E-002   3.5263659920086975E-003   5.6276374478385689E-002
  -1.2227371784426278E-002   3.0811290951067716E-003   5.6717584556230521E-002
  -2.1014634705695919E-002   5.7813579529145953E-003   5.2651020353971213E-002
  -1.9407189769159110E-002   5.2572565087057044E-003   5.2428465179804727E-002
  -1.7799744832622276E-002   4.7312840667146847E-003   5.2388978615371576E-002
  -1.6192299896085477E-002   4.2034406269416524E-003   5.2532560660672155E-002
  -1.4584854959548629E-002   3.6737261893864670E-003   5.2859211315706103E-002
  -2.4191640788789298E-002   6.6740368191396948E-003   4.9074104537736085E-002
  -2.2410658016479207E-002   6.0843720296111514E-003   4.8787869852742416E-002
  -2.0629675244169116E-002   5.4865315105228907E-003   4.8665642229561878E-002
  -1.8848692471859010E-002   4.8805152618744060E-003   4.8707421668194445E-002
  -1.7067709699548933E-002   4.2663232836660514E-003   4.8913208168639866E-002
  -7.8885201288152670E-003   1.8959349065476028E-003   6.4171441317652622E-002
  -6.9565977458497380E-003   1.6836331433106588E-003   6.4088359291085473E-002
  -6.0246753628842124E-003   1.5822482872399624E-003   6.4253013959013783E-002
  -5.0927529799186869E-003   1.5917803383350415E-003   6.4665405321437774E-002
  -4.1608305969531578E-003   1.7122292965957575E-003   6.5325533378357559E-002
  -9.9952601741818137E-003   2.4885320008272149E-003   6.0488327890212690E-002
  -8.8143559693917885E-003   2.1891762581255914E-003   6.0392612260339262E-002
  -7.6334517646018257E-003   2.0018892767440788E-003   6.0547123579619555E-002
  -6.4525475598118335E-003   1.9266710566831005E-003   6.0951861848052707E-002
  -5.2716433550218413E-003   1.9635215979426635E-003   6.1606827065639747E-002
  -1.2227371784426278E-002   3.0811290951067716E-003   5.6717584556230521E-002
  -1.0794995503154155E-002   2.6947193729402463E-003   5.6610387177205762E-002
  -9.3626192218820483E-003   2.4215302662484173E-003   5.6755907001992040E-002
  -7.9302429406099169E-003   2.2615617750316036E-003   5.7154144030588980E-002
  -6.4978666593377889E-003   2.2148138992891808E-003   5.7805098262997151E-002
  -1.4584854959548629E-002   3.6737261893864670E-003   5.2859211315706103E-002
  -1.2898516347136742E-002   3.2002624877550401E-003   5.2741684041684438E-002
  -1.1212177734724856E-002   2.8411712557529223E-003   5.2879364226131320E-002
  -9.5258391223129422E-003   2.5964524933797736E-003   5.3272251869046557E-002
  -7.8395005099010841E-003   2.4661062006359480E-003   5.3920346970430806E-002
  -1.7067709699548933E-002   4.2663232836660514E-003   4.8913208168639866E-002
  -1.5124918501339596E-002   3.7058056025697783E-003   4.8786502853775282E-002
  -1.3182127303130259E-002   3.2608122452569277E-003   4.8917495252037146E-002
  -1.1239336104920915E-002   2.9313432117282351E-003   4.9306185363425209E-002
  -9.2965449067115846E-003   2.7173985019824931E-003   4.9952573187939553E-002
  -4.1608305969531578E-003   1.7122292965957575E-003   6.5325533378357559E-002
  -3.6300866023535466E-003   2.0044255297459457E-003   6.4408546553018087E-002
  -3.0993426077539597E-003   2.5291994055081368E-003   6.3610648115878521E-002
  -2.5685986131543607E-003   3.2865509238827542E-003   6.2931838066939055E-002
  -2.0378546185547616E-003   4.2764800848693607E-003   6.2372116406199440E-002
  -5.2716433550218413E-003   1.9635215979426635E-003   6.1606827065639747E-002
  -4.5958202034278653E-003   2.2194817303280989E-003   6.0879784494619560E-002
  -3.9199970518338702E-003   2.8015922836456542E-003   6.0323811849388315E-002
  -3.2441739002398691E-003   3.7098532578954471E-003   5.9938909129946025E-002
  -2.5683507486458992E-003   4.9442646530768464E-003   5.9725076336292426E-002
  -6.4978666593377889E-003   2.2148138992891808E-003   5.7805098262997151E-002
  -5.6249828131604666E-003   2.4345379309101689E-003   5.7361572724616311E-002
  -4.7520989669831452E-003   3.0739851617830466E-003   5.7141098649613128E-002
  -3.8792151208058086E-003   4.1331555919078035E-003   5.7143676037987860E-002
  -3.0063312746284720E-003   5.6120492212839990E-003   5.7369304889740458E-002
  -7.8395005099010841E-003   2.4661062006359480E-003   5.3920346970430806E-002
  -6.7175744315514192E-003   2.6495941314922805E-003   5.3853911243008666E-002
  -5.5956483532017829E-003   3.3463780399206125E-003   5.4062508516553379E-002
  -4.4737222748521387E-003   4.5564579259201061E-003   5.4546138791064791E-002
  -3.3517961965024812E-003   6.2798337894914291E-003   5.5304802066542952E-002
  -9.2965449067115846E-003   2.7173985019824931E-003   4.9952573187939553E-002
  -7.8735950586006909E-003   2.8646503320743921E-003   5.0356800049796147E-002
  -6.4506452104897832E-003   3.6187709180579286E-003   5.1088041450208510E-002
  -5.0276953623788825E-003   4.9797602599329013E-003   5.2146297389176671E-002
  -3.6047455142679818E-003   6.9476183576986372E-003   5.3531567866700325E-002
  -2.0378546185547616E-003   4.2764800848693607E-003   6.2372116406199440E-002
  -2.2874700961121458E-003   5.5790802866463318E-003   5.8341079334154222E-002
  -2.5370855736695334E-003   7.2744449273907663E-003   5.4304670936150656E-002
  -2.7867010512269124E-003   9.3625740071046210E-003   5.0262891212189242E-002
  -3.0363165287843052E-003   1.1843467525785911E-002   4.6215740162270258E-002
  -2.5683507486458992E-003   4.9442646530768464E-003   5.9725076336292426E-002
  -2.8408455733850251E-003   6.5686122650814860E-003   5.6192290072973272E-002
  -3.1133403981241405E-003   8.6466818897997233E-003   5.2619116441248392E-002
  -3.3858352228632697E-003   1.1178473527232627E-002   4.9005555441118648E-002
  -3.6583300476024094E-003   1.4163987177379767E-002   4.5351607072582567E-002
  -3.0063312746284720E-003   5.6120492212839990E-003   5.7369304889740458E-002
  -3.3367214889967640E-003   7.5581442435164736E-003   5.4395727008893224E-002
  -3.6671117033650153E-003   1.0018918852208653E-002   5.1346745717192777E-002
  -3.9975019177333308E-003   1.2994373047361070E-002   4.8222361014639739E-002
  -4.3278921321015587E-003   1.6484506828973622E-002   4.5022572901233904E-002
  -3.3517961965024812E-003   6.2798337894914291E-003   5.5304802066542952E-002
  -3.7750978429473597E-003   8.5476762219517666E-003   5.2951390141913385E-002
  -4.1983994893921980E-003   1.1391155814617263E-002   5.0487558763983580E-002
  -4.6217011358370219E-003   1.4810272567489517E-002   4.7913307932753321E-002
  -5.0450027822819144E-003   1.8805026480567477E-002   4.5228637648223324E-002
  -3.6047455142679818E-003   6.9476183576986372E-003   5.3531567866700325E-002
  -4.1559746352368143E-003   9.5372082003866154E-003   5.1859279472034614E-002
  -4.7072037562056468E-003   1.2763392777026095E-002   5.0041555581621266E-002
  -5.2584328771744931E-003   1.6626172087617574E-002   4.8078396195460504E-002
  -5.8096619981433117E-003   2.1125546132161332E-002   4.5969801313551439E-002
  -4.9729045451204018E-002   1.3799709327562637E-002   4.8138988642876523E-002
  -4.8157983102856461E-002   1.3847353692550801E-002   4.8219167850321987E-002
  -4.6586920754509001E-002   1.3743115695819777E-002   4.8385997344605108E-002
  -4.5015858406161464E-002   1.3486995337369276E-002   4.8639477125725902E-002
  -4.3444796057813956E-002   1.3078992617199525E-002   4.8979607193684327E-002
  -5.5845599900757673E-002   1.7215181115301348E-002   4.6391531359316784E-002
  -5.4085895580463908E-002   1.6559394807906358E-002   4.5521402086387636E-002
  -5.2326191260170220E-002   1.5936987977420089E-002   4.4941906470513354E-002
  -5.0566486939876476E-002   1.5347960623842801E-002   4.4653044511693815E-002
  -4.8806782619582753E-002   1.4792312747174324E-002   4.4654816209929032E-002
  -6.2955203073389088E-002   2.0630652903040059E-002   4.3848012484059576E-002
  -6.0802873410932101E-002   1.9271435923261776E-002   4.2212836569384113E-002
  -5.8650543748475101E-002   1.8130860259020505E-002   4.1072277681980650E-002
  -5.6498214086018066E-002   1.7208925910316294E-002   4.0426335821848985E-002
  -5.4345884423561017E-002   1.6505632877149151E-002   4.0275010988989168E-002
  -7.1057854969098444E-002   2.4046124690778783E-002   4.0508432017104967E-002
  -6.8308916594260985E-002   2.1983477038617208E-002   3.8293471299311529E-002
  -6.5559978219423609E-002   2.0324732540620897E-002   3.6777110979007023E-002
  -6.2811039844586178E-002   1.9069891196789805E-002   3.5959351056191399E-002
  -6.0062101469748747E-002   1.8218953007124075E-002   3.5840191530864658E-002
  -8.0153555587885561E-002   2.7461596478517480E-002   3.6372789958453167E-002
  -7.6604025130450615E-002   2.4695518153972640E-002   3.3763306276169747E-002
  -7.3054494673015780E-002   2.2518604822221233E-002   3.2056406361592460E-002
  -6.9504964215580875E-002   2.0930856483263344E-002   3.1252090214721084E-002
  -6.5955433758145970E-002   1.9932273137098833E-002   3.1350357835555676E-002
  -4.3444796057813956E-002   1.3078992617199525E-002   4.8979607193684327E-002
  -4.1984439546144850E-002   1.2591967093977058E-002   4.8835596363599326E-002
  -4.0524083034475772E-002   1.2098778326368603E-002   4.8832191394893198E-002
  -3.9063726522806680E-002   1.1599426314374127E-002   4.8969392287566110E-002
  -3.7603370011137588E-002   1.1093911057993677E-002   4.9247199041617729E-002
  -4.8806782619582753E-002   1.4792312747174324E-002   4.4654816209929032E-002
  -4.7188018890578942E-002   1.4250576568925602E-002   4.4345631831362600E-002
  -4.5569255161575145E-002   1.3703284310607362E-002   4.4212656026086677E-002
  -4.3950491432571341E-002   1.3150435972219545E-002   4.4255888794101257E-002
  -4.2331727703567537E-002   1.2592031553762206E-002   4.4475330135406332E-002
  -5.4345884423561017E-002   1.6505632877149151E-002   4.0275010988989168E-002
  -5.2533110765310906E-002   1.5909186043874105E-002   3.9801260226257774E-002
  -5.0720337107060809E-002   1.5307790294846066E-002   3.9539320748728526E-002
  -4.8907563448810643E-002   1.4701445630064962E-002   3.9489192556401459E-002
  -4.7094789790560553E-002   1.4090152049530930E-002   3.9650875649276426E-002
  -6.0062101469748747E-002   1.8218953007124075E-002   3.5840191530864658E-002
  -5.8019715170340734E-002   1.7567795518822683E-002   3.5202481548284939E-002
  -5.5977328870932708E-002   1.6912296279084686E-002   3.4812185562818884E-002
  -5.3934942571524674E-002   1.6252455287910410E-002   3.4669303574466598E-002
  -5.1892556272116669E-002   1.5588272545299556E-002   3.4773835583227983E-002
  -6.5955433758145970E-002   1.9932273137098833E-002   3.1350357835555676E-002
  -6.3647832105668434E-002   1.9226404993771151E-002   3.0549295797444004E-002
  -6.1340230453190925E-002   1.8516802263323556E-002   3.0031250468357695E-002
  -5.9032628800713388E-002   1.7803464945755861E-002   2.9796221848296653E-002
  -5.6725027148235851E-002   1.7086393041068237E-002   2.9844209937260890E-002
  -3.7603370011137588E-002   1.1093911057993677E-002   4.9247199041617729E-002
  -3.5917222997053327E-002   1.0579153581985246E-002   4.8936091359882472E-002
  -3.4231075982969067E-002   1.0052074911107253E-002   4.8818849450821350E-002
  -3.2544928968884820E-002   9.5126750453592666E-003   4.8895473314434182E-002
  -3.0858781954800560E-002   8.9609539847416153E-003   4.9165962950720954E-002
  -4.2331727703567537E-002   1.2592031553762206E-002   4.4475330135406332E-002
  -4.0451840869372709E-002   1.2024669277307776E-002   4.4117051691147269E-002
  -3.8571954035177901E-002   1.1444947364928140E-002   4.3952387114435415E-002
  -3.6692067200983072E-002   1.0852865816623498E-002   4.3981336405270730E-002
  -3.4812180366788265E-002   1.0248424632393782E-002   4.4203899563653171E-002
  -4.7094789790560553E-002   1.4090152049530930E-002   3.9650875649276426E-002
  -4.5021415041381956E-002   1.3470184972630139E-002   3.9245388001438133E-002
  -4.2948040292203379E-002   1.2837819818749090E-002   3.9033262316020216E-002
  -4.0874665543024789E-002   1.2193056587887564E-002   3.9014498593022709E-002
  -3.8801290793846213E-002   1.1535895280045783E-002   3.9189096832445480E-002
  -5.1892556272116669E-002   1.5588272545299556E-002   3.4773835583227983E-002
  -4.9625945513081131E-002   1.4915700667952780E-002   3.4321100290755094E-002
  -4.7359334754045593E-002   1.4230692272570036E-002   3.4061475055575996E-002
  -4.5092723995010006E-002   1.3533247359151825E-002   3.3994959877690321E-002
  -4.2826113235974524E-002   1.2823365927697811E-002   3.4121554757098105E-002
  -5.6725027148235851E-002   1.7086393041068237E-002   2.9844209937260890E-002
  -5.4265432284470116E-002   1.6361216363275033E-002   2.9344188559098205E-002
  -5.1805837420704437E-002   1.5623564726390912E-002   2.9037025333102540E-002
  -4.9346242556938730E-002   1.4873438130415886E-002   2.8922720259273407E-002
  -4.6886647693173022E-002   1.4110836575349839E-002   2.9001273337610933E-002
  -3.0858781954800560E-002   8.9609539847416153E-003   4.9165962950720954E-002
  -2.9191996663297748E-002   8.3996104183522435E-003   4.8867758234439174E-002
  -2.7525211371794929E-002   7.8313430352887070E-003   4.8753046926847732E-002
  -2.5858426080292114E-002   7.2561518355513804E-003   4.8821829027946628E-002
  -2.4191640788789298E-002   6.6740368191396948E-003   4.9074104537736085E-002
  -3.4812180366788265E-002   1.0248424632393782E-002   4.4203899563653171E-002
  -3.2968591289246570E-002   9.6348638379354645E-003   4.3856891509046536E-002
  -3.1125002211704847E-002   9.0154234589449739E-003   4.3679997617827454E-002
  -2.9281413134163124E-002   8.3901034954224525E-003   4.3673217889995841E-002
  -2.7437824056621443E-002   7.7589039473676680E-003   4.3836552325551448E-002
  -3.8801290793846213E-002   1.1535895280045783E-002   3.9189096832445480E-002
  -3.6794277175568615E-002   1.0870117257518574E-002   3.8794329671656066E-002
  -3.4787263557290928E-002   1.0199503882601130E-002   3.8556297428951045E-002
  -3.2780249939013295E-002   9.5240551552935246E-003   3.8475000104330470E-002
  -3.0773236320735642E-002   8.8437710755955856E-003   3.8550437697794676E-002
  -4.2826113235974524E-002   1.2823365927697811E-002   3.4121554757098105E-002
  -4.0669054322263809E-002   1.2105370677101907E-002   3.3680072722267640E-002
  -3.8511995408553115E-002   1.1383584306257397E-002   3.3381946360218774E-002
  -3.6354936494842366E-002   1.0658006815164763E-002   3.3227175670951417E-002
  -3.4197877581131714E-002   9.9286382038236420E-003   3.3215760654465513E-002
  -4.6886647693173022E-002   1.4110836575349839E-002   2.9001273337610933E-002
  -4.4592922729332185E-002   1.3340624096685072E-002   2.8514120660881437E-002
  -4.2299197765491431E-002   1.2567664729913636E-002   2.8156944411630414E-002
  -4.0005472801650649E-002   1.1791958475035801E-002   2.7929744589857974E-002
  -3.7711747837809811E-002   1.1013505332051476E-002   2.7832521195564230E-002
  -2.4191640788789298E-002   6.6740368191396948E-003   4.9074104537736085E-002
  -2.2410658016479207E-002   6.0843720296111514E-003   4.8787869852742416E-002
  -2.0629675244169116E-002   5.4865315105228907E-003   4.8665642229561878E-002
  -1.8848692471859010E-002   4.8805152618744060E-003   4.8707421668194445E-002
  -1.7067709699548933E-002   4.2663232836660514E-003   4.8913208168639866E-002
  -2.7437824056621443E-002   7.7589039473676680E-003   4.3836552325551448E-002
  -2.5494633999863757E-002   7.1243415283943623E-003   4.3454777923478016E-002
  -2.3551443943106126E-002   6.4889329521157779E-003   4.3233411028486740E-002
  -2.1608253886348495E-002   5.8526782185320675E-003   4.3172451640577744E-002
  -1.9665063829590809E-002   5.2155773276433282E-003   4.3271899759750765E-002
  -3.0773236320735642E-002   8.8437710755955856E-003   3.8550437697794676E-002
  -2.8671438534261150E-002   8.1643110271774344E-003   3.8080453150896060E-002
  -2.6569640747786671E-002   7.4913343937089011E-003   3.7767276556348900E-002
  -2.4467842961312179E-002   6.8248411751899545E-003   3.7610907914153190E-002
  -2.2366045174837715E-002   6.1648313716205494E-003   3.7611347224308811E-002
  -3.4197877581131714E-002   9.9286382038236420E-003   3.3215760654465513E-002
  -3.1941071619671274E-002   9.2042805259604649E-003   3.2664895534996699E-002
  -2.9684265658210824E-002   8.4937358353020728E-003   3.2267238813148358E-002
  -2.7427459696750374E-002   7.7970041318477842E-003   3.2022790488920601E-002
  -2.5170653735289872E-002   7.1140854155977984E-003   3.1931550562313518E-002
  -3.7711747837809811E-002   1.1013505332051476E-002   2.7832521195564230E-002
  -3.5303533256094172E-002   1.0244250024743717E-002   2.7208105075779754E-002
  -3.2895318674378518E-002   9.4961372768949115E-003   2.6733297798885058E-002
  -3.0487104092662844E-002   8.7691670885055029E-003   2.6408099364880200E-002
  -2.8078889510947197E-002   8.0633394595749364E-003   2.6232509773765122E-002
  -1.7067709699548933E-002   4.2663232836660514E-003   4.8913208168639866E-002
  -1.5124918501339596E-002   3.7058056025697783E-003   4.8786502853775282E-002
  -1.3182127303130259E-002   3.2608122452569277E-003   4.8917495252037146E-002
  -1.1239336104920915E-002   2.9313432117282351E-003   4.9306185363425209E-002
  -9.2965449067115846E-003   2.7173985019824931E-003   4.9952573187939553E-002
  -1.9665063829590809E-002   5.2155773276433282E-003   4.3271899759750765E-002
  -1.7503471530225301E-002   4.6141441731934463E-003   4.3096523594694292E-002
  -1.5341879230859765E-002   4.0848926489265303E-003   4.3101051918823935E-002
  -1.3180286931494253E-002   3.6278227548425246E-003   4.3285484732139765E-002
  -1.1018694632128720E-002   3.2429344909409297E-003   4.3649822034641184E-002
  -2.2366045174837715E-002   6.1648313716205494E-003   3.7611347224308811E-002
  -2.0063444998256290E-002   5.5224827438170310E-003   3.7343957515459575E-002
  -1.7760844821674861E-002   4.9089730525957720E-003   3.7178679071856124E-002
  -1.5458244645093438E-002   4.3243022979566961E-003   3.7115511893498807E-002
  -1.3155644468511953E-002   3.7684704798996438E-003   3.7154455980387108E-002
  -2.5170653735289872E-002   7.1140854155977984E-003   3.1931550562313518E-002
  -2.2804838905432733E-002   6.4308213144408238E-003   3.1528804616070882E-002
  -2.0439024075575535E-002   5.7330534562651386E-003   3.1150376711133798E-002
  -1.8073209245718317E-002   5.0207818410709822E-003   3.0796266847502373E-002
  -1.5707394415861144E-002   4.2940064688582746E-003   3.0466475025176513E-002
  -2.8078889510947197E-002   8.0633394595749364E-003   2.6232509773765122E-002
  -2.5727653251754468E-002   7.3391598850641726E-003   2.5651064896528242E-002
  -2.3376416992561808E-002   6.5571338599346163E-003   2.5016144836656706E-002
  -2.1025180733369113E-002   5.7172613841852682E-003   2.4327749594150544E-002
  -1.8673944474176418E-002   4.8195424578167945E-003   2.3585879169009893E-002
  -9.2965449067115846E-003   2.7173985019824931E-003   4.9952573187939553E-002
  -7.8735950586006909E-003   2.8646503320743921E-003   5.0356800049796147E-002
  -6.4506452104897832E-003   3.6187709180579286E-003   5.1088041450208510E-002
  -5.0276953623788825E-003   4.9797602599329013E-003   5.2146297389176671E-002
  -3.6047455142679818E-003   6.9476183576986372E-003   5.3531567866700325E-002
  -1.1018694632128720E-002   3.2429344909409297E-003   4.3649822034641184E-002
  -9.2505390965352541E-003   3.1693511597932211E-003   4.4236088430066101E-002
  -7.4823835609418229E-003   3.6461960639685709E-003   4.5185751661900198E-002
  -5.7142280253483432E-003   4.6734692034672634E-003   4.6498811730143780E-002
  -3.9460724897549260E-003   6.2511705782891669E-003   4.8175268634796486E-002
  -1.3155644468511953E-002   3.7684704798996438E-003   3.7154455980387108E-002
  -1.1005900947582324E-002   3.4740519875114950E-003   3.7866321388812074E-002
  -8.8561574266526159E-003   3.6736212098787829E-003   3.8977965931500061E-002
  -6.7064139057229338E-003   4.3671781470014069E-003   4.0489389608451089E-002
  -4.5566703847932238E-003   5.5547227988796966E-003   4.2400592419665428E-002
  -1.5707394415861144E-002   4.2940064688582746E-003   3.0466475025176513E-002
  -1.3139680611741637E-002   3.7787528152298244E-003   3.1247498926033880E-002
  -1.0571966807622100E-002   3.7010463557893211E-003   3.2464684259007726E-002
  -8.0042530035025206E-003   4.0608870905359928E-003   3.4118031024098584E-002
  -5.4365391993829969E-003   4.8582750194702262E-003   3.6207539221305693E-002
  -1.8673944474176418E-002   4.8195424578167945E-003   2.3585879169009893E-002
  -1.5651878089013388E-002   4.0834536429485424E-003   2.4379621041731636E-002
  -1.2629811703850302E-002   3.7284715016998315E-003   2.5645906644423511E-002
  -9.6077453186872580E-003   3.7545960340701276E-003   2.7384735977085795E-002
  -6.5856789335241861E-003   4.1618272400606449E-003   2.9596109039718432E-002
  -3.6047455142679818E-003   6.9476183576986372E-003   5.3531567866700325E-002
  -4.1559746352368143E-003   9.5372082003866154E-003   5.1859279472034614E-002
  -4.7072037562056468E-003   1.2763392777026095E-002   5.0041555581621266E-002
  -5.2584328771744931E-003   1.6626172087617574E-002   4.8078396195460504E-002
  -5.8096619981433117E-003   2.1125546132161332E-002   4.5969801313551439E-002
  -3.9460724897549260E-003   6.2511705782891669E-003   4.8175268634796486E-002
  -4.5388913385195628E-003   8.6889561131575088E-003   4.7240722497891852E-002
  -5.1317101872841303E-003   1.2296481732795350E-002   4.6368432401143689E-002
  -5.7245290360487984E-003   1.7073747437201983E-002   4.5558398344551332E-002
  -6.3173478848132791E-003   2.3020753226378199E-002   4.4810620328115114E-002
  -4.5566703847932238E-003   5.5547227988796966E-003   4.2400592419665428E-002
  -4.9833874254498790E-003   7.8407040259289573E-003   4.2736933891338758E-002
  -5.4101044661064718E-003   1.1829570688564717E-002   4.3343222939072362E-002
  -5.8368215067631062E-003   1.7521322786786558E-002   4.4219459562865784E-002
  -6.2635385474197197E-003   2.4915960320595065E-002   4.5365643762718899E-002
  -5.4365391993829969E-003   4.8582750194702262E-003   3.6207539221305693E-002
  -5.4894628960278297E-003   6.9924519387004613E-003   3.8347913652374790E-002
  -5.5423865926726053E-003   1.1362659644333695E-002   4.0965927195407731E-002
  -5.5953102893174502E-003   1.7968898136371050E-002   4.4061579850404591E-002
  -5.6482339859621582E-003   2.6811167414811932E-002   4.7634871617364960E-002
  -6.5856789335241861E-003   4.1618272400606449E-003   2.9596109039718432E-002
  -6.0571177502534157E-003   6.1441998514715213E-003   3.4073661781000353E-002
  -5.5285565669825898E-003   1.0895748600103256E-002   3.9236545170149684E-002
  -4.9999953837118472E-003   1.8416473485955299E-002   4.5084759207166675E-002
  -4.4714342004410490E-003   2.8706374509028798E-002   5.1618303892051021E-002
  -8.0153555587885561E-002   2.7461596478517480E-002   3.6372789958453167E-002
  -7.6604025130450615E-002   2.4695518153972640E-002   3.3763306276169747E-002
  -7.3054494673015780E-002   2.2518604822221233E-002   3.2056406361592460E-002
  -6.9504964215580875E-002   2.0930856483263344E-002   3.1252090214721084E-002
  -6.5955433758145970E-002   1.9932273137098833E-002   3.1350357835555676E-002
  -8.7530030131995340E-002   2.2963042415292512E-002   1.5378605748979424E-002
  -8.3546141535444499E-002   2.2830552002655186E-002   1.6932685461390734E-002
  -7.9562252938893852E-002   2.2509472898928767E-002   1.8452897684327452E-002
  -7.5578364342343135E-002   2.1999805104113056E-002   1.9939242417789799E-002
  -7.1594475745792405E-002   2.1301548618208127E-002   2.1391719661777747E-002
  -9.0475003803672169E-002   1.8464488352067487E-002  -2.5931137066453058E-003
  -8.6993208325186089E-002   2.0965585851337620E-002   2.3467757165778480E-003
  -8.3511412846700023E-002   2.2500340975636191E-002   6.3163463931461550E-003
  -8.0029617368214012E-002   2.3068753724962768E-002   9.3155983230594763E-003
  -7.6547821889727946E-002   2.2670824099317449E-002   1.1344531506318187E-002
  -8.8988476602916602E-002   1.3965934288842519E-002  -1.7542368408421188E-002
  -8.6945225499675621E-002   1.9100619700020277E-002  -9.9944229582687449E-003
  -8.4901974396434557E-002   2.2491209052343641E-002  -4.3532475119516800E-003
  -8.2858723293193492E-002   2.4137702345812424E-002  -6.1884206946973084E-004
  -8.0815472189952484E-002   2.4040099580426535E-002   1.2087933691767687E-003
  -8.3070448529728225E-002   9.4673802256175499E-003  -2.9469158356348224E-002
  -8.3402193058912610E-002   1.7235653548702712E-002  -2.0090910563149100E-002
  -8.3733937588097107E-002   2.2482077129051231E-002  -1.3555884030965887E-002
  -8.4065682117281548E-002   2.5206650966662185E-002  -9.8640787597983129E-003
  -8.4397426646465989E-002   2.5409375061535955E-002  -9.0154947496461912E-003
  -6.5955433758145970E-002   1.9932273137098833E-002   3.1350357835555676E-002
  -6.3647832105668434E-002   1.9226404993771151E-002   3.0549295797444004E-002
  -6.1340230453190925E-002   1.8516802263323556E-002   3.0031250468357695E-002
  -5.9032628800713388E-002   1.7803464945755861E-002   2.9796221848296653E-002
  -5.6725027148235851E-002   1.7086393041068237E-002   2.9844209937260890E-002
  -7.1594475745792405E-002   2.1301548618208127E-002   2.1391719661777747E-002
  -6.9062546255576576E-002   2.0518347418017641E-002   2.1225146933789157E-002
  -6.6530616765360734E-002   1.9753845480345443E-002   2.1224213172252079E-002
  -6.3998687275144836E-002   1.9008042805191187E-002   2.1388918377166069E-002
  -6.1466757784929021E-002   1.8280939392555096E-002   2.1719262548531598E-002
  -7.6547821889727946E-002   2.2670824099317449E-002   1.1344531506318187E-002
  -7.3908942304347705E-002   2.1810289842264241E-002   1.1834881938090812E-002
  -7.1270062718967464E-002   2.0990888697367330E-002   1.2373493593740764E-002
  -6.8631183133587265E-002   2.0212620664626677E-002   1.2960366473268141E-002
  -6.5992303548206996E-002   1.9475485744041982E-002   1.3595500576672845E-002
  -8.0815472189952484E-002   2.4040099580426535E-002   1.2087933691767687E-003
  -7.8187020251981820E-002   2.3102232266510925E-002   2.3785008103487416E-003
  -7.5558568314011199E-002   2.2227931914389161E-002   3.4790917328237532E-003
  -7.2930116376040521E-002   2.1417198524061973E-002   4.5105661366026360E-003
  -7.0301664438069900E-002   2.0670032095528604E-002   5.4729240216846338E-003
  -8.4397426646465989E-002   2.5409375061535955E-002  -9.0154947496461912E-003
  -8.1896780098478950E-002   2.4394174690757497E-002  -7.1439964494369734E-003
  -7.9396133550491799E-002   2.3464975131411242E-002  -5.4589924104987558E-003
  -7.6895487002504648E-002   2.2621776383497473E-002  -3.9604826328307509E-003
  -7.4394840454517608E-002   2.1864578447015726E-002  -2.6484671164330731E-003
  -5.6725027148235851E-002   1.7086393041068237E-002   2.9844209937260890E-002
  -5.4265432284470116E-002   1.6361216363275033E-002   2.9344188559098205E-002
  -5.1805837420704437E-002   1.5623564726390912E-002   2.9037025333102540E-002
  -4.9346242556938730E-002   1.4873438130415886E-002   2.8922720259273407E-002
  -4.6886647693173022E-002   1.4110836575349839E-002   2.9001273337610933E-002
  -6.1466757784929021E-002   1.8280939392555096E-002   2.1719262548531598E-002
  -5.8827567160986041E-002   1.7551475697699548E-002   2.1404216258770759E-002
  -5.6188376537043061E-002   1.6798592175887264E-002   2.1255503337197584E-002
  -5.3549185913100088E-002   1.6022288827118054E-002   2.1273123783812131E-002
  -5.0909995289157114E-002   1.5222565651392239E-002   2.1457077598614538E-002
  -6.5992303548206996E-002   1.9475485744041982E-002   1.3595500576672845E-002
  -6.3200041948065805E-002   1.8741735032123952E-002   1.3454484507447809E-002
  -6.0407780347924558E-002   1.7973619625383512E-002   1.3453277022431771E-002
  -5.7615518747783374E-002   1.7171139523820225E-002   1.3591878121624181E-002
  -5.4823257147642121E-002   1.6334294727434473E-002   1.3870287805025278E-002
  -7.0301664438069900E-002   2.0670032095528604E-002   5.4729240216846338E-003
  -6.7382856645709491E-002   1.9931994366548578E-002   5.4949933051296196E-003
  -6.4464048853348957E-002   1.9148647074879756E-002   5.6303463888043911E-003
  -6.1545241060988472E-002   1.8319990220522615E-002   5.8789832727089647E-003
  -5.8626433268628028E-002   1.7446023803476679E-002   6.2409039568431662E-003
  -7.4394840454517608E-002   2.1864578447015726E-002  -2.6484671164330731E-003
  -7.1376011253916904E-002   2.1122253700972926E-002  -2.4742573481839614E-003
  -6.8357182053316201E-002   2.0323674524376167E-002  -2.2132885636837463E-003
  -6.5338352852715498E-002   1.9468840917224603E-002  -1.8655607629329829E-003
  -6.2319523652114794E-002   1.8557752879519107E-002  -1.4310739459316713E-003
  -4.6886647693173022E-002   1.4110836575349839E-002   2.9001273337610933E-002
  -4.4592922729332185E-002   1.3340624096685072E-002   2.8514120660881437E-002
  -4.2299197765491431E-002   1.2567664729913636E-002   2.8156944411630414E-002
  -4.0005472801650649E-002   1.1791958475035801E-002   2.7929744589857974E-002
  -3.7711747837809811E-002   1.1013505332051476E-002   2.7832521195564230E-002
  -5.0909995289157114E-002   1.5222565651392239E-002   2.1457077598614538E-002
  -4.8476669072774481E-002   1.4417370822378955E-002   2.1094500300585128E-002
  -4.6043342856391785E-002   1.3624652513747615E-002   2.0881149080160616E-002
  -4.3610016640009130E-002   1.2844410725498592E-002   2.0817023937341278E-002
  -4.1176690423626455E-002   1.2076645457631763E-002   2.0902124872127059E-002
  -5.4823257147642121E-002   1.6334294727434473E-002   1.3870287805025278E-002
  -5.2231080028591156E-002   1.5494117548072811E-002   1.3647509294184706E-002
  -4.9638902909540185E-002   1.4681640297581941E-002   1.3593206511075331E-002
  -4.7046725790489199E-002   1.3896862975961332E-002   1.3707379455697749E-002
  -4.4454548671438242E-002   1.3139785583211938E-002   1.3990028128051557E-002
  -5.8626433268628028E-002   1.7446023803476679E-002   6.2409039568431662E-003
  -5.5856155596782323E-002   1.6570864273766570E-002   6.1731476416799040E-003
  -5.3085877924936589E-002   1.5738628081415372E-002   6.2931167043747127E-003
  -5.0315600253090849E-002   1.4949315226424320E-002   6.6008111449271465E-003
  -4.7545322581245143E-002   1.4202925708792336E-002   7.0962309633381543E-003
  -6.2319523652114794E-002   1.8557752879519107E-002  -1.4310739459316713E-003
  -5.9351895777348007E-002   1.7647610999460439E-002  -1.3285846569287552E-003
  -5.6384267902580998E-002   1.6795615865249913E-002  -1.0191203399416149E-003
  -5.3416640027814044E-002   1.6001767476887002E-002  -5.0268099497018104E-004
  -5.0449012153047201E-002   1.5266065834372400E-002   2.2073337798600434E-004
  -3.7711747837809811E-002   1.1013505332051476E-002   2.7832521195564230E-002
  -3.5303533256094172E-002   1.0244250024743717E-002   2.7208105075779754E-002
  -3.2895318674378518E-002   9.4961372768949115E-003   2.6733297798885058E-002
  -3.0487104092662844E-002   8.7691670885055029E-003   2.6408099364880200E-002
  -2.8078889510947197E-002   8.0633394595749364E-003   2.6232509773765122E-002
  -4.1176690423626455E-002   1.2076645457631763E-002   2.0902124872127059E-002
  -3.8640946552169722E-002   1.1315884256652420E-002   2.0454050623624653E-002
  -3.6105202680713031E-002   1.0556654669065857E-002   2.0111426111714598E-002
  -3.3569458809256263E-002   9.7989566948721851E-003   1.9874251336396948E-002
  -3.1033714937799550E-002   9.0427903340711824E-003   1.9742526297671426E-002
  -4.4454548671438242E-002   1.3139785583211938E-002   1.3990028128051557E-002
  -4.1835434616537930E-002   1.2387518488561233E-002   1.3698684804764938E-002
  -3.9216320561637624E-002   1.1617172061236580E-002   1.3468632111773626E-002
  -3.6597206506737243E-002   1.0828746301238645E-002   1.3299870049076346E-002
  -3.3978092451836923E-002   1.0022241208567484E-002   1.3192398616674372E-002
  -4.7545322581245143E-002   1.4202925708792336E-002   7.0962309633381543E-003
  -4.4886997449198648E-002   1.3459152720470158E-002   6.9420076192008365E-003
  -4.2228672317152209E-002   1.2677689453407637E-002   6.8049157990607151E-003
  -3.9570347185105777E-002   1.1858535907605772E-002   6.6849555029183313E-003
  -3.6912022053059275E-002   1.1001692083063425E-002   6.5821267307733800E-003
  -5.0449012153047201E-002   1.5266065834372400E-002   2.2073337798600434E-004
  -4.7795635050152052E-002   1.4530786952378416E-002   1.8401906693193970E-004
  -4.5142257947256959E-002   1.3738206845578582E-002   1.2027717357768197E-004
  -4.2488880844361865E-002   1.2888325513972149E-002   2.9507697922960541E-005
  -3.9835503741466716E-002   1.1981142957560031E-002  -8.8289360031135189E-005
  -2.8078889510947197E-002   8.0633394595749364E-003   2.6232509773765122E-002
  -2.5727653251754468E-002   7.3391598850641726E-003   2.5651064896528242E-002
  -2.3376416992561808E-002   6.5571338599346163E-003   2.5016144836656706E-002
  -2.1025180733369113E-002   5.7172613841852682E-003   2.4327749594150544E-002
  -1.8673944474176418E-002   4.8195424578167945E-003   2.3585879169009893E-002
  -3.1033714937799550E-002   9.0427903340711824E-003   1.9742526297671426E-002
  -2.8719151043833033E-002   8.2868890715472876E-003   1.9158908216929171E-002
  -2.6404587149866404E-002   7.5299863921844956E-003   1.8555420588369009E-002
  -2.4090023255899859E-002   6.7720822959826676E-003   1.7932063411991342E-002
  -2.1775459361933258E-002   6.0131767829424421E-003   1.7288836687795850E-002
  -3.3978092451836923E-002   1.0022241208567484E-002   1.3192398616674372E-002
  -3.1666595288279545E-002   9.2346182580297920E-003   1.2663452366206807E-002
  -2.9355098124722170E-002   8.5028389244340419E-003   1.2148242202738579E-002
  -2.7043600961164704E-002   7.8269032077801781E-003   1.1646768126269476E-002
  -2.4732103797607360E-002   7.2068111080680897E-003   1.1159030136799947E-002
  -3.6912022053059275E-002   1.1001692083063425E-002   6.5821267307733800E-003
  -3.4569985985094108E-002   1.0182347444512935E-002   6.1646973443610920E-003
  -3.2227949917128913E-002   9.4756914566841988E-003   5.7946096797655208E-003
  -2.9885913849163743E-002   8.8817241195778551E-003   5.4718637369859310E-003
  -2.7543877781198555E-002   8.4004454331932932E-003   5.1964595160229055E-003
  -3.9835503741466716E-002   1.1981142957560031E-002  -8.8289360031135189E-005
  -3.7429323134276826E-002   1.1130076630995633E-002  -3.3735684860730641E-004
  -3.5023142527086826E-002   1.0448543988933301E-002  -5.0547698055022905E-004
  -3.2616961919896825E-002   9.9365450313749909E-003  -5.9264975585995167E-004
  -3.0210781312706936E-002   9.5940797583191628E-003  -5.9887517453649508E-004
  -1.8673944474176418E-002   4.8195424578167945E-003   2.3585879169009893E-002
  -1.5651878089013388E-002   4.0834536429485424E-003   2.4379621041731636E-002
  -1.2629811703850302E-002   3.7284715016998315E-003   2.5645906644423511E-002
  -9.6077453186872580E-003   3.7545960340701276E-003   2.7384735977085795E-002
  -6.5856789335241861E-003   4.1618272400606449E-003   2.9596109039718432E-002
  -2.1775459361933258E-002   6.0131767829424421E-003   1.7288836687795850E-002
  -1.8549905607051637E-002   5.3455080861460891E-003   1.8240683513821798E-002
  -1.5324351852170043E-002   4.8613144386775164E-003   1.9126961349314825E-002
  -1.2098798097288435E-002   4.5605958405358568E-003   1.9947670194274333E-002
  -8.8732443424069385E-003   4.4433522917222135E-003   2.0702810048700671E-002
  -2.4732103797607360E-002   7.2068111080680897E-003   1.1159030136799947E-002
  -2.1841175393510714E-002   6.6075625293441076E-003   1.2071350291838451E-002
  -1.8950246989414131E-002   5.9941573756553262E-003   1.2379988735839911E-002
  -1.6059318585317537E-002   5.3665956470015895E-003   1.2084945468804502E-002
  -1.3168390181220957E-002   4.7248773433831714E-003   1.1186220490732562E-002
  -2.7543877781198555E-002   8.4004454331932932E-003   5.1964595160229055E-003
  -2.5525687448390497E-002   7.8696169725421677E-003   5.8716213757811012E-003
  -2.3507497115582539E-002   7.1270003126336842E-003   5.4049888039989190E-003
  -2.1489306782774567E-002   6.1725954534675425E-003   3.7965618006764994E-003
  -1.9471116449966533E-002   5.0064023950441017E-003   1.0463403658136292E-003
  -3.0210781312706936E-002   9.5940797583191628E-003  -5.9887517453649508E-004
  -2.9603441771691053E-002   9.1316714157394507E-003  -3.5850323435027143E-004
  -2.8996102230675280E-002   8.2598432496107654E-003  -1.7980384462079335E-003
  -2.8388762689659480E-002   6.9785952599327045E-003  -4.9174808101100573E-003
  -2.7781423148643625E-002   5.2879274467056980E-003  -9.7168303260556366E-003
  -6.5856789335241861E-003   4.1618272400606449E-003   2.9596109039718432E-002
  -6.0571177502534157E-003   6.1441998514715213E-003   3.4073661781000353E-002
  -5.5285565669825898E-003   1.0895748600103256E-002   3.9236545170149684E-002
  -4.9999953837118472E-003   1.8416473485955299E-002   4.5084759207166675E-002
  -4.4714342004410490E-003   2.8706374509028798E-002   5.1618303892051021E-002
  -8.8732443424069385E-003   4.4433522917222135E-003   2.0702810048700671E-002
  -7.5870429088331914E-003   5.6596794338446554E-003   2.5871513197370188E-002
  -6.3008414752595554E-003   9.3596729085140828E-003   3.1870166198777916E-002
  -5.0146400416858916E-003   1.5543332715729816E-002   3.8698769052923798E-002
  -3.7284386081122833E-003   2.4210658855491785E-002   4.6357321759808112E-002
  -1.3168390181220957E-002   4.7248773433831714E-003   1.1186220490732562E-002
  -1.0979929292473725E-002   5.1751590162184558E-003   1.6760564242115195E-002
  -8.7914684037265212E-003   7.8235972169248963E-003   2.3309477051106323E-002
  -6.6030075149791714E-003   1.2670191945504217E-002   3.0832958917707383E-002
  -4.4145466262320854E-003   1.9714943201954771E-002   3.9331009841916398E-002
  -1.9471116449966533E-002   5.0064023950441017E-003   1.0463403658136292E-003
  -1.6235776901175066E-002   4.6906385985914789E-003   6.7408149152348024E-003
  -1.3000437352383591E-002   6.2875215253363828E-003   1.3554477727135878E-002
  -9.7650978035921047E-003   9.7970511752781212E-003   2.1487328801515902E-002
  -6.5297582548006494E-003   1.5219227548417757E-002   3.0539368138376183E-002
  -2.7781423148643625E-002   5.2879274467056980E-003  -9.7168303260556366E-003
  -2.3354585734937205E-002   4.2061181809656123E-003  -4.1877347832700029E-003
  -1.8927748321230731E-002   4.7514458337467591E-003   2.6051682268648235E-003
  -1.4500910907524089E-002   6.9239104050529687E-003   1.0661878704351084E-002
  -1.0074073493817837E-002   1.0723511894880744E-002   1.9982396649187439E-002
 </DataArray>
 </PointData>
 </Piece>
 </UnstructuredGrid>
 </VTKFile>
